    1C
    1UUSER                                                              
    1UDATE              01.july.2020                                    
    1UTIME              22:56:10                                        
    1UHOST                                                              
    1UPGM               CalculiX                                        
    1UVERSION           Version 2.15                             
    1UCOMPILETIME       Sa 15. Dez 15:34:34 CET 2018                    
    1UDIR                                                               
    1UDBN                                                               
    1UMAT    1STEEL                                                     
    2C                          3049                                     1
 -1         1 9.49219E+01 0.00000E+00 0.00000E+00
 -1         2 9.33594E+01 0.00000E+00 0.00000E+00
 -1         3 9.41956E+01 1.47888E+00 0.00000E+00
 -1         4 9.28284E+01 1.38916E+00 0.00000E+00
 -1         5 9.21875E+01 0.00000E+00 0.00000E+00
 -1         6 9.10156E+01 0.00000E+00 0.00000E+00
 -1         7 8.94531E+01 0.00000E+00 0.00000E+00
 -1         8 8.94440E+01 1.96777E+00 0.00000E+00
 -1         9 8.82812E+01 0.00000E+00 0.00000E+00
 -1        10 8.71094E+01 0.00000E+00 0.00000E+00
 -1        11 8.64258E+01 1.01562E+00 0.00000E+00
 -1        12 8.55469E+01 0.00000E+00 0.00000E+00
 -1        13 8.46680E+01 1.14258E+00 0.00000E+00
 -1        14 8.43750E+01 0.00000E+00 0.00000E+00
 -1        15 8.32031E+01 0.00000E+00 0.00000E+00
 -1        16 8.34167E+01 2.05200E+00 0.00000E+00
 -1        17 8.16406E+01 0.00000E+00 0.00000E+00
 -1        18 8.15796E+01 1.22803E+00 0.00000E+00
 -1        19 0.00000E+00 8.43750E+00 0.00000E+00
 -1        20 0.00000E+00 9.84375E+00 4.68750E-01
 -1        21 1.17188E+00 1.00000E+01 0.00000E+00
 -1        22 0.00000E+00 1.25000E+00 0.00000E+00
 -1        23 9.76562E-01 9.17969E-01 0.00000E+00
 -1        24 1.95312E-01 1.56250E-01 1.56250E-01
 -1        25 1.95312E+00 0.00000E+00 0.00000E+00
 -1        26 8.00781E+01 0.00000E+00 0.00000E+00
 -1        27 7.99072E+01 1.24512E+00 0.00000E+00
 -1        28 8.08960E+01 2.60925E+00 0.00000E+00
 -1        29 7.94922E+01 2.30103E+00 0.00000E+00
 -1        30 7.85156E+01 0.00000E+00 0.00000E+00
 -1        31 7.87598E+01 1.31836E+00 0.00000E+00
 -1        32 7.75879E+01 1.39160E+00 0.00000E+00
 -1        33 7.79297E+01 2.45239E+00 0.00000E+00
 -1        34 7.69531E+01 0.00000E+00 0.00000E+00
 -1        35 7.60254E+01 1.48926E+00 0.00000E+00
 -1        36 7.67578E+01 2.56592E+00 0.00000E+00
 -1        37 7.57812E+01 0.00000E+00 0.00000E+00
 -1        38 7.56104E+01 3.15186E+00 0.00000E+00
 -1        39 7.46094E+01 0.00000E+00 0.00000E+00
 -1        40 7.44629E+01 1.58691E+00 0.00000E+00
 -1        41 7.40234E+01 2.83081E+00 0.00000E+00
 -1        42 7.30469E+01 0.00000E+00 0.00000E+00
 -1        43 7.29004E+01 1.68457E+00 0.00000E+00
 -1        44 7.24854E+01 3.43506E+00 0.00000E+00
 -1        45 7.14844E+01 0.00000E+00 0.00000E+00
 -1        46 7.13379E+01 1.78223E+00 0.00000E+00
 -1        47 7.08984E+01 3.13354E+00 0.00000E+00
 -1        48 0.00000E+00 2.65625E+00 0.00000E+00
 -1        49 6.99219E+01 0.00000E+00 0.00000E+00
 -1        50 6.97754E+01 1.87988E+00 0.00000E+00
 -1        51 6.91040E+01 3.00659E+00 0.00000E+00
 -1        52 6.87500E+01 0.00000E+00 0.00000E+00
 -1        53 6.85547E+01 1.56250E+00 0.00000E+00
 -1        54 6.75781E+01 0.00000E+00 0.00000E+00
 -1        55 6.73828E+01 1.62109E+00 0.00000E+00
 -1        56 6.79382E+01 3.55988E+00 0.00000E+00
 -1        57 1.70898E+00 8.40820E+00 0.00000E+00
 -1        58 2.73438E+00 1.00000E+01 0.00000E+00
 -1        59 6.60156E+01 0.00000E+00 0.00000E+00
 -1        60 6.59912E+01 2.43896E+00 0.00000E+00
 -1        61 6.66626E+01 3.90991E+00 0.00000E+00
 -1        62 6.51855E+01 1.29883E+00 0.00000E+00
 -1        63 6.54297E+01 3.66333E+00 0.00000E+00
 -1        64 6.44531E+01 0.00000E+00 0.00000E+00
 -1        65 6.46484E+01 2.97852E+00 0.00000E+00
 -1        66 6.37695E+01 8.98438E-01 0.00000E+00
 -1        67 6.36230E+01 2.49390E+00 0.00000E+00
 -1        68 6.37939E+01 4.12170E+00 0.00000E+00
 -1        69 6.32812E+01 0.00000E+00 0.00000E+00
 -1        70 0.00000E+00 7.18750E+00 0.00000E+00
 -1        71 6.20605E+01 1.29761E+00 0.00000E+00
 -1        72 6.21094E+01 0.00000E+00 0.00000E+00
 -1        73 6.22803E+01 2.94067E+00 0.00000E+00
 -1        74 6.22314E+01 4.26575E+00 0.00000E+00
 -1        75 6.05957E+01 1.34521E+00 0.00000E+00
 -1        76 6.05469E+01 0.00000E+00 0.00000E+00
 -1        77 6.11084E+01 3.03223E+00 0.00000E+00
 -1        78 6.05225E+01 4.02191E+00 0.00000E+00
 -1        79 5.96436E+01 2.38403E+00 0.00000E+00
 -1        80 5.94849E+01 1.13159E+00 0.00000E+00
 -1        81 5.89844E+01 0.00000E+00 0.00000E+00
 -1        82 5.89050E+01 3.26782E+00 0.00000E+00
 -1        83 5.94971E+01 4.51782E+00 0.00000E+00
 -1        84 5.84473E+01 1.55029E+00 0.00000E+00
 -1        85 5.83252E+01 4.62585E+00 0.00000E+00
 -1        86 3.17383E+00 9.07715E+00 0.00000E+00
 -1        87 5.74219E+01 0.00000E+00 0.00000E+00
 -1        88 5.72510E+01 2.39502E+00 0.00000E+00
 -1        89 5.73486E+01 3.45947E+00 0.00000E+00
 -1        90 5.67627E+01 1.34277E+00 0.00000E+00
 -1        91 5.71533E+01 4.73389E+00 0.00000E+00
 -1        92 5.62500E+01 0.00000E+00 0.00000E+00
 -1        93 5.55542E+01 2.63123E+00 0.00000E+00
 -1        94 5.59082E+01 3.85498E+00 0.00000E+00
 -1        95 1.41602E+00 1.98242E+00 0.00000E+00
 -1        96 2.61841E+00 1.33301E+00 0.00000E+00
 -1        97 5.50781E+01 0.00000E+00 0.00000E+00
 -1        98 5.44312E+01 1.55884E+00 0.00000E+00
 -1        99 5.41260E+01 2.57080E+00 0.00000E+00
 -1       100 5.44556E+01 4.12231E+00 0.00000E+00
 -1       101 5.35156E+01 0.00000E+00 0.00000E+00
 -1       102 5.28564E+01 1.46484E+00 0.00000E+00
 -1       103 5.29541E+01 2.63672E+00 0.00000E+00
 -1       104 5.25024E+01 4.30298E+00 0.00000E+00
 -1       105 5.35156E+01 4.64844E+00 0.00000E+00
 -1       106 5.19531E+01 0.00000E+00 0.00000E+00
 -1       107 5.17456E+01 2.25220E+00 0.00000E+00
 -1       108 5.12451E+01 9.08203E-01 0.00000E+00
 -1       109 5.12207E+01 4.26514E+00 0.00000E+00
 -1       110 5.04517E+01 2.00317E+00 0.00000E+00
 -1       111 5.03906E+01 0.00000E+00 0.00000E+00
 -1       112 5.02930E+01 3.72314E+00 0.00000E+00
 -1       113 4.98291E+01 2.81250E+00 0.00000E+00
 -1       114 4.98291E+01 5.33203E+00 0.00000E+00
 -1       115 4.87366E+01 1.35315E+00 0.00000E+00
 -1       116 4.88281E+01 0.00000E+00 0.00000E+00
 -1       117 4.86572E+01 2.87842E+00 0.00000E+00
 -1       118 4.87549E+01 4.15771E+00 0.00000E+00
 -1       119 1.43127E+00 6.33148E+00 0.00000E+00
 -1       120 0.00000E+00 5.46875E+00 0.00000E+00
 -1       121 4.78760E+01 5.51270E+00 0.00000E+00
 -1       122 4.73877E+01 1.63574E+00 0.00000E+00
 -1       123 4.72656E+01 0.00000E+00 0.00000E+00
 -1       124 4.70947E+01 2.96631E+00 0.00000E+00
 -1       125 4.71924E+01 4.28467E+00 0.00000E+00
 -1       126 4.62646E+01 5.03418E+00 0.00000E+00
 -1       127 4.57520E+01 2.02393E+00 0.00000E+00
 -1       128 4.61670E+01 1.00342E+00 0.00000E+00
 -1       129 4.57031E+01 0.00000E+00 0.00000E+00
 -1       130 1.32446E+00 3.32031E+00 0.00000E+00
 -1       131 0.00000E+00 4.06250E+00 0.00000E+00
 -1       132 4.59717E+01 3.70605E+00 0.00000E+00
 -1       133 4.47510E+01 3.09814E+00 0.00000E+00
 -1       134 4.52393E+01 4.44336E+00 0.00000E+00
 -1       135 4.55444E+01 5.87769E+00 0.00000E+00
 -1       136 4.42871E+01 2.08008E+00 0.00000E+00
 -1       137 4.46045E+01 1.03271E+00 0.00000E+00
 -1       138 4.45312E+01 0.00000E+00 0.00000E+00
 -1       139 4.40674E+01 4.53857E+00 0.00000E+00
 -1       140 4.41772E+01 5.99976E+00 0.00000E+00
 -1       141 2.72026E+00 6.83029E+00 0.00000E+00
 -1       142 2.92969E+00 8.03711E+00 0.00000E+00
 -1       143 4.29688E+00 1.00000E+01 0.00000E+00
 -1       144 4.34326E+01 1.05469E+00 0.00000E+00
 -1       145 4.33594E+01 0.00000E+00 0.00000E+00
 -1       146 4.31885E+01 3.18604E+00 0.00000E+00
 -1       147 4.31152E+01 2.12402E+00 0.00000E+00
 -1       148 4.24805E+01 4.30664E+00 0.00000E+00
 -1       149 4.28467E+01 5.26611E+00 0.00000E+00
 -1       150 4.19312E+01 1.98853E+00 0.00000E+00
 -1       151 4.21875E+01 0.00000E+00 0.00000E+00
 -1       152 4.20166E+01 3.25195E+00 0.00000E+00
 -1       153 4.16748E+01 5.37415E+00 0.00000E+00
 -1       154 4.10156E+01 0.00000E+00 0.00000E+00
 -1       155 4.08203E+01 2.94922E+00 0.00000E+00
 -1       156 4.08936E+01 4.05518E+00 0.00000E+00
 -1       157 2.33154E+00 2.77344E+00 0.00000E+00
 -1       158 3.12500E+00 0.00000E+00 0.00000E+00
 -1       159 4.07471E+01 1.84326E+00 0.00000E+00
 -1       160 4.05029E+01 5.48218E+00 0.00000E+00
 -1       161 3.95752E+01 1.87988E+00 0.00000E+00
 -1       162 3.94531E+01 0.00000E+00 0.00000E+00
 -1       163 3.96729E+01 3.38379E+00 0.00000E+00
 -1       164 3.97461E+01 4.51172E+00 0.00000E+00
 -1       165 3.94775E+01 5.97809E+00 0.00000E+00
 -1       166 3.87207E+01 7.61719E-01 0.00000E+00
 -1       167 3.84766E+01 3.06641E+00 0.00000E+00
 -1       168 3.85498E+01 4.21631E+00 0.00000E+00
 -1       169 3.80127E+01 1.92871E+00 0.00000E+00
 -1       170 3.78906E+01 0.00000E+00 0.00000E+00
 -1       171 3.81592E+01 5.69824E+00 0.00000E+00
 -1       172 3.73047E+01 3.12500E+00 0.00000E+00
 -1       173 3.69995E+01 4.52148E+00 0.00000E+00
 -1       174 3.69873E+01 5.80627E+00 0.00000E+00
 -1       175 3.66455E+01 1.97266E+00 0.00000E+00
 -1       176 3.63281E+01 0.00000E+00 0.00000E+00
 -1       177 3.61572E+01 3.58154E+00 0.00000E+00
 -1       178 3.56445E+01 1.60156E+00 0.00000E+00
 -1       179 3.54980E+01 5.53711E+00 0.00000E+00
 -1       180 3.47412E+01 2.84668E+00 0.00000E+00
 -1       181 3.46436E+01 1.22070E+00 0.00000E+00
 -1       182 3.47656E+01 0.00000E+00 0.00000E+00
 -1       183 3.50098E+01 4.05273E+00 0.00000E+00
 -1       184 3.38379E+01 4.12598E+00 0.00000E+00
 -1       185 3.40088E+01 5.25146E+00 0.00000E+00
 -1       186 3.45703E+01 6.33667E+00 0.00000E+00
 -1       187 3.31787E+01 2.91504E+00 0.00000E+00
 -1       188 3.30383E+01 1.19751E+00 0.00000E+00
 -1       189 3.35938E+01 0.00000E+00 0.00000E+00
 -1       190 3.29956E+01 5.48950E+00 0.00000E+00
 -1       191 3.27393E+01 6.61682E+00 0.00000E+00
 -1       192 3.24219E+01 0.00000E+00 0.00000E+00
 -1       193 3.22754E+01 4.22363E+00 0.00000E+00
 -1       194 3.16162E+01 2.98340E+00 0.00000E+00
 -1       195 3.14758E+01 1.22559E+00 0.00000E+00
 -1       196 3.14941E+01 5.77454E+00 0.00000E+00
 -1       197 3.16162E+01 7.33765E+00 0.00000E+00
 -1       198 3.12500E+01 0.00000E+00 0.00000E+00
 -1       199 4.29688E+00 0.00000E+00 0.00000E+00
 -1       200 3.07129E+01 4.32129E+00 0.00000E+00
 -1       201 3.02490E+01 3.04199E+00 0.00000E+00
 -1       202 2.99133E+01 1.25366E+00 0.00000E+00
 -1       203 3.00781E+01 0.00000E+00 0.00000E+00
 -1       204 3.02979E+01 5.54810E+00 0.00000E+00
 -1       205 3.05664E+01 6.61621E+00 0.00000E+00
 -1       206 2.91016E+01 3.53516E+00 0.00000E+00
 -1       207 2.89429E+01 4.93225E+00 0.00000E+00
 -1       208 2.92725E+01 6.40442E+00 0.00000E+00
 -1       209 5.46875E+00 1.00000E+01 0.00000E+00
 -1       210 5.15747E+00 8.39050E+00 0.00000E+00
 -1       211 2.84546E+01 2.33948E+00 0.00000E+00
 -1       212 2.83936E+01 1.11450E+00 0.00000E+00
 -1       213 2.89062E+01 0.00000E+00 0.00000E+00
 -1       214 2.77344E+01 0.00000E+00 0.00000E+00
 -1       215 2.75391E+01 3.61328E+00 0.00000E+00
 -1       216 2.73804E+01 5.04089E+00 0.00000E+00
 -1       217 2.73193E+01 6.58386E+00 0.00000E+00
 -1       218 2.83203E+01 6.94214E+00 0.00000E+00
 -1       219 2.72461E+01 1.58569E+00 0.00000E+00
 -1       220 2.64038E+01 2.40723E+00 0.00000E+00
 -1       221 2.60498E+01 1.15112E+00 0.00000E+00
 -1       222 2.61719E+01 0.00000E+00 0.00000E+00
 -1       223 2.59766E+01 3.69141E+00 0.00000E+00
 -1       224 2.63428E+01 4.94019E+00 0.00000E+00
 -1       225 2.59521E+01 6.70654E+00 0.00000E+00
 -1       226 2.53723E+01 2.26685E+00 0.00000E+00
 -1       227 2.50732E+01 4.90723E+00 0.00000E+00
 -1       228 2.48779E+01 1.16943E+00 0.00000E+00
 -1       229 2.46094E+01 0.00000E+00 0.00000E+00
 -1       230 2.44141E+01 3.53394E+00 0.00000E+00
 -1       231 2.43896E+01 6.84814E+00 0.00000E+00
 -1       232 2.42554E+01 2.47681E+00 0.00000E+00
 -1       233 2.37061E+01 1.18774E+00 0.00000E+00
 -1       234 2.35107E+01 5.00977E+00 0.00000E+00
 -1       235 2.30835E+01 2.51526E+00 0.00000E+00
 -1       236 2.34375E+01 0.00000E+00 0.00000E+00
 -1       237 6.64062E+00 1.00000E+01 0.00000E+00
 -1       238 4.44603E+00 7.12952E+00 0.00000E+00
 -1       239 2.23572E+01 3.50830E+00 0.00000E+00
 -1       240 2.28271E+01 6.98975E+00 0.00000E+00
 -1       241 2.21436E+01 1.21216E+00 0.00000E+00
 -1       242 2.22656E+01 0.00000E+00 0.00000E+00
 -1       243 2.19238E+01 4.50378E+00 0.00000E+00
 -1       244 2.23633E+01 5.57129E+00 0.00000E+00
 -1       245 2.14111E+01 2.20337E+00 0.00000E+00
 -1       246 2.11914E+01 5.65552E+00 0.00000E+00
 -1       247 2.16309E+01 6.60645E+00 0.00000E+00
 -1       248 2.12891E+01 7.62329E+00 0.00000E+00
 -1       249 2.06909E+01 3.46069E+00 0.00000E+00
 -1       250 2.05811E+01 1.23657E+00 0.00000E+00
 -1       251 2.10938E+01 0.00000E+00 0.00000E+00
 -1       252 2.03613E+01 4.59412E+00 0.00000E+00
 -1       253 2.04590E+01 6.70532E+00 0.00000E+00
 -1       254 1.97540E+01 2.31110E+00 0.00000E+00
 -1       255 1.99219E+01 0.00000E+00 0.00000E+00
 -1       256 1.96960E+01 5.69946E+00 0.00000E+00
 -1       257 1.98059E+01 7.57751E+00 0.00000E+00
 -1       258 3.71475E+00 3.20488E+00 0.00000E+00
 -1       259 4.16260E+00 1.95312E+00 0.00000E+00
 -1       260 5.11932E+00 1.50360E+00 0.00000E+00
 -1       261 5.85938E+00 0.00000E+00 0.00000E+00
 -1       262 1.93054E+01 3.26843E+00 0.00000E+00
 -1       263 1.89148E+01 4.29565E+00 0.00000E+00
 -1       264 1.84326E+01 1.52466E+00 0.00000E+00
 -1       265 1.83594E+01 0.00000E+00 0.00000E+00
 -1       266 1.82312E+01 5.48523E+00 0.00000E+00
 -1       267 1.83167E+01 7.27112E+00 0.00000E+00
 -1       268 1.84204E+01 8.77197E+00 0.00000E+00
 -1       269 1.77338E+01 3.26874E+00 0.00000E+00
 -1       270 1.73950E+01 4.37866E+00 0.00000E+00
 -1       271 6.82373E+00 8.72314E+00 0.00000E+00
 -1       272 1.69067E+01 2.32910E+00 0.00000E+00
 -1       273 1.68549E+01 1.22894E+00 0.00000E+00
 -1       274 1.67969E+01 0.00000E+00 0.00000E+00
 -1       275 1.70532E+01 5.43457E+00 0.00000E+00
 -1       276 1.67084E+01 6.43494E+00 0.00000E+00
 -1       277 1.71509E+01 7.50488E+00 0.00000E+00
 -1       278 1.68945E+01 8.74023E+00 0.00000E+00
 -1       279 1.61743E+01 3.39600E+00 0.00000E+00
 -1       280 1.62415E+01 4.83276E+00 0.00000E+00
 -1       281 1.59790E+01 7.61108E+00 0.00000E+00
 -1       282 1.53412E+01 2.30743E+00 0.00000E+00
 -1       283 1.52832E+01 1.05591E+00 0.00000E+00
 -1       284 1.56250E+01 0.00000E+00 0.00000E+00
 -1       285 1.50574E+01 4.63562E+00 0.00000E+00
 -1       286 1.51306E+01 6.22498E+00 0.00000E+00
 -1       287 1.53320E+01 8.85742E+00 0.00000E+00
 -1       288 1.46118E+01 3.45947E+00 0.00000E+00
 -1       289 1.44531E+01 0.00000E+00 0.00000E+00
 -1       290 1.44196E+01 7.81982E+00 0.00000E+00
 -1       291 1.36902E+01 2.55554E+00 0.00000E+00
 -1       292 1.35742E+01 4.31091E+00 0.00000E+00
 -1       293 1.35651E+01 6.27258E+00 0.00000E+00
 -1       294 2.14233E+00 3.99200E+00 0.00000E+00
 -1       295 1.33423E+01 1.34888E+00 0.00000E+00
 -1       296 1.28906E+01 0.00000E+00 0.00000E+00
 -1       297 1.27319E+01 5.17212E+00 0.00000E+00
 -1       298 1.29639E+01 8.15796E+00 0.00000E+00
 -1       299 1.22864E+01 3.96484E+00 0.00000E+00
 -1       300 1.22009E+01 2.05078E+00 0.00000E+00
 -1       301 1.21460E+01 8.20312E-01 0.00000E+00
 -1       302 1.19995E+01 6.31714E+00 0.00000E+00
 -1       303 1.20483E+01 7.41577E+00 0.00000E+00
 -1       304 1.13281E+01 0.00000E+00 0.00000E+00
 -1       305 1.08246E+01 4.10004E+00 0.00000E+00
 -1       306 1.11694E+01 5.26489E+00 0.00000E+00
 -1       307 1.12061E+01 8.32153E+00 0.00000E+00
 -1       308 1.10718E+01 3.04810E+00 0.00000E+00
 -1       309 1.06323E+01 1.94824E+00 0.00000E+00
 -1       310 1.08337E+01 6.54053E+00 0.00000E+00
 -1       311 9.67407E+00 2.39075E+00 0.00000E+00
 -1       312 9.76562E+00 0.00000E+00 0.00000E+00
 -1       313 9.63440E+00 5.99243E+00 0.00000E+00
 -1       314 9.72290E+00 8.03650E+00 0.00000E+00
 -1       315 9.76562E+00 1.00000E+01 0.00000E+00
 -1       316 9.14307E+00 3.68164E+00 0.00000E+00
 -1       317 8.80127E+00 4.83521E+00 0.00000E+00
 -1       318 8.48999E+00 2.13745E+00 0.00000E+00
 -1       319 8.59375E+00 0.00000E+00 0.00000E+00
 -1       320 8.05664E+00 5.73608E+00 0.00000E+00
 -1       321 8.51440E+00 7.28394E+00 0.00000E+00
 -1       322 8.17871E+00 8.60474E+00 0.00000E+00
 -1       323 7.79419E+00 3.37402E+00 0.00000E+00
 -1       324 7.42188E+00 0.00000E+00 0.00000E+00
 -1       325 7.37991E+00 4.33640E+00 0.00000E+00
 -1       326 7.22198E+00 6.71524E+00 0.00000E+00
 -1       327 6.58112E+00 1.90460E+00 0.00000E+00
 -1       328 8.20312E+00 1.00000E+01 0.00000E+00
 -1       329 6.15616E+00 7.37076E+00 0.00000E+00
 -1       330 2.08588E+00 5.04395E+00 0.00000E+00
 -1       331 5.29976E+00 2.93510E+00 0.00000E+00
 -1       332 6.53687E+00 3.10059E+00 0.00000E+00
 -1       333 3.40118E+00 5.65971E+00 0.00000E+00
 -1       334 5.61256E+00 5.85304E+00 0.00000E+00
 -1       335 6.77490E+00 5.30807E+00 0.00000E+00
 -1       336 5.96199E+00 4.22050E+00 0.00000E+00
 -1       337 4.03900E+00 4.65969E+00 0.00000E+00
 -1       338 1.13281E+01 1.00000E+01 0.00000E+00
 -1       339 1.28906E+01 1.00000E+01 0.00000E+00
 -1       340 1.44531E+01 1.00000E+01 0.00000E+00
 -1       341 1.60156E+01 1.00000E+01 0.00000E+00
 -1       342 1.71875E+01 1.00000E+01 0.00000E+00
 -1       343 1.83594E+01 1.00000E+01 0.00000E+00
 -1       344 1.00000E+02 1.56250E+00 0.00000E+00
 -1       345 1.00000E+02 3.12500E-01 0.00000E+00
 -1       346 9.88281E+01 0.00000E+00 0.00000E+00
 -1       347 1.00000E+02 8.28125E+00 0.00000E+00
 -1       348 9.87061E+01 8.61816E+00 0.00000E+00
 -1       349 9.98047E+01 9.84375E+00 1.56250E-01
 -1       350 9.80469E+01 1.00000E+01 0.00000E+00
 -1       351 1.99219E+01 1.00000E+01 0.00000E+00
 -1       352 2.00928E+01 8.75488E+00 0.00000E+00
 -1       353 2.14844E+01 1.00000E+01 0.00000E+00
 -1       354 2.12402E+01 8.68164E+00 0.00000E+00
 -1       355 2.24121E+01 8.60840E+00 0.00000E+00
 -1       356 2.26562E+01 1.00000E+01 0.00000E+00
 -1       357 2.38281E+01 1.00000E+01 0.00000E+00
 -1       358 2.39746E+01 8.51074E+00 0.00000E+00
 -1       359 2.50000E+01 1.00000E+01 0.00000E+00
 -1       360 2.55371E+01 8.41309E+00 0.00000E+00
 -1       361 2.61719E+01 1.00000E+01 0.00000E+00
 -1       362 2.67090E+01 8.33984E+00 0.00000E+00
 -1       363 2.77344E+01 1.00000E+01 0.00000E+00
 -1       364 2.78809E+01 8.26660E+00 0.00000E+00
 -1       365 2.92969E+01 1.00000E+01 0.00000E+00
 -1       366 2.94434E+01 8.16895E+00 0.00000E+00
 -1       367 3.08594E+01 1.00000E+01 0.00000E+00
 -1       368 3.06152E+01 8.09570E+00 0.00000E+00
 -1       369 3.18359E+01 8.41797E+00 0.00000E+00
 -1       370 3.24219E+01 1.00000E+01 0.00000E+00
 -1       371 3.36426E+01 8.75000E+00 0.00000E+00
 -1       372 3.39844E+01 1.00000E+01 0.00000E+00
 -1       373 3.39844E+01 7.35107E+00 0.00000E+00
 -1       374 3.48145E+01 8.70605E+00 0.00000E+00
 -1       375 3.51562E+01 1.00000E+01 0.00000E+00
 -1       376 3.55835E+01 7.45117E+00 0.00000E+00
 -1       377 3.63281E+01 1.00000E+01 0.00000E+00
 -1       378 3.69141E+01 8.16406E+00 0.00000E+00
 -1       379 3.69385E+01 7.12036E+00 0.00000E+00
 -1       380 1.00000E+02 2.81250E+00 0.00000E+00
 -1       381 3.79395E+01 8.70239E+00 0.00000E+00
 -1       382 3.78906E+01 1.00000E+01 0.00000E+00
 -1       383 3.85010E+01 6.99829E+00 0.00000E+00
 -1       384 3.91113E+01 8.54004E+00 0.00000E+00
 -1       385 3.94531E+01 1.00000E+01 0.00000E+00
 -1       386 4.01001E+01 8.75610E+00 0.00000E+00
 -1       387 3.99170E+01 7.51709E+00 0.00000E+00
 -1       388 4.10156E+01 1.00000E+01 0.00000E+00
 -1       389 4.12048E+01 7.88696E+00 0.00000E+00
 -1       390 4.06982E+01 6.69922E+00 0.00000E+00
 -1       391 4.18701E+01 6.60400E+00 0.00000E+00
 -1       392 9.64844E+01 0.00000E+00 0.00000E+00
 -1       393 9.73999E+01 1.09009E+00 0.00000E+00
 -1       394 9.76562E+01 0.00000E+00 0.00000E+00
 -1       395 9.84375E+01 2.05078E+00 0.00000E+00
 -1       396 4.25781E+01 1.00000E+01 0.00000E+00
 -1       397 4.26758E+01 7.87720E+00 0.00000E+00
 -1       398 4.30542E+01 6.64307E+00 0.00000E+00
 -1       399 4.36279E+01 8.64502E+00 0.00000E+00
 -1       400 4.41406E+01 1.00000E+01 0.00000E+00
 -1       401 4.43115E+01 7.51709E+00 0.00000E+00
 -1       402 9.72351E+01 8.82324E+00 0.00000E+00
 -1       403 4.47998E+01 8.60840E+00 0.00000E+00
 -1       404 4.57031E+01 1.00000E+01 0.00000E+00
 -1       405 4.54834E+01 7.45117E+00 0.00000E+00
 -1       406 4.63623E+01 8.55957E+00 0.00000E+00
 -1       407 4.66553E+01 7.38525E+00 0.00000E+00
 -1       408 4.68750E+01 1.00000E+01 0.00000E+00
 -1       409 4.73633E+01 6.45752E+00 0.00000E+00
 -1       410 4.79858E+01 8.06030E+00 0.00000E+00
 -1       411 4.80469E+01 1.00000E+01 0.00000E+00
 -1       412 4.89990E+01 7.25342E+00 0.00000E+00
 -1       413 4.89014E+01 6.03271E+00 0.00000E+00
 -1       414 4.90967E+01 8.47412E+00 0.00000E+00
 -1       415 4.92188E+01 1.00000E+01 0.00000E+00
 -1       416 5.00244E+01 7.81982E+00 0.00000E+00
 -1       417 5.03906E+01 1.00000E+01 0.00000E+00
 -1       418 5.05127E+01 6.53564E+00 0.00000E+00
 -1       419 5.11963E+01 7.76855E+00 0.00000E+00
 -1       420 5.12207E+01 5.52246E+00 0.00000E+00
 -1       421 9.87793E+01 3.34473E+00 0.00000E+00
 -1       422 1.00000E+02 4.06250E+00 0.00000E+00
 -1       423 5.18799E+01 9.03320E+00 0.00000E+00
 -1       424 5.15625E+01 1.00000E+01 0.00000E+00
 -1       425 5.16846E+01 6.45508E+00 0.00000E+00
 -1       426 5.25879E+01 8.03711E+00 0.00000E+00
 -1       427 5.27344E+01 1.00000E+01 0.00000E+00
 -1       428 5.29053E+01 7.03369E+00 0.00000E+00
 -1       429 5.28076E+01 5.71533E+00 0.00000E+00
 -1       430 5.30518E+01 9.01123E+00 0.00000E+00
 -1       431 5.41748E+01 8.31543E+00 0.00000E+00
 -1       432 5.42969E+01 1.00000E+01 0.00000E+00
 -1       433 9.64844E+01 1.00000E+01 0.00000E+00
 -1       434 9.87610E+01 6.53320E+00 0.00000E+00
 -1       435 1.00000E+02 6.56250E+00 0.00000E+00
 -1       436 5.40771E+01 6.96777E+00 0.00000E+00
 -1       437 5.43701E+01 5.58838E+00 0.00000E+00
 -1       438 5.52490E+01 6.90186E+00 0.00000E+00
 -1       439 5.57129E+01 7.91992E+00 0.00000E+00
 -1       440 5.57861E+01 8.95996E+00 0.00000E+00
 -1       441 5.58594E+01 1.00000E+01 0.00000E+00
 -1       442 5.59326E+01 5.46143E+00 0.00000E+00
 -1       443 9.74731E+01 2.37183E+00 0.00000E+00
 -1       444 5.68237E+01 6.99219E+00 0.00000E+00
 -1       445 5.72998E+01 8.21777E+00 0.00000E+00
 -1       446 5.74219E+01 1.00000E+01 0.00000E+00
 -1       447 5.75439E+01 6.05225E+00 0.00000E+00
 -1       448 5.86182E+01 7.44629E+00 0.00000E+00
 -1       449 5.89111E+01 8.90137E+00 0.00000E+00
 -1       450 5.89844E+01 1.00000E+01 0.00000E+00
 -1       451 5.87158E+01 5.97168E+00 0.00000E+00
 -1       452 9.77234E+01 7.18750E+00 0.00000E+00
 -1       453 5.99609E+01 7.01172E+00 0.00000E+00
 -1       454 5.98877E+01 5.89111E+00 0.00000E+00
 -1       455 6.04126E+01 7.93091E+00 0.00000E+00
 -1       456 6.05469E+01 1.00000E+01 0.00000E+00
 -1       457 6.12549E+01 8.85742E+00 0.00000E+00
 -1       458 6.17432E+01 7.30957E+00 0.00000E+00
 -1       459 6.14502E+01 5.78369E+00 0.00000E+00
 -1       460 6.21094E+01 1.00000E+01 0.00000E+00
 -1       461 6.24268E+01 8.83545E+00 0.00000E+00
 -1       462 6.30615E+01 6.46240E+00 0.00000E+00
 -1       463 6.25977E+01 5.31250E+00 0.00000E+00
 -1       464 6.31348E+01 7.64160E+00 0.00000E+00
 -1       465 6.35986E+01 8.81348E+00 0.00000E+00
 -1       466 6.36719E+01 1.00000E+01 0.00000E+00
 -1       467 6.37695E+01 5.22461E+00 0.00000E+00
 -1       468 1.00000E+02 5.31250E+00 0.00000E+00
 -1       469 6.43066E+01 7.59766E+00 0.00000E+00
 -1       470 6.46240E+01 6.37451E+00 0.00000E+00
 -1       471 6.51611E+01 8.78418E+00 0.00000E+00
 -1       472 6.52344E+01 1.00000E+01 0.00000E+00
 -1       473 6.55029E+01 4.78699E+00 0.00000E+00
 -1       474 9.56543E+01 1.37207E+00 0.00000E+00
 -1       475 6.56494E+01 7.13623E+00 0.00000E+00
 -1       476 6.61621E+01 5.87402E+00 0.00000E+00
 -1       477 6.68213E+01 7.08496E+00 0.00000E+00
 -1       478 6.69617E+01 8.80249E+00 0.00000E+00
 -1       479 6.64062E+01 1.00000E+01 0.00000E+00
 -1       480 6.75781E+01 1.00000E+01 0.00000E+00
 -1       481 6.77246E+01 5.77637E+00 0.00000E+00
 -1       482 6.75537E+01 4.62402E+00 0.00000E+00
 -1       483 6.83838E+01 7.01660E+00 0.00000E+00
 -1       484 6.85242E+01 8.77441E+00 0.00000E+00
 -1       485 6.91406E+01 1.00000E+01 0.00000E+00
 -1       486 9.49219E+01 1.00000E+01 0.00000E+00
 -1       487 6.92871E+01 5.67871E+00 0.00000E+00
 -1       488 6.91162E+01 4.49951E+00 0.00000E+00
 -1       489 6.95557E+01 6.96533E+00 0.00000E+00
 -1       490 6.97388E+01 8.58887E+00 0.00000E+00
 -1       491 7.01660E+01 4.08569E+00 0.00000E+00
 -1       492 7.08618E+01 7.68433E+00 0.00000E+00
 -1       493 7.08252E+01 8.89771E+00 0.00000E+00
 -1       494 7.07031E+01 1.00000E+01 0.00000E+00
 -1       495 7.08984E+01 6.46484E+00 0.00000E+00
 -1       496 7.07275E+01 5.25757E+00 0.00000E+00
 -1       497 9.80804E+01 4.24652E+00 0.00000E+00
 -1       498 9.72767E+01 3.38486E+00 0.00000E+00
 -1       499 7.13623E+01 4.43237E+00 0.00000E+00
 -1       500 7.23816E+01 7.80273E+00 0.00000E+00
 -1       501 7.23877E+01 8.87329E+00 0.00000E+00
 -1       502 7.22656E+01 1.00000E+01 0.00000E+00
 -1       503 7.24609E+01 6.38672E+00 0.00000E+00
 -1       504 7.25830E+01 5.13245E+00 0.00000E+00
 -1       505 7.35962E+01 7.59277E+00 0.00000E+00
 -1       506 7.39502E+01 8.84888E+00 0.00000E+00
 -1       507 7.34375E+01 1.00000E+01 0.00000E+00
 -1       508 7.42920E+01 5.94604E+00 0.00000E+00
 -1       509 7.40967E+01 4.21875E+00 0.00000E+00
 -1       510 7.46277E+01 7.73315E+00 0.00000E+00
 -1       511 7.46094E+01 1.00000E+01 0.00000E+00
 -1       512 7.55127E+01 8.82446E+00 0.00000E+00
 -1       513 7.51953E+01 6.48438E+00 0.00000E+00
 -1       514 7.57080E+01 5.04150E+00 0.00000E+00
 -1       515 7.57446E+01 7.52319E+00 0.00000E+00
 -1       516 7.61719E+01 1.00000E+01 0.00000E+00
 -1       517 7.63672E+01 6.42944E+00 0.00000E+00
 -1       518 7.69165E+01 7.48474E+00 0.00000E+00
 -1       519 7.70752E+01 8.80005E+00 0.00000E+00
 -1       520 9.55540E+01 2.87048E+00 0.00000E+00
 -1       521 7.69043E+01 5.44434E+00 0.00000E+00
 -1       522 7.72217E+01 3.97461E+00 0.00000E+00
 -1       523 7.77344E+01 1.00000E+01 0.00000E+00
 -1       524 7.78381E+01 6.48254E+00 0.00000E+00
 -1       525 7.80762E+01 5.49622E+00 0.00000E+00
 -1       526 7.86133E+01 8.28613E+00 0.00000E+00
 -1       527 7.87842E+01 3.85254E+00 0.00000E+00
 -1       528 7.93091E+01 6.53931E+00 0.00000E+00
 -1       529 7.89062E+01 1.00000E+01 0.00000E+00
 -1       530 7.96387E+01 5.40588E+00 0.00000E+00
 -1       531 8.02460E+01 7.68890E+00 0.00000E+00
 -1       532 7.98096E+01 8.75732E+00 0.00000E+00
 -1       533 8.00781E+01 1.00000E+01 0.00000E+00
 -1       534 7.99805E+01 4.38477E+00 0.00000E+00
 -1       535 7.99316E+01 3.26172E+00 0.00000E+00
 -1       536 9.33594E+01 1.00000E+01 0.00000E+00
 -1       537 9.39167E+01 9.15432E+00 0.00000E+00
 -1       538 9.66949E+01 7.28607E+00 0.00000E+00
 -1       539 9.55383E+01 8.32031E+00 0.00000E+00
 -1       540 8.06946E+01 6.73157E+00 0.00000E+00
 -1       541 8.10059E+01 8.99170E+00 0.00000E+00
 -1       542 8.10852E+01 5.70435E+00 0.00000E+00
 -1       543 8.10242E+01 4.69360E+00 0.00000E+00
 -1       544 8.09631E+01 3.68286E+00 0.00000E+00
 -1       545 8.16406E+01 1.00000E+01 0.00000E+00
 -1       546 8.21640E+01 6.63956E+00 0.00000E+00
 -1       547 8.23364E+01 8.20557E+00 0.00000E+00
 -1       548 8.23853E+01 9.23096E+00 0.00000E+00
 -1       549 8.25806E+01 5.10620E+00 0.00000E+00
 -1       550 8.25195E+01 3.81897E+00 0.00000E+00
 -1       551 8.24585E+01 2.53052E+00 0.00000E+00
 -1       552 8.32031E+01 1.00000E+01 0.00000E+00
 -1       553 8.34961E+01 5.83435E+00 0.00000E+00
 -1       554 8.38776E+01 7.71454E+00 0.00000E+00
 -1       555 8.39478E+01 9.21631E+00 0.00000E+00
 -1       556 8.38959E+01 3.91296E+00 0.00000E+00
 -1       557 8.46069E+01 6.57227E+00 0.00000E+00
 -1       558 8.47656E+01 1.00000E+01 0.00000E+00
 -1       559 8.45520E+01 5.38574E+00 0.00000E+00
 -1       560 8.48511E+01 3.37769E+00 0.00000E+00
 -1       561 8.48022E+01 2.31812E+00 0.00000E+00
 -1       562 8.50464E+01 7.61597E+00 0.00000E+00
 -1       563 8.50952E+01 8.67554E+00 0.00000E+00
 -1       564 8.57300E+01 5.45532E+00 0.00000E+00
 -1       565 8.56812E+01 4.38599E+00 0.00000E+00
 -1       566 8.61694E+01 6.50879E+00 0.00000E+00
 -1       567 8.62244E+01 7.71729E+00 0.00000E+00
 -1       568 8.63281E+01 1.00000E+01 0.00000E+00
 -1       569 8.64136E+01 3.25562E+00 0.00000E+00
 -1       570 8.63647E+01 2.17651E+00 0.00000E+00
 -1       571 9.43291E+01 8.01132E+00 0.00000E+00
 -1       572 8.75000E+01 1.00000E+01 0.00000E+00
 -1       573 8.72925E+01 5.37231E+00 0.00000E+00
 -1       574 8.72437E+01 4.28345E+00 0.00000E+00
 -1       575 8.73413E+01 6.46118E+00 0.00000E+00
 -1       576 8.74084E+01 7.95837E+00 0.00000E+00
 -1       577 8.75793E+01 3.02734E+00 0.00000E+00
 -1       578 8.79211E+01 1.89819E+00 0.00000E+00
 -1       579 8.85193E+01 6.55151E+00 0.00000E+00
 -1       580 8.85864E+01 8.06885E+00 0.00000E+00
 -1       581 8.86719E+01 1.00000E+01 0.00000E+00
 -1       582 8.88550E+01 5.28931E+00 0.00000E+00
 -1       583 8.87848E+01 3.69629E+00 0.00000E+00
 -1       584 8.99658E+01 6.07300E+00 0.00000E+00
 -1       585 9.01123E+01 7.19116E+00 0.00000E+00
 -1       586 9.01611E+01 8.31421E+00 0.00000E+00
 -1       587 9.02344E+01 1.00000E+01 0.00000E+00
 -1       588 9.00024E+01 4.66553E+00 0.00000E+00
 -1       589 8.99536E+01 3.54248E+00 0.00000E+00
 -1       590 9.11987E+01 5.16479E+00 0.00000E+00
 -1       591 9.11499E+01 4.02710E+00 0.00000E+00
 -1       592 9.11011E+01 2.88940E+00 0.00000E+00
 -1       593 9.10522E+01 1.75171E+00 0.00000E+00
 -1       594 9.16382E+01 6.28662E+00 0.00000E+00
 -1       595 9.16870E+01 7.42920E+00 0.00000E+00
 -1       596 9.17358E+01 8.57178E+00 0.00000E+00
 -1       597 9.17969E+01 1.00000E+01 0.00000E+00
 -1       598 9.26201E+01 5.66360E+00 0.00000E+00
 -1       599 9.27856E+01 4.60915E+00 0.00000E+00
 -1       600 9.26468E+01 3.20496E+00 0.00000E+00
 -1       601 9.30786E+01 7.34467E+00 0.00000E+00
 -1       602 9.83185E+01 5.26031E+00 0.00000E+00
 -1       603 9.40773E+01 2.63504E+00 0.00000E+00
 -1       604 9.68498E+01 5.84175E+00 0.00000E+00
 -1       605 9.43539E+01 4.09447E+00 0.00000E+00
 -1       606 9.63036E+01 4.59320E+00 0.00000E+00
 -1       607 9.54477E+01 6.42477E+00 0.00000E+00
 -1       608 9.37096E+01 6.02737E+00 0.00000E+00
 -1       609 9.47083E+01 5.44128E+00 0.00000E+00
 -1       610 9.80469E+01 0.00000E+00 1.00000E+01
 -1       611 9.69971E+01 9.15527E-01 1.00000E+01
 -1       612 9.64844E+01 0.00000E+00 1.00000E+01
 -1       613 9.58130E+01 1.35620E+00 1.00000E+01
 -1       614 9.53125E+01 0.00000E+00 1.00000E+01
 -1       615 9.41406E+01 0.00000E+00 1.00000E+01
 -1       616 9.42566E+01 1.19934E+00 1.00000E+01
 -1       617 9.27948E+01 1.33667E+00 1.00000E+01
 -1       618 9.29688E+01 0.00000E+00 1.00000E+01
 -1       619 9.17969E+01 0.00000E+00 1.00000E+01
 -1       620 9.02344E+01 0.00000E+00 1.00000E+01
 -1       621 9.09851E+01 1.26648E+00 1.00000E+01
 -1       622 8.95172E+01 1.26770E+00 1.00000E+01
 -1       623 8.86719E+01 0.00000E+00 1.00000E+01
 -1       624 8.79547E+01 1.39832E+00 1.00000E+01
 -1       625 8.75000E+01 0.00000E+00 1.00000E+01
 -1       626 8.62549E+01 1.91528E+00 1.00000E+01
 -1       627 8.63281E+01 0.00000E+00 1.00000E+01
 -1       628 8.47656E+01 0.00000E+00 1.00000E+01
 -1       629 8.48877E+01 2.04468E+00 1.00000E+01
 -1       630 8.32031E+01 0.00000E+00 1.00000E+01
 -1       631 8.33252E+01 2.19116E+00 1.00000E+01
 -1       632 8.22998E+01 1.04492E+00 1.00000E+01
 -1       633 8.20312E+01 0.00000E+00 1.00000E+01
 -1       634 8.08594E+01 0.00000E+00 1.00000E+01
 -1       635 8.11768E+01 1.22559E+00 1.00000E+01
 -1       636 7.99072E+01 1.24512E+00 1.00000E+01
 -1       637 8.08960E+01 2.60925E+00 1.00000E+01
 -1       638 7.92969E+01 0.00000E+00 1.00000E+01
 -1       639 7.95166E+01 2.79785E+00 1.00000E+01
 -1       640 7.83691E+01 1.34277E+00 1.00000E+01
 -1       641 7.77344E+01 0.00000E+00 1.00000E+01
 -1       642 7.79541E+01 2.93945E+00 1.00000E+01
 -1       643 7.71973E+01 1.41602E+00 1.00000E+01
 -1       644 7.61719E+01 0.00000E+00 1.00000E+01
 -1       645 7.60254E+01 1.48926E+00 1.00000E+01
 -1       646 7.67578E+01 2.56592E+00 1.00000E+01
 -1       647 7.55859E+01 2.67944E+00 1.00000E+01
 -1       648 7.46094E+01 0.00000E+00 1.00000E+01
 -1       649 7.44629E+01 1.58691E+00 1.00000E+01
 -1       650 7.44141E+01 2.79297E+00 1.00000E+01
 -1       651 7.34375E+01 0.00000E+00 1.00000E+01
 -1       652 7.32910E+01 1.66016E+00 1.00000E+01
 -1       653 7.32666E+01 3.36426E+00 1.00000E+01
 -1       654 7.22656E+01 0.00000E+00 1.00000E+01
 -1       655 7.21191E+01 1.73340E+00 1.00000E+01
 -1       656 7.18994E+01 3.48938E+00 1.00000E+01
 -1       657 7.10938E+01 0.00000E+00 1.00000E+01
 -1       658 7.05566E+01 1.83105E+00 1.00000E+01
 -1       659 6.99219E+01 0.00000E+00 1.00000E+01
 -1       660 7.07275E+01 3.59558E+00 1.00000E+01
 -1       661 6.93848E+01 1.90430E+00 1.00000E+01
 -1       662 6.93604E+01 4.12537E+00 1.00000E+01
 -1       663 6.87500E+01 0.00000E+00 1.00000E+01
 -1       664 6.81641E+01 1.58203E+00 1.00000E+01
 -1       665 6.83838E+01 2.66235E+00 1.00000E+01
 -1       666 6.75781E+01 0.00000E+00 1.00000E+01
 -1       667 0.00000E+00 8.28125E+00 1.00000E+01
 -1       668 1.36719E+00 7.99805E+00 1.00000E+01
 -1       669 3.90625E-01 9.84375E+00 1.00000E+01
 -1       670 2.24609E+00 8.85254E+00 1.00000E+01
 -1       671 1.95312E+00 1.00000E+01 1.00000E+01
 -1       672 6.67480E+01 1.24023E+00 1.00000E+01
 -1       673 6.69434E+01 3.09937E+00 1.00000E+01
 -1       674 6.60156E+01 0.00000E+00 1.00000E+01
 -1       675 6.60156E+01 2.64893E+00 1.00000E+01
 -1       676 6.47949E+01 1.30859E+00 1.00000E+01
 -1       677 6.52588E+01 4.08875E+00 1.00000E+01
 -1       678 6.44531E+01 0.00000E+00 1.00000E+01
 -1       679 6.46484E+01 2.97852E+00 1.00000E+01
 -1       680 6.37939E+01 2.13867E+00 1.00000E+01
 -1       681 6.41846E+01 4.08569E+00 1.00000E+01
 -1       682 6.28906E+01 0.00000E+00 1.00000E+01
 -1       683 6.30127E+01 4.19373E+00 1.00000E+01
 -1       684 6.30615E+01 2.87964E+00 1.00000E+01
 -1       685 0.00000E+00 6.56250E+00 1.00000E+01
 -1       686 9.27734E-01 7.01660E+00 1.00000E+01
 -1       687 6.19141E+01 1.65771E+00 1.00000E+01
 -1       688 6.17188E+01 0.00000E+00 1.00000E+01
 -1       689 6.14990E+01 3.00171E+00 1.00000E+01
 -1       690 6.18408E+01 4.30176E+00 1.00000E+01
 -1       691 6.05957E+01 1.34521E+00 1.00000E+01
 -1       692 6.05469E+01 0.00000E+00 1.00000E+01
 -1       693 6.05225E+01 4.02191E+00 1.00000E+01
 -1       694 6.00830E+01 2.48291E+00 1.00000E+01
 -1       695 5.93506E+01 1.77002E+00 1.00000E+01
 -1       696 5.93750E+01 0.00000E+00 1.00000E+01
 -1       697 5.87646E+01 2.82471E+00 1.00000E+01
 -1       698 5.94971E+01 4.51782E+00 1.00000E+01
 -1       699 5.83252E+01 1.29395E+00 1.00000E+01
 -1       700 5.83252E+01 4.62585E+00 1.00000E+01
 -1       701 3.51562E+00 1.00000E+01 1.00000E+01
 -1       702 5.82031E+01 0.00000E+00 1.00000E+01
 -1       703 5.72510E+01 2.39502E+00 1.00000E+01
 -1       704 5.73486E+01 3.45947E+00 1.00000E+01
 -1       705 5.67627E+01 1.34277E+00 1.00000E+01
 -1       706 5.70312E+01 0.00000E+00 1.00000E+01
 -1       707 5.71533E+01 4.73389E+00 1.00000E+01
 -1       708 5.58594E+01 0.00000E+00 1.00000E+01
 -1       709 5.57434E+01 2.54944E+00 1.00000E+01
 -1       710 5.62256E+01 4.10156E+00 1.00000E+01
 -1       711 0.00000E+00 2.65625E+00 1.00000E+01
 -1       712 9.76562E-02 4.68750E-01 9.84375E+00
 -1       713 1.56250E+00 1.89453E+00 1.00000E+01
 -1       714 1.95312E+00 0.00000E+00 1.00000E+01
 -1       715 2.24609E+00 9.96094E-01 1.00000E+01
 -1       716 5.51392E+01 4.06250E+00 1.00000E+01
 -1       717 5.44189E+01 1.41602E+00 1.00000E+01
 -1       718 5.45288E+01 2.69043E+00 1.00000E+01
 -1       719 5.42969E+01 0.00000E+00 1.00000E+01
 -1       720 5.33447E+01 2.61475E+00 1.00000E+01
 -1       721 5.34424E+01 3.77686E+00 1.00000E+01
 -1       722 5.37354E+01 4.96582E+00 1.00000E+01
 -1       723 5.28564E+01 1.46484E+00 1.00000E+01
 -1       724 5.27344E+01 0.00000E+00 1.00000E+01
 -1       725 5.19958E+01 2.91504E+00 1.00000E+01
 -1       726 5.18066E+01 4.21143E+00 1.00000E+01
 -1       727 5.12939E+01 1.51367E+00 1.00000E+01
 -1       728 5.11719E+01 0.00000E+00 1.00000E+01
 -1       729 3.51562E+00 0.00000E+00 1.00000E+01
 -1       730 5.02197E+01 2.79053E+00 1.00000E+01
 -1       731 5.03540E+01 4.49585E+00 1.00000E+01
 -1       732 4.97559E+01 1.87500E+00 1.00000E+01
 -1       733 4.96094E+01 0.00000E+00 1.00000E+01
 -1       734 4.90479E+01 2.85645E+00 1.00000E+01
 -1       735 4.87549E+01 4.15771E+00 1.00000E+01
 -1       736 4.88647E+01 5.57495E+00 1.00000E+01
 -1       737 4.85596E+01 1.59912E+00 1.00000E+01
 -1       738 4.80469E+01 0.00000E+00 1.00000E+01
 -1       739 4.78760E+01 2.92236E+00 1.00000E+01
 -1       740 4.73877E+01 1.63574E+00 1.00000E+01
 -1       741 4.71924E+01 4.28467E+00 1.00000E+01
 -1       742 4.72168E+01 5.87158E+00 1.00000E+01
 -1       743 4.64844E+01 0.00000E+00 1.00000E+01
 -1       744 4.63135E+01 3.01025E+00 1.00000E+01
 -1       745 4.51324E+01 1.57867E+00 1.00000E+01
 -1       746 4.56299E+01 4.41162E+00 1.00000E+01
 -1       747 4.57397E+01 5.85815E+00 1.00000E+01
 -1       748 4.49219E+01 0.00000E+00 1.00000E+01
 -1       749 4.51416E+01 3.07617E+00 1.00000E+01
 -1       750 4.39209E+01 2.44385E+00 1.00000E+01
 -1       751 4.40186E+01 3.84033E+00 1.00000E+01
 -1       752 4.41162E+01 5.23682E+00 1.00000E+01
 -1       753 2.46582E+00 7.63428E+00 1.00000E+01
 -1       754 4.38232E+01 1.04736E+00 1.00000E+01
 -1       755 4.33594E+01 0.00000E+00 1.00000E+01
 -1       756 4.27002E+01 1.78223E+00 1.00000E+01
 -1       757 4.21875E+01 0.00000E+00 1.00000E+01
 -1       758 4.27979E+01 3.20801E+00 1.00000E+01
 -1       759 4.24805E+01 4.30664E+00 1.00000E+01
 -1       760 4.28467E+01 5.26611E+00 1.00000E+01
 -1       761 4.16260E+01 3.27393E+00 1.00000E+01
 -1       762 4.16748E+01 5.37415E+00 1.00000E+01
 -1       763 4.11377E+01 1.83105E+00 1.00000E+01
 -1       764 4.10156E+01 0.00000E+00 1.00000E+01
 -1       765 4.13086E+01 4.39453E+00 1.00000E+01
 -1       766 2.91595E+00 2.41653E+00 1.00000E+01
 -1       767 4.00146E+01 2.61475E+00 1.00000E+01
 -1       768 4.01123E+01 4.10889E+00 1.00000E+01
 -1       769 4.05029E+01 5.48218E+00 1.00000E+01
 -1       770 3.99170E+01 1.12061E+00 1.00000E+01
 -1       771 3.98438E+01 0.00000E+00 1.00000E+01
 -1       772 3.94775E+01 5.97809E+00 1.00000E+01
 -1       773 0.00000E+00 5.31250E+00 1.00000E+01
 -1       774 3.87939E+01 1.90430E+00 1.00000E+01
 -1       775 3.86719E+01 0.00000E+00 1.00000E+01
 -1       776 3.84766E+01 3.06641E+00 1.00000E+01
 -1       777 3.85498E+01 4.21631E+00 1.00000E+01
 -1       778 3.77686E+01 5.73425E+00 1.00000E+01
 -1       779 3.72559E+01 2.34375E+00 1.00000E+01
 -1       780 3.75732E+01 1.16455E+00 1.00000E+01
 -1       781 3.75000E+01 0.00000E+00 1.00000E+01
 -1       782 3.69385E+01 3.53760E+00 1.00000E+01
 -1       783 3.70117E+01 4.71680E+00 1.00000E+01
 -1       784 3.64014E+01 1.18652E+00 1.00000E+01
 -1       785 3.63281E+01 0.00000E+00 1.00000E+01
 -1       786 3.62061E+01 5.87830E+00 1.00000E+01
 -1       787 1.74561E+00 3.47656E+00 1.00000E+01
 -1       788 0.00000E+00 4.06250E+00 1.00000E+01
 -1       789 3.59131E+01 2.79541E+00 1.00000E+01
 -1       790 3.54248E+01 4.43115E+00 1.00000E+01
 -1       791 3.48877E+01 2.02637E+00 1.00000E+01
 -1       792 3.47656E+01 0.00000E+00 1.00000E+01
 -1       793 3.45703E+01 3.26172E+00 1.00000E+01
 -1       794 3.43750E+01 5.58136E+00 1.00000E+01
 -1       795 3.73535E+00 8.06396E+00 1.00000E+01
 -1       796 4.56543E+00 8.91846E+00 1.00000E+01
 -1       797 3.38379E+01 4.12598E+00 1.00000E+01
 -1       798 3.31787E+01 2.91504E+00 1.00000E+01
 -1       799 3.33862E+01 1.34766E+00 1.00000E+01
 -1       800 3.35938E+01 0.00000E+00 1.00000E+01
 -1       801 3.23547E+01 1.21094E+00 1.00000E+01
 -1       802 3.24219E+01 0.00000E+00 1.00000E+01
 -1       803 3.26904E+01 4.61914E+00 1.00000E+01
 -1       804 3.29163E+01 6.04919E+00 1.00000E+01
 -1       805 3.17871E+01 2.54883E+00 1.00000E+01
 -1       806 3.14697E+01 3.84521E+00 1.00000E+01
 -1       807 3.14941E+01 5.77454E+00 1.00000E+01
 -1       808 3.23975E+01 7.27173E+00 1.00000E+01
 -1       809 3.10425E+01 1.39526E+00 1.00000E+01
 -1       810 3.08594E+01 0.00000E+00 1.00000E+01
 -1       811 4.22363E+00 1.64062E+00 1.00000E+01
 -1       812 3.08960E+01 6.99341E+00 1.00000E+01
 -1       813 3.06152E+01 2.59277E+00 1.00000E+01
 -1       814 3.00110E+01 1.25305E+00 1.00000E+01
 -1       815 2.99072E+01 3.93311E+00 1.00000E+01
 -1       816 3.02979E+01 5.54810E+00 1.00000E+01
 -1       817 2.94434E+01 2.63672E+00 1.00000E+01
 -1       818 2.92969E+01 0.00000E+00 1.00000E+01
 -1       819 2.93945E+01 5.06592E+00 1.00000E+01
 -1       820 2.92725E+01 6.40442E+00 1.00000E+01
 -1       821 2.06680E+00 5.95367E+00 1.00000E+01
 -1       822 2.86133E+01 1.55701E+00 1.00000E+01
 -1       823 2.84912E+01 3.11768E+00 1.00000E+01
 -1       824 2.81616E+01 4.98657E+00 1.00000E+01
 -1       825 2.76123E+01 1.12671E+00 1.00000E+01
 -1       826 2.77344E+01 0.00000E+00 1.00000E+01
 -1       827 2.75391E+01 3.61328E+00 1.00000E+01
 -1       828 2.74902E+01 6.11206E+00 1.00000E+01
 -1       829 2.83203E+01 6.94214E+00 1.00000E+01
 -1       830 2.71851E+01 2.38159E+00 1.00000E+01
 -1       831 2.69287E+01 4.89990E+00 1.00000E+01
 -1       832 2.67578E+01 7.09351E+00 1.00000E+01
 -1       833 2.64648E+01 1.60278E+00 1.00000E+01
 -1       834 2.61719E+01 0.00000E+00 1.00000E+01
 -1       835 2.59766E+01 3.69141E+00 1.00000E+01
 -1       836 2.59033E+01 5.78125E+00 1.00000E+01
 -1       837 2.56226E+01 2.43286E+00 1.00000E+01
 -1       838 2.52686E+01 1.16333E+00 1.00000E+01
 -1       839 5.07812E+00 0.00000E+00 1.00000E+01
 -1       840 2.50488E+01 4.43970E+00 1.00000E+01
 -1       841 2.51953E+01 7.24487E+00 1.00000E+01
 -1       842 2.45911E+01 2.29065E+00 1.00000E+01
 -1       843 2.50000E+01 0.00000E+00 1.00000E+01
 -1       844 2.44141E+01 3.53394E+00 1.00000E+01
 -1       845 2.43408E+01 5.90332E+00 1.00000E+01
 -1       846 2.37061E+01 1.18774E+00 1.00000E+01
 -1       847 2.38281E+01 0.00000E+00 1.00000E+01
 -1       848 2.34863E+01 4.53247E+00 1.00000E+01
 -1       849 2.40234E+01 7.35840E+00 1.00000E+01
 -1       850 2.30835E+01 2.51526E+00 1.00000E+01
 -1       851 1.09100E+00 5.25177E+00 1.00000E+01
 -1       852 3.18832E+00 6.73737E+00 1.00000E+01
 -1       853 5.93872E+00 8.78113E+00 1.00000E+01
 -1       854 5.07812E+00 1.00000E+01 1.00000E+01
 -1       855 2.28516E+01 3.60718E+00 1.00000E+01
 -1       856 2.31689E+01 5.99487E+00 1.00000E+01
 -1       857 2.28516E+01 7.47192E+00 1.00000E+01
 -1       858 2.25342E+01 1.20605E+00 1.00000E+01
 -1       859 2.22656E+01 0.00000E+00 1.00000E+01
 -1       860 2.19238E+01 4.50378E+00 1.00000E+01
 -1       861 2.19971E+01 6.08643E+00 1.00000E+01
 -1       862 2.14722E+01 3.42651E+00 1.00000E+01
 -1       863 2.13867E+01 1.71387E+00 1.00000E+01
 -1       864 2.12891E+01 7.62329E+00 1.00000E+01
 -1       865 2.10938E+01 0.00000E+00 1.00000E+01
 -1       866 2.03613E+01 4.59412E+00 1.00000E+01
 -1       867 2.04102E+01 5.64941E+00 1.00000E+01
 -1       868 2.04590E+01 6.70532E+00 1.00000E+01
 -1       869 2.01324E+01 3.01666E+00 1.00000E+01
 -1       870 1.98853E+01 1.12183E+00 1.00000E+01
 -1       871 1.99219E+01 0.00000E+00 1.00000E+01
 -1       872 1.98059E+01 7.57751E+00 1.00000E+01
 -1       873 6.64062E+00 0.00000E+00 1.00000E+01
 -1       874 6.15234E+00 9.46045E-01 1.00000E+01
 -1       875 1.89148E+01 4.29565E+00 1.00000E+01
 -1       876 1.89758E+01 5.30640E+00 1.00000E+01
 -1       877 1.90369E+01 6.31714E+00 1.00000E+01
 -1       878 1.89026E+01 3.15857E+00 1.00000E+01
 -1       879 1.84448E+01 1.77734E+00 1.00000E+01
 -1       880 1.83594E+01 0.00000E+00 1.00000E+01
 -1       881 1.87134E+01 7.36328E+00 1.00000E+01
 -1       882 1.84204E+01 8.77197E+00 1.00000E+01
 -1       883 1.73859E+01 4.18640E+00 1.00000E+01
 -1       884 1.77124E+01 2.81982E+00 1.00000E+01
 -1       885 1.74438E+01 5.40894E+00 1.00000E+01
 -1       886 1.74927E+01 6.43921E+00 1.00000E+01
 -1       887 1.75415E+01 7.46948E+00 1.00000E+01
 -1       888 4.21066E+00 7.01294E+00 1.00000E+01
 -1       889 5.09033E+00 7.92847E+00 1.00000E+01
 -1       890 1.72668E+01 1.67419E+00 1.00000E+01
 -1       891 1.67969E+01 0.00000E+00 1.00000E+01
 -1       892 1.68945E+01 8.74023E+00 1.00000E+01
 -1       893 1.61621E+01 3.13416E+00 1.00000E+01
 -1       894 1.61011E+01 1.82861E+00 1.00000E+01
 -1       895 1.56250E+01 0.00000E+00 1.00000E+01
 -1       896 1.58325E+01 4.46167E+00 1.00000E+01
 -1       897 1.62720E+01 5.48584E+00 1.00000E+01
 -1       898 1.59302E+01 6.56128E+00 1.00000E+01
 -1       899 1.59790E+01 7.61108E+00 1.00000E+01
 -1       900 1.49231E+01 5.97473E+00 1.00000E+01
 -1       901 1.50269E+01 8.22998E+00 1.00000E+01
 -1       902 1.46851E+01 3.99017E+00 1.00000E+01
 -1       903 1.45874E+01 2.92725E+00 1.00000E+01
 -1       904 1.49231E+01 1.72180E+00 1.00000E+01
 -1       905 1.44531E+01 0.00000E+00 1.00000E+01
 -1       906 1.43921E+01 7.21802E+00 1.00000E+01
 -1       907 1.37360E+01 1.41022E+00 1.00000E+01
 -1       908 1.35406E+01 5.73303E+00 1.00000E+01
 -1       909 1.37512E+01 8.21899E+00 1.00000E+01
 -1       910 5.90057E+00 2.12128E+00 1.00000E+01
 -1       911 1.30371E+01 3.25256E+00 1.00000E+01
 -1       912 1.32812E+01 0.00000E+00 1.00000E+01
 -1       913 1.27075E+01 4.62769E+00 1.00000E+01
 -1       914 1.32202E+01 7.31689E+00 1.00000E+01
 -1       915 1.25854E+01 1.90552E+00 1.00000E+01
 -1       916 1.21094E+01 0.00000E+00 1.00000E+01
 -1       917 1.23657E+01 5.74219E+00 1.00000E+01
 -1       918 1.20239E+01 6.86646E+00 1.00000E+01
 -1       919 1.20728E+01 7.96509E+00 1.00000E+01
 -1       920 1.28906E+01 1.00000E+01 1.00000E+01
 -1       921 1.15967E+01 3.85864E+00 1.00000E+01
 -1       922 1.14349E+01 2.41425E+00 1.00000E+01
 -1       923 1.13770E+01 5.52979E+00 1.00000E+01
 -1       924 1.11206E+01 8.60840E+00 1.00000E+01
 -1       925 1.05469E+01 0.00000E+00 1.00000E+01
 -1       926 1.01776E+01 4.97314E+00 1.00000E+01
 -1       927 1.04370E+01 6.42944E+00 1.00000E+01
 -1       928 1.00983E+01 7.65076E+00 1.00000E+01
 -1       929 9.92432E+00 3.64990E+00 1.00000E+01
 -1       930 9.85413E+00 2.03522E+00 1.00000E+01
 -1       931 9.76562E+00 1.00000E+01 1.00000E+01
 -1       932 8.98438E+00 0.00000E+00 1.00000E+01
 -1       933 8.80127E+00 4.83521E+00 1.00000E+01
 -1       934 8.85620E+00 6.11511E+00 1.00000E+01
 -1       935 9.06982E+00 8.92944E+00 1.00000E+01
 -1       936 8.36182E+00 3.71338E+00 1.00000E+01
 -1       937 8.21533E+00 2.32147E+00 1.00000E+01
 -1       938 8.14209E+00 7.74536E+00 1.00000E+01
 -1       939 7.81250E+00 0.00000E+00 1.00000E+01
 -1       940 7.37991E+00 4.33640E+00 1.00000E+01
 -1       941 7.65381E+00 5.47363E+00 1.00000E+01
 -1       942 7.37000E+00 6.78528E+00 1.00000E+01
 -1       943 7.42493E+00 8.79181E+00 1.00000E+01
 -1       944 6.91833E+00 3.13477E+00 1.00000E+01
 -1       945 6.32248E+00 7.27158E+00 1.00000E+01
 -1       946 2.08435E+00 4.51050E+00 1.00000E+01
 -1       947 5.18570E+00 6.74362E+00 1.00000E+01
 -1       948 3.15018E+00 4.15825E+00 1.00000E+01
 -1       949 6.48193E+00 5.63095E+00 1.00000E+01
 -1       950 4.75731E+00 3.17051E+00 1.00000E+01
 -1       951 6.29044E+00 3.97263E+00 1.00000E+01
 -1       952 3.72086E+00 5.60898E+00 1.00000E+01
 -1       953 5.20630E+00 5.61218E+00 1.00000E+01
 -1       954 5.29175E+00 4.55872E+00 1.00000E+01
 -1       955 4.27475E+00 4.45625E+00 1.00000E+01
 -1       956 6.64062E+00 1.00000E+01 1.00000E+01
 -1       957 8.20312E+00 1.00000E+01 1.00000E+01
 -1       958 1.13281E+01 1.00000E+01 1.00000E+01
 -1       959 1.44531E+01 1.00000E+01 1.00000E+01
 -1       960 1.60156E+01 1.00000E+01 1.00000E+01
 -1       961 1.75781E+01 1.00000E+01 1.00000E+01
 -1       962 1.91406E+01 1.00000E+01 1.00000E+01
 -1       963 9.80469E+01 1.00000E+01 1.00000E+01
 -1       964 1.00000E+02 9.06250E+00 1.00000E+01
 -1       965 9.96094E+01 1.00000E+01 1.00000E+01
 -1       966 2.00928E+01 8.75488E+00 1.00000E+01
 -1       967 2.03125E+01 1.00000E+01 1.00000E+01
 -1       968 2.12402E+01 8.68164E+00 1.00000E+01
 -1       969 2.14844E+01 1.00000E+01 1.00000E+01
 -1       970 2.24121E+01 8.60840E+00 1.00000E+01
 -1       971 2.30469E+01 1.00000E+01 1.00000E+01
 -1       972 2.39746E+01 8.51074E+00 1.00000E+01
 -1       973 2.42188E+01 1.00000E+01 1.00000E+01
 -1       974 2.55371E+01 8.41309E+00 1.00000E+01
 -1       975 2.53906E+01 1.00000E+01 1.00000E+01
 -1       976 2.69531E+01 1.00000E+01 1.00000E+01
 -1       977 2.70996E+01 8.31543E+00 1.00000E+01
 -1       978 2.86621E+01 8.21777E+00 1.00000E+01
 -1       979 2.85156E+01 1.00000E+01 1.00000E+01
 -1       980 2.96875E+01 1.00000E+01 1.00000E+01
 -1       981 3.02246E+01 8.12012E+00 1.00000E+01
 -1       982 3.08594E+01 1.00000E+01 1.00000E+01
 -1       983 3.16895E+01 8.81836E+00 1.00000E+01
 -1       984 3.24219E+01 1.00000E+01 1.00000E+01
 -1       985 1.00000E+02 9.37500E-01 1.00000E+01
 -1       986 9.79980E+01 1.31348E+00 1.00000E+01
 -1       987 9.96094E+01 0.00000E+00 9.84375E+00
 -1       988 3.32520E+01 8.75977E+00 1.00000E+01
 -1       989 3.35938E+01 1.00000E+01 1.00000E+01
 -1       990 3.39844E+01 7.35107E+00 1.00000E+01
 -1       991 3.48145E+01 8.70117E+00 1.00000E+01
 -1       992 3.47656E+01 1.00000E+01 1.00000E+01
 -1       993 3.53516E+01 7.02148E+00 1.00000E+01
 -1       994 3.59375E+01 1.00000E+01 1.00000E+01
 -1       995 3.63770E+01 7.50610E+00 1.00000E+01
 -1       996 3.71094E+01 1.00000E+01 1.00000E+01
 -1       997 9.89075E+01 2.88269E+00 1.00000E+01
 -1       998 1.00000E+02 2.65625E+00 1.00000E+01
 -1       999 3.80859E+01 8.34229E+00 1.00000E+01
 -1      1000 3.77197E+01 7.05933E+00 1.00000E+01
 -1      1001 3.82812E+01 1.00000E+01 1.00000E+01
 -1      1002 3.94043E+01 8.65479E+00 1.00000E+01
 -1      1003 3.94531E+01 1.00000E+01 1.00000E+01
 -1      1004 3.88916E+01 6.96777E+00 1.00000E+01
 -1      1005 3.99170E+01 7.51709E+00 1.00000E+01
 -1      1006 4.08325E+01 8.09570E+00 1.00000E+01
 -1      1007 4.06250E+01 1.00000E+01 1.00000E+01
 -1      1008 4.06982E+01 6.69922E+00 1.00000E+01
 -1      1009 4.17969E+01 1.00000E+01 1.00000E+01
 -1      1010 4.20044E+01 8.04077E+00 1.00000E+01
 -1      1011 4.18701E+01 6.60400E+00 1.00000E+01
 -1      1012 4.34509E+01 8.85437E+00 1.00000E+01
 -1      1013 4.33594E+01 1.00000E+01 1.00000E+01
 -1      1014 4.31396E+01 7.58301E+00 1.00000E+01
 -1      1015 4.30420E+01 6.50879E+00 1.00000E+01
 -1      1016 4.43115E+01 7.51709E+00 1.00000E+01
 -1      1017 4.42139E+01 6.41357E+00 1.00000E+01
 -1      1018 1.00000E+02 7.81250E+00 1.00000E+01
 -1      1019 9.85352E+01 8.05664E+00 1.00000E+01
 -1      1020 9.64844E+01 1.00000E+01 1.00000E+01
 -1      1021 9.78516E+01 8.83789E+00 1.00000E+01
 -1      1022 4.47876E+01 8.46802E+00 1.00000E+01
 -1      1023 4.49219E+01 1.00000E+01 1.00000E+01
 -1      1024 4.58740E+01 7.42920E+00 1.00000E+01
 -1      1025 4.63501E+01 8.41431E+00 1.00000E+01
 -1      1026 4.64844E+01 1.00000E+01 1.00000E+01
 -1      1027 4.71924E+01 9.12109E+00 1.00000E+01
 -1      1028 4.75708E+01 7.18323E+00 1.00000E+01
 -1      1029 4.80469E+01 1.00000E+01 1.00000E+01
 -1      1030 4.89197E+01 8.70911E+00 1.00000E+01
 -1      1031 4.89990E+01 7.25342E+00 1.00000E+01
 -1      1032 4.96094E+01 1.00000E+01 1.00000E+01
 -1      1033 5.06653E+01 8.50403E+00 1.00000E+01
 -1      1034 5.05615E+01 7.16553E+00 1.00000E+01
 -1      1035 5.00732E+01 5.93750E+00 1.00000E+01
 -1      1036 5.11719E+01 1.00000E+01 1.00000E+01
 -1      1037 5.12451E+01 5.84229E+00 1.00000E+01
 -1      1038 1.00000E+02 4.53125E+00 1.00000E+01
 -1      1039 5.17334E+01 7.09961E+00 1.00000E+01
 -1      1040 5.26123E+01 8.36426E+00 1.00000E+01
 -1      1041 5.29053E+01 7.03369E+00 1.00000E+01
 -1      1042 5.28076E+01 5.71533E+00 1.00000E+01
 -1      1043 5.27344E+01 1.00000E+01 1.00000E+01
 -1      1044 5.42480E+01 7.97607E+00 1.00000E+01
 -1      1045 5.38330E+01 8.99658E+00 1.00000E+01
 -1      1046 5.42969E+01 1.00000E+01 1.00000E+01
 -1      1047 9.83582E+01 6.70898E+00 1.00000E+01
 -1      1048 1.00000E+02 6.40625E+00 1.00000E+01
 -1      1049 5.40283E+01 6.29395E+00 1.00000E+01
 -1      1050 5.52979E+01 7.59033E+00 1.00000E+01
 -1      1051 5.52002E+01 6.21338E+00 1.00000E+01
 -1      1052 5.51270E+01 5.18066E+00 1.00000E+01
 -1      1053 5.53955E+01 8.96729E+00 1.00000E+01
 -1      1054 5.58594E+01 1.00000E+01 1.00000E+01
 -1      1055 9.74731E+01 2.37183E+00 1.00000E+01
 -1      1056 5.64941E+01 7.89062E+00 1.00000E+01
 -1      1057 5.65674E+01 8.94531E+00 1.00000E+01
 -1      1058 5.64209E+01 6.83594E+00 1.00000E+01
 -1      1059 5.63232E+01 5.42969E+00 1.00000E+01
 -1      1060 5.74219E+01 1.00000E+01 1.00000E+01
 -1      1061 5.75928E+01 6.77002E+00 1.00000E+01
 -1      1062 5.75195E+01 5.69336E+00 1.00000E+01
 -1      1063 5.80566E+01 7.83203E+00 1.00000E+01
 -1      1064 5.81299E+01 8.91602E+00 1.00000E+01
 -1      1065 5.89844E+01 1.00000E+01 1.00000E+01
 -1      1066 5.92773E+01 7.04468E+00 1.00000E+01
 -1      1067 5.90942E+01 5.75928E+00 1.00000E+01
 -1      1068 9.70840E+01 7.58347E+00 1.00000E+01
 -1      1069 9.66309E+01 8.78906E+00 1.00000E+01
 -1      1070 5.93018E+01 8.89404E+00 1.00000E+01
 -1      1071 6.04248E+01 8.12012E+00 1.00000E+01
 -1      1072 6.05469E+01 1.00000E+01 1.00000E+01
 -1      1073 6.07422E+01 6.97266E+00 1.00000E+01
 -1      1074 6.06689E+01 5.83740E+00 1.00000E+01
 -1      1075 6.17432E+01 7.30713E+00 1.00000E+01
 -1      1076 6.20361E+01 8.84277E+00 1.00000E+01
 -1      1077 6.21094E+01 1.00000E+01 1.00000E+01
 -1      1078 6.18408E+01 5.75684E+00 1.00000E+01
 -1      1079 6.27441E+01 7.65625E+00 1.00000E+01
 -1      1080 6.30615E+01 6.46240E+00 1.00000E+01
 -1      1081 6.29883E+01 5.28320E+00 1.00000E+01
 -1      1082 6.35986E+01 8.81348E+00 1.00000E+01
 -1      1083 6.32812E+01 1.00000E+01 1.00000E+01
 -1      1084 6.39160E+01 7.61230E+00 1.00000E+01
 -1      1085 6.44531E+01 1.00000E+01 1.00000E+01
 -1      1086 6.48682E+01 7.17285E+00 1.00000E+01
 -1      1087 6.45752E+01 5.56885E+00 1.00000E+01
 -1      1088 6.51611E+01 8.78418E+00 1.00000E+01
 -1      1089 9.81071E+01 3.78174E+00 1.00000E+01
 -1      1090 6.60156E+01 1.00000E+01 1.00000E+01
 -1      1091 6.61865E+01 6.28662E+00 1.00000E+01
 -1      1092 6.63208E+01 4.56543E+00 1.00000E+01
 -1      1093 6.66504E+01 7.50977E+00 1.00000E+01
 -1      1094 6.66138E+01 8.65234E+00 1.00000E+01
 -1      1095 6.76453E+01 8.78906E+00 1.00000E+01
 -1      1096 6.75781E+01 1.00000E+01 1.00000E+01
 -1      1097 6.77490E+01 6.19873E+00 1.00000E+01
 -1      1098 6.77429E+01 4.20929E+00 1.00000E+01
 -1      1099 6.82129E+01 7.45117E+00 1.00000E+01
 -1      1100 6.89575E+01 8.60474E+00 1.00000E+01
 -1      1101 6.91406E+01 1.00000E+01 1.00000E+01
 -1      1102 6.91650E+01 6.98486E+00 1.00000E+01
 -1      1103 6.92871E+01 5.67871E+00 1.00000E+01
 -1      1104 6.99890E+01 8.74695E+00 1.00000E+01
 -1      1105 7.01172E+01 6.50391E+00 1.00000E+01
 -1      1106 7.08618E+01 7.68433E+00 1.00000E+01
 -1      1107 7.07031E+01 1.00000E+01 1.00000E+01
 -1      1108 7.10571E+01 5.06775E+00 1.00000E+01
 -1      1109 7.12158E+01 8.89160E+00 1.00000E+01
 -1      1110 7.16797E+01 6.42578E+00 1.00000E+01
 -1      1111 7.23816E+01 7.80273E+00 1.00000E+01
 -1      1112 7.23877E+01 8.87329E+00 1.00000E+01
 -1      1113 7.22656E+01 1.00000E+01 1.00000E+01
 -1      1114 7.26196E+01 4.95911E+00 1.00000E+01
 -1      1115 7.28516E+01 6.36719E+00 1.00000E+01
 -1      1116 7.35962E+01 7.59277E+00 1.00000E+01
 -1      1117 7.39502E+01 8.84888E+00 1.00000E+01
 -1      1118 7.38281E+01 1.00000E+01 1.00000E+01
 -1      1119 7.40234E+01 6.30859E+00 1.00000E+01
 -1      1120 7.36572E+01 5.05981E+00 1.00000E+01
 -1      1121 7.46277E+01 7.73315E+00 1.00000E+01
 -1      1122 9.49219E+01 1.00000E+01 1.00000E+01
 -1      1123 7.50732E+01 6.02234E+00 1.00000E+01
 -1      1124 7.48779E+01 4.15771E+00 1.00000E+01
 -1      1125 7.55127E+01 8.82446E+00 1.00000E+01
 -1      1126 7.50000E+01 1.00000E+01 1.00000E+01
 -1      1127 7.57446E+01 7.52319E+00 1.00000E+01
 -1      1128 7.61719E+01 1.00000E+01 1.00000E+01
 -1      1129 7.64404E+01 5.94849E+00 1.00000E+01
 -1      1130 7.60742E+01 4.54102E+00 1.00000E+01
 -1      1131 7.64160E+01 3.55835E+00 1.00000E+01
 -1      1132 7.69165E+01 7.48474E+00 1.00000E+01
 -1      1133 7.66846E+01 8.80615E+00 1.00000E+01
 -1      1134 9.68117E+01 3.26263E+00 1.00000E+01
 -1      1135 9.55540E+01 2.87048E+00 1.00000E+01
 -1      1136 7.72461E+01 4.45679E+00 1.00000E+01
 -1      1137 7.78564E+01 8.78784E+00 1.00000E+01
 -1      1138 7.73438E+01 1.00000E+01 1.00000E+01
 -1      1139 7.78381E+01 6.48254E+00 1.00000E+01
 -1      1140 7.80762E+01 5.49622E+00 1.00000E+01
 -1      1141 7.85889E+01 7.79663E+00 1.00000E+01
 -1      1142 7.85156E+01 1.00000E+01 1.00000E+01
 -1      1143 7.88086E+01 4.34448E+00 1.00000E+01
 -1      1144 7.93091E+01 6.53931E+00 1.00000E+01
 -1      1145 7.90283E+01 8.76953E+00 1.00000E+01
 -1      1146 7.96387E+01 5.40588E+00 1.00000E+01
 -1      1147 8.00354E+01 7.44446E+00 1.00000E+01
 -1      1148 8.01147E+01 8.87817E+00 1.00000E+01
 -1      1149 8.00781E+01 1.00000E+01 1.00000E+01
 -1      1150 7.99805E+01 4.38477E+00 1.00000E+01
 -1      1151 9.55383E+01 8.32031E+00 1.00000E+01
 -1      1152 8.10852E+01 5.70435E+00 1.00000E+01
 -1      1153 8.10242E+01 4.69360E+00 1.00000E+01
 -1      1154 8.09631E+01 3.68286E+00 1.00000E+01
 -1      1155 8.11096E+01 7.09412E+00 1.00000E+01
 -1      1156 8.15552E+01 8.22266E+00 1.00000E+01
 -1      1157 8.16406E+01 1.00000E+01 1.00000E+01
 -1      1158 8.20496E+01 6.29089E+00 1.00000E+01
 -1      1159 8.22998E+01 7.43652E+00 1.00000E+01
 -1      1160 8.23730E+01 4.86084E+00 1.00000E+01
 -1      1161 8.25195E+01 3.81958E+00 1.00000E+01
 -1      1162 8.24707E+01 2.78931E+00 1.00000E+01
 -1      1163 9.37424E+01 2.45651E+00 1.00000E+01
 -1      1164 8.30444E+01 6.63574E+00 1.00000E+01
 -1      1165 8.27454E+01 8.58337E+00 1.00000E+01
 -1      1166 8.28125E+01 1.00000E+01 1.00000E+01
 -1      1167 8.33862E+01 5.57983E+00 1.00000E+01
 -1      1168 8.34900E+01 7.78992E+00 1.00000E+01
 -1      1169 8.39844E+01 1.00000E+01 1.00000E+01
 -1      1170 8.41309E+01 4.75220E+00 1.00000E+01
 -1      1171 8.36792E+01 3.46924E+00 1.00000E+01
 -1      1172 8.46863E+01 6.17249E+00 1.00000E+01
 -1      1173 8.46497E+01 7.49512E+00 1.00000E+01
 -1      1174 8.47046E+01 8.68164E+00 1.00000E+01
 -1      1175 8.48541E+01 3.44421E+00 1.00000E+01
 -1      1176 8.55469E+01 1.00000E+01 1.00000E+01
 -1      1177 8.57178E+01 5.18860E+00 1.00000E+01
 -1      1178 8.61694E+01 6.50879E+00 1.00000E+01
 -1      1179 8.58276E+01 7.59399E+00 1.00000E+01
 -1      1180 8.58765E+01 8.66333E+00 1.00000E+01
 -1      1181 8.65356E+01 3.78845E+00 1.00000E+01
 -1      1182 9.44267E+01 7.78915E+00 1.00000E+01
 -1      1183 8.68164E+01 7.83691E+00 1.00000E+01
 -1      1184 8.71094E+01 1.00000E+01 1.00000E+01
 -1      1185 8.72925E+01 5.37231E+00 1.00000E+01
 -1      1186 8.71704E+01 2.65015E+00 1.00000E+01
 -1      1187 8.73474E+01 6.59729E+00 1.00000E+01
 -1      1188 8.74390E+01 8.63892E+00 1.00000E+01
 -1      1189 8.80249E+01 4.23218E+00 1.00000E+01
 -1      1190 8.85315E+01 6.82739E+00 1.00000E+01
 -1      1191 8.85864E+01 8.06885E+00 1.00000E+01
 -1      1192 8.86719E+01 1.00000E+01 1.00000E+01
 -1      1193 8.88550E+01 5.28931E+00 1.00000E+01
 -1      1194 8.87451E+01 2.79419E+00 1.00000E+01
 -1      1195 8.91907E+01 4.01611E+00 1.00000E+01
 -1      1196 9.00757E+01 6.35010E+00 1.00000E+01
 -1      1197 9.01459E+01 7.96417E+00 1.00000E+01
 -1      1198 9.02344E+01 1.00000E+01 1.00000E+01
 -1      1199 9.04175E+01 5.20630E+00 1.00000E+01
 -1      1200 9.03687E+01 4.07837E+00 1.00000E+01
 -1      1201 9.03198E+01 2.95044E+00 1.00000E+01
 -1      1202 9.15756E+01 6.20026E+00 1.00000E+01
 -1      1203 9.17114E+01 8.00049E+00 1.00000E+01
 -1      1204 9.17969E+01 1.00000E+01 1.00000E+01
 -1      1205 9.15649E+01 4.57275E+00 1.00000E+01
 -1      1206 9.16962E+01 3.05786E+00 1.00000E+01
 -1      1207 9.27979E+01 4.89723E+00 1.00000E+01
 -1      1208 9.27216E+01 3.75183E+00 1.00000E+01
 -1      1209 9.31778E+01 7.99957E+00 1.00000E+01
 -1      1210 9.33594E+01 1.00000E+01 1.00000E+01
 -1      1211 9.81979E+01 5.21240E+00 1.00000E+01
 -1      1212 9.68349E+01 4.33464E+00 1.00000E+01
 -1      1213 9.68498E+01 5.84175E+00 1.00000E+01
 -1      1214 9.43539E+01 4.09447E+00 1.00000E+01
 -1      1215 9.35486E+01 6.27548E+00 1.00000E+01
 -1      1216 9.52950E+01 6.69449E+00 1.00000E+01
 -1      1217 9.43665E+01 5.53162E+00 1.00000E+01
 -1      1218 9.55498E+01 5.10536E+00 1.00000E+01
 -1      1219 1.00000E+02 0.00000E+00 1.09375E+00
 -1      1220 5.93872E+00 0.00000E+00 1.21887E+00
 -1      1221 7.20520E+00 0.00000E+00 1.33667E+00
 -1      1222 8.38623E+00 0.00000E+00 1.12549E+00
 -1      1223 1.04492E+01 0.00000E+00 7.81250E-01
 -1      1224 1.29944E+01 0.00000E+00 2.25403E+00
 -1      1225 1.43311E+01 0.00000E+00 1.97144E+00
 -1      1226 1.58936E+01 0.00000E+00 2.11792E+00
 -1      1227 1.75354E+01 0.00000E+00 2.08557E+00
 -1      1228 1.86279E+01 0.00000E+00 1.21582E+00
 -1      1229 2.00928E+01 0.00000E+00 1.24512E+00
 -1      1230 1.90948E+01 0.00000E+00 2.79968E+00
 -1      1231 2.04834E+01 0.00000E+00 2.79785E+00
 -1      1232 2.12402E+01 0.00000E+00 1.31836E+00
 -1      1233 2.24121E+01 0.00000E+00 1.39160E+00
 -1      1234 2.20703E+01 0.00000E+00 2.45239E+00
 -1      1235 9.85840E+01 0.00000E+00 8.50586E+00
 -1      1236 1.00000E+02 0.00000E+00 8.28125E+00
 -1      1237 2.39746E+01 0.00000E+00 1.48926E+00
 -1      1238 2.32422E+01 0.00000E+00 2.56592E+00
 -1      1239 2.44141E+01 0.00000E+00 2.67944E+00
 -1      1240 2.55371E+01 0.00000E+00 1.58691E+00
 -1      1241 2.59766E+01 0.00000E+00 2.83081E+00
 -1      1242 2.67090E+01 0.00000E+00 1.66016E+00
 -1      1243 2.78809E+01 0.00000E+00 1.73340E+00
 -1      1244 2.75391E+01 0.00000E+00 2.98218E+00
 -1      1245 2.90527E+01 0.00000E+00 1.80664E+00
 -1      1246 2.90771E+01 0.00000E+00 3.57666E+00
 -1      1247 3.02246E+01 0.00000E+00 1.87988E+00
 -1      1248 3.06396E+01 0.00000E+00 4.12537E+00
 -1      1249 3.14453E+01 0.00000E+00 1.56250E+00
 -1      1250 3.16162E+01 0.00000E+00 2.66235E+00
 -1      1251 3.26172E+01 0.00000E+00 1.62109E+00
 -1      1252 3.30566E+01 0.00000E+00 3.09937E+00
 -1      1253 3.40088E+01 0.00000E+00 2.43896E+00
 -1      1254 9.81445E+01 0.00000E+00 1.23535E+00
 -1      1255 3.48145E+01 0.00000E+00 1.29883E+00
 -1      1256 3.45703E+01 0.00000E+00 4.43329E+00
 -1      1257 3.53516E+01 0.00000E+00 2.97852E+00
 -1      1258 3.58398E+01 0.00000E+00 8.88672E-01
 -1      1259 3.62061E+01 0.00000E+00 2.13867E+00
 -1      1260 3.62061E+01 0.00000E+00 4.12170E+00
 -1      1261 3.70117E+01 0.00000E+00 9.17969E-01
 -1      1262 3.69385E+01 0.00000E+00 2.87964E+00
 -1      1263 1.00000E+02 0.00000E+00 6.56250E+00
 -1      1264 3.80859E+01 0.00000E+00 1.65771E+00
 -1      1265 3.77686E+01 0.00000E+00 4.26575E+00
 -1      1266 3.85010E+01 0.00000E+00 3.00171E+00
 -1      1267 9.88892E+01 0.00000E+00 2.77344E+00
 -1      1268 1.00000E+02 0.00000E+00 2.81250E+00
 -1      1269 3.91113E+01 0.00000E+00 1.45996E+00
 -1      1270 3.94775E+01 0.00000E+00 4.02191E+00
 -1      1271 4.01001E+01 0.00000E+00 1.24390E+00
 -1      1272 3.99170E+01 0.00000E+00 2.48291E+00
 -1      1273 4.11804E+01 0.00000E+00 2.37183E+00
 -1      1274 4.10767E+01 0.00000E+00 3.46191E+00
 -1      1275 4.08936E+01 0.00000E+00 4.55383E+00
 -1      1276 4.16748E+01 0.00000E+00 1.29395E+00
 -1      1277 9.74609E+01 0.00000E+00 9.05273E+00
 -1      1278 4.23584E+01 0.00000E+00 2.37305E+00
 -1      1279 4.26575E+01 0.00000E+00 3.39233E+00
 -1      1280 4.24561E+01 0.00000E+00 4.69788E+00
 -1      1281 4.31152E+01 0.00000E+00 1.60889E+00
 -1      1282 4.42871E+01 0.00000E+00 2.76123E+00
 -1      1283 4.40918E+01 0.00000E+00 3.85498E+00
 -1      1284 4.46777E+01 0.00000E+00 1.66748E+00
 -1      1285 4.58740E+01 0.00000E+00 2.57080E+00
 -1      1286 4.57764E+01 0.00000E+00 3.71338E+00
 -1      1287 4.52881E+01 0.00000E+00 4.87305E+00
 -1      1288 4.63745E+01 0.00000E+00 1.29639E+00
 -1      1289 4.67163E+01 0.00000E+00 4.22852E+00
 -1      1290 4.74365E+01 0.00000E+00 2.65869E+00
 -1      1291 4.79126E+01 0.00000E+00 1.63940E+00
 -1      1292 4.80835E+01 0.00000E+00 4.35425E+00
 -1      1293 4.89258E+01 0.00000E+00 2.43530E+00
 -1      1294 4.97559E+01 0.00000E+00 3.09814E+00
 -1      1295 4.94385E+01 0.00000E+00 4.63379E+00
 -1      1296 4.98779E+01 0.00000E+00 1.55029E+00
 -1      1297 5.04639E+01 0.00000E+00 4.09424E+00
 -1      1298 5.10620E+01 0.00000E+00 1.42822E+00
 -1      1299 5.13428E+01 0.00000E+00 2.87842E+00
 -1      1300 5.11719E+01 0.00000E+00 5.11719E+00
 -1      1301 9.85687E+01 0.00000E+00 6.33148E+00
 -1      1302 5.20264E+01 0.00000E+00 4.22119E+00
 -1      1303 5.21973E+01 0.00000E+00 1.94824E+00
 -1      1304 5.26611E+01 0.00000E+00 9.81445E-01
 -1      1305 5.25146E+01 0.00000E+00 2.94434E+00
 -1      1306 5.29053E+01 0.00000E+00 5.58594E+00
 -1      1307 5.33691E+01 0.00000E+00 1.99219E+00
 -1      1308 5.36865E+01 0.00000E+00 3.01025E+00
 -1      1309 5.35889E+01 0.00000E+00 4.34814E+00
 -1      1310 5.42236E+01 0.00000E+00 1.01074E+00
 -1      1311 1.00000E+02 0.00000E+00 4.06250E+00
 -1      1312 5.43457E+01 0.00000E+00 6.00830E+00
 -1      1313 5.47119E+01 0.00000E+00 2.38525E+00
 -1      1314 5.52002E+01 0.00000E+00 3.78662E+00
 -1      1315 5.51270E+01 0.00000E+00 4.81934E+00
 -1      1316 5.57373E+01 0.00000E+00 1.73340E+00
 -1      1317 5.60425E+01 0.00000E+00 2.96875E+00
 -1      1318 5.56396E+01 0.00000E+00 5.84473E+00
 -1      1319 9.72797E+01 0.00000E+00 6.83029E+00
 -1      1320 9.69116E+01 0.00000E+00 8.17749E+00
 -1      1321 5.63232E+01 0.00000E+00 4.57031E+00
 -1      1322 5.73730E+01 0.00000E+00 2.14111E+00
 -1      1323 5.69580E+01 0.00000E+00 1.06201E+00
 -1      1324 5.71533E+01 0.00000E+00 3.92090E+00
 -1      1325 5.71533E+01 0.00000E+00 5.26611E+00
 -1      1326 5.83740E+01 0.00000E+00 3.27393E+00
 -1      1327 5.83130E+01 0.00000E+00 4.86969E+00
 -1      1328 5.88379E+01 0.00000E+00 2.19727E+00
 -1      1329 5.89111E+01 0.00000E+00 1.09863E+00
 -1      1330 9.77234E+01 0.00000E+00 2.81250E+00
 -1      1331 9.69116E+01 0.00000E+00 1.51367E+00
 -1      1332 5.99487E+01 0.00000E+00 3.17627E+00
 -1      1333 5.98755E+01 0.00000E+00 4.29688E+00
 -1      1334 5.94971E+01 0.00000E+00 5.48218E+00
 -1      1335 6.04248E+01 0.00000E+00 1.87988E+00
 -1      1336 6.05225E+01 0.00000E+00 5.97809E+00
 -1      1337 1.00000E+02 0.00000E+00 5.31250E+00
 -1      1338 6.17432E+01 0.00000E+00 2.69043E+00
 -1      1339 6.14502E+01 0.00000E+00 4.21631E+00
 -1      1340 6.20361E+01 0.00000E+00 1.15723E+00
 -1      1341 6.22314E+01 0.00000E+00 5.73425E+00
 -1      1342 6.26953E+01 0.00000E+00 3.12500E+00
 -1      1343 6.30127E+01 0.00000E+00 4.32373E+00
 -1      1344 6.31592E+01 0.00000E+00 1.96533E+00
 -1      1345 6.40381E+01 0.00000E+00 3.59375E+00
 -1      1346 6.37939E+01 0.00000E+00 5.87830E+00
 -1      1347 6.43311E+01 0.00000E+00 2.00195E+00
 -1      1348 6.48193E+01 0.00000E+00 5.15991E+00
 -1      1349 6.51855E+01 0.00000E+00 8.10547E-01
 -1      1350 6.54053E+01 0.00000E+00 3.66943E+00
 -1      1351 6.54297E+01 0.00000E+00 6.33667E+00
 -1      1352 6.54785E+01 0.00000E+00 2.44629E+00
 -1      1353 6.62231E+01 0.00000E+00 1.33789E+00
 -1      1354 6.63208E+01 0.00000E+00 5.43457E+00
 -1      1355 6.66504E+01 0.00000E+00 2.49023E+00
 -1      1356 6.65771E+01 0.00000E+00 3.73535E+00
 -1      1357 6.69434E+01 0.00000E+00 6.90063E+00
 -1      1358 6.73950E+01 0.00000E+00 1.36353E+00
 -1      1359 6.77979E+01 0.00000E+00 2.95654E+00
 -1      1360 6.77246E+01 0.00000E+00 4.22363E+00
 -1      1361 6.77429E+01 0.00000E+00 5.79071E+00
 -1      1362 6.84265E+01 0.00000E+00 1.22498E+00
 -1      1363 6.83838E+01 0.00000E+00 7.33765E+00
 -1      1364 6.89697E+01 0.00000E+00 3.00781E+00
 -1      1365 6.92871E+01 0.00000E+00 4.32129E+00
 -1      1366 6.91162E+01 0.00000E+00 5.50049E+00
 -1      1367 6.97388E+01 0.00000E+00 1.41113E+00
 -1      1368 7.01172E+01 0.00000E+00 3.49609E+00
 -1      1369 6.98853E+01 0.00000E+00 6.49384E+00
 -1      1370 7.08618E+01 0.00000E+00 2.31567E+00
 -1      1371 7.08252E+01 0.00000E+00 1.10229E+00
 -1      1372 7.10571E+01 0.00000E+00 4.93225E+00
 -1      1373 9.52637E+01 0.00000E+00 8.58887E+00
 -1      1374 9.89456E+01 0.00000E+00 5.25543E+00
 -1      1375 7.16797E+01 0.00000E+00 3.57422E+00
 -1      1376 7.17041E+01 0.00000E+00 6.49414E+00
 -1      1377 7.23816E+01 0.00000E+00 2.19727E+00
 -1      1378 7.19971E+01 0.00000E+00 1.12061E+00
 -1      1379 7.20947E+01 0.00000E+00 4.83521E+00
 -1      1380 7.31689E+01 0.00000E+00 1.13892E+00
 -1      1381 7.28516E+01 0.00000E+00 3.63281E+00
 -1      1382 7.34009E+01 0.00000E+00 5.09521E+00
 -1      1383 7.30713E+01 0.00000E+00 6.61682E+00
 -1      1384 7.35962E+01 0.00000E+00 2.40723E+00
 -1      1385 7.40234E+01 0.00000E+00 3.69141E+00
 -1      1386 7.46277E+01 0.00000E+00 2.26685E+00
 -1      1387 7.47314E+01 0.00000E+00 1.16333E+00
 -1      1388 9.83765E+01 0.00000E+00 4.06067E+00
 -1      1389 7.49512E+01 0.00000E+00 4.43970E+00
 -1      1390 7.48779E+01 0.00000E+00 5.84229E+00
 -1      1391 7.40234E+01 0.00000E+00 7.16919E+00
 -1      1392 7.55859E+01 0.00000E+00 3.53394E+00
 -1      1393 7.55859E+01 0.00000E+00 7.32056E+00
 -1      1394 7.61353E+01 0.00000E+00 2.48962E+00
 -1      1395 7.62939E+01 0.00000E+00 1.18774E+00
 -1      1396 7.65137E+01 0.00000E+00 4.53247E+00
 -1      1397 7.60742E+01 0.00000E+00 5.45898E+00
 -1      1398 7.64160E+01 0.00000E+00 6.44165E+00
 -1      1399 9.57344E+01 0.00000E+00 7.10510E+00
 -1      1400 9.38293E+01 0.00000E+00 8.91418E+00
 -1      1401 7.71484E+01 0.00000E+00 3.60718E+00
 -1      1402 7.72461E+01 0.00000E+00 5.54321E+00
 -1      1403 7.71484E+01 0.00000E+00 7.47192E+00
 -1      1404 7.73071E+01 0.00000E+00 2.52808E+00
 -1      1405 7.78564E+01 0.00000E+00 1.21216E+00
 -1      1406 7.80762E+01 0.00000E+00 4.50378E+00
 -1      1407 7.79785E+01 0.00000E+00 6.57349E+00
 -1      1408 7.85278E+01 0.00000E+00 3.42651E+00
 -1      1409 7.85889E+01 0.00000E+00 2.20337E+00
 -1      1410 7.88086E+01 0.00000E+00 5.65552E+00
 -1      1411 7.83203E+01 0.00000E+00 7.58545E+00
 -1      1412 7.90283E+01 0.00000E+00 1.23047E+00
 -1      1413 7.96387E+01 0.00000E+00 4.59412E+00
 -1      1414 7.95166E+01 0.00000E+00 7.20215E+00
 -1      1415 7.96997E+01 0.00000E+00 3.47778E+00
 -1      1416 8.02460E+01 0.00000E+00 2.31110E+00
 -1      1417 8.01147E+01 0.00000E+00 1.12183E+00
 -1      1418 7.99805E+01 0.00000E+00 5.61523E+00
 -1      1419 9.63470E+01 0.00000E+00 2.72079E+00
 -1      1420 9.51591E+01 0.00000E+00 1.83701E+00
 -1      1421 8.06946E+01 0.00000E+00 3.26843E+00
 -1      1422 8.10852E+01 0.00000E+00 4.29565E+00
 -1      1423 8.10242E+01 0.00000E+00 5.30640E+00
 -1      1424 8.09601E+01 0.00000E+00 6.38062E+00
 -1      1425 8.08899E+01 0.00000E+00 7.51770E+00
 -1      1426 8.15796E+01 0.00000E+00 1.26953E+00
 -1      1427 8.22632E+01 0.00000E+00 3.33252E+00
 -1      1428 8.23120E+01 0.00000E+00 2.30713E+00
 -1      1429 8.26050E+01 0.00000E+00 4.37866E+00
 -1      1430 8.21655E+01 0.00000E+00 5.38330E+00
 -1      1431 8.25073E+01 0.00000E+00 6.43921E+00
 -1      1432 8.24554E+01 0.00000E+00 7.53418E+00
 -1      1433 8.15796E+01 0.00000E+00 8.77197E+00
 -1      1434 9.44038E+01 0.00000E+00 7.51236E+00
 -1      1435 8.27576E+01 0.00000E+00 1.15906E+00
 -1      1436 8.33374E+01 0.00000E+00 5.46021E+00
 -1      1437 8.38287E+01 0.00000E+00 3.33099E+00
 -1      1438 8.41003E+01 0.00000E+00 1.70166E+00
 -1      1439 8.41644E+01 0.00000E+00 4.52759E+00
 -1      1440 8.36792E+01 0.00000E+00 6.53076E+00
 -1      1441 8.40210E+01 0.00000E+00 7.61108E+00
 -1      1442 8.40820E+01 0.00000E+00 8.80859E+00
 -1      1443 8.48572E+01 0.00000E+00 6.48987E+00
 -1      1444 8.53882E+01 0.00000E+00 3.45947E+00
 -1      1445 8.54370E+01 0.00000E+00 2.39502E+00
 -1      1446 8.54889E+01 0.00000E+00 1.26434E+00
 -1      1447 8.57086E+01 0.00000E+00 5.01282E+00
 -1      1448 8.55835E+01 0.00000E+00 7.75269E+00
 -1      1449 8.56445E+01 0.00000E+00 8.92578E+00
 -1      1450 8.66028E+01 0.00000E+00 6.89514E+00
 -1      1451 9.33411E+01 0.00000E+00 1.10474E+00
 -1      1452 8.65601E+01 0.00000E+00 3.50708E+00
 -1      1453 8.69995E+01 0.00000E+00 2.43896E+00
 -1      1454 8.66638E+01 0.00000E+00 1.21399E+00
 -1      1455 8.72894E+01 0.00000E+00 4.69543E+00
 -1      1456 8.67310E+01 0.00000E+00 8.40088E+00
 -1      1457 8.77319E+01 0.00000E+00 3.55469E+00
 -1      1458 8.78296E+01 0.00000E+00 1.36719E+00
 -1      1459 8.76343E+01 0.00000E+00 5.74219E+00
 -1      1460 8.79761E+01 0.00000E+00 6.86646E+00
 -1      1461 8.79272E+01 0.00000E+00 7.96509E+00
 -1      1462 8.79883E+01 0.00000E+00 9.10156E+00
 -1      1463 8.81714E+01 0.00000E+00 2.47192E+00
 -1      1464 8.93646E+01 0.00000E+00 4.24896E+00
 -1      1465 8.88062E+01 0.00000E+00 5.81909E+00
 -1      1466 8.93188E+01 0.00000E+00 3.06152E+00
 -1      1467 8.93677E+01 0.00000E+00 1.94824E+00
 -1      1468 8.95569E+01 0.00000E+00 6.56860E+00
 -1      1469 8.94440E+01 0.00000E+00 8.03223E+00
 -1      1470 9.00024E+01 0.00000E+00 5.33447E+00
 -1      1471 9.08783E+01 0.00000E+00 3.18573E+00
 -1      1472 9.05579E+01 0.00000E+00 1.55090E+00
 -1      1473 9.11987E+01 0.00000E+00 4.83521E+00
 -1      1474 9.11499E+01 0.00000E+00 5.97290E+00
 -1      1475 9.11011E+01 0.00000E+00 7.11060E+00
 -1      1476 9.12384E+01 0.00000E+00 8.48022E+00
 -1      1477 9.17358E+01 0.00000E+00 1.42822E+00
 -1      1478 9.23584E+01 0.00000E+00 4.24500E+00
 -1      1479 9.22363E+01 0.00000E+00 2.79968E+00
 -1      1480 9.27856E+01 0.00000E+00 5.39085E+00
 -1      1481 9.22974E+01 0.00000E+00 6.62598E+00
 -1      1482 9.26529E+01 0.00000E+00 7.74826E+00
 -1      1483 9.25171E+01 0.00000E+00 8.88428E+00
 -1      1484 9.36554E+01 0.00000E+00 2.20642E+00
 -1      1485 9.78027E+01 0.00000E+00 5.15564E+00
 -1      1486 9.69769E+01 0.00000E+00 4.16267E+00
 -1      1487 9.34540E+01 0.00000E+00 6.64490E+00
 -1      1488 9.38667E+01 0.00000E+00 3.53554E+00
 -1      1489 9.62021E+01 0.00000E+00 5.46589E+00
 -1      1490 9.44675E+01 0.00000E+00 6.02455E+00
 -1      1491 9.55486E+01 0.00000E+00 3.70544E+00
 -1      1492 9.43710E+01 0.00000E+00 4.67209E+00
 -1      1493 0.00000E+00 0.00000E+00 1.56250E+00
 -1      1494 7.99072E+01 0.00000E+00 8.75488E+00
 -1      1495 7.84912E+01 0.00000E+00 9.06494E+00
 -1      1496 7.71240E+01 0.00000E+00 9.00879E+00
 -1      1497 7.60254E+01 0.00000E+00 8.51074E+00
 -1      1498 7.44629E+01 0.00000E+00 8.41309E+00
 -1      1499 7.29004E+01 0.00000E+00 8.31543E+00
 -1      1500 7.13379E+01 0.00000E+00 8.21777E+00
 -1      1501 6.97754E+01 0.00000E+00 8.12012E+00
 -1      1502 6.81641E+01 0.00000E+00 8.41797E+00
 -1      1503 1.51367E+00 0.00000E+00 1.82129E+00
 -1      1504 6.69922E+01 0.00000E+00 8.35938E+00
 -1      1505 6.59668E+01 0.00000E+00 8.73047E+00
 -1      1506 6.60156E+01 0.00000E+00 7.35107E+00
 -1      1507 0.00000E+00 0.00000E+00 8.43750E+00
 -1      1508 1.36719E+00 0.00000E+00 8.13477E+00
 -1      1509 2.27051E+00 0.00000E+00 8.98438E+00
 -1      1510 6.45996E+01 0.00000E+00 8.68164E+00
 -1      1511 6.46484E+01 0.00000E+00 7.02148E+00
 -1      1512 6.37939E+01 0.00000E+00 7.86133E+00
 -1      1513 6.30615E+01 0.00000E+00 7.12036E+00
 -1      1514 0.00000E+00 0.00000E+00 3.28125E+00
 -1      1515 6.18652E+01 0.00000E+00 8.69751E+00
 -1      1516 6.14990E+01 0.00000E+00 6.99829E+00
 -1      1517 0.00000E+00 0.00000E+00 7.18750E+00
 -1      1518 6.05957E+01 0.00000E+00 8.65479E+00
 -1      1519 6.00830E+01 0.00000E+00 7.51709E+00
 -1      1520 5.91003E+01 0.00000E+00 8.79333E+00
 -1      1521 5.88135E+01 0.00000E+00 7.69287E+00
 -1      1522 5.89111E+01 0.00000E+00 6.66748E+00
 -1      1523 2.53906E+00 0.00000E+00 9.66797E-01
 -1      1524 5.76660E+01 0.00000E+00 8.42041E+00
 -1      1525 5.77271E+01 0.00000E+00 6.70410E+00
 -1      1526 5.64331E+01 0.00000E+00 7.96753E+00
 -1      1527 5.65674E+01 0.00000E+00 6.47705E+00
 -1      1528 5.51453E+01 0.00000E+00 8.67615E+00
 -1      1529 5.49316E+01 0.00000E+00 7.19482E+00
 -1      1530 5.37170E+01 0.00000E+00 8.19885E+00
 -1      1531 5.33936E+01 0.00000E+00 6.80420E+00
 -1      1532 5.23315E+01 0.00000E+00 7.77344E+00
 -1      1533 5.18799E+01 0.00000E+00 6.09619E+00
 -1      1534 5.11597E+01 0.00000E+00 7.71851E+00
 -1      1535 5.01038E+01 0.00000E+00 6.18774E+00
 -1      1536 4.98535E+01 0.00000E+00 8.12744E+00
 -1      1537 4.89014E+01 0.00000E+00 9.04785E+00
 -1      1538 4.90479E+01 0.00000E+00 7.14355E+00
 -1      1539 4.87549E+01 0.00000E+00 5.84229E+00
 -1      1540 1.43127E+00 0.00000E+00 3.66852E+00
 -1      1541 4.85840E+01 0.00000E+00 8.08105E+00
 -1      1542 4.78760E+01 0.00000E+00 7.07764E+00
 -1      1543 4.73755E+01 0.00000E+00 8.52783E+00
 -1      1544 4.75830E+01 0.00000E+00 5.74707E+00
 -1      1545 4.63135E+01 0.00000E+00 6.98975E+00
 -1      1546 4.64111E+01 0.00000E+00 5.65186E+00
 -1      1547 4.60022E+01 0.00000E+00 8.57239E+00
 -1      1548 4.47510E+01 0.00000E+00 6.90186E+00
 -1      1549 4.52148E+01 0.00000E+00 5.89844E+00
 -1      1550 4.42871E+01 0.00000E+00 7.91992E+00
 -1      1551 4.42139E+01 0.00000E+00 8.95996E+00
 -1      1552 4.40674E+01 0.00000E+00 5.46143E+00
 -1      1553 2.46582E+00 0.00000E+00 2.36572E+00
 -1      1554 3.56445E+00 0.00000E+00 1.26465E+00
 -1      1555 4.31885E+01 0.00000E+00 6.81396E+00
 -1      1556 4.27002E+01 0.00000E+00 8.21777E+00
 -1      1557 4.28711E+01 0.00000E+00 5.72266E+00
 -1      1558 4.13818E+01 0.00000E+00 7.44629E+00
 -1      1559 4.16748E+01 0.00000E+00 5.99854E+00
 -1      1560 4.14795E+01 0.00000E+00 8.90869E+00
 -1      1561 2.52686E+00 0.00000E+00 7.88086E+00
 -1      1562 4.03076E+01 0.00000E+00 8.88672E+00
 -1      1563 4.00635E+01 0.00000E+00 6.63818E+00
 -1      1564 4.01367E+01 0.00000E+00 5.51758E+00
 -1      1565 3.99902E+01 0.00000E+00 7.75879E+00
 -1      1566 0.00000E+00 0.00000E+00 4.68750E+00
 -1      1567 3.88428E+01 0.00000E+00 7.33398E+00
 -1      1568 3.87451E+01 0.00000E+00 8.85742E+00
 -1      1569 3.89404E+01 0.00000E+00 5.81055E+00
 -1      1570 3.77075E+01 0.00000E+00 6.70166E+00
 -1      1571 3.77808E+01 0.00000E+00 5.53711E+00
 -1      1572 3.76221E+01 0.00000E+00 8.05908E+00
 -1      1573 3.64502E+01 0.00000E+00 8.02246E+00
 -1      1574 3.61328E+01 0.00000E+00 6.81641E+00
 -1      1575 3.62061E+01 0.00000E+00 5.62256E+00
 -1      1576 2.08740E+00 0.00000E+00 6.79688E+00
 -1      1577 1.01929E+00 0.00000E+00 5.89844E+00
 -1      1578 0.00000E+00 0.00000E+00 5.93750E+00
 -1      1579 3.55957E+01 0.00000E+00 9.19922E+00
 -1      1580 3.49365E+01 0.00000E+00 7.16309E+00
 -1      1581 3.46436E+01 0.00000E+00 8.78174E+00
 -1      1582 3.46191E+01 0.00000E+00 5.92285E+00
 -1      1583 3.35693E+01 0.00000E+00 7.10449E+00
 -1      1584 3.30383E+01 0.00000E+00 8.80249E+00
 -1      1585 3.30566E+01 0.00000E+00 5.82520E+00
 -1      1586 3.32275E+01 0.00000E+00 4.68628E+00
 -1      1587 3.20068E+01 0.00000E+00 7.03613E+00
 -1      1588 3.21045E+01 0.00000E+00 3.95691E+00
 -1      1589 3.14758E+01 0.00000E+00 8.77441E+00
 -1      1590 3.19092E+01 0.00000E+00 5.32715E+00
 -1      1591 4.22363E+00 0.00000E+00 8.35938E+00
 -1      1592 3.06885E+01 0.00000E+00 6.11084E+00
 -1      1593 3.02246E+01 0.00000E+00 7.39258E+00
 -1      1594 2.99133E+01 0.00000E+00 8.74634E+00
 -1      1595 2.91016E+01 0.00000E+00 6.46484E+00
 -1      1596 2.89795E+01 0.00000E+00 5.23743E+00
 -1      1597 4.82788E+00 0.00000E+00 2.00623E+00
 -1      1598 1.05438E+00 0.00000E+00 4.74457E+00
 -1      1599 2.72331E+00 0.00000E+00 3.38486E+00
 -1      1600 3.79639E+00 0.00000E+00 2.48901E+00
 -1      1601 2.83997E+01 0.00000E+00 7.82654E+00
 -1      1602 2.83936E+01 0.00000E+00 8.88550E+00
 -1      1603 2.79297E+01 0.00000E+00 6.40625E+00
 -1      1604 2.78564E+01 0.00000E+00 4.37134E+00
 -1      1605 2.68372E+01 0.00000E+00 7.77893E+00
 -1      1606 2.68311E+01 0.00000E+00 8.86108E+00
 -1      1607 2.67578E+01 0.00000E+00 6.34766E+00
 -1      1608 2.69287E+01 0.00000E+00 5.10010E+00
 -1      1609 2.67090E+01 0.00000E+00 3.82202E+00
 -1      1610 2.58789E+01 0.00000E+00 4.68140E+00
 -1      1611 2.56226E+01 0.00000E+00 7.56714E+00
 -1      1612 2.52686E+01 0.00000E+00 8.83667E+00
 -1      1613 2.47498E+01 0.00000E+00 6.10138E+00
 -1      1614 2.51465E+01 0.00000E+00 3.69019E+00
 -1      1615 2.45911E+01 0.00000E+00 7.70935E+00
 -1      1616 2.43164E+01 0.00000E+00 4.56909E+00
 -1      1617 2.37061E+01 0.00000E+00 8.81226E+00
 -1      1618 2.34863E+01 0.00000E+00 5.46753E+00
 -1      1619 2.35840E+01 0.00000E+00 3.55835E+00
 -1      1620 2.30835E+01 0.00000E+00 7.48474E+00
 -1      1621 2.28516E+01 0.00000E+00 6.39282E+00
 -1      1622 2.31445E+01 0.00000E+00 4.48486E+00
 -1      1623 2.21436E+01 0.00000E+00 8.78784E+00
 -1      1624 2.19238E+01 0.00000E+00 5.49622E+00
 -1      1625 2.19971E+01 0.00000E+00 3.91357E+00
 -1      1626 2.14722E+01 0.00000E+00 6.57349E+00
 -1      1627 2.14111E+01 0.00000E+00 7.79663E+00
 -1      1628 2.09717E+01 0.00000E+00 8.76953E+00
 -1      1629 2.03613E+01 0.00000E+00 5.40588E+00
 -1      1630 2.04102E+01 0.00000E+00 4.35059E+00
 -1      1631 1.98807E+01 0.00000E+00 7.09885E+00
 -1      1632 1.98853E+01 0.00000E+00 8.87817E+00
 -1      1633 5.91202E+00 0.00000E+00 8.79715E+00
 -1      1634 3.71475E+00 0.00000E+00 6.79512E+00
 -1      1635 1.90002E+01 0.00000E+00 5.96252E+00
 -1      1636 1.89636E+01 0.00000E+00 4.94751E+00
 -1      1637 1.90247E+01 0.00000E+00 3.93677E+00
 -1      1638 1.84479E+01 0.00000E+00 8.15887E+00
 -1      1639 1.78467E+01 0.00000E+00 6.41479E+00
 -1      1640 1.74194E+01 0.00000E+00 5.10620E+00
 -1      1641 1.74744E+01 0.00000E+00 3.94714E+00
 -1      1642 1.69312E+01 0.00000E+00 7.15332E+00
 -1      1643 1.68823E+01 0.00000E+00 8.18848E+00
 -1      1644 1.67847E+01 0.00000E+00 6.10962E+00
 -1      1645 1.57333E+01 0.00000E+00 5.56610E+00
 -1      1646 1.59271E+01 0.00000E+00 3.50464E+00
 -1      1647 1.57593E+01 0.00000E+00 7.11304E+00
 -1      1648 1.57043E+01 0.00000E+00 8.29407E+00
 -1      1649 1.46118E+01 0.00000E+00 6.54053E+00
 -1      1650 1.45630E+01 0.00000E+00 7.60498E+00
 -1      1651 1.45081E+01 0.00000E+00 8.80249E+00
 -1      1652 1.42700E+01 0.00000E+00 5.45532E+00
 -1      1653 1.47156E+01 0.00000E+00 4.27856E+00
 -1      1654 1.43799E+01 0.00000E+00 3.05054E+00
 -1      1655 1.31470E+01 0.00000E+00 4.30908E+00
 -1      1656 1.31592E+01 0.00000E+00 6.20972E+00
 -1      1657 1.33911E+01 0.00000E+00 7.57202E+00
 -1      1658 1.29517E+01 0.00000E+00 8.64502E+00
 -1      1659 1.22437E+01 0.00000E+00 6.99219E+00
 -1      1660 1.19934E+01 0.00000E+00 8.21960E+00
 -1      1661 1.20117E+01 0.00000E+00 5.61096E+00
 -1      1662 1.20239E+01 0.00000E+00 3.13354E+00
 -1      1663 1.13770E+01 0.00000E+00 4.47021E+00
 -1      1664 1.12976E+01 0.00000E+00 1.82495E+00
 -1      1665 1.10962E+01 0.00000E+00 6.39771E+00
 -1      1666 1.10413E+01 0.00000E+00 7.64465E+00
 -1      1667 1.01776E+01 0.00000E+00 5.02686E+00
 -1      1668 1.04370E+01 0.00000E+00 3.57056E+00
 -1      1669 1.04858E+01 0.00000E+00 2.45239E+00
 -1      1670 9.92432E+00 0.00000E+00 6.35010E+00
 -1      1671 9.47876E+00 0.00000E+00 7.60376E+00
 -1      1672 9.81445E+00 0.00000E+00 8.87817E+00
 -1      1673 9.74121E+00 0.00000E+00 1.54053E+00
 -1      1674 8.80127E+00 0.00000E+00 5.16479E+00
 -1      1675 9.06372E+00 0.00000E+00 3.61328E+00
 -1      1676 8.92334E+00 0.00000E+00 2.32056E+00
 -1      1677 8.74634E+00 0.00000E+00 6.44470E+00
 -1      1678 8.26416E+00 0.00000E+00 8.57178E+00
 -1      1679 8.06885E+00 0.00000E+00 3.97583E+00
 -1      1680 7.72705E+00 0.00000E+00 6.04675E+00
 -1      1681 7.92236E+00 0.00000E+00 7.41821E+00
 -1      1682 7.20825E+00 0.00000E+00 4.75319E+00
 -1      1683 7.26852E+00 0.00000E+00 2.93648E+00
 -1      1684 6.93054E+00 0.00000E+00 7.75208E+00
 -1      1685 2.28424E+00 0.00000E+00 5.27847E+00
 -1      1686 5.73578E+00 0.00000E+00 2.60712E+00
 -1      1687 5.29976E+00 0.00000E+00 7.06490E+00
 -1      1688 5.86967E+00 0.00000E+00 4.03389E+00
 -1      1689 6.45142E+00 0.00000E+00 6.27548E+00
 -1      1690 3.79791E+00 0.00000E+00 4.53411E+00
 -1      1691 3.62778E+00 0.00000E+00 5.57526E+00
 -1      1692 4.43192E+00 0.00000E+00 3.47443E+00
 -1      1693 5.05905E+00 0.00000E+00 5.39513E+00
 -1      1694 1.00000E+02 1.00000E+01 9.06250E+00
 -1      1695 1.00000E+02 8.96484E+00 8.16406E+00
 -1      1696 1.00000E+02 1.00000E+01 7.81250E+00
 -1      1697 1.00000E+02 1.00000E+01 1.71875E+00
 -1      1698 1.00000E+02 2.46094E+00 1.66016E+00
 -1      1699 1.00000E+02 1.00000E+01 6.40625E+00
 -1      1700 1.00000E+02 8.88672E+00 6.42578E+00
 -1      1701 1.00000E+02 7.81250E+00 6.87500E+00
 -1      1702 1.00000E+02 8.37036E+00 2.01172E+00
 -1      1703 1.00000E+02 4.16504E+00 2.03125E+00
 -1      1704 1.00000E+02 3.79883E+00 3.24219E+00
 -1      1705 1.00000E+02 7.73926E+00 1.01562E+00
 -1      1706 1.00000E+02 1.00000E+01 4.68750E+00
 -1      1707 1.00000E+02 8.98438E+00 5.17578E+00
 -1      1708 1.00000E+02 7.86133E+00 4.96094E+00
 -1      1709 1.00000E+02 6.95312E+00 5.85938E+00
 -1      1710 1.00000E+02 5.62988E+00 6.67969E+00
 -1      1711 1.00000E+02 1.00000E+01 3.43750E+00
 -1      1712 1.00000E+02 5.62500E+00 1.23047E+00
 -1      1713 1.00000E+02 5.38086E+00 2.67578E+00
 -1      1714 1.00000E+02 4.37500E+00 4.16016E+00
 -1      1715 1.00000E+02 5.79590E+00 4.95117E+00
 -1      1716 1.00000E+02 5.96436E+00 3.75000E+00
 -1      1717 1.00000E+02 6.92383E+00 2.04102E+00
 -1      1718 1.00000E+02 8.07129E+00 3.41797E+00
 -1      1719 1.00000E+02 6.92139E+00 3.36914E+00
 -1      1720 1.00000E+02 1.32812E+00 2.64648E+00
 -1      1721 1.00000E+02 6.81641E+00 7.89062E+00
 -1      1722 1.00000E+02 6.34766E+00 8.96484E+00
 -1      1723 1.00000E+02 1.14258E+00 8.21045E+00
 -1      1724 1.00000E+02 1.95312E+00 3.71094E+00
 -1      1725 1.00000E+02 2.26074E+00 8.98438E+00
 -1      1726 1.00000E+02 1.56738E+00 5.18066E+00
 -1      1727 1.00000E+02 2.87109E+00 4.33594E+00
 -1      1728 1.00000E+02 5.05859E+00 7.71484E+00
 -1      1729 1.00000E+02 4.23340E+00 8.65723E+00
 -1      1730 1.00000E+02 2.63672E+00 5.37109E+00
 -1      1731 1.00000E+02 4.17480E+00 5.59570E+00
 -1      1732 1.00000E+02 3.62305E+00 7.25586E+00
 -1      1733 1.00000E+02 3.11768E+00 6.33789E+00
 -1      1734 1.00000E+02 2.53174E+00 7.90039E+00
 -1      1735 1.00000E+02 1.92871E+00 6.58203E+00
 -1      1736 9.40613E+01 1.00000E+01 1.21887E+00
 -1      1737 9.27948E+01 1.00000E+01 1.33667E+00
 -1      1738 9.14185E+01 1.00000E+01 1.14502E+00
 -1      1739 8.85986E+01 1.00000E+01 1.69556E+00
 -1      1740 8.75122E+01 1.00000E+01 1.52344E+00
 -1      1741 8.60352E+01 1.00000E+01 1.03516E+00
 -1      1742 8.46863E+01 1.00000E+01 1.92993E+00
 -1      1743 8.31299E+01 1.00000E+01 2.20825E+00
 -1      1744 8.15796E+01 1.00000E+01 1.22803E+00
 -1      1745 0.00000E+00 1.00000E+01 9.06250E+00
 -1      1746 7.99072E+01 1.00000E+01 1.24512E+00
 -1      1747 8.03833E+01 1.00000E+01 3.03467E+00
 -1      1748 7.94922E+01 1.00000E+01 2.30103E+00
 -1      1749 7.83691E+01 1.00000E+01 1.34277E+00
 -1      1750 7.83203E+01 1.00000E+01 2.41455E+00
 -1      1751 7.68066E+01 1.00000E+01 1.44043E+00
 -1      1752 7.71729E+01 1.00000E+01 3.01025E+00
 -1      1753 7.52441E+01 1.00000E+01 1.53809E+00
 -1      1754 7.59766E+01 1.00000E+01 2.64160E+00
 -1      1755 7.48047E+01 1.00000E+01 2.75513E+00
 -1      1756 7.40723E+01 1.00000E+01 1.61133E+00
 -1      1757 7.29004E+01 1.00000E+01 1.68457E+00
 -1      1758 7.32422E+01 1.00000E+01 2.90649E+00
 -1      1759 7.13379E+01 1.00000E+01 1.78223E+00
 -1      1760 7.22900E+01 1.00000E+01 3.45398E+00
 -1      1761 7.09229E+01 1.00000E+01 3.57666E+00
 -1      1762 6.97754E+01 1.00000E+01 1.87988E+00
 -1      1763 6.91040E+01 1.00000E+01 3.00659E+00
 -1      1764 6.81152E+01 1.00000E+01 1.18652E+00
 -1      1765 6.76025E+01 1.00000E+01 2.72827E+00
 -1      1766 2.29492E+00 1.00000E+01 9.01367E+00
 -1      1767 6.67480E+01 1.00000E+01 1.24023E+00
 -1      1768 6.60156E+01 1.00000E+01 2.64893E+00
 -1      1769 6.70898E+01 1.00000E+01 3.71460E+00
 -1      1770 6.51855E+01 1.00000E+01 1.29883E+00
 -1      1771 6.54297E+01 1.00000E+01 4.43329E+00
 -1      1772 6.46484E+01 1.00000E+01 2.97852E+00
 -1      1773 6.36230E+01 1.00000E+01 2.49390E+00
 -1      1774 6.37939E+01 1.00000E+01 4.12170E+00
 -1      1775 6.20605E+01 1.00000E+01 1.29761E+00
 -1      1776 6.22803E+01 1.00000E+01 2.94067E+00
 -1      1777 6.22314E+01 1.00000E+01 4.26575E+00
 -1      1778 6.05957E+01 1.00000E+01 1.34521E+00
 -1      1779 6.11084E+01 1.00000E+01 3.03223E+00
 -1      1780 6.05225E+01 1.00000E+01 4.02191E+00
 -1      1781 5.94727E+01 1.00000E+01 2.84241E+00
 -1      1782 5.94849E+01 1.00000E+01 1.13159E+00
 -1      1783 5.91064E+01 1.00000E+01 4.55383E+00
 -1      1784 5.81787E+01 1.00000E+01 1.82129E+00
 -1      1785 5.82764E+01 1.00000E+01 7.76367E-01
 -1      1786 5.81177E+01 1.00000E+01 3.26538E+00
 -1      1787 0.00000E+00 1.00000E+01 7.81250E+00
 -1      1788 1.41602E+00 1.00000E+01 7.87598E+00
 -1      1789 5.75439E+01 1.00000E+01 4.69788E+00
 -1      1790 5.66223E+01 1.00000E+01 1.95862E+00
 -1      1791 5.65674E+01 1.00000E+01 3.52295E+00
 -1      1792 5.62744E+01 1.00000E+01 4.72656E+00
 -1      1793 0.00000E+00 1.00000E+01 2.18750E+00
 -1      1794 1.46484E+00 1.00000E+01 1.94336E+00
 -1      1795 2.14844E+00 1.00000E+01 1.16211E+00
 -1      1796 5.50659E+01 1.00000E+01 2.09839E+00
 -1      1797 5.50415E+01 1.00000E+01 4.07104E+00
 -1      1798 5.36499E+01 1.00000E+01 1.58325E+00
 -1      1799 5.33447E+01 1.00000E+01 2.61475E+00
 -1      1800 5.34424E+01 1.00000E+01 3.77686E+00
 -1      1801 5.33447E+01 1.00000E+01 5.00000E+00
 -1      1802 5.20752E+01 1.00000E+01 1.48926E+00
 -1      1803 5.19958E+01 1.00000E+01 2.91504E+00
 -1      1804 5.18066E+01 1.00000E+01 4.21143E+00
 -1      1805 5.06958E+01 1.00000E+01 1.38062E+00
 -1      1806 5.02197E+01 1.00000E+01 2.79053E+00
 -1      1807 5.03540E+01 1.00000E+01 4.49585E+00
 -1      1808 4.96826E+01 1.00000E+01 9.37500E-01
 -1      1809 4.91943E+01 1.00000E+01 2.21436E+00
 -1      1810 4.90967E+01 1.00000E+01 3.49121E+00
 -1      1811 4.86816E+01 1.00000E+01 4.48486E+00
 -1      1812 1.22070E+00 1.00000E+01 6.65527E+00
 -1      1813 0.00000E+00 1.00000E+01 6.56250E+00
 -1      1814 4.81689E+01 1.00000E+01 1.61133E+00
 -1      1815 4.82666E+01 1.00000E+01 2.90039E+00
 -1      1816 4.70947E+01 1.00000E+01 2.96631E+00
 -1      1817 4.71924E+01 1.00000E+01 4.28467E+00
 -1      1818 4.71069E+01 1.00000E+01 5.73242E+00
 -1      1819 4.66187E+01 1.00000E+01 1.82495E+00
 -1      1820 1.72119E+00 1.00000E+01 3.24219E+00
 -1      1821 0.00000E+00 1.00000E+01 3.90625E+00
 -1      1822 4.55933E+01 1.00000E+01 2.54028E+00
 -1      1823 4.59717E+01 1.00000E+01 3.70605E+00
 -1      1824 4.57886E+01 1.00000E+01 5.22461E+00
 -1      1825 4.49951E+01 1.00000E+01 1.02539E+00
 -1      1826 4.47998E+01 1.00000E+01 3.78662E+00
 -1      1827 4.45068E+01 1.00000E+01 2.41943E+00
 -1      1828 4.43115E+01 1.00000E+01 5.21973E+00
 -1      1829 2.72026E+00 1.00000E+01 6.83029E+00
 -1      1830 3.08838E+00 1.00000E+01 8.17749E+00
 -1      1831 4.34814E+01 1.00000E+01 1.75781E+00
 -1      1832 4.31885E+01 1.00000E+01 3.18604E+00
 -1      1833 4.32739E+01 1.00000E+01 4.42383E+00
 -1      1834 4.24561E+01 1.00000E+01 5.30212E+00
 -1      1835 4.19189E+01 1.00000E+01 1.80664E+00
 -1      1836 4.16016E+01 1.00000E+01 2.91016E+00
 -1      1837 4.16748E+01 1.00000E+01 4.00146E+00
 -1      1838 4.08936E+01 1.00000E+01 5.44617E+00
 -1      1839 2.91595E+00 1.00000E+01 2.41653E+00
 -1      1840 3.36914E+00 1.00000E+01 1.21094E+00
 -1      1841 4.02039E+01 1.00000E+01 2.51404E+00
 -1      1842 4.01123E+01 1.00000E+01 4.10889E+00
 -1      1843 3.94775E+01 1.00000E+01 5.97809E+00
 -1      1844 0.00000E+00 1.00000E+01 5.31250E+00
 -1      1845 3.88184E+01 1.00000E+01 2.28516E+00
 -1      1846 3.87451E+01 1.00000E+01 1.14258E+00
 -1      1847 3.88916E+01 1.00000E+01 3.42773E+00
 -1      1848 3.89648E+01 1.00000E+01 4.57031E+00
 -1      1849 3.76953E+01 1.00000E+01 3.10547E+00
 -1      1850 3.77686E+01 1.00000E+01 4.27002E+00
 -1      1851 3.81592E+01 1.00000E+01 5.69824E+00
 -1      1852 3.76221E+01 1.00000E+01 1.94092E+00
 -1      1853 3.69873E+01 1.00000E+01 5.80627E+00
 -1      1854 3.64746E+01 1.00000E+01 2.37305E+00
 -1      1855 3.64014E+01 1.00000E+01 1.18652E+00
 -1      1856 3.61572E+01 1.00000E+01 3.58154E+00
 -1      1857 3.66211E+01 1.00000E+01 4.74609E+00
 -1      1858 3.54980E+01 1.00000E+01 5.53711E+00
 -1      1859 3.53027E+01 1.00000E+01 2.41699E+00
 -1      1860 3.48389E+01 1.00000E+01 1.21582E+00
 -1      1861 3.47900E+01 1.00000E+01 3.65723E+00
 -1      1862 3.41309E+01 1.00000E+01 2.46094E+00
 -1      1863 3.38379E+01 1.00000E+01 4.12598E+00
 -1      1864 3.40088E+01 1.00000E+01 5.25146E+00
 -1      1865 3.45703E+01 1.00000E+01 6.33667E+00
 -1      1866 3.30933E+01 1.00000E+01 1.35315E+00
 -1      1867 3.29834E+01 1.00000E+01 2.92236E+00
 -1      1868 3.29895E+01 1.00000E+01 5.72571E+00
 -1      1869 3.22754E+01 1.00000E+01 4.22363E+00
 -1      1870 3.16162E+01 1.00000E+01 2.98340E+00
 -1      1871 3.15735E+01 1.00000E+01 1.22498E+00
 -1      1872 3.14941E+01 1.00000E+01 5.77454E+00
 -1      1873 3.24097E+01 1.00000E+01 6.80237E+00
 -1      1874 1.08337E+00 1.00000E+01 4.86053E+00
 -1      1875 3.07129E+01 1.00000E+01 4.32129E+00
 -1      1876 3.08960E+01 1.00000E+01 6.99341E+00
 -1      1877 3.00537E+01 1.00000E+01 3.05176E+00
 -1      1878 3.02612E+01 1.00000E+01 1.41113E+00
 -1      1879 3.02979E+01 1.00000E+01 5.54810E+00
 -1      1880 2.91748E+01 1.00000E+01 1.10229E+00
 -1      1881 2.89429E+01 1.00000E+01 4.93225E+00
 -1      1882 2.92725E+01 1.00000E+01 6.40442E+00
 -1      1883 1.91956E+00 1.00000E+01 5.75348E+00
 -1      1884 5.38635E+00 1.00000E+01 8.56293E+00
 -1      1885 2.87476E+01 1.00000E+01 2.33032E+00
 -1      1886 2.87109E+01 1.00000E+01 3.55469E+00
 -1      1887 2.77161E+01 1.00000E+01 2.19543E+00
 -1      1888 2.76123E+01 1.00000E+01 1.12671E+00
 -1      1889 2.75391E+01 1.00000E+01 3.61328E+00
 -1      1890 2.73804E+01 1.00000E+01 5.04089E+00
 -1      1891 2.74902E+01 1.00000E+01 6.11206E+00
 -1      1892 2.83203E+01 1.00000E+01 6.94214E+00
 -1      1893 2.67578E+01 1.00000E+01 7.09351E+00
 -1      1894 2.64038E+01 1.00000E+01 2.40723E+00
 -1      1895 2.60498E+01 1.00000E+01 1.15112E+00
 -1      1896 2.57080E+01 1.00000E+01 4.05396E+00
 -1      1897 2.63428E+01 1.00000E+01 4.94019E+00
 -1      1898 2.59277E+01 1.00000E+01 6.24390E+00
 -1      1899 2.53723E+01 1.00000E+01 2.26685E+00
 -1      1900 2.50977E+01 1.00000E+01 5.37476E+00
 -1      1901 2.51953E+01 1.00000E+01 7.24487E+00
 -1      1902 2.44873E+01 1.00000E+01 1.17554E+00
 -1      1903 2.43408E+01 1.00000E+01 4.01001E+00
 -1      1904 2.43652E+01 1.00000E+01 6.37573E+00
 -1      1905 2.42554E+01 1.00000E+01 2.47681E+00
 -1      1906 2.35352E+01 1.00000E+01 5.48706E+00
 -1      1907 2.40234E+01 1.00000E+01 7.35840E+00
 -1      1908 2.30835E+01 1.00000E+01 2.51526E+00
 -1      1909 2.29248E+01 1.00000E+01 1.19995E+00
 -1      1910 4.44603E+00 1.00000E+01 7.12952E+00
 -1      1911 2.29736E+01 1.00000E+01 4.08142E+00
 -1      1912 2.28271E+01 1.00000E+01 6.98975E+00
 -1      1913 2.19238E+01 1.00000E+01 4.50378E+00
 -1      1914 2.23633E+01 1.00000E+01 5.57129E+00
 -1      1915 2.14722E+01 1.00000E+01 3.42651E+00
 -1      1916 2.13867E+01 1.00000E+01 1.71387E+00
 -1      1917 2.11914E+01 1.00000E+01 5.65552E+00
 -1      1918 2.16553E+01 1.00000E+01 7.09595E+00
 -1      1919 2.03613E+01 1.00000E+01 4.59412E+00
 -1      1920 2.04834E+01 1.00000E+01 7.20215E+00
 -1      1921 2.01324E+01 1.00000E+01 3.01666E+00
 -1      1922 1.98853E+01 1.00000E+01 1.12183E+00
 -1      1923 2.00195E+01 1.00000E+01 5.61523E+00
 -1      1924 6.15234E+00 1.00000E+01 9.46045E-01
 -1      1925 4.88052E+00 1.00000E+01 1.78970E+00
 -1      1926 1.89362E+01 1.00000E+01 4.61060E+00
 -1      1927 1.90338E+01 1.00000E+01 6.25366E+00
 -1      1928 1.91040E+01 1.00000E+01 7.39075E+00
 -1      1929 1.85181E+01 1.00000E+01 3.30078E+00
 -1      1930 1.84692E+01 1.00000E+01 2.28516E+00
 -1      1931 1.88110E+01 1.00000E+01 1.26343E+00
 -1      1932 1.76392E+01 1.00000E+01 1.28174E+00
 -1      1933 1.76086E+01 1.00000E+01 4.75403E+00
 -1      1934 1.78833E+01 1.00000E+01 6.40869E+00
 -1      1935 1.75415E+01 1.00000E+01 7.46948E+00
 -1      1936 1.84204E+01 1.00000E+01 8.77197E+00
 -1      1937 7.17163E+00 1.00000E+01 8.61084E+00
 -1      1938 1.68762E+01 1.00000E+01 3.75671E+00
 -1      1939 1.69220E+01 1.00000E+01 2.65350E+00
 -1      1940 1.67053E+01 1.00000E+01 6.37024E+00
 -1      1941 1.60980E+01 1.00000E+01 8.06091E+00
 -1      1942 1.60950E+01 1.00000E+01 1.69739E+00
 -1      1943 1.58508E+01 1.00000E+01 4.85535E+00
 -1      1944 1.53931E+01 1.00000E+01 3.42773E+00
 -1      1945 1.53442E+01 1.00000E+01 2.37305E+00
 -1      1946 1.51245E+01 1.00000E+01 6.09253E+00
 -1      1947 1.51733E+01 1.00000E+01 7.15210E+00
 -1      1948 1.43372E+01 1.00000E+01 1.73462E+00
 -1      1949 1.39557E+01 1.00000E+01 4.09088E+00
 -1      1950 1.46851E+01 1.00000E+01 5.05615E+00
 -1      1951 1.43311E+01 1.00000E+01 8.02856E+00
 -1      1952 1.38062E+01 1.00000E+01 2.95410E+00
 -1      1953 1.35315E+01 1.00000E+01 5.52979E+00
 -1      1954 1.39771E+01 1.00000E+01 6.71387E+00
 -1      1955 1.29761E+01 1.00000E+01 1.89697E+00
 -1      1956 1.27808E+01 1.00000E+01 6.26099E+00
 -1      1957 1.28998E+01 1.00000E+01 7.82166E+00
 -1      1958 1.17493E+01 1.00000E+01 3.98926E+00
 -1      1959 1.26343E+01 1.00000E+01 2.99438E+00
 -1      1960 1.23413E+01 1.00000E+01 5.19531E+00
 -1      1961 1.14502E+01 1.00000E+01 2.76001E+00
 -1      1962 1.17798E+01 1.00000E+01 1.37329E+00
 -1      1963 1.13770E+01 1.00000E+01 5.52979E+00
 -1      1964 1.12305E+01 1.00000E+01 6.64917E+00
 -1      1965 1.16821E+01 1.00000E+01 8.00049E+00
 -1      1966 1.06323E+01 1.00000E+01 1.94824E+00
 -1      1967 1.05835E+01 1.00000E+01 8.34961E-01
 -1      1968 1.03638E+01 1.00000E+01 4.75220E+00
 -1      1969 1.04858E+01 1.00000E+01 7.54761E+00
 -1      1970 1.03882E+01 1.00000E+01 8.81226E+00
 -1      1971 9.90601E+00 1.00000E+01 3.22876E+00
 -1      1972 9.64355E+00 1.00000E+01 6.20300E+00
 -1      1973 9.06982E+00 1.00000E+01 1.98242E+00
 -1      1974 8.80127E+00 1.00000E+01 4.83521E+00
 -1      1975 8.94165E+00 1.00000E+01 8.10608E+00
 -1      1976 8.54797E+00 1.00000E+01 3.49213E+00
 -1      1977 8.27637E+00 1.00000E+01 6.29761E+00
 -1      1978 7.90405E+00 1.00000E+01 2.15149E+00
 -1      1979 7.20520E+00 1.00000E+01 5.17479E+00
 -1      1980 7.15027E+00 1.00000E+01 6.82220E+00
 -1      1981 6.86760E+00 1.00000E+01 3.48106E+00
 -1      1982 6.49261E+00 1.00000E+01 2.06299E+00
 -1      1983 2.08435E+00 1.00000E+01 4.51050E+00
 -1      1984 5.92270E+00 1.00000E+01 7.36496E+00
 -1      1985 3.15018E+00 1.00000E+01 4.15825E+00
 -1      1986 5.58281E+00 1.00000E+01 5.97443E+00
 -1      1987 5.67703E+00 1.00000E+01 3.34930E+00
 -1      1988 3.69644E+00 1.00000E+01 5.40680E+00
 -1      1989 4.46625E+00 1.00000E+01 3.32260E+00
 -1      1990 5.62897E+00 1.00000E+01 4.67209E+00
 -1      1991 9.90723E+01 1.00000E+01 1.01074E+00
 -1      1992 1.69922E+01 1.00000E+01 9.16016E+00
 -1      1993 2.00928E+01 1.00000E+01 8.75488E+00
 -1      1994 2.16309E+01 1.00000E+01 8.65723E+00
 -1      1995 2.31934E+01 1.00000E+01 8.55957E+00
 -1      1996 2.47559E+01 1.00000E+01 8.46191E+00
 -1      1997 2.63184E+01 1.00000E+01 8.36426E+00
 -1      1998 2.74902E+01 1.00000E+01 8.29102E+00
 -1      1999 2.86621E+01 1.00000E+01 8.21777E+00
 -1      2000 3.02246E+01 1.00000E+01 8.12012E+00
 -1      2001 3.18359E+01 1.00000E+01 8.41797E+00
 -1      2002 9.77051E+01 1.00000E+01 9.86328E-01
 -1      2003 3.33984E+01 1.00000E+01 8.33984E+00
 -1      2004 3.39844E+01 1.00000E+01 7.35107E+00
 -1      2005 9.84863E+01 1.00000E+01 8.21777E+00
 -1      2006 3.52051E+01 1.00000E+01 8.69141E+00
 -1      2007 3.53516E+01 1.00000E+01 7.02148E+00
 -1      2008 3.62061E+01 1.00000E+01 7.86133E+00
 -1      2009 3.69385E+01 1.00000E+01 7.12036E+00
 -1      2010 9.87671E+01 1.00000E+01 2.48657E+00
 -1      2011 3.86230E+01 1.00000E+01 8.61877E+00
 -1      2012 3.85010E+01 1.00000E+01 6.99829E+00
 -1      2013 4.01001E+01 1.00000E+01 8.75610E+00
 -1      2014 3.99170E+01 1.00000E+01 7.51709E+00
 -1      2015 4.11133E+01 1.00000E+01 7.95532E+00
 -1      2016 4.06982E+01 1.00000E+01 6.69922E+00
 -1      2017 4.18823E+01 1.00000E+01 6.73462E+00
 -1      2018 4.23340E+01 1.00000E+01 8.42041E+00
 -1      2019 4.32617E+01 1.00000E+01 8.92334E+00
 -1      2020 4.35303E+01 1.00000E+01 7.56104E+00
 -1      2021 4.34326E+01 1.00000E+01 6.47705E+00
 -1      2022 9.73633E+01 1.00000E+01 8.96484E+00
 -1      2023 4.46167E+01 1.00000E+01 8.75122E+00
 -1      2024 4.50928E+01 1.00000E+01 7.47314E+00
 -1      2025 4.49951E+01 1.00000E+01 6.35010E+00
 -1      2026 4.56299E+01 1.00000E+01 9.15039E+00
 -1      2027 4.61182E+01 1.00000E+01 7.99072E+00
 -1      2028 4.62158E+01 1.00000E+01 6.83105E+00
 -1      2029 4.73572E+01 1.00000E+01 8.75061E+00
 -1      2030 4.74365E+01 1.00000E+01 7.34131E+00
 -1      2031 4.81201E+01 1.00000E+01 6.09619E+00
 -1      2032 4.89197E+01 1.00000E+01 8.70911E+00
 -1      2033 4.89990E+01 1.00000E+01 7.25342E+00
 -1      2034 4.96826E+01 1.00000E+01 5.96924E+00
 -1      2035 5.02686E+01 1.00000E+01 8.43750E+00
 -1      2036 5.05615E+01 1.00000E+01 7.16553E+00
 -1      2037 5.12451E+01 1.00000E+01 5.84229E+00
 -1      2038 5.18311E+01 1.00000E+01 8.38867E+00
 -1      2039 5.21240E+01 1.00000E+01 7.07764E+00
 -1      2040 5.24170E+01 1.00000E+01 5.74707E+00
 -1      2041 5.34546E+01 1.00000E+01 7.83813E+00
 -1      2042 5.34424E+01 1.00000E+01 9.00391E+00
 -1      2043 5.32471E+01 1.00000E+01 6.34766E+00
 -1      2044 9.88647E+01 1.00000E+01 6.89453E+00
 -1      2045 5.40771E+01 1.00000E+01 6.96777E+00
 -1      2046 5.43701E+01 1.00000E+01 5.58838E+00
 -1      2047 5.51697E+01 1.00000E+01 8.54309E+00
 -1      2048 5.52490E+01 1.00000E+01 6.90186E+00
 -1      2049 5.55420E+01 1.00000E+01 5.49316E+00
 -1      2050 9.72797E+01 1.00000E+01 3.16971E+00
 -1      2051 9.70703E+01 1.00000E+01 1.96289E+00
 -1      2052 9.63135E+01 1.00000E+01 1.13037E+00
 -1      2053 5.65186E+01 1.00000E+01 8.24219E+00
 -1      2054 5.64453E+01 1.00000E+01 7.18750E+00
 -1      2055 5.67627E+01 1.00000E+01 6.10596E+00
 -1      2056 5.76172E+01 1.00000E+01 7.12891E+00
 -1      2057 5.76904E+01 1.00000E+01 8.20557E+00
 -1      2058 5.79346E+01 1.00000E+01 6.02539E+00
 -1      2059 5.88379E+01 1.00000E+01 7.80273E+00
 -1      2060 5.89111E+01 1.00000E+01 8.90137E+00
 -1      2061 5.89294E+01 1.00000E+01 6.23291E+00
 -1      2062 9.74731E+01 1.00000E+01 7.88086E+00
 -1      2063 5.99487E+01 1.00000E+01 6.82373E+00
 -1      2064 6.04248E+01 1.00000E+01 8.12012E+00
 -1      2065 6.06567E+01 1.00000E+01 5.64941E+00
 -1      2066 9.87366E+01 1.00000E+01 4.11072E+00
 -1      2067 6.17432E+01 1.00000E+01 7.30957E+00
 -1      2068 6.20361E+01 1.00000E+01 8.84277E+00
 -1      2069 6.22314E+01 1.00000E+01 5.72998E+00
 -1      2070 6.32568E+01 1.00000E+01 6.45020E+00
 -1      2071 6.33545E+01 1.00000E+01 8.02734E+00
 -1      2072 6.37695E+01 1.00000E+01 5.22461E+00
 -1      2073 9.88358E+01 1.00000E+01 5.44525E+00
 -1      2074 6.45264E+01 1.00000E+01 7.99072E+00
 -1      2075 6.46240E+01 1.00000E+01 6.37451E+00
 -1      2076 6.53564E+01 1.00000E+01 8.77930E+00
 -1      2077 6.58691E+01 1.00000E+01 7.53906E+00
 -1      2078 6.57959E+01 1.00000E+01 6.30859E+00
 -1      2079 6.69617E+01 1.00000E+01 8.80249E+00
 -1      2080 6.69678E+01 1.00000E+01 6.24268E+00
 -1      2081 6.67725E+01 1.00000E+01 4.68628E+00
 -1      2082 6.74316E+01 1.00000E+01 7.48047E+00
 -1      2083 6.85242E+01 1.00000E+01 8.77441E+00
 -1      2084 6.85303E+01 1.00000E+01 6.15479E+00
 -1      2085 6.85059E+01 1.00000E+01 4.22546E+00
 -1      2086 6.89941E+01 1.00000E+01 7.42188E+00
 -1      2087 9.78958E+01 1.00000E+01 6.31500E+00
 -1      2088 9.57764E+01 1.00000E+01 8.35938E+00
 -1      2089 7.00867E+01 1.00000E+01 8.74634E+00
 -1      2090 7.00928E+01 1.00000E+01 6.06689E+00
 -1      2091 6.97021E+01 1.00000E+01 4.45190E+00
 -1      2092 7.08618E+01 1.00000E+01 7.68433E+00
 -1      2093 7.06055E+01 1.00000E+01 4.93408E+00
 -1      2094 9.49707E+01 1.00000E+01 1.67480E+00
 -1      2095 7.16064E+01 1.00000E+01 8.88550E+00
 -1      2096 7.16797E+01 1.00000E+01 6.42578E+00
 -1      2097 7.18384E+01 1.00000E+01 5.01343E+00
 -1      2098 7.23816E+01 1.00000E+01 7.80273E+00
 -1      2099 7.31689E+01 1.00000E+01 8.86108E+00
 -1      2100 7.32422E+01 1.00000E+01 6.34766E+00
 -1      2101 7.30713E+01 1.00000E+01 5.10010E+00
 -1      2102 7.35962E+01 1.00000E+01 7.59277E+00
 -1      2103 7.40967E+01 1.00000E+01 4.21875E+00
 -1      2104 7.46277E+01 1.00000E+01 7.73315E+00
 -1      2105 7.47314E+01 1.00000E+01 8.83667E+00
 -1      2106 7.44873E+01 1.00000E+01 5.93628E+00
 -1      2107 7.55859E+01 1.00000E+01 6.46606E+00
 -1      2108 7.57080E+01 1.00000E+01 5.04150E+00
 -1      2109 7.56348E+01 1.00000E+01 3.62427E+00
 -1      2110 7.57446E+01 1.00000E+01 7.52319E+00
 -1      2111 7.62939E+01 1.00000E+01 8.81226E+00
 -1      2112 7.69165E+01 1.00000E+01 7.48474E+00
 -1      2113 9.57344E+01 1.00000E+01 2.89490E+00
 -1      2114 7.71484E+01 1.00000E+01 6.39282E+00
 -1      2115 7.68799E+01 1.00000E+01 4.96460E+00
 -1      2116 7.78564E+01 1.00000E+01 8.78784E+00
 -1      2117 7.80762E+01 1.00000E+01 5.49622E+00
 -1      2118 7.80273E+01 1.00000E+01 4.40063E+00
 -1      2119 7.85278E+01 1.00000E+01 6.57349E+00
 -1      2120 7.85889E+01 1.00000E+01 7.79663E+00
 -1      2121 7.87598E+01 1.00000E+01 3.36060E+00
 -1      2122 7.90283E+01 1.00000E+01 8.76953E+00
 -1      2123 7.96387E+01 1.00000E+01 5.40588E+00
 -1      2124 7.95898E+01 1.00000E+01 4.35059E+00
 -1      2125 7.98676E+01 1.00000E+01 6.98334E+00
 -1      2126 8.01147E+01 1.00000E+01 8.87817E+00
 -1      2127 9.63459E+01 1.00000E+01 6.82358E+00
 -1      2128 8.10638E+01 1.00000E+01 5.38940E+00
 -1      2129 8.14911E+01 1.00000E+01 6.88873E+00
 -1      2130 8.19458E+01 1.00000E+01 8.21411E+00
 -1      2131 8.17505E+01 1.00000E+01 4.13208E+00
 -1      2132 8.16895E+01 1.00000E+01 2.85583E+00
 -1      2133 8.25928E+01 1.00000E+01 5.36438E+00
 -1      2134 8.32687E+01 1.00000E+01 7.24442E+00
 -1      2135 8.29163E+01 1.00000E+01 3.91846E+00
 -1      2136 8.39355E+01 1.00000E+01 8.95630E+00
 -1      2137 8.43872E+01 1.00000E+01 6.05469E+00
 -1      2138 8.41431E+01 1.00000E+01 5.01343E+00
 -1      2139 8.40942E+01 1.00000E+01 3.96362E+00
 -1      2140 8.40454E+01 1.00000E+01 2.91382E+00
 -1      2141 8.46313E+01 1.00000E+01 7.09961E+00
 -1      2142 8.46802E+01 1.00000E+01 8.15430E+00
 -1      2143 8.57269E+01 1.00000E+01 5.38818E+00
 -1      2144 8.52722E+01 1.00000E+01 4.01245E+00
 -1      2145 8.52173E+01 1.00000E+01 2.81494E+00
 -1      2146 8.61694E+01 1.00000E+01 6.50879E+00
 -1      2147 8.62366E+01 1.00000E+01 7.98584E+00
 -1      2148 8.64197E+01 1.00000E+01 3.39050E+00
 -1      2149 8.63647E+01 1.00000E+01 2.17651E+00
 -1      2150 9.46388E+01 1.00000E+01 7.88651E+00
 -1      2151 9.33411E+01 1.00000E+01 8.89526E+00
 -1      2152 8.68835E+01 1.00000E+01 4.98657E+00
 -1      2153 8.77441E+01 1.00000E+01 6.71936E+00
 -1      2154 8.78052E+01 1.00000E+01 8.08594E+00
 -1      2155 8.80737E+01 1.00000E+01 5.33081E+00
 -1      2156 8.80249E+01 1.00000E+01 4.23218E+00
 -1      2157 8.75793E+01 1.00000E+01 3.02734E+00
 -1      2158 8.89435E+01 1.00000E+01 2.84851E+00
 -1      2159 8.90686E+01 1.00000E+01 5.69458E+00
 -1      2160 8.89465E+01 1.00000E+01 7.36755E+00
 -1      2161 8.93921E+01 1.00000E+01 8.60840E+00
 -1      2162 8.95874E+01 1.00000E+01 4.12964E+00
 -1      2163 9.00757E+01 1.00000E+01 6.35010E+00
 -1      2164 9.01245E+01 1.00000E+01 7.47314E+00
 -1      2165 9.04175E+01 1.00000E+01 5.20630E+00
 -1      2166 9.03198E+01 1.00000E+01 2.95044E+00
 -1      2167 9.02710E+01 1.00000E+01 1.82251E+00
 -1      2168 9.05640E+01 1.00000E+01 8.59009E+00
 -1      2169 9.11377E+01 1.00000E+01 3.74146E+00
 -1      2170 9.15222E+01 1.00000E+01 5.86243E+00
 -1      2171 9.19312E+01 1.00000E+01 7.06543E+00
 -1      2172 9.17358E+01 1.00000E+01 8.57178E+00
 -1      2173 9.21692E+01 1.00000E+01 4.97009E+00
 -1      2174 9.18701E+01 1.00000E+01 2.54272E+00
 -1      2175 9.27551E+01 1.00000E+01 3.73230E+00
 -1      2176 9.32014E+01 1.00000E+01 6.04507E+00
 -1      2177 9.32358E+01 1.00000E+01 7.48108E+00
 -1      2178 9.34380E+01 1.00000E+01 2.65060E+00
 -1      2179 9.76242E+01 1.00000E+01 4.62769E+00
 -1      2180 9.46411E+01 1.00000E+01 2.93091E+00
 -1      2181 9.44340E+01 1.00000E+01 3.92296E+00
 -1      2182 9.47830E+01 1.00000E+01 6.62422E+00
 -1      2183 9.66255E+01 1.00000E+01 5.47150E+00
 -1      2184 9.32251E+01 1.00000E+01 4.69193E+00
 -1      2185 9.63432E+01 1.00000E+01 4.28818E+00
 -1      2186 9.42490E+01 1.00000E+01 5.26199E+00
 -1      2187 9.55498E+01 1.00000E+01 5.10536E+00
 -1      2188 0.00000E+00 1.83594E+00 8.96484E+00
 -1      2189 0.00000E+00 7.53906E+00 1.66016E+00
 -1      2190 0.00000E+00 1.13281E+00 7.57812E+00
 -1      2191 0.00000E+00 2.18750E+00 6.87500E+00
 -1      2192 0.00000E+00 1.09375E+00 6.05469E+00
 -1      2193 0.00000E+00 6.28906E+00 1.95312E+00
 -1      2194 0.00000E+00 6.04492E+00 3.08594E+00
 -1      2195 0.00000E+00 2.26074E+00 1.01562E+00
 -1      2196 0.00000E+00 5.18555E+00 2.14844E+00
 -1      2197 0.00000E+00 1.68457E+00 4.80469E+00
 -1      2198 0.00000E+00 3.08594E+00 6.00586E+00
 -1      2199 0.00000E+00 1.86279E+00 2.12158E+00
 -1      2200 0.00000E+00 4.29688E+00 1.54785E+00
 -1      2201 0.00000E+00 4.81445E+00 3.49609E+00
 -1      2202 0.00000E+00 6.57227E+00 4.47266E+00
 -1      2203 0.00000E+00 3.24219E+00 5.00000E+00
 -1      2204 0.00000E+00 4.51172E+00 5.89844E+00
 -1      2205 0.00000E+00 5.57129E+00 5.67383E+00
 -1      2206 0.00000E+00 4.20410E+00 4.48242E+00
 -1      2207 0.00000E+00 3.13354E+00 3.51562E+00
 -1      2208 0.00000E+00 3.07617E+00 2.04102E+00
 -1      2209 0.00000E+00 1.92871E+00 3.41797E+00
 -1      2210 0.00000E+00 8.31055E+00 3.32031E+00
 -1      2211 0.00000E+00 3.36914E+00 8.28125E+00
 -1      2212 0.00000E+00 8.91357E+00 5.26855E+00
 -1      2213 0.00000E+00 7.62695E+00 4.99512E+00
 -1      2214 0.00000E+00 4.66797E+00 7.14844E+00
 -1      2215 0.00000E+00 8.53516E+00 7.98340E+00
 -1      2216 0.00000E+00 5.60547E+00 8.59863E+00
 -1      2217 0.00000E+00 7.16797E+00 9.09180E+00
 -1      2218 0.00000E+00 6.37695E+00 7.25586E+00
 -1      2219 0.00000E+00 6.88232E+00 6.33789E+00
 -1      2220 0.00000E+00 7.46826E+00 7.90039E+00
 -1      2221 0.00000E+00 8.07129E+00 6.58203E+00
 -1      2222 5.67116E+01 5.00000E+00 5.00000E+00
 -1      2223 3.00101E+01 5.00000E+00 5.00000E+00
 -1      2224 6.22435E+01 4.99244E+00 5.02057E+00
 -1      2225 8.01223E+01 5.00000E+00 5.00000E+00
 -1      2226 8.96243E+01 5.02244E+00 5.01963E+00
 -1      2227 4.33400E+01 4.95937E+00 5.00000E+00
 -1      2228 1.49953E+01 4.97059E+00 5.05720E+00
 -1      2229 2.24749E+01 4.90113E+00 4.91899E+00
 -1      2230 8.02119E+00 4.78355E+00 5.21645E+00
 -1      2231 7.53559E+01 4.72449E+00 5.27551E+00
 -1      2232 6.84178E+01 5.60131E+00 5.68142E+00
 -1      2233 9.46447E+01 5.00123E+00 5.01539E+00
 -1      2234 8.45269E+01 5.57614E+00 4.46954E+00
 -1      2235 3.82810E+01 5.00660E+00 5.01018E+00
 -1      2236 5.10381E+01 5.03522E+00 5.01117E+00
 -1      2237 4.06306E+00 4.05008E+00 5.93635E+00
 -1      2238 3.41452E+01 4.23947E+00 5.74292E+00
 -1      2239 2.62180E+01 5.98146E+00 5.97960E+00
 -1      2240 1.40352E+01 4.15221E+00 5.52194E+00
 -1      2241 1.87454E+01 3.98641E+00 6.02062E+00
 -1      2242 4.72052E+01 3.63479E+00 3.13812E+00
 -1      2243 1.10252E+01 3.57678E+00 3.58579E+00
 -1      2244 1.11619E+01 6.24590E+00 6.41213E+00
 -1      2245 8.30814E+01 3.36345E+00 6.63655E+00
 -1      2246 7.18668E+01 3.86951E+00 3.80668E+00
 -1      2247 2.59388E+01 3.40789E+00 3.62492E+00
 -1      2248 5.94709E+01 3.35440E+00 6.20671E+00
 -1      2249 7.22658E+01 6.40093E+00 6.40093E+00
 -1      2250 1.25677E+01 6.61806E+00 3.33874E+00
 -1      2251 5.38725E+01 5.18240E+00 3.26815E+00
 -1      2252 5.94838E+01 4.79728E+00 3.26477E+00
 -1      2253 4.82389E+01 3.47845E+00 6.52155E+00
 -1      2254 8.24273E+01 6.80852E+00 6.73607E+00
 -1      2255 1.76266E+01 5.03691E+00 3.16546E+00
 -1      2256 5.38684E+01 3.49876E+00 6.49210E+00
 -1      2257 5.29850E+00 6.42792E+00 3.53682E+00
 -1      2258 5.92907E+00 3.21979E+00 3.22538E+00
 -1      2259 8.70235E+01 6.64195E+00 6.57819E+00
 -1      2260 8.68887E+01 2.76374E+00 6.59242E+00
 -1      2261 7.78046E+01 3.28468E+00 3.26058E+00
 -1      2262 6.50353E+01 3.48875E+00 6.54181E+00
 -1      2263 6.54260E+01 6.22561E+00 3.60416E+00
 -1      2264 4.63334E+01 6.67001E+00 4.51998E+00
 -1      2265 2.10690E+01 6.94110E+00 3.03993E+00
 -1      2266 5.39342E+01 6.77945E+00 6.15386E+00
 -1      2267 7.54181E+01 7.03121E+00 2.98209E+00
 -1      2268 2.78638E+01 3.25714E+00 6.75880E+00
 -1      2269 8.73856E+01 6.72443E+00 3.30608E+00
 -1      2270 8.81245E+01 3.07091E+00 3.08344E+00
 -1      2271 5.83802E+00 6.69330E+00 6.77356E+00
 -1      2272 5.95376E+01 6.70546E+00 6.02571E+00
 -1      2273 5.67076E+01 7.07371E+00 7.08384E+00
 -1      2274 4.12933E+01 6.76420E+00 3.20878E+00
 -1      2275 4.08289E+01 6.61525E+00 6.56349E+00
 -1      2276 2.46052E+01 3.25931E+00 6.75867E+00
 -1      2277 4.13974E+01 3.18383E+00 3.15380E+00
 -1      2278 9.28717E+01 3.12322E+00 6.88048E+00
 -1      2279 9.19446E+01 6.78693E+00 3.41133E+00
 -1      2280 4.08423E+01 3.26024E+00 6.46324E+00
 -1      2281 6.71640E+01 3.32013E+00 3.30910E+00
 -1      2282 2.81060E+01 6.86402E+00 3.20479E+00
 -1      2283 3.38419E+01 6.67200E+00 3.39990E+00
 -1      2284 1.80935E+01 6.91385E+00 6.95379E+00
 -1      2285 3.22131E+01 6.70994E+00 6.75723E+00
 -1      2286 1.03554E+01 3.15706E+00 6.69135E+00
 -1      2287 7.85918E+01 3.05642E+00 6.93005E+00
 -1      2288 7.77203E+01 6.69220E+00 6.64247E+00
 -1      2289 3.60619E+01 6.76068E+00 6.76068E+00
 -1      2290 4.54376E+01 2.90921E+00 5.39904E+00
 -1      2291 2.12187E+01 6.90849E+00 6.95845E+00
 -1      2292 3.22041E+01 3.23636E+00 3.25146E+00
 -1      2293 6.39667E+01 6.92135E+00 6.88672E+00
 -1      2294 2.48917E+01 6.93500E+00 3.21033E+00
 -1      2295 5.19190E+01 2.92657E+00 3.08337E+00
 -1      2296 8.19523E+01 6.98114E+00 3.48284E+00
 -1      2297 2.02737E+01 3.18734E+00 3.28774E+00
 -1      2298 2.88986E+01 7.00737E+00 7.00737E+00
 -1      2299 9.21260E+01 3.28588E+00 3.61461E+00
 -1      2300 2.99868E+00 6.93650E+00 5.55268E+00
 -1      2301 3.08464E+01 2.92301E+00 7.01492E+00
 -1      2302 8.24290E+01 3.27844E+00 3.41935E+00
 -1      2303 6.39929E+01 3.14480E+00 3.10949E+00
 -1      2304 3.61101E+01 3.19726E+00 3.30246E+00
 -1      2305 7.84549E+01 7.00919E+00 2.92711E+00
 -1      2306 4.88814E+01 6.91595E+00 6.43036E+00
 -1      2307 9.67646E+01 3.21951E+00 6.73888E+00
 -1      2308 4.91976E+01 6.83956E+00 3.14739E+00
 -1      2309 9.67983E+01 3.16687E+00 3.38219E+00
 -1      2310 9.68981E+01 7.04233E+00 4.78115E+00
 -1      2311 3.03915E+00 4.35346E+00 3.01383E+00
 -1      2312 1.40022E+01 7.01122E+00 7.02730E+00
 -1      2313 1.54731E+01 7.07097E+00 2.88228E+00
 -1      2314 8.17202E+00 6.54358E+00 2.84355E+00
 -1      2315 1.57698E+01 2.99060E+00 6.78419E+00
 -1      2316 5.56141E+01 2.85160E+00 3.37023E+00
 -1      2317 4.34534E+01 2.96417E+00 7.32452E+00
 -1      2318 3.68569E+01 7.06413E+00 3.11937E+00
 -1      2319 2.40006E+01 7.19763E+00 7.19763E+00
 -1      2320 1.47527E+01 2.48329E+00 2.28872E+00
 -1      2321 8.98965E+01 7.07016E+00 7.13669E+00
 -1      2322 5.75096E+01 7.05966E+00 2.94040E+00
 -1      2323 4.42466E+01 3.32540E+00 2.81858E+00
 -1      2324 4.36941E+01 6.99105E+00 7.16242E+00
 -1      2325 5.66994E+01 2.98359E+00 7.15819E+00
 -1      2326 8.51121E+00 2.63369E+00 3.68126E+00
 -1      2327 6.19276E+01 4.95949E+00 2.46321E+00
 -1      2328 6.11830E+01 2.72028E+00 3.88245E+00
 -1      2329 3.72627E+01 2.98468E+00 7.03269E+00
 -1      2330 2.14216E+01 2.99008E+00 7.00992E+00
 -1      2331 4.59982E+01 5.24374E+00 7.01721E+00
 -1      2332 9.29897E+01 6.97607E+00 6.76855E+00
 -1      2333 2.31549E+01 2.90861E+00 2.89380E+00
 -1      2334 6.59079E+00 2.88940E+00 7.03685E+00
 -1      2335 7.23391E+01 6.90004E+00 3.33976E+00
 -1      2336 7.49549E+01 2.72070E+00 7.00844E+00
 -1      2337 6.22326E+01 2.81729E+00 6.95595E+00
 -1      2338 8.46089E+01 7.43886E+00 2.59876E+00
 -1      2339 2.85504E+01 4.09492E+00 2.73326E+00
 -1      2340 4.40912E+01 7.20340E+00 2.83133E+00
 -1      2341 7.17700E+01 3.35739E+00 6.88417E+00
 -1      2342 9.02851E+01 2.60673E+00 6.13402E+00
 -1      2343 7.47594E+01 2.78528E+00 3.16314E+00
 -1      2344 3.10007E+01 7.10875E+00 2.85175E+00
 -1      2345 6.27991E+01 7.34383E+00 3.62323E+00
 -1      2346 5.19642E+01 7.18551E+00 2.71146E+00
 -1      2347 8.85717E+01 4.65725E+00 7.43337E+00
 -1      2348 7.49351E+01 7.25974E+00 6.96978E+00
 -1      2349 2.32505E+01 7.59273E+00 4.58186E+00
 -1      2350 7.65903E+01 2.76471E+00 5.56238E+00
 -1      2351 8.52405E+01 2.86303E+00 2.82985E+00
 -1      2352 8.47032E+01 5.43625E+00 7.36920E+00
 -1      2353 8.01477E+01 3.81491E+00 2.46122E+00
 -1      2354 5.81554E+01 2.57618E+00 2.54149E+00
 -1      2355 5.10587E+01 3.10730E+00 7.21363E+00
 -1      2356 1.28496E+01 2.54152E+00 7.21834E+00
 -1      2357 5.14742E+01 7.32904E+00 7.26648E+00
 -1      2358 6.04541E+01 7.09201E+00 2.54480E+00
 -1      2359 9.45813E+01 7.35172E+00 3.43608E+00
 -1      2360 8.03440E+01 5.07421E+00 7.55528E+00
 -1      2361 1.70030E+01 2.70864E+00 4.39320E+00
 -1      2362 3.87378E+01 2.71187E+00 2.70290E+00
 -1      2363 8.02119E+00 4.78355E+00 7.67211E+00
 -1      2364 8.55364E+00 7.22866E+00 6.44428E+00
 -1      2365 8.11139E+01 6.44950E+00 2.16697E+00
 -1      2366 5.58759E+01 7.53290E+00 4.77192E+00
 -1      2367 1.02257E+01 7.41753E+00 4.24503E+00
 -1      2368 5.51813E+01 5.24179E+00 7.56826E+00
 -1      2369 4.94855E+01 2.68244E+00 4.25068E+00
 -1      2370 1.60203E+01 5.46738E+00 7.43845E+00
 -1      2371 1.60285E+01 7.33886E+00 5.41717E+00
 -1      2372 8.99926E+01 5.36948E+00 2.48596E+00
 -1      2373 4.31279E+01 2.30020E+00 5.02220E+00
 -1      2374 2.69796E+00 7.11753E+00 2.77996E+00
 -1      2375 8.01291E+01 2.45966E+00 4.99771E+00
 -1      2376 3.92301E+01 7.40908E+00 4.66457E+00
 -1      2377 1.96577E+01 6.18406E+00 5.04980E+00
 -1      2378 6.79524E+01 2.96017E+00 7.03983E+00
 -1      2379 8.93583E+01 7.53074E+00 4.69404E+00
 -1      2380 5.77731E+01 5.04695E+00 7.72561E+00
 -1      2381 7.66658E+01 4.57682E+00 7.54154E+00
 -1      2382 2.27722E+01 5.03295E+00 7.62923E+00
 -1      2383 6.94226E+01 5.05709E+00 2.82008E+00
 -1      2384 2.80263E+01 2.43975E+00 4.45790E+00
 -1      2385 6.10460E+01 5.06222E+00 7.28228E+00
 -1      2386 1.04673E+01 5.68210E+00 2.36133E+00
 -1      2387 8.00731E+01 7.46729E+00 5.83537E+00
 -1      2388 6.66411E+01 7.38529E+00 7.26257E+00
 -1      2389 8.69366E+01 4.69720E+00 4.86242E+00
 -1      2390 9.61032E+01 5.92706E+00 7.26498E+00
 -1      2391 2.94802E+01 4.77929E+00 7.63269E+00
 -1      2392 3.84555E+01 5.92900E+00 7.46788E+00
 -1      2393 9.11126E+01 4.85967E+00 7.50697E+00
 -1      2394 3.97963E+01 4.94033E+00 2.44292E+00
 -1      2395 1.79330E+01 7.53068E+00 3.70307E+00
 -1      2396 3.92822E+01 7.66103E+00 2.29396E+00
 -1      2397 6.99470E+01 7.43592E+00 7.41784E+00
 -1      2398 5.69376E+01 4.71464E+00 2.45296E+00
 -1      2399 8.56845E+01 5.30924E+00 2.39004E+00
 -1      2400 5.75872E+01 2.40322E+00 4.93345E+00
 -1      2401 3.04938E+01 7.56782E+00 5.21727E+00
 -1      2402 8.09240E+01 2.43393E+00 7.30786E+00
 -1      2403 9.43981E+01 2.48037E+00 2.59364E+00
 -1      2404 7.01325E+01 7.39421E+00 4.73292E+00
 -1      2405 2.44002E+00 2.49670E+00 4.68736E+00
 -1      2406 8.47594E+01 7.53027E+00 6.00824E+00
 -1      2407 8.93497E+01 7.68786E+00 2.28491E+00
 -1      2408 2.66679E+01 7.65620E+00 7.65620E+00
 -1      2409 2.30060E+01 5.40440E+00 2.49520E+00
 -1      2410 5.07464E+01 5.02551E+00 2.40255E+00
 -1      2411 3.40264E+01 2.47852E+00 7.61238E+00
 -1      2412 7.77884E+01 4.57377E+00 5.27051E+00
 -1      2413 5.50864E+01 7.17896E+00 2.45358E+00
 -1      2414 4.26594E+01 5.02494E+00 2.35203E+00
 -1      2415 2.77320E+01 4.70091E+00 4.80232E+00
 -1      2416 9.37021E+01 5.06152E+00 2.45801E+00
 -1      2417 4.27746E+01 2.03317E+00 2.06783E+00
 -1      2418 2.26997E+01 2.20554E+00 5.19035E+00
 -1      2419 7.39948E+01 5.03699E+00 7.54264E+00
 -1      2420 7.74327E+00 4.32907E+00 2.29319E+00
 -1      2421 1.79597E+01 2.32797E+00 7.62526E+00
 -1      2422 3.97132E+00 2.32707E+00 2.30304E+00
 -1      2423 5.27905E+01 5.29762E+00 7.64412E+00
 -1      2424 3.23367E+01 5.42854E+00 4.75767E+00
 -1      2425 3.72348E+00 5.80811E+00 7.57859E+00
 -1      2426 6.77937E+01 7.44182E+00 3.45406E+00
 -1      2427 4.82891E+01 5.17807E+00 4.73151E+00
 -1      2428 3.03888E+01 2.66637E+00 4.68878E+00
 -1      2429 4.60236E+01 7.64427E+00 7.39881E+00
 -1      2430 5.08167E+01 7.58671E+00 4.88149E+00
 -1      2431 4.23236E+01 5.06888E+00 7.65424E+00
 -1      2432 7.69134E+01 5.29434E+00 2.36794E+00
 -1      2433 4.63377E+01 2.37563E+00 7.62437E+00
 -1      2434 1.29248E+01 4.43379E+00 2.33755E+00
 -1      2435 9.20833E+01 5.13976E+00 5.25019E+00
 -1      2436 8.44490E+00 2.19331E+00 5.91394E+00
 -1      2437 1.28740E+01 4.93394E+00 7.47981E+00
 -1      2438 4.28948E+01 7.32336E+00 4.91648E+00
 -1      2439 8.33864E+01 5.48770E+00 2.46691E+00
 -1      2440 4.09463E+01 4.93849E+00 4.73979E+00
 -1      2441 4.55636E+01 5.32071E+00 2.69870E+00
 -1      2442 6.94906E+01 2.74735E+00 4.72818E+00
 -1      2443 8.24138E+01 5.06334E+00 5.23173E+00
 -1      2444 5.02005E+01 5.31769E+00 7.66975E+00
 -1      2445 2.73465E+01 2.18419E+00 2.26979E+00
 -1      2446 7.38720E+01 5.06868E+00 2.40805E+00
 -1      2447 6.18584E+01 7.20928E+00 5.81032E+00
 -1      2448 8.49882E+01 3.32556E+00 5.17448E+00
 -1      2449 9.76542E+01 7.63516E+00 2.48314E+00
 -1      2450 1.38910E+01 7.87897E+00 4.45427E+00
 -1      2451 3.88580E+01 2.42316E+00 5.18680E+00
 -1      2452 5.40680E+01 2.04262E+00 2.09497E+00
 -1      2453 3.26056E+01 4.47607E+00 7.58970E+00
 -1      2454 4.07459E+00 8.02406E+00 7.79174E+00
 -1      2455 5.84901E+00 4.72916E+00 4.83283E+00
 -1      2456 3.59331E+01 5.49313E+00 4.70684E+00
 -1      2457 1.97514E+01 5.23364E+00 7.76393E+00
 -1      2458 2.74088E+01 5.56604E+00 7.81014E+00
 -1      2459 1.10641E+01 7.82745E+00 2.21814E+00
 -1      2460 4.83561E+00 3.98782E+00 7.95997E+00
 -1      2461 2.44421E+00 3.76335E+00 7.70578E+00
 -1      2462 9.62029E+01 5.54082E+00 2.65316E+00
 -1      2463 2.65484E+01 5.30186E+00 2.33463E+00
 -1      2464 9.47821E+01 2.43978E+00 5.32243E+00
 -1      2465 8.08300E+01 7.85675E+00 7.90991E+00
 -1      2466 1.26531E+01 2.30260E+00 4.82702E+00
 -1      2467 2.50609E+01 5.24977E+00 7.83835E+00
 -1      2468 5.78585E+01 7.92567E+00 5.48789E+00
 -1      2469 3.55846E+01 4.58207E+00 7.62002E+00
 -1      2470 6.33910E+01 4.75951E+00 7.70965E+00
 -1      2471 1.01286E+01 5.25552E+00 4.72057E+00
 -1      2472 2.65201E+01 7.75553E+00 4.57934E+00
 -1      2473 2.47076E+01 5.09215E+00 4.53036E+00
 -1      2474 3.05901E+01 4.96337E+00 2.18749E+00
 -1      2475 9.02769E+01 3.08914E+00 2.24275E+00
 -1      2476 8.35764E+01 8.00015E+00 4.33856E+00
 -1      2477 5.22198E+01 2.25318E+00 5.33417E+00
 -1      2478 3.71210E+01 7.87990E+00 5.16512E+00
 -1      2479 3.26448E+01 2.35977E+00 5.50108E+00
 -1      2480 3.41269E+01 7.61609E+00 5.60148E+00
 -1      2481 5.54056E+01 2.20210E+00 5.50437E+00
 -1      2482 3.53979E+01 2.22743E+00 5.69514E+00
 -1      2483 7.67938E+01 2.49635E+00 7.88839E+00
 -1      2484 5.37217E+01 7.78985E+00 4.14570E+00
 -1      2485 1.71215E+01 5.41051E+00 5.51323E+00
 -1      2486 4.74619E+01 2.08384E+00 4.96679E+00
 -1      2487 5.87176E+01 7.74983E+00 7.84686E+00
 -1      2488 4.63145E+01 7.78967E+00 2.48156E+00
 -1      2489 3.54747E+01 5.28693E+00 2.39616E+00
 -1      2490 7.11090E+00 6.78146E+00 4.79651E+00
 -1      2491 9.49326E+01 7.82384E+00 5.77978E+00
 -1      2492 1.22497E+01 4.96507E+00 4.66284E+00
 -1      2493 3.94492E+01 2.18233E+00 7.86463E+00
 -1      2494 1.68935E+01 3.10489E+00 2.14731E+00
 -1      2495 7.30100E+01 7.87662E+00 7.87662E+00
 -1      2496 5.48221E+01 2.08925E+00 7.89700E+00
 -1      2497 1.27017E+01 2.41351E+00 7.91615E+00
 -1      2498 7.33738E+01 2.47535E+00 5.19338E+00
 -1      2499 1.48424E+01 2.08221E+00 4.99930E+00
 -1      2500 3.95035E+01 7.84632E+00 7.84632E+00
 -1      2501 6.03303E+01 2.16020E+00 7.83980E+00
 -1      2502 2.26221E+01 5.57138E+00 1.88746E+00
 -1      2503 9.76794E+01 4.73533E+00 5.04536E+00
 -1      2504 1.96268E+01 2.03708E+00 6.28914E+00
 -1      2505 2.60377E+01 2.10665E+00 5.45947E+00
 -1      2506 2.47299E+01 1.92515E+00 1.95113E+00
 -1      2507 7.62735E+01 7.70760E+00 5.07657E+00
 -1      2508 1.56270E+01 4.95566E+00 2.15334E+00
 -1      2509 4.52524E+00 2.07734E+00 6.85944E+00
 -1      2510 6.99001E+01 7.39028E+00 2.12813E+00
 -1      2511 5.48268E+01 7.26329E+00 7.98567E+00
 -1      2512 7.36505E+01 7.73838E+00 5.07999E+00
 -1      2513 6.38083E+01 6.09627E+00 2.07149E+00
 -1      2514 6.44091E+01 4.60469E+00 4.72846E+00
 -1      2515 9.60720E+00 3.37273E+00 2.03574E+00
 -1      2516 5.46174E+01 5.01223E+00 5.23184E+00
 -1      2517 4.92293E+01 2.05149E+00 7.81682E+00
 -1      2518 2.11269E+00 4.99818E+00 5.95408E+00
 -1      2519 7.02000E+01 2.74756E+00 2.34996E+00
 -1      2520 4.92091E+01 3.39564E+00 2.12686E+00
 -1      2521 9.39596E+01 5.04424E+00 7.72366E+00
 -1      2522 4.63021E+00 2.06911E+00 4.62965E+00
 -1      2523 6.29848E+01 3.00026E+00 4.97579E+00
 -1      2524 5.32278E+01 3.87515E+00 1.85495E+00
 -1      2525 6.01875E+01 3.16729E+00 1.98608E+00
 -1      2526 6.09824E+01 7.65671E+00 7.85241E+00
 -1      2527 8.58954E+01 7.95785E+00 4.23736E+00
 -1      2528 6.06341E+01 6.12219E+00 4.36706E+00
 -1      2529 9.14823E+01 7.82133E+00 5.34360E+00
 -1      2530 6.55469E+01 2.19169E+00 4.62474E+00
 -1      2531 1.20665E+01 2.07950E+00 2.25405E+00
 -1      2532 8.78808E+01 4.99164E+00 2.06996E+00
 -1      2533 2.05196E+01 5.02852E+00 2.13610E+00
 -1      2534 2.03121E+00 2.88803E+00 2.01459E+00
 -1      2535 3.01681E+01 2.36533E+00 2.31266E+00
 -1      2536 8.83844E+01 2.07137E+00 5.07303E+00
 -1      2537 5.37442E+01 3.31276E+00 4.28529E+00
 -1      2538 8.55508E+01 7.27441E+00 7.93985E+00
 -1      2539 5.82766E+01 1.97085E+00 8.04199E+00
 -1      2540 7.88118E+01 2.04384E+00 1.94085E+00
 -1      2541 3.41421E+01 6.30756E+00 7.86957E+00
 -1      2542 1.78050E+01 4.42069E+00 7.86071E+00
 -1      2543 9.87177E+00 5.77887E+00 8.04724E+00
 -1      2544 1.02900E+01 7.84690E+00 7.57470E+00
 -1      2545 9.78442E+01 2.21377E+00 5.08655E+00
 -1      2546 2.51741E+01 1.87379E+00 8.12621E+00
 -1      2547 1.96592E+01 7.99670E+00 6.09068E+00
 -1      2548 5.87624E+01 4.99430E+00 5.18306E+00
 -1      2549 9.76235E+01 7.75686E+00 7.08148E+00
 -1      2550 8.48329E+01 2.10359E+00 7.34414E+00
 -1      2551 7.00713E+00 3.10623E+00 4.89055E+00
 -1      2552 1.21995E+01 8.04039E+00 6.72967E+00
 -1      2553 6.45776E+00 5.88303E+00 1.93941E+00
 -1      2554 4.59538E+01 2.13934E+00 2.16627E+00
 -1      2555 7.00261E+01 4.95019E+00 7.71977E+00
 -1      2556 7.16865E+01 5.21518E+00 2.05117E+00
 -1      2557 8.24572E+01 4.99543E+00 7.86818E+00
 -1      2558 1.01981E+01 2.07564E+00 4.78204E+00
 -1      2559 3.28175E+01 5.10122E+00 2.19031E+00
 -1      2560 2.86425E+01 6.46320E+00 5.09468E+00
 -1      2561 9.48701E+01 2.25059E+00 7.61356E+00
 -1      2562 8.75560E+01 8.08273E+00 5.31936E+00
 -1      2563 4.48782E+01 7.86383E+00 5.58032E+00
 -1      2564 3.75949E+01 4.57313E+00 2.16786E+00
 -1      2565 6.61092E+01 2.12403E+00 7.87597E+00
 -1      2566 8.22105E+01 2.10695E+00 5.17048E+00
 -1      2567 6.04886E+01 4.26625E+00 4.80210E+00
 -1      2568 1.60998E+01 7.73732E+00 7.71819E+00
 -1      2569 2.45767E+01 1.93477E+00 3.98348E+00
 -1      2570 6.45943E+01 7.89414E+00 4.92015E+00
 -1      2571 2.07122E+01 4.66183E+00 5.99639E+00
 -1      2572 7.33748E+00 2.27372E+00 1.94914E+00
 -1      2573 6.22096E+01 2.96746E+00 2.13963E+00
 -1      2574 7.64747E+01 2.08179E+00 2.07515E+00
 -1      2575 4.80586E+01 5.32080E+00 7.60118E+00
 -1      2576 7.28989E+01 1.91656E+00 2.82260E+00
 -1      2577 2.30202E+01 7.76000E+00 2.25950E+00
 -1      2578 4.50677E+01 3.85317E+00 8.14144E+00
 -1      2579 4.77285E+01 5.62655E+00 2.11344E+00
 -1      2580 7.88249E+01 5.05436E+00 3.41553E+00
 -1      2581 7.32873E+01 5.37154E+00 4.68540E+00
 -1      2582 5.95213E+01 1.89512E+00 4.83686E+00
 -1      2583 6.66689E+01 4.96354E+00 7.61099E+00
 -1      2584 2.52690E+01 8.15818E+00 6.04206E+00
 -1      2585 1.93799E+01 8.00478E+00 2.11543E+00
 -1      2586 2.14080E+01 1.93729E+00 2.06639E+00
 -1      2587 3.47003E+01 8.01128E+00 1.99919E+00
 -1      2588 2.24113E+01 8.19860E+00 7.99939E+00
 -1      2589 4.53785E+01 4.84951E+00 4.69915E+00
 -1      2590 6.56842E+01 2.06812E+00 2.55196E+00
 -1      2591 6.55964E+01 4.17894E+00 2.09293E+00
 -1      2592 8.01202E+01 8.02001E+00 3.78171E+00
 -1      2593 3.07127E+01 7.96250E+00 7.64755E+00
 -1      2594 4.95137E+00 7.93043E+00 5.14570E+00
 -1      2595 5.95885E+01 7.95928E+00 4.26998E+00
 -1      2596 8.66583E+01 5.20201E+00 8.02963E+00
 -1      2597 6.51938E+01 7.88123E+00 2.08403E+00
 -1      2598 6.49584E+01 8.46985E+00 8.07404E+00
 -1      2599 5.51966E+01 4.01932E+00 1.83414E+00
 -1      2600 8.04184E+01 1.95701E+00 3.10089E+00
 -1      2601 4.01466E+01 4.65867E+00 7.74164E+00
 -1      2602 6.66175E+00 7.95385E+00 3.13043E+00
 -1      2603 2.12633E+01 7.41718E+00 4.99872E+00
 -1      2604 6.02874E+01 4.97514E+00 1.60845E+00
 -1      2605 8.63826E+01 1.93727E+00 4.36690E+00
 -1      2606 3.41398E+01 2.14819E+00 3.78704E+00
 -1      2607 2.62544E+01 4.01269E+00 5.90933E+00
 -1      2608 5.27300E+01 6.10026E+00 4.67008E+00
 -1      2609 4.19024E+01 7.96854E+00 7.84989E+00
 -1      2610 7.06547E+01 5.20338E+00 5.25443E+00
 -1      2611 1.91282E+01 8.14066E+00 8.18156E+00
 -1      2612 7.37328E+01 8.06155E+00 2.30733E+00
 -1      2613 7.18321E+00 7.89187E+00 8.01830E+00
 -1      2614 5.28600E+01 2.61505E+00 8.02329E+00
 -1      2615 8.14249E+01 5.10031E+00 3.54638E+00
 -1      2616 2.91263E+01 1.92666E+00 6.01926E+00
 -1      2617 7.87574E+01 7.93735E+00 7.93735E+00
 -1      2618 4.10921E+01 8.17040E+00 4.63340E+00
 -1      2619 9.12882E+01 2.13543E+00 8.01769E+00
 -1      2620 4.44847E+01 4.25920E+00 6.36444E+00
 -1      2621 2.65180E+01 7.85406E+00 2.10624E+00
 -1      2622 9.17893E+01 4.56955E+00 1.87951E+00
 -1      2623 7.84230E+01 5.41774E+00 8.02464E+00
 -1      2624 5.86015E+01 5.84994E+00 1.91704E+00
 -1      2625 2.62591E+01 3.59965E+00 7.97771E+00
 -1      2626 7.83257E+01 1.92151E+00 4.53561E+00
 -1      2627 7.64780E+01 8.08884E+00 8.08884E+00
 -1      2628 9.45641E+00 4.86656E+00 6.44428E+00
 -1      2629 7.86724E+01 6.37706E+00 4.91015E+00
 -1      2630 8.98681E+01 3.16919E+00 4.22908E+00
 -1      2631 8.86995E+01 1.95179E+00 7.44901E+00
 -1      2632 1.70027E+01 8.07425E+00 1.96155E+00
 -1      2633 4.60428E+01 1.61283E+00 6.89012E+00
 -1      2634 5.91679E+01 3.71952E+00 8.11249E+00
 -1      2635 3.04547E+01 6.00835E+00 6.55292E+00
 -1      2636 9.20041E+01 1.74547E+00 5.80660E+00
 -1      2637 3.23540E+01 7.89048E+00 4.27164E+00
 -1      2638 5.55280E+01 5.91910E+00 3.83452E+00
 -1      2639 3.83790E+00 5.44153E+00 4.50331E+00
 -1      2640 1.83997E+00 5.70411E+00 4.02658E+00
 -1      2641 2.31087E+01 3.11253E+00 8.07847E+00
 -1      2642 2.46893E+01 4.14813E+00 2.04090E+00
 -1      2643 2.88069E+01 1.97925E+00 8.02356E+00
 -1      2644 3.39477E+01 4.70851E+00 3.80159E+00
 -1      2645 7.50821E+01 1.51240E+00 4.42092E+00
 -1      2646 5.79212E+01 3.91491E+00 3.85239E+00
 -1      2647 1.96278E+00 1.52050E+00 8.38709E+00
 -1      2648 6.56735E+01 6.06543E+00 5.78754E+00
 -1      2649 4.91476E+00 4.77090E+00 2.51128E+00
 -1      2650 2.08041E+01 1.90804E+00 4.70261E+00
 -1      2651 3.43415E+01 3.46052E+00 2.06448E+00
 -1      2652 9.54794E+01 7.91000E+00 7.87394E+00
 -1      2653 3.73760E+01 7.85120E+00 8.04526E+00
 -1      2654 1.70615E+01 1.84990E+00 6.05480E+00
 -1      2655 2.37787E+01 5.63376E+00 6.11496E+00
 -1      2656 2.05339E+00 8.00320E+00 7.13095E+00
 -1      2657 8.12219E+01 3.73194E+00 5.92786E+00
 -1      2658 6.30992E+00 4.79812E+00 6.72996E+00
 -1      2659 9.01099E+00 2.07675E+00 8.00089E+00
 -1      2660 6.64665E+01 4.19746E+00 5.12565E+00
 -1      2661 1.97000E+01 8.21956E+00 4.15435E+00
 -1      2662 8.81731E+01 8.12158E+00 7.36291E+00
 -1      2663 8.28557E+01 7.23007E+00 1.77425E+00
 -1      2664 3.26738E+01 8.10243E+00 8.16509E+00
 -1      2665 4.04177E+01 1.87965E+00 1.98131E+00
 -1      2666 8.62677E+01 7.00679E+00 1.81512E+00
 -1      2667 3.14393E+01 4.46431E+00 6.10609E+00
 -1      2668 3.86249E+01 8.25626E+00 6.23283E+00
 -1      2669 4.46869E+01 1.83719E+00 3.97397E+00
 -1      2670 4.77390E+01 8.05042E+00 3.93841E+00
 -1      2671 8.18598E+01 7.84290E+00 5.20795E+00
 -1      2672 7.93233E+01 1.78338E+00 8.21662E+00
 -1      2673 7.75280E+01 9.97109E-01 9.65932E+00
 -1      2674 1.85020E+01 2.03152E+00 3.04013E+00
 -1      2675 1.96562E+01 3.28237E+00 7.79440E+00
 -1      2676 5.25374E+01 8.05407E+00 5.67352E+00
 -1      2677 8.39631E+01 3.92176E+00 8.19880E+00
 -1      2678 8.79970E+01 6.28937E+00 5.01990E+00
 -1      2679 4.21011E+01 1.79507E+00 6.58297E+00
 -1      2680 4.11231E+01 2.09028E+00 4.83521E+00
 -1      2681 3.21680E+01 1.77318E+00 8.05223E+00
 -1      2682 1.42515E+01 5.62473E+00 3.37136E+00
 -1      2683 7.68358E+01 5.98834E+00 4.23624E+00
 -1      2684 7.69263E+01 8.01908E+00 1.98815E+00
 -1      2685 8.26913E+01 7.94441E+00 8.22270E+00
 -1      2686 9.29801E+01 8.17001E+00 4.21700E+00
 -1      2687 9.30755E+01 8.00125E+00 2.12864E+00
 -1      2688 1.19824E+01 7.41567E+00 4.95438E+00
 -1      2689 5.88547E+01 8.10962E+00 1.88099E+00
 -1      2690 1.92485E+01 6.17864E+00 3.11741E+00
 -1      2691 2.80081E+01 8.17206E+00 5.74434E+00
 -1      2692 2.90544E+01 8.22140E+00 4.15075E+00
 -1      2693 2.93543E+01 8.06908E+00 2.14645E+00
 -1      2694 8.90982E+00 4.40375E+00 3.68084E+00
 -1      2695 6.27885E+01 8.24309E+00 1.85675E+00
 -1      2696 1.28626E+01 8.23230E+00 2.46355E+00
 -1      2697 5.23052E+01 1.80193E+00 1.70328E+00
 -1      2698 2.64775E+01 5.92867E+00 4.11215E+00
 -1      2699 2.07311E+01 4.89945E+00 4.07285E+00
 -1      2700 4.96332E+01 7.99414E+00 8.10637E+00
 -1      2701 5.57796E+01 5.97209E+00 6.10455E+00
 -1      2702 4.69404E+01 4.01298E+00 5.29006E+00
 -1      2703 4.81693E+01 1.86489E+00 2.94775E+00
 -1      2704 7.97055E+01 8.09147E+00 1.85319E+00
 -1      2705 3.47778E+01 8.13503E+00 7.40806E+00
 -1      2706 1.88097E+01 3.82988E+00 1.99794E+00
 -1      2707 7.15236E+01 1.88697E+00 4.32438E+00
 -1      2708 1.35312E+01 6.06268E+00 5.48020E+00
 -1      2709 1.11342E+01 4.26501E+00 8.12578E+00
 -1      2710 4.24522E+01 8.25502E+00 2.71945E+00
 -1      2711 5.59032E+01 8.45263E+00 6.29593E+00
 -1      2712 7.15396E+00 5.30893E+00 3.70705E+00
 -1      2713 5.34550E+01 6.35130E+00 1.75241E+00
 -1      2714 5.57881E+01 4.22747E+00 6.27390E+00
 -1      2715 4.17132E+01 2.86623E+00 8.12702E+00
 -1      2716 3.85715E+01 6.16985E+00 3.31914E+00
 -1      2717 8.38723E+00 8.07087E+00 4.05369E+00
 -1      2718 3.67395E+01 3.67914E+00 5.18402E+00
 -1      2719 2.25151E+01 8.18322E+00 6.30672E+00
 -1      2720 6.32521E+01 5.34919E+00 3.59297E+00
 -1      2721 6.36253E+01 6.22971E+00 5.19131E+00
 -1      2722 7.26260E+01 6.09675E+00 8.18682E+00
 -1      2723 5.42513E+01 3.80760E+00 8.27522E+00
 -1      2724 3.54043E+01 8.10779E+00 4.09334E+00
 -1      2725 3.37344E+01 5.29476E+00 1.16878E+00
 -1      2726 1.46370E+01 4.12242E+00 7.99650E+00
 -1      2727 2.89915E+01 3.59624E+00 5.41039E+00
 -1      2728 5.76704E+01 6.20654E+00 5.87493E+00
 -1      2729 3.70102E+01 1.85870E+00 2.07632E+00
 -1      2730 9.09927E+01 6.83858E+00 1.73314E+00
 -1      2731 6.81261E+01 7.82538E+00 5.63943E+00
 -1      2732 6.82112E+01 1.91928E+00 2.00459E+00
 -1      2733 8.38853E+01 2.06804E+00 4.07235E+00
 -1      2734 7.83184E+01 8.12250E+00 5.55453E+00
 -1      2735 4.72316E+01 7.84043E+00 5.84149E+00
 -1      2736 4.43319E+01 1.75750E+00 6.27840E+00
 -1      2737 1.06145E+01 8.31996E+00 5.81429E+00
 -1      2738 1.78802E+01 6.33990E+00 1.72623E+00
 -1      2739 9.57741E+01 7.32577E+00 1.80155E+00
 -1      2740 9.06830E+01 8.18355E+00 3.52216E+00
 -1      2741 1.00066E+01 1.76090E+00 2.93156E+00
 -1      2742 9.75943E+01 4.65255E+00 8.05293E+00
 -1      2743 6.72860E+01 5.43012E+00 2.82201E+00
 -1      2744 5.64662E+01 2.62892E+00 1.70073E+00
 -1      2745 9.46770E+00 7.06965E+00 1.59776E+00
 -1      2746 8.18092E+01 4.74218E+00 1.72487E+00
 -1      2747 8.83575E+01 3.83143E+00 5.75102E+00
 -1      2748 8.99182E+01 3.53285E+00 8.21469E+00
 -1      2749 5.04016E+01 1.78192E+00 2.38918E+00
 -1      2750 8.81354E+01 6.37602E+00 8.08009E+00
 -1      2751 9.80693E+01 4.74855E+00 3.02176E+00
 -1      2752 3.27364E+01 7.92585E+00 2.31765E+00
 -1      2753 3.89862E+01 3.90190E+00 6.47284E+00
 -1      2754 9.80228E+01 3.17029E+00 1.82367E+00
 -1      2755 4.90832E+01 7.04225E+00 8.40107E+00
 -1      2756 4.21364E+01 3.55812E+00 1.66857E+00
 -1      2757 8.68420E+01 1.96692E+00 1.96197E+00
 -1      2758 5.88913E+01 6.32901E+00 3.98957E+00
 -1      2759 7.12982E+01 8.09240E+00 6.15181E+00
 -1      2760 4.81615E+01 3.64956E+00 8.34344E+00
 -1      2761 2.96925E+01 5.95729E+00 3.45572E+00
 -1      2762 7.13439E+00 6.04777E+00 8.45261E+00
 -1      2763 1.17564E+01 6.17103E+00 8.29862E+00
 -1      2764 4.03975E+01 8.30841E+00 6.25940E+00
 -1      2765 6.27750E+01 1.80939E+00 3.55924E+00
 -1      2766 3.01494E+01 6.34711E+00 8.34210E+00
 -1      2767 2.83255E+01 5.70029E+00 1.66971E+00
 -1      2768 5.94835E+01 5.95251E+00 8.08092E+00
 -1      2769 7.93835E+01 5.83131E+00 1.80579E+00
 -1      2770 7.84617E+01 4.21968E+00 1.79734E+00
 -1      2771 6.40169E+01 2.27580E+00 7.91815E+00
 -1      2772 9.34417E+00 3.58487E+00 5.20660E+00
 -1      2773 2.69800E+01 1.91109E+00 7.68738E+00
 -1      2774 1.86237E+01 3.70416E+00 4.12444E+00
 -1      2775 1.78039E+01 8.24839E+00 5.57174E+00
 -1      2776 2.11233E+01 8.14595E+00 1.70977E+00
 -1      2777 3.97610E+01 3.63067E+00 4.02181E+00
 -1      2778 1.44202E+01 1.78791E+00 6.73295E+00
 -1      2779 6.16118E+01 1.78269E+00 5.48313E+00
 -1      2780 4.45950E+01 5.69244E+00 8.21803E+00
 -1      2781 7.54691E+01 4.04358E+00 1.78263E+00
 -1      2782 5.32005E+01 8.13636E+00 7.46987E+00
 -1      2783 4.47201E+01 6.04609E+00 5.94705E+00
 -1      2784 9.56551E+01 4.02846E+00 8.25763E+00
 -1      2785 5.61173E+01 6.30972E+00 8.44539E+00
 -1      2786 5.43378E+01 1.62295E+00 3.86558E+00
 -1      2787 4.90916E+01 1.87145E+00 5.92698E+00
 -1      2788 1.21316E+01 5.92697E+00 1.74396E+00
 -1      2789 1.37878E+01 6.71661E+00 1.95566E+00
 -1      2790 2.80563E+01 4.00827E+00 8.35198E+00
 -1      2791 8.61042E+01 6.31960E+00 5.02793E+00
 -1      2792 4.47528E+00 3.79552E+00 4.12673E+00
 -1      2793 1.20192E+01 3.87413E+00 6.17971E+00
 -1      2794 1.77161E+00 5.69552E+00 7.75736E+00
 -1      2795 3.70257E+01 5.12157E+00 6.46431E+00
 -1      2796 7.94155E+01 3.75478E+00 8.39172E+00
 -1      2797 8.34736E+01 2.14245E+00 2.05627E+00
 -1      2798 8.86658E+01 1.70359E+00 1.97309E+00
 -1      2799 6.28982E+01 8.07930E+00 8.07723E+00
 -1      2800 2.05016E+01 1.62412E+00 7.88172E+00
 -1      2801 3.82188E+01 8.35462E+00 3.54359E+00
 -1      2802 6.89520E+00 8.18552E+00 6.12049E+00
 -1      2803 6.09531E+00 1.71775E+00 5.69788E+00
 -1      2804 4.99665E+01 3.68177E+00 5.78156E+00
 -1      2805 6.23585E+01 3.92991E+00 3.72165E+00
 -1      2806 6.99896E+01 2.26075E+00 7.81956E+00
 -1      2807 2.83604E+01 5.25930E+00 6.35493E+00
 -1      2808 7.60963E+01 4.08767E+00 3.62052E+00
 -1      2809 2.36736E+01 3.58869E+00 4.50581E+00
 -1      2810 4.12304E+01 5.98963E+00 1.57591E+00
 -1      2811 2.49064E+00 2.00065E+00 6.67043E+00
 -1      2812 6.34157E+00 3.62262E+00 1.61606E+00
 -1      2813 7.67397E+01 1.71099E+00 3.78332E+00
 -1      2814 5.87033E+01 4.09749E+00 1.85541E+00
 -1      2815 7.12896E+01 8.31509E+00 8.27562E+00
 -1      2816 4.45013E+01 8.25803E+00 8.20578E+00
 -1      2817 2.10262E+01 6.43352E+00 1.49758E+00
 -1      2818 4.54362E+01 3.90661E+00 1.66228E+00
 -1      2819 8.33217E+01 6.54846E+00 5.26520E+00
 -1      2820 1.62048E+01 5.82338E+00 3.99234E+00
 -1      2821 6.75857E+01 1.97006E+00 4.80507E+00
 -1      2822 5.76572E+01 3.84763E+00 5.94978E+00
 -1      2823 4.82376E+00 7.88116E+00 2.04641E+00
 -1      2824 3.80448E+01 8.39843E+00 5.70264E+00
 -1      2825 4.25166E+01 3.69503E+00 5.97628E+00
 -1      2826 5.65894E+00 1.74775E+00 2.25258E+00
 -1      2827 6.75746E+00 1.62830E+00 3.76596E+00
 -1      2828 3.74814E+01 4.47202E+00 8.18279E+00
 -1      2829 2.50903E+01 8.37753E+00 7.89483E+00
 -1      2830 5.94265E+01 3.09841E+00 3.59520E+00
 -1      2831 5.27263E+01 4.39806E+00 5.36584E+00
 -1      2832 1.12200E+01 4.12932E+00 1.89781E+00
 -1      2833 7.55251E+01 5.93624E+00 8.17334E+00
 -1      2834 5.32017E+01 8.19834E+00 1.75300E+00
 -1      2835 7.90698E+01 5.43577E+00 6.36700E+00
 -1      2836 2.65364E+01 1.75656E+00 3.80285E+00
 -1      2837 5.93846E+01 1.61232E+00 1.70332E+00
 -1      2838 6.35022E+01 4.31554E+00 1.79414E+00
 -1      2839 8.75694E+01 8.28114E+00 2.27434E+00
 -1      2840 8.78383E+01 3.76871E+00 8.26474E+00
 -1      2841 8.40069E+01 4.69392E+00 5.91716E+00
 -1      2842 9.15747E+01 8.09275E+00 7.78505E+00
 -1      2843 5.21269E+01 4.68800E+00 3.57006E+00
 -1      2844 3.67887E+01 8.37112E+00 6.41389E+00
 -1      2845 3.59143E+01 1.95534E+00 8.15034E+00
 -1      2846 2.48257E+01 6.69269E+00 5.20965E+00
 -1      2847 8.11401E+01 5.77905E+00 6.17740E+00
 -1      2848 1.75239E+00 7.99176E+00 4.62600E+00
 -1      2849 6.75315E+01 4.01528E+00 1.44338E+00
 -1      2850 8.97463E+01 5.62869E+00 8.38662E+00
 -1      2851 1.74169E+01 8.21427E+00 7.90137E+00
 -1      2852 9.81122E+01 1.80268E+00 7.43677E+00
 -1      2853 8.15812E+01 2.73298E+00 1.78739E+00
 -1      2854 9.57168E+01 3.78125E+00 1.79326E+00
 -1      2855 9.61989E+01 1.85589E+00 2.00192E+00
 -1      2856 2.29117E+01 3.78185E+00 6.30014E+00
 -1      2857 9.03536E+01 6.25379E+00 3.97694E+00
 -1      2858 1.15042E+01 1.79435E+00 6.18788E+00
 -1      2859 9.20962E+01 2.04591E+00 1.88630E+00
 -1      2860 4.97352E+01 4.46251E+00 3.83838E+00
 -1      2861 7.33765E+01 2.14695E+00 8.44068E+00
 -1      2862 6.82303E+01 8.28646E+00 7.91437E+00
 -1      2863 6.82947E+01 6.23266E+00 7.71072E+00
 -1      2864 1.52800E+01 8.36811E+00 1.69748E+00
 -1      2865 4.46532E+01 1.79647E+00 8.09111E+00
 -1      2866 9.06677E+01 6.28201E+00 5.73349E+00
 -1      2867 4.25040E+01 6.06826E+00 6.15813E+00
 -1      2868 8.86301E+01 5.42435E+00 3.61277E+00
 -1      2869 1.60538E+01 8.40315E+00 3.95671E+00
 -1      2870 8.24823E+01 1.71521E+00 6.87492E+00
 -1      2871 2.18852E+01 3.39796E+00 4.09297E+00
 -1      2872 5.70799E+01 8.29540E+00 8.34916E+00
 -1      2873 1.84737E+01 1.75694E+00 4.90328E+00
 -1      2874 1.59111E+01 4.03646E+00 3.78855E+00
 -1      2875 5.39533E+00 5.67338E+00 8.21654E+00
 -1      2876 7.53577E+01 5.82676E+00 1.65796E+00
 -1      2877 1.74099E+01 6.05613E+00 8.30465E+00
 -1      2878 3.69318E+01 1.82064E+00 4.48793E+00
 -1      2879 3.81552E+01 6.58690E+00 5.82363E+00
 -1      2880 5.63695E+01 4.23248E+00 8.29217E+00
 -1      2881 8.00909E+01 6.24912E+00 3.74419E+00
 -1      2882 9.33817E+01 6.34838E+00 4.57247E+00
 -1      2883 5.03008E+01 8.12255E+00 2.03257E+00
 -1      2884 7.95732E+01 1.66067E+00 6.47204E+00
 -1      2885 3.35976E+01 5.93544E+00 5.92493E+00
 -1      2886 3.31116E+01 1.88174E+00 2.09068E+00
 -1      2887 5.68319E+01 1.57624E+00 3.17183E+00
 -1      2888 5.38743E+01 1.69527E+00 6.41189E+00
 -1      2889 1.31252E+01 7.98015E+00 8.30189E+00
 -1      2890 1.33145E+01 3.71474E+00 3.93632E+00
 -1      2891 4.81921E+01 8.09461E+00 2.03924E+00
 -1      2892 4.29118E+01 3.64632E+00 3.91448E+00
 -1      2893 8.56108E+01 3.83287E+00 7.37917E+00
 -1      2894 6.52961E+01 6.27135E+00 8.21906E+00
 -1      2895 1.55037E+01 1.86748E+00 8.24068E+00
 -1      2896 9.04464E+01 1.58308E+00 4.71533E+00
 -1      2897 6.21047E+01 6.66995E+00 2.17219E+00
 -1      2898 4.03855E+01 3.53342E+00 1.54727E+00
 -1      2899 7.76020E+01 1.68301E+00 6.59989E+00
 -1      2900 4.39648E+01 5.53975E+00 3.44154E+00
 -1      2901 9.79580E+01 8.42423E+00 5.43947E+00
 -1      2902 8.65836E+01 3.99569E+00 3.23855E+00
 -1      2903 8.58871E+01 8.49132E+00 2.66842E+00
 -1      2904 4.48238E+01 8.39524E+00 1.75316E+00
 -1      2905 8.14619E+01 8.27903E+00 2.30139E+00
 -1      2906 5.85483E+01 1.85673E+00 6.30506E+00
 -1      2907 9.07932E+01 4.58028E+00 3.81163E+00
 -1      2908 4.56432E+01 3.43231E+00 3.78985E+00
 -1      2909 8.39375E+01 6.65991E+00 8.44031E+00
 -1      2910 3.00966E+01 3.98715E+00 3.56471E+00
 -1      2911 9.65558E+01 2.38166E+00 8.38416E+00
 -1      2912 5.10136E+01 1.72484E+00 4.09196E+00
 -1      2913 7.55872E+01 3.59340E+00 8.47745E+00
 -1      2914 6.22723E+01 6.26072E+00 8.15704E+00
 -1      2915 4.43764E+01 2.15135E+00 1.65448E+00
 -1      2916 7.36025E+01 3.31477E+00 1.77241E+00
 -1      2917 8.80500E+00 6.39848E+00 4.48439E+00
 -1      2918 3.13524E+01 1.62322E+00 3.51408E+00
 -1      2919 9.62013E+01 1.69012E+00 4.36234E+00
 -1      2920 4.82164E+00 5.59880E+00 5.91119E+00
 -1      2921 9.32442E+01 1.77653E+00 4.25673E+00
 -1      2922 2.12326E+01 4.28352E+00 8.30724E+00
 -1      2923 9.62215E+01 8.27842E+00 3.52752E+00
 -1      2924 3.77510E+01 6.34313E+00 1.67777E+00
 -1      2925 3.75887E+01 8.14060E+00 1.85649E+00
 -1      2926 5.65523E+01 7.82425E+00 1.60410E+00
 -1      2927 2.73962E+00 1.45573E+00 1.67868E+00
 -1      2928 9.82039E+01 6.31973E+00 5.96930E+00
 -1      2929 2.18644E+01 3.74840E+00 1.80459E+00
 -1      2930 4.53982E+01 8.31754E+00 3.92733E+00
 -1      2931 7.90741E+01 3.72746E+00 4.49031E+00
 -1      2932 6.10282E+01 1.63898E+00 2.44664E+00
 -1      2933 4.72460E+01 6.02686E+00 5.95357E+00
 -1      2934 1.94517E+00 1.62747E+00 3.23949E+00
 -1      2935 6.14125E+01 8.32909E+00 4.38745E+00
 -1      2936 8.61048E+01 5.16469E+00 6.34898E+00
 -1      2937 2.30517E+01 1.69060E+00 1.53686E+00
 -1      2938 8.40612E+01 4.11097E+00 3.47143E+00
 -1      2939 6.37073E+01 1.59585E+00 1.75632E+00
 -1      2940 5.45290E+00 3.24393E+00 5.48370E+00
 -1      2941 6.41945E+01 1.87308E+00 5.94497E+00
 -1      2942 1.08904E+01 1.87562E+00 7.97395E+00
 -1      2943 8.62852E+01 8.24151E+00 6.53005E+00
 -1      2944 7.75524E+01 8.29557E+00 3.88826E+00
 -1      2945 9.81494E+01 1.81768E+00 3.23815E+00
 -1      2946 4.97270E+01 6.22008E+00 1.56531E+00
 -1      2947 7.13982E+01 1.47904E+00 1.94150E+00
 -1      2948 3.19470E+01 8.28492E+00 5.96305E+00
 -1      2949 5.82353E+01 1.24437E+00 6.53689E+00
 -1      2950 6.33910E+01 4.26138E+00 6.06705E+00
 -1      2951 6.26426E+01 5.74257E+00 6.51471E+00
 -1      2952 8.27680E+00 3.73230E+00 6.44428E+00
 -1      2953 8.70677E+00 5.53987E+00 1.56811E+00
 -1      2954 1.37889E+01 1.59631E+00 3.62681E+00
 -1      2955 3.77451E+01 1.84311E+00 8.34011E+00
 -1      2956 5.26513E+01 1.51954E+00 3.69102E+00
 -1      2957 5.51635E+00 7.36650E+00 8.43991E+00
 -1      2958 8.31912E+01 8.41997E+00 6.32364E+00
 -1      2959 1.71486E+01 4.88219E+00 1.54260E+00
 -1      2960 7.60904E+01 5.90898E+00 6.44452E+00
 -1      2961 2.11458E+01 6.02085E+00 8.46048E+00
 -1      2962 1.48181E+01 8.29817E+00 6.20253E+00
 -1      2963 7.52714E+01 7.98325E+00 1.57359E+00
 -1      2964 3.10712E+01 4.79280E+00 8.50488E+00
 -1      2965 9.31329E+01 1.77405E+00 8.17238E+00
 -1      2966 4.11634E+01 6.28740E+00 8.30598E+00
 -1      2967 4.94796E+01 8.35469E+00 4.01518E+00
 -1      2968 7.49466E+01 6.45090E+00 4.69323E+00
 -1      2969 5.19274E+01 5.75261E+00 1.48663E+00
 -1      2970 3.04895E+01 1.96051E+00 8.40056E+00
 -1      2971 3.52446E+01 1.76382E+00 1.97606E+00
 -1      2972 4.52514E+01 6.67640E+00 1.59037E+00
 -1      2973 1.45210E+01 5.32718E+00 6.65002E+00
 -1      2974 5.19242E+01 5.95304E+00 6.24268E+00
 -1      2975 5.08256E+01 6.23929E+00 3.70981E+00
 -1      2976 1.41719E+01 5.80800E+00 8.32752E+00
 -1      2977 1.25516E+00 3.54958E+00 8.58813E+00
 -1      2978 3.47369E+00 5.72137E+00 1.84717E+00
 -1      2979 7.46456E+01 8.31629E+00 8.34302E+00
 -1      2980 5.50340E+01 5.70663E+00 1.57643E+00
 -1      2981 6.56382E+01 6.10828E+00 1.76455E+00
 -1      2982 1.70389E+01 3.69919E+00 5.82507E+00
 -1      2983 8.89873E+01 5.88252E+00 6.33599E+00
 -1      2984 8.22904E+01 3.23762E+00 8.25762E+00
 -1      2985 2.22816E+01 6.33158E+00 5.78651E+00
 -1      2986 7.59210E+01 1.59954E+00 6.61264E+00
 -1      2987 7.54458E+01 1.55081E+00 8.22359E+00
 -1      2988 7.71408E+01 6.51925E+00 8.41250E+00
 -1      2989 6.55948E+00 4.08613E+00 8.29099E+00
 -1      2990 8.78330E+00 7.16308E+00 8.19518E+00
 -1      2991 9.32838E+01 3.65897E+00 5.09095E+00
 -1      2992 4.17927E+01 1.54185E+00 3.36906E+00
 -1      2993 1.66135E+01 3.21791E+00 8.29916E+00
 -1      2994 2.27377E+01 1.73136E+00 6.94932E+00
 -1      2995 3.97098E+01 5.93315E+00 5.43210E+00
 -1      2996 4.76822E+01 8.26791E+00 8.06203E+00
 -1      2997 4.21598E+01 8.35757E+00 6.14591E+00
 -1      2998 8.99132E+01 4.22392E+00 6.48877E+00
 -1      2999 8.45097E+01 4.09647E+00 1.70560E+00
 -1      3000 7.59121E+00 5.84943E+00 6.44428E+00
 -1      3001 6.77603E+01 8.17306E+00 1.66957E+00
 -1      3002 5.76972E+01 6.56903E+00 8.25274E+00
 -1      3003 5.43694E+01 8.31460E+00 5.61069E+00
 -1      3004 8.80392E+01 6.69322E+00 1.67991E+00
 -1      3005 7.39555E+01 3.73356E+00 5.82997E+00
 -1      3006 2.07921E+01 7.78120E+00 8.36881E+00
 -1      3007 4.34678E+01 4.17453E+00 8.46600E+00
 -1      3008 5.02186E+01 8.32884E+00 6.42357E+00
 -1      3009 3.18867E+01 6.56393E+00 8.47637E+00
 -1      3010 5.62797E+01 3.41312E+00 4.78225E+00
 -1      3011 8.71585E+01 1.77110E+00 8.40415E+00
 -1      3012 6.09009E+01 4.20727E+00 3.32347E+00
 -1      3013 2.48768E+01 8.18643E+00 4.37694E+00
 -1      3014 9.49032E+00 3.98286E+00 7.87970E+00
 -1      3015 2.00342E+01 3.40048E+00 5.05212E+00
 -1      3016 6.19488E+01 3.93401E+00 8.28403E+00
 -1      3017 3.68569E+01 6.14905E+00 8.24388E+00
 -1      3018 7.77372E+01 3.73466E+00 8.53124E+00
 -1      3019 2.78345E+00 7.02884E+00 8.35051E+00
 -1      3020 4.91737E+01 5.17865E+00 6.25017E+00
 -1      3021 4.68281E+01 5.14996E+00 3.83981E+00
 -1      3022 7.97381E+01 6.66177E+00 7.35567E+00
 -1      3023 2.19477E+01 8.32701E+00 3.66280E+00
 -1      3024 2.29043E+01 6.58390E+00 8.39157E+00
 -1      3025 4.94936E+01 6.44342E+00 4.82557E+00
 -1      3026 4.56675E+01 1.38843E+00 5.41546E+00
 -1      3027 3.43797E+01 3.84263E+00 8.46866E+00
 -1      3028 2.49430E+01 5.96804E+00 1.58286E+00
 -1      3029 9.25371E+01 4.15017E+00 8.28415E+00
 -1      3030 2.43313E+01 1.91357E+00 5.69995E+00
 -1      3031 2.81123E+01 8.41643E+00 7.37862E+00
 -1      3032 8.09157E+01 3.73258E+00 4.30961E+00
 -1      3033 8.46218E+01 8.66987E+00 3.47608E+00
 -1      3034 3.09461E+01 6.20842E+00 4.45512E+00
 -1      3035 2.22237E+01 6.35056E+00 4.10770E+00
 -1      3036 7.18736E+01 8.15287E+00 1.82203E+00
 -1      3037 7.39612E+01 6.07292E+00 6.13646E+00
 -1      3038 8.17833E+01 6.49920E+00 8.32400E+00
 -1      3039 2.47458E+01 8.30378E+00 2.00999E+00
 -1      3040 7.56061E+00 7.69862E+00 1.53189E+00
 -1      3041 5.70529E+01 6.47231E+00 4.39035E+00
 -1      3042 4.28416E+01 6.65298E+00 1.73690E+00
 -1      3043 5.19071E+01 1.56452E+00 6.94639E+00
 -1      3044 7.08918E+01 6.33283E+00 8.42230E+00
 -1      3045 8.39957E+00 1.38386E+00 4.59218E+00
 -1      3046 2.87379E+00 4.10575E+00 4.76753E+00
 -1      3047 2.21313E+01 1.77403E+00 3.64458E+00
 -1      3048 8.55093E+01 6.45624E+00 3.52441E+00
 -1      3049 8.31788E+01 3.55769E+00 4.93579E+00
 -3
    3C                         11378                                     1
 -1      4439    3    0    1
 -2      1440      2550      1436      2870
 -1      4440    3    0    1
 -2      1738      2730      2174      2740
 -1      4441    3    0    1
 -2      2227      2274      2414      2440
 -1      4442    3    0    1
 -2      2267      2507      2109      2512
 -1      4443    3    0    1
 -2      2433      1542      2633      2787
 -1      4444    3    0    1
 -2      2284      2241      2377      2457
 -1      4445    3    0    1
 -2       288      2434      2320      2508
 -1      4446    3    0    1
 -2      2309      2464      2307      2503
 -1      4447    3    0    1
 -2      2309      2403      2233      2854
 -1      4448    3    0    1
 -2      2251      2516      2316      2638
 -1      4449    3    0    1
 -2      2380      2248      2548      2768
 -1      4450    3    0    1
 -2      2235      2564      2362      2718
 -1      4451    3    0    1
 -2      2242      2520       125      2579
 -1      4452    3    0    1
 -2      2252      2327      2528      3012
 -1      4453    3    0    1
 -2      2227      2414      2274      2900
 -1      4454    3    0    1
 -2      2322      2624      2398      2926
 -1      4455    3    0    1
 -2      2408      2467       841      2829
 -1      4456    3    0    1
 -2      2438      2440      2275      2618
 -1      4457    3    0    1
 -2      2403      2416      2233      2854
 -1      4458    3    0    1
 -2      1215      2521      2332      2652
 -1      4459    3    0    1
 -2       447      2398      2624      2926
 -1      4460    3    0    1
 -2      2270      2532       577      2757
 -1      4461    3    0    1
 -2      2224      2523      2337      2567
 -1      4462    3    0    1
 -2      2570      2648      2426      2731
 -1      4463    3    0    1
 -2      2247      2463      2445      2642
 -1      4464    3    0    1
 -2      2377      2457      2291      2547
 -1      4465    3    0    1
 -2      2398      2926       447      2980
 -1      4466    3    0    1
 -2      1174      2685      2538      2909
 -1      4467    3    0    1
 -2      1563      2451      2280      2680
 -1      4468    3    0    1
 -2       555      2338      1742      2663
 -1      4469    3    0    1
 -2      1833      2340      2438      2710
 -1      4470    3    0    1
 -2        93        98      1310      2452
 -1      4471    3    0    1
 -2      2566      2733      2245      2870
 -1      4472    3    0    1
 -2       557      2399      2338      2439
 -1      4473    3    0    1
 -2      2275      2440      2438      2867
 -1      4474    3    0    1
 -2      2233      2307      2464      2503
 -1      4475    3    0    1
 -2      2295      2410       112      2520
 -1      4476    3    0    1
 -2      2284      2457      2377      2547
 -1      4477    3    0    1
 -2      1833      2438      2340      2930
 -1      4478    3    0    1
 -2      2224      2337      2385      2567
 -1      4479    3    0    1
 -2       836       841      2408      2467
 -1      4480    3    0    1
 -2      2233      2521      2464      2784
 -1      4481    3    0    1
 -2      2521      2561      2464      2784
 -1      4482    3    0    1
 -2      2250      2367      2386      2471
 -1      4483    3    0    1
 -2      2554      2669      2486      2908
 -1      4484    3    0    1
 -2      2274      2440      2438      2618
 -1      4485    3    0    1
 -2      2316      2638      2516      3010
 -1      4486    3    0    1
 -2      2319       841      2467      2829
 -1      4487    3    0    1
 -2      2477      2804      2236      2912
 -1      4488    3    0    1
 -2       279       288      2320      2508
 -1      4489    3    0    1
 -2      2295       112      2697      2749
 -1      4490    3    0    1
 -2      2228      2450      2682      2708
 -1      4491    3    0    1
 -2      2307      2464      1399      2561
 -1      4492    3    0    1
 -2      2233      2464      2309      2503
 -1      4493    3    0    1
 -2      2280      2451      1563      2493
 -1      4494    3    0    1
 -2      2379      2562      2156      2839
 -1      4495    3    0    1
 -2      2159      2379      2321      2662
 -1      4496    3    0    1
 -2      2295      2477      2236      2912
 -1      4497    3    0    1
 -2      2408      2458       836      2467
 -1      4498    3    0    1
 -2      2327      2252      2604      3012
 -1      4499    3    0    1
 -2      1633      2334      1687      2509
 -1      4500    3    0    1
 -2      2371      2450      2228      2708
 -1      4501    3    0    1
 -2      2331      2433      2290      2702
 -1      4502    3    0    1
 -2      2336      2350      2231      2381
 -1      4503    3    0    1
 -2      2464      2521      2278      2561
 -1      4504    3    0    1
 -2      2426      2570      2263      2648
 -1      4505    3    0    1
 -2      2167      2730      1738      2740
 -1      4506    3    0    1
 -2      2269      2562      2379      2839
 -1      4507    3    0    1
 -2       109      2524      2295      2697
 -1      4508    3    0    1
 -2      2225      2287      2657      2835
 -1      4509    3    0    1
 -2      2233      2464      2307      2784
 -1      4510    3    0    1
 -2      2304      2362      2564      2718
 -1      4511    3    0    1
 -2      2241      2284      2377      2485
 -1      4512    3    0    1
 -2      2320      2361      1646      2494
 -1      4513    3    0    1
 -2      2234      2476      2439      2819
 -1      4514    3    0    1
 -2      2350      2381      2336      2483
 -1      4515    3    0    1
 -2      2250      2471      2386      2492
 -1      4516    3    0    1
 -2       604      2449      2462      2751
 -1      4517    3    0    1
 -2      2235      2718      2362      2777
 -1      4518    3    0    1
 -2      2158      2407      2379      2839
 -1      4519    3    0    1
 -2      2471      2492      2250      2688
 -1      4520    3    0    1
 -2      2238      2479      2424      2644
 -1      4521    3    0    1
 -2       574      2532      2399      2902
 -1      4522    3    0    1
 -2      2331      2429       742      2575
 -1      4523    3    0    1
 -2      1213      2390      2549      2742
 -1      4524    3    0    1
 -2      2342      2299      2630      2907
 -1      4525    3    0    1
 -2      2354      2830      2582      2837
 -1      4526    3    0    1
 -2      2338      2439      2234      2476
 -1      4527    3    0    1
 -2      2236      2295      2369      2860
 -1      4528    3    0    1
 -2      2278      2521      2464      2991
 -1      4529    3    0    1
 -2      2433      2517      1542      2787
 -1      4530    3    0    1
 -2      2735      2967      2031      3008
 -1      4531    3    0    1
 -2      2367      2471      2250      2688
 -1      4532    3    0    1
 -2       731      2444      2355      2760
 -1      4533    3    0    1
 -2      1202      2393      2332      3029
 -1      4534    3    0    1
 -2      2233      2403      2309      2464
 -1      4535    3    0    1
 -2       845       849       841      2319
 -1      4536    3    0    1
 -2      2225      2657      2287      2931
 -1      4537    3    0    1
 -2       598      2622      2416      2730
 -1      4538    3    0    1
 -2      2251      2316      2599      2638
 -1      4539    3    0    1
 -2      1436      2550      2733      2870
 -1      4540    3    0    1
 -2      2433      2331      2578      2760
 -1      4541    3    0    1
 -2      2289      2456      2238      2885
 -1      4542    3    0    1
 -2      2331      2433      2253      2760
 -1      4543    3    0    1
 -2      2550      2245      2733      2870
 -1      4544    3    0    1
 -2      2239      2408      2319      2467
 -1      4545    3    0    1
 -2      2342      2278      2435      2998
 -1      4546    3    0    1
 -2      2342      2435      2299      2907
 -1      4547    3    0    1
 -2      1489      1399      2307      2464
 -1      4548    3    0    1
 -2      1603      2616      2505      2773
 -1      4549    3    0    1
 -2      2250      2434      2386      2788
 -1      4550    3    0    1
 -2      1487      2464      2278      2561
 -1      4551    3    0    1
 -2      2238      2469      2289      2885
 -1      4552    3    0    1
 -2      2448      2550      2245      2733
 -1      4553    3    0    1
 -2       845      2319       841      2467
 -1      4554    3    0    1
 -2       574       577      2532      2757
 -1      4555    3    0    1
 -2      2355      2444      2253      2760
 -1      4556    3    0    1
 -2      2586      2674      2297      2706
 -1      4557    3    0    1
 -2      2280      2440      2431      2825
 -1      4558    3    0    1
 -2      1791      2366      2322      2468
 -1      4559    3    0    1
 -2      2248      2380      2634      2768
 -1      4560    3    0    1
 -2      1733      2307      2503      2545
 -1      4561    3    0    1
 -2      1564      2451      1563      2680
 -1      4562    3    0    1
 -2      2377      2395      2255      2485
 -1      4563    3    0    1
 -2      1354      2530      1351      2565
 -1      4564    3    0    1
 -2      2158      2379      2156      2839
 -1      4565    3    0    1
 -2       569      2902      2399      2999
 -1      4566    3    0    1
 -2      2414      2900      2441      2972
 -1      4567    3    0    1
 -2      2386      2434      2250      2492
 -1      4568    3    0    1
 -2       223      2445      2463      2642
 -1      4569    3    0    1
 -2      2362      2718      2451      2777
 -1      4570    3    0    1
 -2      2290      2433      2331      2620
 -1      4571    3    0    1
 -2      2268      2505      2616      2773
 -1      4572    3    0    1
 -2      2223      2424      2667      2910
 -1      4573    3    0    1
 -2      1563      2280      2679      2680
 -1      4574    3    0    1
 -2      2350      2231      2645      3005
 -1      4575    3    0    1
 -2      2344      2474      2761      2767
 -1      4576    3    0    1
 -2      2103      2267      2109      2512
 -1      4577    3    0    1
 -2      1386      2576      2343      2916
 -1      4578    3    0    1
 -2      2292      2667      2424      2910
 -1      4579    3    0    1
 -2      2519      2556      2246      2916
 -1      4580    3    0    1
 -2      2097      2404      2335      2759
 -1      4581    3    0    1
 -2      1681      1680      2334      2436
 -1      4582    3    0    1
 -2      2263      2570      2426      2597
 -1      4583    3    0    1
 -2      2431      2825      2440      2867
 -1      4584    3    0    1
 -2      2274      2227      2438      2440
 -1      4585    3    0    1
 -2      2227      2274      2438      2900
 -1      4586    3    0    1
 -2       677      2470      2262      2771
 -1      4587    3    0    1
 -2      2252      2358      2327      2604
 -1      4588    3    0    1
 -2       829      2408      2298      2458
 -1      4589    3    0    1
 -2      2290      2892      2589      2908
 -1      4590    3    0    1
 -2      2322      2413      2366      2926
 -1      4591    3    0    1
 -2       608      2687      2416      2739
 -1      4592    3    0    1
 -2      2295      2520       112      2749
 -1      4593    3    0    1
 -2      2252      2327      2358      2528
 -1      4594    3    0    1
 -2      2367      2717      2459      2745
 -1      4595    3    0    1
 -2      2344      2401      1875      2692
 -1      4596    3    0    1
 -2      2275      2618      2440      2995
 -1      4597    3    0    1
 -2       741      2578      2331      2760
 -1      4598    3    0    1
 -2      2097      2335      2512      2759
 -1      4599    3    0    1
 -2      1971      2459      2717      2745
 -1      4600    3    0    1
 -2       849      2319       845      3024
 -1      4601    3    0    1
 -2       125      2242      2579      2818
 -1      4602    3    0    1
 -2       557       559      2399      2439
 -1      4603    3    0    1
 -2       569       574      2399      2902
 -1      4604    3    0    1
 -2      2435      2907      2342      2998
 -1      4605    3    0    1
 -2      1289      2486      2669      3026
 -1      4606    3    0    1
 -2        44      2556      2519      2916
 -1      4607    3    0    1
 -2      1733      2307      1732      2503
 -1      4608    3    0    1
 -2      1289      2554      2486      2703
 -1      4609    3    0    1
 -2      1202      2332      2521      3029
 -1      4610    3    0    1
 -2       125      2242       124      2520
 -1      4611    3    0    1
 -2      2416      2687       598      2730
 -1      4612    3    0    1
 -2       215      2445      2339      2463
 -1      4613    3    0    1
 -2      2272      2447      2065      2526
 -1      4614    3    0    1
 -2       288       282       279      2320
 -1      4615    3    0    1
 -2      2296      2439      2476      2819
 -1      4616    3    0    1
 -2      1676      1673      1222      2741
 -1      4617    3    0    1
 -2      2224      2385      2528      2567
 -1      4618    3    0    1
 -2      2251      2316      2516      2537
 -1      4619    3    0    1
 -2      1582      2479      2411      2482
 -1      4620    3    0    1
 -2      2253      2433      2331      2702
 -1      4621    3    0    1
 -2      2065      2272      2595      2935
 -1      4622    3    0    1
 -2      1487      2278      2464      2636
 -1      4623    3    0    1
 -2      2287      2381      2350      2483
 -1      4624    3    0    1
 -2      2457      2611      2284      2877
 -1      4625    3    0    1
 -2      2063      2272      2065      2526
 -1      4626    3    0    1
 -2      2374      2594      1985      2848
 -1      4627    3    0    1
 -2      2440      2601      2431      2867
 -1      4628    3    0    1
 -2      2528      2720      2327      2897
 -1      4629    3    0    1
 -2      2239      2408      2298      2691
 -1      4630    3    0    1
 -2      1771      1769      2426      2597
 -1      4631    3    0    1
 -2      2262      2565       677      2771
 -1      4632    3    0    1
 -2      2287      2350      2381      2412
 -1      4633    3    0    1
 -2      2431      2440      2280      2601
 -1      4634    3    0    1
 -2      2263      2426      2648      2743
 -1      4635    3    0    1
 -2       109      2410      2295      2524
 -1      4636    3    0    1
 -2      1313      2452      2786      2887
 -1      4637    3    0    1
 -2      2243      2386      2492      2832
 -1      4638    3    0    1
 -2      2450      2682      2313      2820
 -1      4639    3    0    1
 -2      2299      2435      2342      2991
 -1      4640    3    0    1
 -2      2360      2657      2287      2835
 -1      4641    3    0    1
 -2      1440      1443      1436      2550
 -1      4642    3    0    1
 -2       677      2565      2262      2583
 -1      4643    3    0    1
 -2      2340      2264      2563      2900
 -1      4644    3    0    1
 -2      2416      2435      2279      2907
 -1      4645    3    0    1
 -2      2342      2907      2630      2998
 -1      4646    3    0    1
 -2       756      2317      1556      2715
 -1      4647    3    0    1
 -2      2483      2672      1411      2899
 -1      4648    3    0    1
 -2      2290      2227      2373      2620
 -1      4649    3    0    1
 -2      2442      2707      2341      2806
 -1      4650    3    0    1
 -2      1354      2530      2565      2821
 -1      4651    3    0    1
 -2      1351      2565      2530      2941
 -1      4652    3    0    1
 -2      2298      2408       829      3031
 -1      4653    3    0    1
 -2      2319      2467      2408      2829
 -1      4654    3    0    1
 -2      2319      2408      2239      2584
 -1      4655    3    0    1
 -2      2451      2680      2362      2777
 -1      4656    3    0    1
 -2      1326      2354      2582      2837
 -1      4657    3    0    1
 -2      1487      2561      2278      2965
 -1      4658    3    0    1
 -2      2239      2560      2298      2807
 -1      4659    3    0    1
 -2      2233      2464      2521      2991
 -1      4660    3    0    1
 -2      2385      2548      2248      2768
 -1      4661    3    0    1
 -2      2321      2393      2842      2850
 -1      4662    3    0    1
 -2      2284      2241      2457      2542
 -1      4663    3    0    1
 -2      1778      2358       457      2695
 -1      4664    3    0    1
 -2      1326      2400      2354      2887
 -1      4665    3    0    1
 -2      2227      2589      2290      2892
 -1      4666    3    0    1
 -2      2398      2599      2316      2638
 -1      4667    3    0    1
 -2      1466      2798      2536      2896
 -1      4668    3    0    1
 -2      2366      2413      1791      2926
 -1      4669    3    0    1
 -2      2070      2293      2447      2570
 -1      4670    3    0    1
 -2       139      2323      2414      2756
 -1      4671    3    0    1
 -2      2255      2395      2377      2690
 -1      4672    3    0    1
 -2      2371      2450      2313      2820
 -1      4673    3    0    1
 -2      1670      2436      2286      2858
 -1      4674    3    0    1
 -2      2109      2103      1755      2612
 -1      4675    3    0    1
 -2      2227      2290      2373      2892
 -1      4676    3    0    1
 -2       577      2270       583      2532
 -1      4677    3    0    1
 -2      2142      2538      1174      2685
 -1      4678    3    0    1
 -2      2340      2563      2438      2900
 -1      4679    3    0    1
 -2      2235      2362      2564      2777
 -1      4680    3    0    1
 -2      2159      2163      2321      2379
 -1      4681    3    0    1
 -2      2264      2783      2563      2900
 -1      4682    3    0    1
 -2      2398      2638      2316      3010
 -1      4683    3    0    1
 -2      2239      2298      2560      2691
 -1      4684    3    0    1
 -2      2103      2267      2512      2612
 -1      4685    3    0    1
 -2      1542      2486      2633      2787
 -1      4686    3    0    1
 -2        47        44       499      2556
 -1      4687    3    0    1
 -2       910      2334      1633      2509
 -1      4688    3    0    1
 -2      2225      2287      2835      2931
 -1      4689    3    0    1
 -2      2362      2680      2665      2777
 -1      4690    3    0    1
 -2      2236      2369      2804      2860
 -1      4691    3    0    1
 -2      2219      2518      2300      2794
 -1      4692    3    0    1
 -2      2322      2366      1791      2926
 -1      4693    3    0    1
 -2      1356      1359      2590      2821
 -1      4694    3    0    1
 -2      2233      2462      2309      2854
 -1      4695    3    0    1
 -2      2350      2645      2231      2808
 -1      4696    3    0    1
 -2      2321      2379      2163      2529
 -1      4697    3    0    1
 -2        36      2574        33      2770
 -1      4698    3    0    1
 -2      2203      2518      2405      3046
 -1      4699    3    0    1
 -2      2368      2423      2266      2516
 -1      4700    3    0    1
 -2      1680      1681      2334      2803
 -1      4701    3    0    1
 -2      2177      2332      2491      2652
 -1      4702    3    0    1
 -2      2394      2414      2274      2440
 -1      4703    3    0    1
 -2       604       602      2449      2751
 -1      4704    3    0    1
 -2      2243      2471      2772      2793
 -1      4705    3    0    1
 -2      1436      2733      2566      2870
 -1      4706    3    0    1
 -2      2307      2464      2561      2784
 -1      4707    3    0    1
 -2      2280      2493      1563      2679
 -1      4708    3    0    1
 -2       705      2325       703      2539
 -1      4709    3    0    1
 -2      2393      2435      2278      2998
 -1      4710    3    0    1
 -2      1313      2786      1317      2887
 -1      4711    3    0    1
 -2      2563      2783      2438      2900
 -1      4712    3    0    1
 -2      2395      2485      2377      2775
 -1      4713    3    0    1
 -2      2241      2284      2485      2542
 -1      4714    3    0    1
 -2      1952      2450      2313      2869
 -1      4715    3    0    1
 -2      2268      2505      2384      2616
 -1      4716    3    0    1
 -2      2440      2618      2274      2995
 -1      4717    3    0    1
 -2      2292      2424      2479      2644
 -1      4718    3    0    1
 -2      2344      2474       196      2559
 -1      4719    3    0    1
 -2      2317      2679      1556      2715
 -1      4720    3    0    1
 -2      2277      2414      2394      2440
 -1      4721    3    0    1
 -2      2601      2753      2493      2828
 -1      4722    3    0    1
 -2      1443      2550      2448      2733
 -1      4723    3    0    1
 -2      2283      2424      2344      2559
 -1      4724    3    0    1
 -2       279      2320      2494      2508
 -1      4725    3    0    1
 -2      2307      2545      1489      2919
 -1      4726    3    0    1
 -2      2233      2416      2462      2854
 -1      4727    3    0    1
 -2      2065      2272      2063      2595
 -1      4728    3    0    1
 -2      1681      2436      2334      2659
 -1      4729    3    0    1
 -2      2342      2435      2278      2991
 -1      4730    3    0    1
 -2      2344      2761      2693      2767
 -1      4731    3    0    1
 -2       844      2625      2546      2641
 -1      4732    3    0    1
 -2      1670      2558      2436      2858
 -1      4733    3    0    1
 -2      1889      2692      2282      2693
 -1      4734    3    0    1
 -2       756       758       750      2317
 -1      4735    3    0    1
 -2       777      2601      2493      2828
 -1      4736    3    0    1
 -2      1771      2426      2570      2597
 -1      4737    3    0    1
 -2       444       447      2926      2980
 -1      4738    3    0    1
 -2      1316      2452      1313      2887
 -1      4739    3    0    1
 -2      2233      2390      2332      2521
 -1      4740    3    0    1
 -2      2161      2321      2164      2842
 -1      4741    3    0    1
 -2      1646      2494      2361      2674
 -1      4742    3    0    1
 -2      1326      2354      2400      2582
 -1      4743    3    0    1
 -2      2256      2423      2368      2516
 -1      4744    3    0    1
 -2      2403      2416       600      2622
 -1      4745    3    0    1
 -2      2253      2433      2633      2787
 -1      4746    3    0    1
 -2      1833      1832      2340      2710
 -1      4747    3    0    1
 -2      1717      2449      1712      2751
 -1      4748    3    0    1
 -2      1353      1352      2590      2939
 -1      4749    3    0    1
 -2      1879      2401      2691      2692
 -1      4750    3    0    1
 -2      2448      2550      1447      2605
 -1      4751    3    0    1
 -2      2065      2447      2272      2935
 -1      4752    3    0    1
 -2      2408      2239      2584      2691
 -1      4753    3    0    1
 -2      2332      2390      2233      2491
 -1      4754    3    0    1
 -2      2284      2377      2485      2775
 -1      4755    3    0    1
 -2      2433      2578      2331      2620
 -1      4756    3    0    1
 -2      2167      1738      2174      2740
 -1      4757    3    0    1
 -2       756      1556      2317      2865
 -1      4758    3    0    1
 -2      1889      2472      2282      2692
 -1      4759    3    0    1
 -2      1733      1732      1731      2503
 -1      4760    3    0    1
 -2      2231      2581      2343      3005
 -1      4761    3    0    1
 -2      2334      2436      1680      2803
 -1      4762    3    0    1
 -2      2177      2491      2182      2652
 -1      4763    3    0    1
 -2      2253      2633      2486      2787
 -1      4764    3    0    1
 -2      2446      2581      2343      2808
 -1      4765    3    0    1
 -2      2224      2327      2528      2720
 -1      4766    3    0    1
 -2      2235      2456      2564      2718
 -1      4767    3    0    1
 -2      2176      2332      2529      2686
 -1      4768    3    0    1
 -2      2243      2492      2434      2832
 -1      4769    3    0    1
 -2      2239      2298      2408      2458
 -1      4770    3    0    1
 -2      1355      1356      1359      2590
 -1      4771    3    0    1
 -2      2472      2584      2239      2691
 -1      4772    3    0    1
 -2       193      2474      2292      2559
 -1      4773    3    0    1
 -2      2242      2554      2486      2908
 -1      4774    3    0    1
 -2      2468      2711      2273      2872
 -1      4775    3    0    1
 -2       503      2335      2446      2612
 -1      4776    3    0    1
 -2      2417      2669      2373      2992
 -1      4777    3    0    1
 -2      2448      2605      1447      2733
 -1      4778    3    0    1
 -2      2307      2233      2390      2503
 -1      4779    3    0    1
 -2      2270      2630      2536      2798
 -1      4780    3    0    1
 -2      2428      2667      2292      2910
 -1      4781    3    0    1
 -2      2070      2447      2072      2570
 -1      4782    3    0    1
 -2      2246      2343      2446      2581
 -1      4783    3    0    1
 -2      2248      2385      2337      2567
 -1      4784    3    0    1
 -2      1833      2340      1832      2930
 -1      4785    3    0    1
 -2      2292      2479      2424      2667
 -1      4786    3    0    1
 -2      2222      2638      2398      3010
 -1      4787    3    0    1
 -2       877      2611      2457      2877
 -1      4788    3    0    1
 -2      2369      2427      2242      2702
 -1      4789    3    0    1
 -2      2787      2912      2477      3043
 -1      4790    3    0    1
 -2       583      2372       588      2532
 -1      4791    3    0    1
 -2      1893      2584      1898      2691
 -1      4792    3    0    1
 -2      2109      2267      2103      2612
 -1      4793    3    0    1
 -2       583       588      2372      2475
 -1      4794    3    0    1
 -2      2176      2491      2332      2686
 -1      4795    3    0    1
 -2      2377      2485      2255      2774
 -1      4796    3    0    1
 -2      2338      2663      2476      3033
 -1      4797    3    0    1
 -2      1369      2707      2442      2806
 -1      4798    3    0    1
 -2      2233      2416      2403      2991
 -1      4799    3    0    1
 -2      2248      2567      2337      2779
 -1      4800    3    0    1
 -2      1676      1222      2572      2741
 -1      4801    3    0    1
 -2      2414      2323      2818      2900
 -1      4802    3    0    1
 -2      2266      2516      2484      2638
 -1      4803    3    0    1
 -2      2238      2644      2456      2718
 -1      4804    3    0    1
 -2      1376      2341      2707      2806
 -1      4805    3    0    1
 -2      1592      2428      2301      2479
 -1      4806    3    0    1
 -2      1542      2486      1544      2633
 -1      4807    3    0    1
 -2      1570      2451      2329      2493
 -1      4808    3    0    1
 -2       146      2818      2323      2915
 -1      4809    3    0    1
 -2       765      2601      2431      2715
 -1      4810    3    0    1
 -2      1225      2320       295      2531
 -1      4811    3    0    1
 -2      2373      2669      2417      2892
 -1      4812    3    0    1
 -2      2536      2798      2630      2896
 -1      4813    3    0    1
 -2       845      2319      2467      3024
 -1      4814    3    0    1
 -2      2307      1489      2464      2919
 -1      4815    3    0    1
 -2      2359      2739      2180      2923
 -1      4816    3    0    1
 -2       124      2520      2242      2703
 -1      4817    3    0    1
 -2      1543      1541      1542      2517
 -1      4818    3    0    1
 -2       557      2338      2399      2666
 -1      4819    3    0    1
 -2      2339      2415      2282      2463
 -1      4820    3    0    1
 -2      2296      2439      2338      2476
 -1      4821    3    0    1
 -2      2307      2464      2309      2919
 -1      4822    3    0    1
 -2       569      2351      2902      2999
 -1      4823    3    0    1
 -2       431      2413       439      2926
 -1      4824    3    0    1
 -2      2307      2309      2545      2919
 -1      4825    3    0    1
 -2      2383      2404      2335      2510
 -1      4826    3    0    1
 -2        40      2343      1386      2574
 -1      4827    3    0    1
 -2      1646      2361      2320      2499
 -1      4828    3    0    1
 -2      2524      2537      2452      2599
 -1      4829    3    0    1
 -2      2243      2772      2558      2793
 -1      4830    3    0    1
 -2      2434      2492      2386      2832
 -1      4831    3    0    1
 -2      2231      2343      2581      2808
 -1      4832    3    0    1
 -2      2292      2424      2474      2910
 -1      4833    3    0    1
 -2      1411      2672      2483      2673
 -1      4834    3    0    1
 -2      1049      2368      2423      2511
 -1      4835    3    0    1
 -2       574       569       577      2757
 -1      4836    3    0    1
 -2      2081      2570      2426      2731
 -1      4837    3    0    1
 -2       508      2612      2446      2876
 -1      4838    3    0    1
 -2       223      2445       215      2463
 -1      4839    3    0    1
 -2      1213      2390      1068      2549
 -1      4840    3    0    1
 -2      2034      2031      2967      3008
 -1      4841    3    0    1
 -2       124      2242      2554      2703
 -1      4842    3    0    1
 -2        47      2519        44      2556
 -1      4843    3    0    1
 -2       223      2506      2445      2642
 -1      4844    3    0    1
 -2      2424      2474      2910      3034
 -1      4845    3    0    1
 -2      1893      2408      2584      2691
 -1      4846    3    0    1
 -2      2238      2424      2479      2667
 -1      4847    3    0    1
 -2      2519      2246      2576      2916
 -1      4848    3    0    1
 -2      1786      2468      2322      2595
 -1      4849    3    0    1
 -2      2398      2322      2926      2980
 -1      4850    3    0    1
 -2      2268      2391      2301      2727
 -1      4851    3    0    1
 -2      2436      2558      2286      2858
 -1      4852    3    0    1
 -2      2414      2818      2441      2900
 -1      4853    3    0    1
 -2      2287      2657      2375      2931
 -1      4854    3    0    1
 -2       819      2391       820      2766
 -1      4855    3    0    1
 -2      2072      2570      2447      2935
 -1      4856    3    0    1
 -2      2327      2513       463      2897
 -1      4857    3    0    1
 -2      2253      2444      2355      2804
 -1      4858    3    0    1
 -2      2426      2510      2383      2743
 -1      4859    3    0    1
 -2      2231      2381      2350      2412
 -1      4860    3    0    1
 -2      1952      2313      2450      2696
 -1      4861    3    0    1
 -2      2538      2685      2142      2958
 -1      4862    3    0    1
 -2      1114      2419      2341      2722
 -1      4863    3    0    1
 -2      2301      2391      2268      2643
 -1      4864    3    0    1
 -2      1544      2486      1542      2787
 -1      4865    3    0    1
 -2      2247      2384      2339      2415
 -1      4866    3    0    1
 -2      2236      2477      2295      2843
 -1      4867    3    0    1
 -2      2235      2564      2456      2716
 -1      4868    3    0    1
 -2      1651      1657      2497      2778
 -1      4869    3    0    1
 -2      2070      2447      2293      2799
 -1      4870    3    0    1
 -2      2279      2416      2622      2730
 -1      4871    3    0    1
 -2      1583      2411      1582      2479
 -1      4872    3    0    1
 -2      2162      2156      2158      2379
 -1      4873    3    0    1
 -2      1383      2498      2341      2861
 -1      4874    3    0    1
 -2      2250      2313      2450      2682
 -1      4875    3    0    1
 -2      2234      2439      2443      2819
 -1      4876    3    0    1
 -2      2159      2562      2379      2662
 -1      4877    3    0    1
 -2      2174      1738      2687      2730
 -1      4878    3    0    1
 -2      2360      2402      2287      2657
 -1      4879    3    0    1
 -2       109      2295       112      2697
 -1      4880    3    0    1
 -2       554      2338       555      2663
 -1      4881    3    0    1
 -2      2253      2427      2369      2702
 -1      4882    3    0    1
 -2      2323      2756       146      2915
 -1      4883    3    0    1
 -2      1108      2341      2555      2722
 -1      4884    3    0    1
 -2      2063      2272      2061      2595
 -1      4885    3    0    1
 -2      2330      1626      2504      2650
 -1      4886    3    0    1
 -2      2445      2506      2247      2642
 -1      4887    3    0    1
 -2      2416      2279      2622      2907
 -1      4888    3    0    1
 -2      2514      2530      2303      2591
 -1      4889    3    0    1
 -2       687       684      2337      3016
 -1      4890    3    0    1
 -2      2063      2487      2272      2526
 -1      4891    3    0    1
 -2      2307      2390      2233      2784
 -1      4892    3    0    1
 -2      2249      2341      2581      3005
 -1      4893    3    0    1
 -2      2424      2344      2559      3034
 -1      4894    3    0    1
 -2      1354      2565      1357      2821
 -1      4895    3    0    1
 -2      2177      2332      2176      2491
 -1      4896    3    0    1
 -2      1386      2343        40      2916
 -1      4897    3    0    1
 -2      2300      2594      2374      2848
 -1      4898    3    0    1
 -2       849      2319      2588      2829
 -1      4899    3    0    1
 -2      2262      2648      2470      2894
 -1      4900    3    0    1
 -2      2058      2056      2468      2487
 -1      4901    3    0    1
 -2      2164      2321      2161      2662
 -1      4902    3    0    1
 -2      2238      2304      2644      2718
 -1      4903    3    0    1
 -2      2296      2443      2439      2819
 -1      4904    3    0    1
 -2      2383      2556      2335      2610
 -1      4905    3    0    1
 -2      2296      2615      2443      2847
 -1      4906    3    0    1
 -2       569      2399       565      2999
 -1      4907    3    0    1
 -2      2224      2385      2447      2528
 -1      4908    3    0    1
 -2      1588      1586      2606      2918
 -1      4909    3    0    1
 -2      1754      2109      2267      2684
 -1      4910    3    0    1
 -2      2279      2687      2416      2730
 -1      4911    3    0    1
 -2      2507      2627      2288      2734
 -1      4912    3    0    1
 -2       124      2242       125      2818
 -1      4913    3    0    1
 -2      1804      2430      2484      2676
 -1      4914    3    0    1
 -2      1771      1768      1769      2597
 -1      4915    3    0    1
 -2      2335      2404      2383      2610
 -1      4916    3    0    1
 -2      2386      2471      2243      2492
 -1      4917    3    0    1
 -2      2162      2379      2158      2407
 -1      4918    3    0    1
 -2      2417      2669      2323      2892
 -1      4919    3    0    1
 -2      2253      2517      2433      2787
 -1      4920    3    0    1
 -2      2424      2559      2474      3034
 -1      4921    3    0    1
 -2      2275      2601      2440      2867
 -1      4922    3    0    1
 -2      2420      2551      2326      2694
 -1      4923    3    0    1
 -2      2341      2419       653      2861
 -1      4924    3    0    1
 -2      2238      2304      2606      2644
 -1      4925    3    0    1
 -2       836      2408       832      2458
 -1      4926    3    0    1
 -2      1028      2575      2429      2996
 -1      4927    3    0    1
 -2       389      2396      2274      2710
 -1      4928    3    0    1
 -2      1223      1673      1664      2741
 -1      4929    3    0    1
 -2      2304      2564      2456      2718
 -1      4930    3    0    1
 -2      2271      2425      2300      2920
 -1      4931    3    0    1
 -2      2273      2701      2380      2785
 -1      4932    3    0    1
 -2      1443      1436      2550      2733
 -1      4933    3    0    1
 -2      2291      2547      1920      2719
 -1      4934    3    0    1
 -2      2236      2831      2477      2843
 -1      4935    3    0    1
 -2      2306      2967      2735      3008
 -1      4936    3    0    1
 -2      2373      2892      2417      2992
 -1      4937    3    0    1
 -2      1971      2459      2367      2717
 -1      4938    3    0    1
 -2      2320      2531      1225      2954
 -1      4939    3    0    1
 -2      1889      1886      2692      2693
 -1      4940    3    0    1
 -2      2291      2611      2457      3006
 -1      4941    3    0    1
 -2      2301      2681      2964      2970
 -1      4942    3    0    1
 -2      2282      2463      2415      2698
 -1      4943    3    0    1
 -2      2471      2628      2364      2917
 -1      4944    3    0    1
 -2      2252      2398      2646      2758
 -1      4945    3    0    1
 -2      1270      2665      2362      2680
 -1      4946    3    0    1
 -2      2138      2527      2476      3033
 -1      4947    3    0    1
 -2      1316      1313      1317      2887
 -1      4948    3    0    1
 -2      2239      2298      2458      2807
 -1      4949    3    0    1
 -2       279      2320       282      2494
 -1      4950    3    0    1
 -2      2276      2546      2625      2641
 -1      4951    3    0    1
 -2      1209      2332      2177      2652
 -1      4952    3    0    1
 -2      2241      2485      2377      2774
 -1      4953    3    0    1
 -2      2156      2562      2527      2839
 -1      4954    3    0    1
 -2      1804      2430      2346      2484
 -1      4955    3    0    1
 -2      1742       555       563      2338
 -1      4956    3    0    1
 -2      2224      2528      2327      3012
 -1      4957    3    0    1
 -2      2270      2630      2372      2868
 -1      4958    3    0    1
 -2      1848      2376      2618      2764
 -1      4959    3    0    1
 -2       535      2353      2540      2853
 -1      4960    3    0    1
 -2      2376      2396      1842      2618
 -1      4961    3    0    1
 -2      2244      2364      2471      2628
 -1      4962    3    0    1
 -2      2324      2431      1015      2966
 -1      4963    3    0    1
 -2      2388      2648      2570      2731
 -1      4964    3    0    1
 -2      2252      2624      2398      2758
 -1      4965    3    0    1
 -2      1447      1443      2448      2733
 -1      4966    3    0    1
 -2       522        36        33      2770
 -1      4967    3    0    1
 -2       503      2446      2335      2556
 -1      4968    3    0    1
 -2      2516      2608      2484      2638
 -1      4969    3    0    1
 -2      2247      2505      2607      2809
 -1      4970    3    0    1
 -2      2369      2242      2486      2702
 -1      4971    3    0    1
 -2      1875      2401      2344      2637
 -1      4972    3    0    1
 -2      2290      2669      2892      2908
 -1      4973    3    0    1
 -2      2227      2440      2414      2892
 -1      4974    3    0    1
 -2      2179      2050      2901      2923
 -1      4975    3    0    1
 -2      2530      2660      2262      2821
 -1      4976    3    0    1
 -2      2406      2538      2141      2958
 -1      4977    3    0    1
 -2       910      2460      2334      2509
 -1      4978    3    0    1
 -2      1772      2570      2345      2597
 -1      4979    3    0    1
 -2       288       292      2434      2508
 -1      4980    3    0    1
 -2      1216      2521      1215      2652
 -1      4981    3    0    1
 -2      1727      2545      2751      2945
 -1      4982    3    0    1
 -2      1570      2493      2329      2955
 -1      4983    3    0    1
 -2       483      2383      2510      2743
 -1      4984    3    0    1
 -2       569      2351      2757      2902
 -1      4985    3    0    1
 -2      1842      2396      2376      2801
 -1      4986    3    0    1
 -2      2258      2326      2420      2551
 -1      4987    3    0    1
 -2      1727      2545      2503      2751
 -1      4988    3    0    1
 -2      2484      2516      2266      2608
 -1      4989    3    0    1
 -2      2162      2379      2407      2740
 -1      4990    3    0    1
 -2      2223      2667      2391      2727
 -1      4991    3    0    1
 -2       583      2475      2372      2532
 -1      4992    3    0    1
 -2      1732      2503      2307      2742
 -1      4993    3    0    1
 -2       741      2331      2575      2760
 -1      4994    3    0    1
 -2      2287      2402      2360      2796
 -1      4995    3    0    1
 -2       679       677      2565      2771
 -1      4996    3    0    1
 -2      1920      2547      2291      3006
 -1      4997    3    0    1
 -2      2292      2474      2424      2559
 -1      4998    3    0    1
 -2      2141      2538      2142      2958
 -1      4999    3    0    1
 -2      2235      2451      2718      2777
 -1      5000    3    0    1
 -2      1761      2335      2097      2404
 -1      5001    3    0    1
 -2      2299      2416      2403      2622
 -1      5002    3    0    1
 -2       197       196       191      2344
 -1      5003    3    0    1
 -2      2183      2127      2491      2901
 -1      5004    3    0    1
 -2      2391      2643      2301      2970
 -1      5005    3    0    1
 -2      1989      1985      2374      2594
 -1      5006    3    0    1
 -2      2532      2757      2270      2902
 -1      5007    3    0    1
 -2       488        51      2519      2849
 -1      5008    3    0    1
 -2      2296      2847      2671      2881
 -1      5009    3    0    1
 -2       608       598      2416      2687
 -1      5010    3    0    1
 -2      2296      2615      2847      2881
 -1      5011    3    0    1
 -2      1445      2351      1446      2797
 -1      5012    3    0    1
 -2      2337      2567      2523      2779
 -1      5013    3    0    1
 -2      2337       684      2771      3016
 -1      5014    3    0    1
 -2       139       146      2323      2756
 -1      5015    3    0    1
 -2      2301      2964      2391      2970
 -1      5016    3    0    1
 -2      2325      2481      2400      2949
 -1      5017    3    0    1
 -2      2456      2564      2318      2716
 -1      5018    3    0    1
 -2       503      2446       508      2612
 -1      5019    3    0    1
 -2      2283      2637      2724      2752
 -1      5020    3    0    1
 -2      1663      2558      2531      2741
 -1      5021    3    0    1
 -2       434      2449       602      2751
 -1      5022    3    0    1
 -2      2900      2972      2414      3042
 -1      5023    3    0    1
 -2       848      2467       844      2641
 -1      5024    3    0    1
 -2      2299      2435      2416      2907
 -1      5025    3    0    1
 -2      2233      2309      2462      2503
 -1      5026    3    0    1
 -2      1966       314      2459      2745
 -1      5027    3    0    1
 -2      2335      2249      2512      2759
 -1      5028    3    0    1
 -2       829      2458      2298      2766
 -1      5029    3    0    1
 -2      1229      2586       254      2674
 -1      5030    3    0    1
 -2      2282      2415      2339      2761
 -1      5031    3    0    1
 -2      2262      2470      2648      2950
 -1      5032    3    0    1
 -2      2341      2442      2555      2610
 -1      5033    3    0    1
 -2      2286      2436      1670      2659
 -1      5034    3    0    1
 -2      2325      2539      2634      2880
 -1      5035    3    0    1
 -2      2056      2711      2468      2872
 -1      5036    3    0    1
 -2      2341      2419      2249      2722
 -1      5037    3    0    1
 -2       705      2325      1526      2496
 -1      5038    3    0    1
 -2      2274      2716      2440      2995
 -1      5039    3    0    1
 -2      1215      1202      2332      2521
 -1      5040    3    0    1
 -2      2416      2687      2359      2739
 -1      5041    3    0    1
 -2      2107      2348      2507      2627
 -1      5042    3    0    1
 -2      1489      1399      1319      2307
 -1      5043    3    0    1
 -2      2232      2281      2383      2442
 -1      5044    3    0    1
 -2      2299      2342      2636      2991
 -1      5045    3    0    1
 -2      1446      2351      1445      2757
 -1      5046    3    0    1
 -2       112      2295       109      2410
 -1      5047    3    0    1
 -2       522      2574        36      2770
 -1      5048    3    0    1
 -2       569       574       565      2399
 -1      5049    3    0    1
 -2       583      2270      2475      2532
 -1      5050    3    0    1
 -2      1391      2336      1390      2498
 -1      5051    3    0    1
 -2      2248      2582      2501      2906
 -1      5052    3    0    1
 -2       687      2337      2501      3016
 -1      5053    3    0    1
 -2      2403      2464      2233      2991
 -1      5054    3    0    1
 -2      1651      1657      1658      2497
 -1      5055    3    0    1
 -2       139      2414      2323      2818
 -1      5056    3    0    1
 -2      2301      2428      1592      2616
 -1      5057    3    0    1
 -2      2374      2594      2257      2823
 -1      5058    3    0    1
 -2      2282      2472      1889      2621
 -1      5059    3    0    1
 -2       758       750      2317      3007
 -1      5060    3    0    1
 -2      2339      2445      2247      2463
 -1      5061    3    0    1
 -2      2457      2611       877      3006
 -1      5062    3    0    1
 -2      2313      2864      1952      2869
 -1      5063    3    0    1
 -2      2501      2582      2248      2779
 -1      5064    3    0    1
 -2      2427      2670      2308      3021
 -1      5065    3    0    1
 -2      2355      2517       730      2760
 -1      5066    3    0    1
 -2      2249      2581      2341      2610
 -1      5067    3    0    1
 -2      1386        40      2576      2916
 -1      5068    3    0    1
 -2      1651      2778      2497      2895
 -1      5069    3    0    1
 -2      2174      2730      2687      2740
 -1      5070    3    0    1
 -2       257       256       253      2817
 -1      5071    3    0    1
 -2      2167      2407      2730      2740
 -1      5072    3    0    1
 -2      1833      2563      2438      2930
 -1      5073    3    0    1
 -2      2247      2415      2339      2463
 -1      5074    3    0    1
 -2       832       836       841      2408
 -1      5075    3    0    1
 -2      1300      2477      2912      3043
 -1      5076    3    0    1
 -2      2332      2393      1202      2842
 -1      5077    3    0    1
 -2      2690      2738      2585      2817
 -1      5078    3    0    1
 -2       726      2423      2355      2444
 -1      5079    3    0    1
 -2       705      1526      2325      2539
 -1      5080    3    0    1
 -2       557      2439      2338      2663
 -1      5081    3    0    1
 -2      1384      1386        40      2576
 -1      5082    3    0    1
 -2      1989      2594      2374      2823
 -1      5083    3    0    1
 -2      2182      2177      2176      2491
 -1      5084    3    0    1
 -2      2551      2694      2420      2712
 -1      5085    3    0    1
 -2      1108      1114      2341      2722
 -1      5086    3    0    1
 -2      1777      2345      2072      2935
 -1      5087    3    0    1
 -2      1907      1904      2319      2719
 -1      5088    3    0    1
 -2      2244      2364      2367      2917
 -1      5089    3    0    1
 -2       687      2337      1515      2501
 -1      5090    3    0    1
 -2       331      2649      2422      2812
 -1      5091    3    0    1
 -2      2279      2435      2416      2882
 -1      5092    3    0    1
 -2      2244      2471      2364      2917
 -1      5093    3    0    1
 -2       389      2274      2396      2810
 -1      5094    3    0    1
 -2      2290      2633      2486      2702
 -1      5095    3    0    1
 -2       146       133      2818      2915
 -1      5096    3    0    1
 -2       140      2414      2972      3042
 -1      5097    3    0    1
 -2      2296      2443      2671      2847
 -1      5098    3    0    1
 -2       442      2398       447      2980
 -1      5099    3    0    1
 -2      2506      2642       232      2937
 -1      5100    3    0    1
 -2      1231      2586      1229      2674
 -1      5101    3    0    1
 -2      2238      2304      2482      2606
 -1      5102    3    0    1
 -2      2249      2419      2341      3005
 -1      5103    3    0    1
 -2      2380      2701      2368      2785
 -1      5104    3    0    1
 -2      1543      1542      2433      2517
 -1      5105    3    0    1
 -2      1336      2501      2582      2906
 -1      5106    3    0    1
 -2      2309      2751      2545      2945
 -1      5107    3    0    1
 -2       744      2433      2578      2760
 -1      5108    3    0    1
 -2      2466      2531      1663      2558
 -1      5109    3    0    1
 -2      2238      2482      2304      2718
 -1      5110    3    0    1
 -2      2343      2231      2645      2808
 -1      5111    3    0    1
 -2      1041      2511      2423      2782
 -1      5112    3    0    1
 -2      1457      2536      2270      2605
 -1      5113    3    0    1
 -2       848      2382      2467      2641
 -1      5114    3    0    1
 -2      2243      2492      2471      2793
 -1      5115    3    0    1
 -2      2334      2363      2659      2952
 -1      5116    3    0    1
 -2      2309      2503      2307      2545
 -1      5117    3    0    1
 -2        74      2573      2327      2604
 -1      5118    3    0    1
 -2      1256      1586      2479      2606
 -1      5119    3    0    1
 -2      2432      2684       517      2876
 -1      5120    3    0    1
 -2      2438      2440      2227      2867
 -1      5121    3    0    1
 -2      2224      2528      2345      2720
 -1      5122    3    0    1
 -2      1719      2449      2310      2901
 -1      5123    3    0    1
 -2      2646      2758      2398      3041
 -1      5124    3    0    1
 -2       503       508       505      2612
 -1      5125    3    0    1
 -2       249      2586      2297      2706
 -1      5126    3    0    1
 -2      2245      2733      2566      3049
 -1      5127    3    0    1
 -2      1357      1354      1351      2565
 -1      5128    3    0    1
 -2      2267      2808      2446      2876
 -1      5129    3    0    1
 -2      1760      1758      2512      2612
 -1      5130    3    0    1
 -2      2256      2355      2423      2831
 -1      5131    3    0    1
 -2      2383      2510      2335      2556
 -1      5132    3    0    1
 -2      2290      2669      2373      2892
 -1      5133    3    0    1
 -2      2266      2484      2366      2638
 -1      5134    3    0    1
 -2      1907      2319      1904      2829
 -1      5135    3    0    1
 -2      2331      2253      2575      2760
 -1      5136    3    0    1
 -2      2282      2621      1887      2693
 -1      5137    3    0    1
 -2      2413      2398      2638      2980
 -1      5138    3    0    1
 -2       561      2351        13      2757
 -1      5139    3    0    1
 -2      2335      2404      1761      2510
 -1      5140    3    0    1
 -2      1270      2362      2451      2680
 -1      5141    3    0    1
 -2      2590      2765      2303      2939
 -1      5142    3    0    1
 -2      2072      2345      2570      2935
 -1      5143    3    0    1
 -2      2324      2620      2431      2867
 -1      5144    3    0    1
 -2      2341      2555      2442      2806
 -1      5145    3    0    1
 -2      2390      2521      2233      2784
 -1      5146    3    0    1
 -2      2318      2478      2456      2879
 -1      5147    3    0    1
 -2      2301      2681      2453      2964
 -1      5148    3    0    1
 -2        44      2916      2519      2947
 -1      5149    3    0    1
 -2      1804      2883      2430      2967
 -1      5150    3    0    1
 -2      2355      2253      2517      2760
 -1      5151    3    0    1
 -2       249      2297      2586      2929
 -1      5152    3    0    1
 -2      2102      2495      2348      2979
 -1      5153    3    0    1
 -2      2307      2561      1399      2911
 -1      5154    3    0    1
 -2      1041      2423      2357      2782
 -1      5155    3    0    1
 -2      2348      2495      2100      2512
 -1      5156    3    0    1
 -2      1804      2346      2430      2883
 -1      5157    3    0    1
 -2      2232      2648      2426      2743
 -1      5158    3    0    1
 -2       218      2693      2621      2767
 -1      5159    3    0    1
 -2      1854      2801      2318      2925
 -1      5160    3    0    1
 -2      1408      2626      2540      2813
 -1      5161    3    0    1
 -2      1862      2587      1861      2752
 -1      5162    3    0    1
 -2      1754      2109      1755      2963
 -1      5163    3    0    1
 -2      2061      2272      2468      2595
 -1      5164    3    0    1
 -2      2467      2239      2607      2655
 -1      5165    3    0    1
 -2      2403      2622       600      2859
 -1      5166    3    0    1
 -2      1366      2442      2378      2806
 -1      5167    3    0    1
 -2      2457       877      2961      3006
 -1      5168    3    0    1
 -2      2446      2808      2267      2968
 -1      5169    3    0    1
 -2      1582      2479      2482      2606
 -1      5170    3    0    1
 -2       897      2542      2370      2877
 -1      5171    3    0    1
 -2      2287      2350      2412      2626
 -1      5172    3    0    1
 -2       235      2333      2642      2929
 -1      5173    3    0    1
 -2      2163      2159      2321      2662
 -1      5174    3    0    1
 -2      2341      2246      2581      3005
 -1      5175    3    0    1
 -2      2559      2651      2292      2886
 -1      5176    3    0    1
 -2      2442      2555      2378      2806
 -1      5177    3    0    1
 -2      2047      2511      1045      2782
 -1      5178    3    0    1
 -2      1887      2282      1889      2621
 -1      5179    3    0    1
 -2      1084      1080      2799      2894
 -1      5180    3    0    1
 -2      2114      2627      2507      2734
 -1      5181    3    0    1
 -2      1468      1470      1465      2896
 -1      5182    3    0    1
 -2       731      2355       730      2760
 -1      5183    3    0    1
 -2      1712      2449       434      2751
 -1      5184    3    0    1
 -2      2253      2369      2486      2702
 -1      5185    3    0    1
 -2      2379      2662      2562      2983
 -1      5186    3    0    1
 -2      2264      2670      2427      3021
 -1      5187    3    0    1
 -2      1984      2454      2802      2957
 -1      5188    3    0    1
 -2      2316      2452      2537      2599
 -1      5189    3    0    1
 -2      2575      2933      2429      2996
 -1      5190    3    0    1
 -2      2342      2278      2636      2991
 -1      5191    3    0    1
 -2      2424      2637      2344      3034
 -1      5192    3    0    1
 -2       704      2634      2539      2880
 -1      5193    3    0    1
 -2      2264      2340      2563      2930
 -1      5194    3    0    1
 -2      1854      2587      2318      2724
 -1      5195    3    0    1
 -2      1918      2719      2588      3006
 -1      5196    3    0    1
 -2       286      2313       281      2864
 -1      5197    3    0    1
 -2       535      2540        29      2853
 -1      5198    3    0    1
 -2      2162      2407      2158      2740
 -1      5199    3    0    1
 -2      2420      2258      2551      2712
 -1      5200    3    0    1
 -2      1795      1794        57      2374
 -1      5201    3    0    1
 -2      2283      2344      2424      2637
 -1      5202    3    0    1
 -2      1119      2722      2495      2979
 -1      5203    3    0    1
 -2      2292      2428      2479      2667
 -1      5204    3    0    1
 -2      2322      2413      2398      2638
 -1      5205    3    0    1
 -2      1642      1644      1645      2654
 -1      5206    3    0    1
 -2      1441      1442      2550      2870
 -1      5207    3    0    1
 -2      2251      2537      2524      2599
 -1      5208    3    0    1
 -2       235      2642      2333      2937
 -1      5209    3    0    1
 -2      2274      2394      2440      2716
 -1      5210    3    0    1
 -2       811      2509      1591      2647
 -1      5211    3    0    1
 -2       862      2330      2641      2800
 -1      5212    3    0    1
 -2      1466      1457      2536      2798
 -1      5213    3    0    1
 -2       172      2362       167      2564
 -1      5214    3    0    1
 -2      2380      2714      2701      2728
 -1      5215    3    0    1
 -2      1774      2345      1772      2570
 -1      5216    3    0    1
 -2      2227      2290      2589      2620
 -1      5217    3    0    1
 -2      2157      2156      2527      2839
 -1      5218    3    0    1
 -2      2266      2516      2638      2701
 -1      5219    3    0    1
 -2      2316      2786      2452      2887
 -1      5220    3    0    1
 -2       841      2319       849      2829
 -1      5221    3    0    1
 -2       747      2429      2331      2780
 -1      5222    3    0    1
 -2      2456      2644      2304      2718
 -1      5223    3    0    1
 -2      1326      2582      1332      2837
 -1      5224    3    0    1
 -2      2516      2537      2316      3010
 -1      5225    3    0    1
 -2      2318      2587      1854      2925
 -1      5226    3    0    1
 -2      1376      2707      1369      2806
 -1      5227    3    0    1
 -2      1733      2503      1731      2545
 -1      5228    3    0    1
 -2      1898      2584      1897      2691
 -1      5229    3    0    1
 -2      2219      2300      2656      2794
 -1      5230    3    0    1
 -2       664      2378      1502      2565
 -1      5231    3    0    1
 -2      2313      2696      1952      2864
 -1      5232    3    0    1
 -2      2097      2335      1760      2512
 -1      5233    3    0    1
 -2      2300      2425      2271      2454
 -1      5234    3    0    1
 -2       721      2614      2423      2723
 -1      5235    3    0    1
 -2      2353      2746       534      2769
 -1      5236    3    0    1
 -2      2474      2559      2344      3034
 -1      5237    3    0    1
 -2      2378      2262      2660      2821
 -1      5238    3    0    1
 -2      2196      2640      2311      2978
 -1      5239    3    0    1
 -2      1958      1959      2450      2696
 -1      5240    3    0    1
 -2      2219      2205      2300      2518
 -1      5241    3    0    1
 -2       811      1633      1591      2509
 -1      5242    3    0    1
 -2      1408      2600      2540      2626
 -1      5243    3    0    1
 -2      2527      2562      2269      2839
 -1      5244    3    0    1
 -2      2345      2720      2528      2897
 -1      5245    3    0    1
 -2      2266      2638      2366      2701
 -1      5246    3    0    1
 -2      2176      2186      2491      2686
 -1      5247    3    0    1
 -2      1231      2650      2297      2674
 -1      5248    3    0    1
 -2      1889      2282      1887      2693
 -1      5249    3    0    1
 -2      1037      2357      2423      2444
 -1      5250    3    0    1
 -2       681      2470       677      2771
 -1      5251    3    0    1
 -2      2538      2909      2685      2958
 -1      5252    3    0    1
 -2      2278      2636      1487      2965
 -1      5253    3    0    1
 -2       197       205       196      2344
 -1      5254    3    0    1
 -2      1490      2464      1487      2561
 -1      5255    3    0    1
 -2       863      2800      2641      2994
 -1      5256    3    0    1
 -2      2747      2936      2347      2983
 -1      5257    3    0    1
 -2       849      2588      2319      3024
 -1      5258    3    0    1
 -2      2308      2670      2579      3021
 -1      5259    3    0    1
 -2      2176      2529      2332      2842
 -1      5260    3    0    1
 -2      1119      2833      2722      2979
 -1      5261    3    0    1
 -2      2448      2733      2245      3049
 -1      5262    3    0    1
 -2      1231      2586      2297      2650
 -1      5263    3    0    1
 -2      2335      2510      1761      3036
 -1      5264    3    0    1
 -2      2244      2367      2471      2917
 -1      5265    3    0    1
 -2       206      2474      2339      2535
 -1      5266    3    0    1
 -2      2270      2475      2372      2630
 -1      5267    3    0    1
 -2       309      1673      1223      2741
 -1      5268    3    0    1
 -2       463      2513      2327      2838
 -1      5269    3    0    1
 -2      1446        13      2351      2757
 -1      5270    3    0    1
 -2      1215      1202      2521      3029
 -1      5271    3    0    1
 -2      1357      1504      1502      2565
 -1      5272    3    0    1
 -2      2232      2281      2442      2660
 -1      5273    3    0    1
 -2      1209      2177      2151      2652
 -1      5274    3    0    1
 -2      2004      2705      2664      2948
 -1      5275    3    0    1
 -2      2477      2787      2355      2804
 -1      5276    3    0    1
 -2      2054      2053      2711      2872
 -1      5277    3    0    1
 -2      2266      2516      2423      2831
 -1      5278    3    0    1
 -2      1867      1862      1861      2752
 -1      5279    3    0    1
 -2      2324      1015      2609      2966
 -1      5280    3    0    1
 -2      1336      2582      2501      2779
 -1      5281    3    0    1
 -2      2121      1750      2704      2944
 -1      5282    3    0    1
 -2      2246      2335      2556      2610
 -1      5283    3    0    1
 -2      1604      2384      1244      2836
 -1      5284    3    0    1
 -2       577       583      2270      2798
 -1      5285    3    0    1
 -2       687      2337       684      2771
 -1      5286    3    0    1
 -2      2290      2433      2633      2702
 -1      5287    3    0    1
 -2      2621      2693      2282      2767
 -1      5288    3    0    1
 -2      2263      2648      2660      2743
 -1      5289    3    0    1
 -2      2391      2667      2301      2727
 -1      5290    3    0    1
 -2      2289      2478      2456      2724
 -1      5291    3    0    1
 -2      2248      2548      2385      2567
 -1      5292    3    0    1
 -2      2301      2479      2453      2681
 -1      5293    3    0    1
 -2       588      2372       582      2532
 -1      5294    3    0    1
 -2      2370      2371      2284      2485
 -1      5295    3    0    1
 -2      2486      2554      2242      2703
 -1      5296    3    0    1
 -2      1708      1706      2066      1707
 -1      5297    3    0    1
 -2      1316      2744      2452      2887
 -1      5298    3    0    1
 -2      2097      1761      1760      2335
 -1      5299    3    0    1
 -2      2453      2479      2411      2681
 -1      5300    3    0    1
 -2      2398      2413      2322      2980
 -1      5301    3    0    1
 -2      2272      2548      2385      2768
 -1      5302    3    0    1
 -2      2250      2450      2313      2789
 -1      5303    3    0    1
 -2      2278      2521      2435      3029
 -1      5304    3    0    1
 -2      2278      2435      2393      3029
 -1      5305    3    0    1
 -2      2196      2374      2640      2978
 -1      5306    3    0    1
 -2      2274      2340      2438      2900
 -1      5307    3    0    1
 -2       191      2344       196      2559
 -1      5308    3    0    1
 -2      2406      2841      2234      2936
 -1      5309    3    0    1
 -2      2423      2831      2355      2974
 -1      5310    3    0    1
 -2      1515      2337       687      2771
 -1      5311    3    0    1
 -2      2439      2443      2296      2615
 -1      5312    3    0    1
 -2       863      2641       858      2994
 -1      5313    3    0    1
 -2       282       273       272      2494
 -1      5314    3    0    1
 -2      1015      2431      2324      2780
 -1      5315    3    0    1
 -2      1256      1586      1585      2479
 -1      5316    3    0    1
 -2      2787      2804      2477      2912
 -1      5317    3    0    1
 -2       254      2674      2586      2706
 -1      5318    3    0    1
 -2      2630      2798      2475      2896
 -1      5319    3    0    1
 -2      1489      2307      1319      2545
 -1      5320    3    0    1
 -2      2272      2528      2385      2567
 -1      5321    3    0    1
 -2       455       457      2358      2695
 -1      5322    3    0    1
 -2      2310      2390      2233      2503
 -1      5323    3    0    1
 -2      2974      3020      2306      3025
 -1      5324    3    0    1
 -2      2150      2151      2177      2652
 -1      5325    3    0    1
 -2      2236      2444      2355      2974
 -1      5326    3    0    1
 -2      2384      2415      2247      2607
 -1      5327    3    0    1
 -2      2334      2659      2363      2989
 -1      5328    3    0    1
 -2      2384      1246      2445      2535
 -1      5329    3    0    1
 -2      2451      2718      2362      2878
 -1      5330    3    0    1
 -2      2447      2570      2345      2935
 -1      5331    3    0    1
 -2      2324      2783      2620      2867
 -1      5332    3    0    1
 -2      1214      2784      2561      3029
 -1      5333    3    0    1
 -2      2384      2428      1246      2535
 -1      5334    3    0    1
 -2       845       848      2382      2467
 -1      5335    3    0    1
 -2      1558      1562      1560      2715
 -1      5336    3    0    1
 -2      2350      2483      2336      2986
 -1      5337    3    0    1
 -2        27      2540      2600      2853
 -1      5338    3    0    1
 -2      2107      2348      2106      2507
 -1      5339    3    0    1
 -2      2336      2419      2381      3005
 -1      5340    3    0    1
 -2      2261      2770      2574      2781
 -1      5341    3    0    1
 -2      2332      2521      2390      2652
 -1      5342    3    0    1
 -2       292      2434      2508      2789
 -1      5343    3    0    1
 -2      1443      1447      2448      2550
 -1      5344    3    0    1
 -2       524       517      2432      2684
 -1      5345    3    0    1
 -2      2343      2574        40      2916
 -1      5346    3    0    1
 -2      2048      2054      2053      2711
 -1      5347    3    0    1
 -2      2541      2705       993      3017
 -1      5348    3    0    1
 -2      2247      2607      2473      2809
 -1      5349    3    0    1
 -2      2248      2380      2548      2822
 -1      5350    3    0    1
 -2      2324      2431      2620      2780
 -1      5351    3    0    1
 -2      2181      2491      2186      2686
 -1      5352    3    0    1
 -2      2224      2447      2385      2951
 -1      5353    3    0    1
 -2      2248      2634      2385      2768
 -1      5354    3    0    1
 -2       524      2432      2305      2684
 -1      5355    3    0    1
 -2      2355      2787      2477      3043
 -1      5356    3    0    1
 -2      1592      1590      2428      2479
 -1      5357    3    0    1
 -2       858      2641       846      2994
 -1      5358    3    0    1
 -2      1487      2464      1490      2921
 -1      5359    3    0    1
 -2       758      2317       756      2715
 -1      5360    3    0    1
 -2      2519      2916      2576      2947
 -1      5361    3    0    1
 -2      2480      2705      2004      2948
 -1      5362    3    0    1
 -2        33      2574      2540      2770
 -1      5363    3    0    1
 -2      1663      2531      1662      2741
 -1      5364    3    0    1
 -2      2461      2518      2237      3046
 -1      5365    3    0    1
 -2      2375      2566      1422      2600
 -1      5366    3    0    1
 -2      2224      2385      2337      2950
 -1      5367    3    0    1
 -2      2270      2747      2630      2868
 -1      5368    3    0    1
 -2      1754      2109      2684      2944
 -1      5369    3    0    1
 -2       863       858      2800      2994
 -1      5370    3    0    1
 -2      2405      2522      1690      2934
 -1      5371    3    0    1
 -2      2232      2555      2442      2610
 -1      5372    3    0    1
 -2      1114       656       660      2341
 -1      5373    3    0    1
 -2      1556      2679      2317      2865
 -1      5374    3    0    1
 -2      2383      2519       491      2556
 -1      5375    3    0    1
 -2      2480      2664      2705      2948
 -1      5376    3    0    1
 -2      2236      2843      2295      2860
 -1      5377    3    0    1
 -2      2061      2468      2272      2487
 -1      5378    3    0    1
 -2      2371      2485      2370      2973
 -1      5379    3    0    1
 -2        38      2574      2781      2916
 -1      5380    3    0    1
 -2      2372      2475      2270      2532
 -1      5381    3    0    1
 -2      2390      2521      1216      2652
 -1      5382    3    0    1
 -2      2306      2974      2444      3020
 -1      5383    3    0    1
 -2      2222      2701      2714      2728
 -1      5384    3    0    1
 -2      2454      2271      2802      2957
 -1      5385    3    0    1
 -2      1408      2540      1404      2813
 -1      5386    3    0    1
 -2       534       535      2353      2770
 -1      5387    3    0    1
 -2      2276      2607      2505      2809
 -1      5388    3    0    1
 -2      2449      2901      2050      2923
 -1      5389    3    0    1
 -2      1366      2378      2442      2821
 -1      5390    3    0    1
 -2        84        90      1323      2744
 -1      5391    3    0    1
 -2      2274      2376      2716      2995
 -1      5392    3    0    1
 -2      2062      2549      2022      2652
 -1      5393    3    0    1
 -2      2233      2462      2310      2503
 -1      5394    3    0    1
 -2      1457      2605      2270      2757
 -1      5395    3    0    1
 -2      1357      2565      2378      2821
 -1      5396    3    0    1
 -2       849      2588       972      2829
 -1      5397    3    0    1
 -2      2301      2616      2268      2727
 -1      5398    3    0    1
 -2      2473      2607      2239      2655
 -1      5399    3    0    1
 -2      1617       858       846      2994
 -1      5400    3    0    1
 -2      2422      2927      1600      2934
 -1      5401    3    0    1
 -2       535      2540      2353      2770
 -1      5402    3    0    1
 -2      2223      2667      2428      2910
 -1      5403    3    0    1
 -2      2272      2385      2548      2567
 -1      5404    3    0    1
 -2      2306      2357      2444      2974
 -1      5405    3    0    1
 -2      1359      2732      2590      2821
 -1      5406    3    0    1
 -2      2244      2367      2364      2737
 -1      5407    3    0    1
 -2      2341      2581      2246      2610
 -1      5408    3    0    1
 -2      2410      2579      2520      2860
 -1      5409    3    0    1
 -2      2287      2626      2412      2931
 -1      5410    3    0    1
 -2       281      2313      2632      2864
 -1      5411    3    0    1
 -2      2061      2272      2063      2487
 -1      5412    3    0    1
 -2      2312      2371      2370      2973
 -1      5413    3    0    1
 -2      1789      1791      2322      2468
 -1      5414    3    0    1
 -2       535       544       534      2353
 -1      5415    3    0    1
 -2       522      2574      2770      2781
 -1      5416    3    0    1
 -2      1226      2320      1646      2494
 -1      5417    3    0    1
 -2      2553      2649      2257      2978
 -1      5418    3    0    1
 -2      1178      2538      1187      2750
 -1      5419    3    0    1
 -2      2065      2063      2061      2595
 -1      5420    3    0    1
 -2       608      2416       609      2739
 -1      5421    3    0    1
 -2      1833      2438      2618      2710
 -1      5422    3    0    1
 -2      2530      2591      2514      2660
 -1      5423    3    0    1
 -2      1598      1577      1685      2405
 -1      5424    3    0    1
 -2      2270      2536      1457      2798
 -1      5425    3    0    1
 -2      2234      2791      2406      2936
 -1      5426    3    0    1
 -2      2299      2622      2403      2859
 -1      5427    3    0    1
 -2      1662      1663      2466      2531
 -1      5428    3    0    1
 -2      2378      2442      2232      2555
 -1      5429    3    0    1
 -2       215      2463      2339      2767
 -1      5430    3    0    1
 -2      2249      2610      2397      2759
 -1      5431    3    0    1
 -2      2330      1626      2650      2994
 -1      5432    3    0    1
 -2      1754      2267      2109      2963
 -1      5433    3    0    1
 -2      2259      2347      2936      2983
 -1      5434    3    0    1
 -2      2270      2605      2389      2902
 -1      5435    3    0    1
 -2      1889      1885      1886      2693
 -1      5436    3    0    1
 -2      1321      2786      2481      2887
 -1      5437    3    0    1
 -2      2379      2407      2269      2839
 -1      5438    3    0    1
 -2      2056      2468      2487      2872
 -1      5439    3    0    1
 -2      1691      2509      2522      2811
 -1      5440    3    0    1
 -2      2236      2355      2831      2974
 -1      5441    3    0    1
 -2      2335      2612       503      3036
 -1      5442    3    0    1
 -2      2287      2412      2381      2835
 -1      5443    3    0    1
 -2      2228      2485      2371      2973
 -1      5444    3    0    1
 -2      2238      2469      2411      2482
 -1      5445    3    0    1
 -2      1347      1352      1353      2939
 -1      5446    3    0    1
 -2       197      2344       191      2752
 -1      5447    3    0    1
 -2      2579      2860      2410      2946
 -1      5448    3    0    1
 -2      2394      2414      2277      2756
 -1      5449    3    0    1
 -2      1037      2357      1039      2423
 -1      5450    3    0    1
 -2       389      2710      2274      2810
 -1      5451    3    0    1
 -2       742      2331       747      2429
 -1      5452    3    0    1
 -2       820      2391      2458      2766
 -1      5453    3    0    1
 -2      1041      1039      2357      2423
 -1      5454    3    0    1
 -2      1321      2481      2400      2887
 -1      5455    3    0    1
 -2      2530      2565      2262      2941
 -1      5456    3    0    1
 -2      2246      2442      2341      2610
 -1      5457    3    0    1
 -2      2177      2332      1209      2842
 -1      5458    3    0    1
 -2       756      2317       750      2865
 -1      5459    3    0    1
 -2       112       107      2697      2749
 -1      5460    3    0    1
 -2      2476      2663      2296      2905
 -1      5461    3    0    1
 -2      1789      2322      1786      2468
 -1      5462    3    0    1
 -2       768       769       762      2966
 -1      5463    3    0    1
 -2      2341      2442      2246      2707
 -1      5464    3    0    1
 -2      1599      1690      2522      2934
 -1      5465    3    0    1
 -2      1289      2669      1286      3026
 -1      5466    3    0    1
 -2      1471      2896      1478      2921
 -1      5467    3    0    1
 -2      2369      2427      2253      2804
 -1      5468    3    0    1
 -2      2297      2586      1231      2674
 -1      5469    3    0    1
 -2      2367      2459      1958      2688
 -1      5470    3    0    1
 -2      1691      2522      2405      2811
 -1      5471    3    0    1
 -2      1904      2584      2319      2719
 -1      5472    3    0    1
 -2      2093      2404      2097      2759
 -1      5473    3    0    1
 -2      2538      2406      2909      2958
 -1      5474    3    0    1
 -2      2459      2688      2250      2696
 -1      5475    3    0    1
 -2      1624      2418      2650      2994
 -1      5476    3    0    1
 -2      2287      2381      2623      2835
 -1      5477    3    0    1
 -2      2233      2332      2435      2521
 -1      5478    3    0    1
 -2      2288      2627      2617      2734
 -1      5479    3    0    1
 -2      2236      2355      2444      2804
 -1      5480    3    0    1
 -2      2222      2728      2714      2822
 -1      5481    3    0    1
 -2       488      2519      2383      2849
 -1      5482    3    0    1
 -2      2511      2711      2047      2872
 -1      5483    3    0    1
 -2      2335      2446      2267      2968
 -1      5484    3    0    1
 -2      2256      2423      2355      2614
 -1      5485    3    0    1
 -2      2339      2384      2445      2535
 -1      5486    3    0    1
 -2      2352      2841      2406      2936
 -1      5487    3    0    1
 -2      1214      2521      2784      3029
 -1      5488    3    0    1
 -2      2303      2838        65      2939
 -1      5489    3    0    1
 -2       907      1658      1660      2497
 -1      5490    3    0    1
 -2      2372      2407       584      3004
 -1      5491    3    0    1
 -2      2520      2579      2410      2946
 -1      5492    3    0    1
 -2      2470      2293      2648      2950
 -1      5493    3    0    1
 -2      2238      2453      2469      2541
 -1      5494    3    0    1
 -2      2311      2405      2207      2534
 -1      5495    3    0    1
 -2      2353      2261      2600      2931
 -1      5496    3    0    1
 -2      2114      2617      2627      2734
 -1      5497    3    0    1
 -2      1191      2662      2321      2750
 -1      5498    3    0    1
 -2      1390      2336      1391      2986
 -1      5499    3    0    1
 -2       820       819       824      2391
 -1      5500    3    0    1
 -2      1961      2367      1971      2459
 -1      5501    3    0    1
 -2      2273      2487      2468      2872
 -1      5502    3    0    1
 -2      2558      2772      2286      2793
 -1      5503    3    0    1
 -2      2277      2665      2680      2777
 -1      5504    3    0    1
 -2      2297       249      2706      2929
 -1      5505    3    0    1
 -2      2579      2670      2264      3021
 -1      5506    3    0    1
 -2      2106      2507      2348      2512
 -1      5507    3    0    1
 -2      1879      2593      2401      2948
 -1      5508    3    0    1
 -2      2256      2423      2516      2831
 -1      5509    3    0    1
 -2      2243      2558      2466      2793
 -1      5510    3    0    1
 -2      2355      2423       726      2614
 -1      5511    3    0    1
 -2      2283      2456      2480      2885
 -1      5512    3    0    1
 -2      1351      1506      1357      2565
 -1      5513    3    0    1
 -2       605       600      2403      2416
 -1      5514    3    0    1
 -2      1907      2588      2319      2829
 -1      5515    3    0    1
 -2      2337      2385      2248      2501
 -1      5516    3    0    1
 -2      2355      2444      2423      2974
 -1      5517    3    0    1
 -2      2411      2453      2238      2479
 -1      5518    3    0    1
 -2      2330      2504      1626      2800
 -1      5519    3    0    1
 -2      2441      2818      2323      2900
 -1      5520    3    0    1
 -2      2102      2100      2348      2495
 -1      5521    3    0    1
 -2       806      2964      2681      2970
 -1      5522    3    0    1
 -2      2239      2458      2408      2467
 -1      5523    3    0    1
 -2      1988      2300      2454      2656
 -1      5524    3    0    1
 -2      1841      2396      2274      2618
 -1      5525    3    0    1
 -2      2404      2426      1763      2510
 -1      5526    3    0    1
 -2      2503      2545      2309      2751
 -1      5527    3    0    1
 -2      2250      2386      2367      2459
 -1      5528    3    0    1
 -2      2377      2457      2241      2571
 -1      5529    3    0    1
 -2      2317      2620      2578      2736
 -1      5530    3    0    1
 -2      1633      1684      1687      2334
 -1      5531    3    0    1
 -2      2251      2484      2346      2608
 -1      5532    3    0    1
 -2      2564      2716      2235      2777
 -1      5533    3    0    1
 -2      1014      2324      1015      2609
 -1      5534    3    0    1
 -2      1897      2584      2472      2691
 -1      5535    3    0    1
 -2      2304      2362      2718      2878
 -1      5536    3    0    1
 -2       563       555       554      2338
 -1      5537    3    0    1
 -2      2394      2716      2564      2777
 -1      5538    3    0    1
 -2      1222      1673       318      2741
 -1      5539    3    0    1
 -2      2299      2416      2622      2907
 -1      5540    3    0    1
 -2      2358      2695      1779      2935
 -1      5541    3    0    1
 -2      1282      2417      2669      2915
 -1      5542    3    0    1
 -2      2180      2359      2181      2686
 -1      5543    3    0    1
 -2       868      2961       877      3006
 -1      5544    3    0    1
 -2      2183      2310      2491      2923
 -1      5545    3    0    1
 -2      1114       653      2341      2419
 -1      5546    3    0    1
 -2      2291      2457      2377      2571
 -1      5547    3    0    1
 -2      1487      2636      2464      2921
 -1      5548    3    0    1
 -2      1727      2503      1714      2751
 -1      5549    3    0    1
 -2      2379      2321      2662      2983
 -1      5550    3    0    1
 -2      2107      2507      2114      2627
 -1      5551    3    0    1
 -2      1984      2454      1986      2802
 -1      5552    3    0    1
 -2      2450      2696      2313      2789
 -1      5553    3    0    1
 -2      2453      2681       806      2964
 -1      5554    3    0    1
 -2      2368      2701      2380      2714
 -1      5555    3    0    1
 -2      2261      2626      2600      2931
 -1      5556    3    0    1
 -2      2716      2777      2440      2995
 -1      5557    3    0    1
 -2      1446      2351        13      2797
 -1      5558    3    0    1
 -2        27      2540      1417      2600
 -1      5559    3    0    1
 -2      1387        40      1386      2574
 -1      5560    3    0    1
 -2      1778      1779      2358      2695
 -1      5561    3    0    1
 -2      2267      2432      2808      2876
 -1      5562    3    0    1
 -2       124      2554      2242      2818
 -1      5563    3    0    1
 -2      2219      2656      2300      2848
 -1      5564    3    0    1
 -2      2223      2415      2761      2910
 -1      5565    3    0    1
 -2      1988      2454      2300      2594
 -1      5566    3    0    1
 -2      1471      2859      2475      2896
 -1      5567    3    0    1
 -2      2259      2936      2678      2983
 -1      5568    3    0    1
 -2      1319      2307      1399      2911
 -1      5569    3    0    1
 -2      2246      2446      2343      2916
 -1      5570    3    0    1
 -2        13      2351       561      2797
 -1      5571    3    0    1
 -2      2312      2437      2244      2708
 -1      5572    3    0    1
 -2      1345      2765      2590      2939
 -1      5573    3    0    1
 -2      2331      2290      2620      2702
 -1      5574    3    0    1
 -2      2486      2908      2669      3026
 -1      5575    3    0    1
 -2      1647      2654      2778      2895
 -1      5576    3    0    1
 -2      2072      1777      1774      2345
 -1      5577    3    0    1
 -2      2390      2491      2332      2652
 -1      5578    3    0    1
 -2      2251      2346      2484      2713
 -1      5579    3    0    1
 -2      2319      2584      1904      2829
 -1      5580    3    0    1
 -2      2336      2861      2419      3005
 -1      5581    3    0    1
 -2      2313      2682      2250      2789
 -1      5582    3    0    1
 -2      2226      2630      2907      2998
 -1      5583    3    0    1
 -2      1471      2859      2896      2921
 -1      5584    3    0    1
 -2      2268      2643      2391      2790
 -1      5585    3    0    1
 -2      2360      2557      1153      2984
 -1      5586    3    0    1
 -2       230       235       232      2937
 -1      5587    3    0    1
 -2       491      2383       488      2519
 -1      5588    3    0    1
 -2      2305      2432       524      2769
 -1      5589    3    0    1
 -2      1227      2494      1646      2674
 -1      5590    3    0    1
 -2      1197      2161      2321      2662
 -1      5591    3    0    1
 -2      2129      2465      2387      2671
 -1      5592    3    0    1
 -2      1152      2360      1146      3022
 -1      5593    3    0    1
 -2      2138      2406      2476      2527
 -1      5594    3    0    1
 -2      2319      2588      1907      2719
 -1      5595    3    0    1
 -2       105      2713      2524      2980
 -1      5596    3    0    1
 -2      2307      2545      1733      2852
 -1      5597    3    0    1
 -2      2274      2396      2376      2618
 -1      5598    3    0    1
 -2      2372      2532      2270      2868
 -1      5599    3    0    1
 -2      2299      2896      2859      2921
 -1      5600    3    0    1
 -2      2270      2757       577      2798
 -1      5601    3    0    1
 -2      2369      2242      2427      2860
 -1      5602    3    0    1
 -2       768      2493       777      2601
 -1      5603    3    0    1
 -2       564       557       559      2399
 -1      5604    3    0    1
 -2      1350      2590      1352      2939
 -1      5605    3    0    1
 -2      2670      2933      2427      3025
 -1      5606    3    0    1
 -2      1717      1712      1713      2751
 -1      5607    3    0    1
 -2      2178      2359      2180      2686
 -1      5608    3    0    1
 -2      2714      2728      2380      2822
 -1      5609    3    0    1
 -2      2671      2847      2387      2881
 -1      5610    3    0    1
 -2      1590      2428      2479      2918
 -1      5611    3    0    1
 -2      1797      2413      2366      2484
 -1      5612    3    0    1
 -2      1433      2870      2402      2984
 -1      5613    3    0    1
 -2       124      2554       122      2703
 -1      5614    3    0    1
 -2      2422      2522      2405      2934
 -1      5615    3    0    1
 -2       309      1223      1664      2741
 -1      5616    3    0    1
 -2       584      2407      2372      2730
 -1      5617    3    0    1
 -2      1390      2498      2336      2986
 -1      5618    3    0    1
 -2      2414      2440      2277      2892
 -1      5619    3    0    1
 -2      2405      2534      2422      2934
 -1      5620    3    0    1
 -2       139       134       135      2818
 -1      5621    3    0    1
 -2      2100      2512      2495      2759
 -1      5622    3    0    1
 -2      2047      1045      2042      2782
 -1      5623    3    0    1
 -2      2324      2780      2620      2783
 -1      5624    3    0    1
 -2      1173      1174      2538      2909
 -1      5625    3    0    1
 -2      1051      1052       722      2368
 -1      5626    3    0    1
 -2      2289      2456      2480      2724
 -1      5627    3    0    1
 -2      1376      2341      2498      2707
 -1      5628    3    0    1
 -2      2336      2231      2350      3005
 -1      5629    3    0    1
 -2      2255      2485      2395      2820
 -1      5630    3    0    1
 -2       896      2370       897      2542
 -1      5631    3    0    1
 -2      1646      2499      2320      2954
 -1      5632    3    0    1
 -2       295      2320       291      2531
 -1      5633    3    0    1
 -2      1041      1049      2423      2511
 -1      5634    3    0    1
 -2       583       589       588      2475
 -1      5635    3    0    1
 -2       105      2524      2599      2980
 -1      5636    3    0    1
 -2      2234      2476      2406      3048
 -1      5637    3    0    1
 -2      1190      2750      2321      2850
 -1      5638    3    0    1
 -2      2176      2184      2186      2686
 -1      5639    3    0    1
 -2      2276      2607      2473      2655
 -1      5640    3    0    1
 -2      2473      2655      2846      3035
 -1      5641    3    0    1
 -2      1754      2684      2267      2963
 -1      5642    3    0    1
 -2      2250      2696      2450      2789
 -1      5643    3    0    1
 -2       497      2751       606      2754
 -1      5644    3    0    1
 -2      1687      2509      2334      2803
 -1      5645    3    0    1
 -2      2274      2414      2394      2810
 -1      5646    3    0    1
 -2      1760      2512      2335      2612
 -1      5647    3    0    1
 -2      2322      2468      2366      3041
 -1      5648    3    0    1
 -2      1893      1898      1891      2691
 -1      5649    3    0    1
 -2       125      2520       118      2579
 -1      5650    3    0    1
 -2       117      2520       124      2703
 -1      5651    3    0    1
 -2       177      2489      2304      2564
 -1      5652    3    0    1
 -2       491       488        51      2519
 -1      5653    3    0    1
 -2      2452      2744      2316      2887
 -1      5654    3    0    1
 -2      2268      2616      2301      2643
 -1      5655    3    0    1
 -2       223       220      2445      2506
 -1      5656    3    0    1
 -2      2381      2419      2336      2913
 -1      5657    3    0    1
 -2      2431      2601       765      2966
 -1      5658    3    0    1
 -2       707      1062      2380      2785
 -1      5659    3    0    1
 -2      2243      2531      2466      2558
 -1      5660    3    0    1
 -2      2269      2399      2902      3048
 -1      5661    3    0    1
 -2      2665      2680      1270      2992
 -1      5662    3    0    1
 -2       256      2690      2533      2817
 -1      5663    3    0    1
 -2      2479      2606      1586      2918
 -1      5664    3    0    1
 -2      2343      2781      2574      2916
 -1      5665    3    0    1
 -2      1593      2681      2301      2970
 -1      5666    3    0    1
 -2      2345      2224      2447      2528
 -1      5667    3    0    1
 -2      1376      2341      1383      2498
 -1      5668    3    0    1
 -2       664       665      2378      2565
 -1      5669    3    0    1
 -2      1712      1717       434      2449
 -1      5670    3    0    1
 -2      1574      1570      1571      2329
 -1      5671    3    0    1
 -2      1028       742      2429      2575
 -1      5672    3    0    1
 -2       205      2344       208      2474
 -1      5673    3    0    1
 -2      2276      2467      2607      2655
 -1      5674    3    0    1
 -2      2238      2469      2453      3027
 -1      5675    3    0    1
 -2       862      2641       863      2800
 -1      5676    3    0    1
 -2      1882      2401      2298      2691
 -1      5677    3    0    1
 -2       256      2738      2690      2817
 -1      5678    3    0    1
 -2      2271      2594      2454      2802
 -1      5679    3    0    1
 -2      2469      2482      2238      2718
 -1      5680    3    0    1
 -2      1359      1355      2590      2732
 -1      5681    3    0    1
 -2       256      2585      2738      2817
 -1      5682    3    0    1
 -2      2341      2498      2246      3005
 -1      5683    3    0    1
 -2      1427      2566      2302      2600
 -1      5684    3    0    1
 -2       399      2904      2710      3042
 -1      5685    3    0    1
 -2      2249      2335      2581      2610
 -1      5686    3    0    1
 -2      1651      1650      1657      2778
 -1      5687    3    0    1
 -2      1971      2717      1973      2745
 -1      5688    3    0    1
 -2      2109      2267      2684      2944
 -1      5689    3    0    1
 -2      1202      2842      2393      2850
 -1      5690    3    0    1
 -2      2312      2244      2552      2708
 -1      5691    3    0    1
 -2      2093      1761      2097      2404
 -1      5692    3    0    1
 -2      1325      2400      1321      2481
 -1      5693    3    0    1
 -2      2226      2907      2435      2998
 -1      5694    3    0    1
 -2      2339      2384      2535      2910
 -1      5695    3    0    1
 -2      2270      2389      2747      2868
 -1      5696    3    0    1
 -2      1215      1216      1217      2521
 -1      5697    3    0    1
 -2      1563      2679      1564      2680
 -1      5698    3    0    1
 -2      1556      1560       756      2715
 -1      5699    3    0    1
 -2      2275      2431      2601      2867
 -1      5700    3    0    1
 -2      2239      2560      2472      2691
 -1      5701    3    0    1
 -2      1386      2343      1392      2574
 -1      5702    3    0    1
 -2      2081      1771      1769      2426
 -1      5703    3    0    1
 -2      1383      2341      1376      2861
 -1      5704    3    0    1
 -2      2313      2738      2395      2820
 -1      5705    3    0    1
 -2      2103      2512      1758      2612
 -1      5706    3    0    1
 -2      2405      2518      2811      3046
 -1      5707    3    0    1
 -2      1515      2337      1516      2501
 -1      5708    3    0    1
 -2      2306      2033      2996      3008
 -1      5709    3    0    1
 -2      1652      2499      2466      2778
 -1      5710    3    0    1
 -2      2553      2420      2712      2812
 -1      5711    3    0    1
 -2      2253      2444      2804      3020
 -1      5712    3    0    1
 -2      2251      2484      2608      2638
 -1      5713    3    0    1
 -2      2244      2628      2471      2793
 -1      5714    3    0    1
 -2      2456      2489      2318      2564
 -1      5715    3    0    1
 -2      2232      2383      2281      2743
 -1      5716    3    0    1
 -2      2342      2630      2299      2896
 -1      5717    3    0    1
 -2      2225      2847      2615      2881
 -1      5718    3    0    1
 -2      1270      2362      1266      2451
 -1      5719    3    0    1
 -2       191      2344      2559      2752
 -1      5720    3    0    1
 -2      2261      2432      2770      2781
 -1      5721    3    0    1
 -2      1733      1731      1730      2545
 -1      5722    3    0    1
 -2      2238      2606      2479      2644
 -1      5723    3    0    1
 -2      2533      2699      2690      2774
 -1      5724    3    0    1
 -2        44      2519        47      2947
 -1      5725    3    0    1
 -2      2516      2714      2481      3010
 -1      5726    3    0    1
 -2      1408      1415      2600      2626
 -1      5727    3    0    1
 -2      1554      2422       259      2927
 -1      5728    3    0    1
 -2      2292      2474       194      2535
 -1      5729    3    0    1
 -2      2232      2660      2648      2743
 -1      5730    3    0    1
 -2      2183      2491      2310      2901
 -1      5731    3    0    1
 -2      1677      1670      2436      2659
 -1      5732    3    0    1
 -2      2353      2261      2540      2600
 -1      5733    3    0    1
 -2      2109      2507      2267      2944
 -1      5734    3    0    1
 -2      2254      2406      2352      2819
 -1      5735    3    0    1
 -2      2234      2338      2476      3048
 -1      5736    3    0    1
 -2      1068      2549      2390      2652
 -1      5737    3    0    1
 -2      2379      2562      2678      2983
 -1      5738    3    0    1
 -2      1691      1690      2405      2522
 -1      5739    3    0    1
 -2      2233      2359      2310      2462
 -1      5740    3    0    1
 -2      2255      2690      2377      2774
 -1      5741    3    0    1
 -2      2299      2403      2416      2991
 -1      5742    3    0    1
 -2      2364      2717      1974      2737
 -1      5743    3    0    1
 -2      2274      2396      1841      2710
 -1      5744    3    0    1
 -2      2078      2570      2388      2598
 -1      5745    3    0    1
 -2       677       673       675      2565
 -1      5746    3    0    1
 -2      2339      2384      2247      2445
 -1      5747    3    0    1
 -2      1575      2482      2329      2878
 -1      5748    3    0    1
 -2      1591      2647      2509      2811
 -1      5749    3    0    1
 -2      2224      2327      2805      3012
 -1      5750    3    0    1
 -2      2419      2861      2336      2913
 -1      5751    3    0    1
 -2      2306      2933      2575      2996
 -1      5752    3    0    1
 -2       768      2601       765      2715
 -1      5753    3    0    1
 -2      2413      2484      1796      2834
 -1      5754    3    0    1
 -2      2430      2608      2484      2676
 -1      5755    3    0    1
 -2      2561      2784      2521      3029
 -1      5756    3    0    1
 -2      2286      1670      2858      2942
 -1      5757    3    0    1
 -2      2391      2643       815      2790
 -1      5758    3    0    1
 -2      1684      2334      1681      2803
 -1      5759    3    0    1
 -2      2531      2558      2243      2741
 -1      5760    3    0    1
 -2      2341      2249      2555      2722
 -1      5761    3    0    1
 -2      2310      2233      2390      2491
 -1      5762    3    0    1
 -2      1279      2669      2417      2992
 -1      5763    3    0    1
 -2       563      2338       562      2903
 -1      5764    3    0    1
 -2      2443      2296      2671      2819
 -1      5765    3    0    1
 -2      2424      2910      2223      3034
 -1      5766    3    0    1
 -2      1958      1959      1952      2450
 -1      5767    3    0    1
 -2      1215      1207      1202      3029
 -1      5768    3    0    1
 -2      2324      2563      2021      2816
 -1      5769    3    0    1
 -2      2400      2646      2248      2830
 -1      5770    3    0    1
 -2      1466      2536      1464      2896
 -1      5771    3    0    1
 -2      2251      2316      2537      2599
 -1      5772    3    0    1
 -2      2240      2726      2356      2778
 -1      5773    3    0    1
 -2      1856      2318      1854      2801
 -1      5774    3    0    1
 -2      2273      2701      2511      2711
 -1      5775    3    0    1
 -2        40      1380      1384      2576
 -1      5776    3    0    1
 -2      2260      2550      2448      2605
 -1      5777    3    0    1
 -2      1842      1847      2396      2801
 -1      5778    3    0    1
 -2      2165      2163      2379      2529
 -1      5779    3    0    1
 -2      2346      2484      2430      2608
 -1      5780    3    0    1
 -2       906      2568      2312      2889
 -1      5781    3    0    1
 -2      2256      2481      2516      2714
 -1      5782    3    0    1
 -2      2311      2422      2405      2534
 -1      5783    3    0    1
 -2      2089      1104      2397      2815
 -1      5784    3    0    1
 -2      1663      1662      1668      2741
 -1      5785    3    0    1
 -2      1954      2889      2552      2962
 -1      5786    3    0    1
 -2      2293      2470      2648      2894
 -1      5787    3    0    1
 -2      2224      2337      2523      2950
 -1      5788    3    0    1
 -2      2450      2869      1950      2962
 -1      5789    3    0    1
 -2      2240      2315      2726      2778
 -1      5790    3    0    1
 -2      2161      2164      2168      2842
 -1      5791    3    0    1
 -2      2239      2467      2319      2655
 -1      5792    3    0    1
 -2      2540      2600      2261      2626
 -1      5793    3    0    1
 -2      2389      2936      2747      2983
 -1      5794    3    0    1
 -2      1973      2745      2717      3040
 -1      5795    3    0    1
 -2      2155      2156      2379      2562
 -1      5796    3    0    1
 -2      1392      2574      2343      2645
 -1      5797    3    0    1
 -2       211       206      2339      2535
 -1      5798    3    0    1
 -2       139      2323       146      2818
 -1      5799    3    0    1
 -2       534      2746       543      2769
 -1      5800    3    0    1
 -2      2196      2311      2201      2534
 -1      5801    3    0    1
 -2      2247      2569      2505      2809
 -1      5802    3    0    1
 -2      2469      2541      2289      2885
 -1      5803    3    0    1
 -2       444       442       447      2980
 -1      5804    3    0    1
 -2      1841      2618      2274      2710
 -1      5805    3    0    1
 -2      1611      2505      2546      2773
 -1      5806    3    0    1
 -2      2300      2454      2271      2594
 -1      5807    3    0    1
 -2       193       194      2292      2474
 -1      5808    3    0    1
 -2      1985      1883      1983      2848
 -1      5809    3    0    1
 -2      2380      2701      2273      2728
 -1      5810    3    0    1
 -2       235      2333      2929      2937
 -1      5811    3    0    1
 -2      2298      2401      1882      2593
 -1      5812    3    0    1
 -2      1154      2360      1153      2984
 -1      5813    3    0    1
 -2      2612      2876       508      2963
 -1      5814    3    0    1
 -2      2266      2423      2368      2511
 -1      5815    3    0    1
 -2       455       457      1778      2358
 -1      5816    3    0    1
 -2      2238      2479      2453      2667
 -1      5817    3    0    1
 -2      1712       434       602      2751
 -1      5818    3    0    1
 -2      2454      2594      1986      2802
 -1      5819    3    0    1
 -2      2339      2445       211      2535
 -1      5820    3    0    1
 -2      2429      2575      2331      2933
 -1      5821    3    0    1
 -2      1791      2366      1797      2413
 -1      5822    3    0    1
 -2      1876      2593      1879      2948
 -1      5823    3    0    1
 -2      2369      2295      2520      2860
 -1      5824    3    0    1
 -2       196      2344       205      2474
 -1      5825    3    0    1
 -2       811       910      1633      2509
 -1      5826    3    0    1
 -2      2102      2348      2106      2979
 -1      5827    3    0    1
 -2      1146      2360      2623      3022
 -1      5828    3    0    1
 -2      2286      2471      2628      2793
 -1      5829    3    0    1
 -2      2481      2537      2516      3010
 -1      5830    3    0    1
 -2      2268      2415      2384      2607
 -1      5831    3    0    1
 -2      2416      2882      2435      2991
 -1      5832    3    0    1
 -2       707      2785      2380      2880
 -1      5833    3    0    1
 -2       258      2311      2422      2649
 -1      5834    3    0    1
 -2      1563      2451      1569      2493
 -1      5835    3    0    1
 -2      2406      2819      2234      2841
 -1      5836    3    0    1
 -2      2371      2485      2395      2775
 -1      5837    3    0    1
 -2      2440      2716      2394      2777
 -1      5838    3    0    1
 -2      2630      2747      2226      2868
 -1      5839    3    0    1
 -2      2258      2712      2420      2812
 -1      5840    3    0    1
 -2      2054      2711      2056      2872
 -1      5841    3    0    1
 -2      1565      1558      1563      2493
 -1      5842    3    0    1
 -2      2469      2718      2238      2795
 -1      5843    3    0    1
 -2      1392      2574      2645      2813
 -1      5844    3    0    1
 -2      2004      2664      1873      2948
 -1      5845    3    0    1
 -2      2196      2193      2374      2978
 -1      5846    3    0    1
 -2      1475      2342      1468      2619
 -1      5847    3    0    1
 -2       789      2469       782      2845
 -1      5848    3    0    1
 -2      2247      2607      2415      2698
 -1      5849    3    0    1
 -2      2289      2705      2541      3017
 -1      5850    3    0    1
 -2       452       604       602      2449
 -1      5851    3    0    1
 -2      2316      2354      2398      2646
 -1      5852    3    0    1
 -2      2178      2180      2181      2686
 -1      5853    3    0    1
 -2      2262      2583      2648      2894
 -1      5854    3    0    1
 -2       600       603       605      2403
 -1      5855    3    0    1
 -2       845      2467      2382      3024
 -1      5856    3    0    1
 -2      2394      2396       165      2924
 -1      5857    3    0    1
 -2      1786      2595      2322      2689
 -1      5858    3    0    1
 -2      2413      2926      2322      2980
 -1      5859    3    0    1
 -2      2231      2336      2381      3005
 -1      5860    3    0    1
 -2      1353        62      1349      2939
 -1      5861    3    0    1
 -2      2283      2724      2587      2752
 -1      5862    3    0    1
 -2      2286      2772      2471      2793
 -1      5863    3    0    1
 -2      1716      2503      2310      2751
 -1      5864    3    0    1
 -2      2409      2473      2294      3035
 -1      5865    3    0    1
 -2       122      2554      1291      2703
 -1      5866    3    0    1
 -2      1958      2688      2459      2696
 -1      5867    3    0    1
 -2      2047      1053      2511      2872
 -1      5868    3    0    1
 -2      1244      2384      2445      2836
 -1      5869    3    0    1
 -2      1598      2197      1577      2405
 -1      5870    3    0    1
 -2      1558      2679      2493      2715
 -1      5871    3    0    1
 -2      2392      2601       777      2828
 -1      5872    3    0    1
 -2      1191      2321      1190      2750
 -1      5873    3    0    1
 -2      1068      2390      1213      2652
 -1      5874    3    0    1
 -2      1385      1381      2498      2576
 -1      5875    3    0    1
 -2      2283      2644      2456      2885
 -1      5876    3    0    1
 -2      1178      1187      2596      2750
 -1      5877    3    0    1
 -2      2469      2828       782      2845
 -1      5878    3    0    1
 -2      2283      2456      2318      2724
 -1      5879    3    0    1
 -2      1527      2325      2481      2496
 -1      5880    3    0    1
 -2      1624      2650      1626      2994
 -1      5881    3    0    1
 -2      1582      1256      2479      2606
 -1      5882    3    0    1
 -2      1911      2577      2349      3023
 -1      5883    3    0    1
 -2      2456      2238      2718      2795
 -1      5884    3    0    1
 -2      2530      2765      1345      2941
 -1      5885    3    0    1
 -2      2207      2405      2311      3046
 -1      5886    3    0    1
 -2       117       124       122      2703
 -1      5887    3    0    1
 -2      1988      2454      1829      2656
 -1      5888    3    0    1
 -2      2366      2468      1792      2711
 -1      5889    3    0    1
 -2      2323      2892      2669      2908
 -1      5890    3    0    1
 -2      1956      1954      2552      2962
 -1      5891    3    0    1
 -2      2471      2286      2628      2772
 -1      5892    3    0    1
 -2      1583      1582      1585      2479
 -1      5893    3    0    1
 -2      2222      2516      2638      3010
 -1      5894    3    0    1
 -2      2679      2736      2317      2865
 -1      5895    3    0    1
 -2       727      2517      2355      3043
 -1      5896    3    0    1
 -2      2426      2648      2232      2731
 -1      5897    3    0    1
 -2      2264      2427      2670      2933
 -1      5898    3    0    1
 -2      2251      2608      2516      2638
 -1      5899    3    0    1
 -2       230       232      2642      2937
 -1      5900    3    0    1
 -2       858      1623      2800      2994
 -1      5901    3    0    1
 -2       632      2870      1433      2984
 -1      5902    3    0    1
 -2      2248      2501      2385      2634
 -1      5903    3    0    1
 -2      2378      2660      2442      2821
 -1      5904    3    0    1
 -2      2264      2579      2488      2670
 -1      5905    3    0    1
 -2      2253      2760      2444      3020
 -1      5906    3    0    1
 -2      2203      2198      2405      2518
 -1      5907    3    0    1
 -2      1425      1433      2402      2672
 -1      5908    3    0    1
 -2      2267      2432      2683      2808
 -1      5909    3    0    1
 -2      2239      2655      2319      2846
 -1      5910    3    0    1
 -2      2256      2516      2481      2537
 -1      5911    3    0    1
 -2        51      2732      2519      2849
 -1      5912    3    0    1
 -2      2267      2808      2683      2968
 -1      5913    3    0    1
 -2      2323      2417      2756      2915
 -1      5914    3    0    1
 -2      1854      1859      2587      2724
 -1      5915    3    0    1
 -2      2106      2348      2100      2512
 -1      5916    3    0    1
 -2      2275      2500      2668      2879
 -1      5917    3    0    1
 -2       526      2684      2305      2704
 -1      5918    3    0    1
 -2      2335      2512      2267      2612
 -1      5919    3    0    1
 -2      2131      2671      2592      2905
 -1      5920    3    0    1
 -2      2241      2504      2421      2654
 -1      5921    3    0    1
 -2      1763      1761      2091      2404
 -1      5922    3    0    1
 -2       912      1660       907      1658
 -1      5923    3    0    1
 -2       687      2501       689      3016
 -1      5924    3    0    1
 -2      2238      2453      2541      2885
 -1      5925    3    0    1
 -2      2375      2600      1413      2626
 -1      5926    3    0    1
 -2      1215      2332      1202      2842
 -1      5927    3    0    1
 -2      2147      2662      2538      2943
 -1      5928    3    0    1
 -2      2318      2456      2283      2489
 -1      5929    3    0    1
 -2      2081      1771      2426      2570
 -1      5930    3    0    1
 -2       609      2416      2462      2739
 -1      5931    3    0    1
 -2      2367      2386      2314      2745
 -1      5932    3    0    1
 -2      2440      2825      2680      2892
 -1      5933    3    0    1
 -2      2592      2671      2296      2905
 -1      5934    3    0    1
 -2       483      2383       487      2510
 -1      5935    3    0    1
 -2      1839      2374      1840      2823
 -1      5936    3    0    1
 -2      2234      2443      2439      2938
 -1      5937    3    0    1
 -2      2475      2859      2299      2896
 -1      5938    3    0    1
 -2      2287      2483      2350      2899
 -1      5939    3    0    1
 -2      1638      2504      2421      2800
 -1      5940    3    0    1
 -2      2239      2458      2467      2607
 -1      5941    3    0    1
 -2      2244      2492      2471      2688
 -1      5942    3    0    1
 -2      2372      2475       588      2622
 -1      5943    3    0    1
 -2      2239      2319      2584      2846
 -1      5944    3    0    1
 -2      2281      2591      2530      2660
 -1      5945    3    0    1
 -2      2382      2291      2571      2961
 -1      5946    3    0    1
 -2      2256      2496      2481      2714
 -1      5947    3    0    1
 -2      2234      2902      2399      3048
 -1      5948    3    0    1
 -2      1731      1727      1730      2545
 -1      5949    3    0    1
 -2      2398      2758      2322      3041
 -1      5950    3    0    1
 -2      1778      2358      1781      2689
 -1      5951    3    0    1
 -2      2235      2777      2716      2995
 -1      5952    3    0    1
 -2      2021      2563      2025      2816
 -1      5953    3    0    1
 -2       768      2493      2601      2715
 -1      5954    3    0    1
 -2      2411      2482      2469      2845
 -1      5955    3    0    1
 -2        27      2600      1417      2853
 -1      5956    3    0    1
 -2       655      2806      2341      2861
 -1      5957    3    0    1
 -2       206       207      2339      2474
 -1      5958    3    0    1
 -2      2231      2381      2419      3005
 -1      5959    3    0    1
 -2      2338      2666       562      2903
 -1      5960    3    0    1
 -2      2234      2902      2448      2938
 -1      5961    3    0    1
 -2      2271      2300      2594      2920
 -1      5962    3    0    1
 -2      2248      2539      2634      2822
 -1      5963    3    0    1
 -2       165      2396      2394      2810
 -1      5964    3    0    1
 -2      2376      2274      2618      2995
 -1      5965    3    0    1
 -2      1958      2450      2688      2696
 -1      5966    3    0    1
 -2      2651      2729      2304      2971
 -1      5967    3    0    1
 -2      1230      1231      1229      2674
 -1      5968    3    0    1
 -2      1803      2484      2346      2834
 -1      5969    3    0    1
 -2      2161      1197      2321      2842
 -1      5970    3    0    1
 -2      1366      1369      2442      2806
 -1      5971    3    0    1
 -2      2563      2429      2783      2933
 -1      5972    3    0    1
 -2      2410      2524       109      2969
 -1      5973    3    0    1
 -2      1784      2689      1786      2926
 -1      5974    3    0    1
 -2      2324      2609      1014      2816
 -1      5975    3    0    1
 -2      2058      2061      2056      2487
 -1      5976    3    0    1
 -2       119      2374      2193      2978
 -1      5977    3    0    1
 -2      2416      2435      2299      2991
 -1      5978    3    0    1
 -2      1216      2390      1217      2521
 -1      5979    3    0    1
 -2      2229      2655      2473      3035
 -1      5980    3    0    1
 -2      2388      2570      2293      2598
 -1      5981    3    0    1
 -2      1911      1903      2349      2577
 -1      5982    3    0    1
 -2      1804      1803      2346      2883
 -1      5983    3    0    1
 -2      2224      2523      2567      2805
 -1      5984    3    0    1
 -2      2269      2407      2379      2868
 -1      5985    3    0    1
 -2       167      2362       172      2729
 -1      5986    3    0    1
 -2      1795        57       142      2374
 -1      5987    3    0    1
 -2      1472      1471      2475      2798
 -1      5988    3    0    1
 -2       208      2344       205      2693
 -1      5989    3    0    1
 -2      1513      2337      1515      2771
 -1      5990    3    0    1
 -2      2384      2247      2505      2607
 -1      5991    3    0    1
 -2      1795      1839      1794      2374
 -1      5992    3    0    1
 -2      2511      2782      2711      3003
 -1      5993    3    0    1
 -2      2255      2485      2874      2982
 -1      5994    3    0    1
 -2      2246      2556      2383      2610
 -1      5995    3    0    1
 -2       107      2524       109      2697
 -1      5996    3    0    1
 -2       557      2399       564      2666
 -1      5997    3    0    1
 -2      2249      2419      3005      3037
 -1      5998    3    0    1
 -2      1716      2310      2503      2928
 -1      5999    3    0    1
 -2      2589      2783      2264      2900
 -1      6000    3    0    1
 -2      2427      2242      2579      2860
 -1      6001    3    0    1
 -2      2196      2311       330      2978
 -1      6002    3    0    1
 -2      2198      2405      2518      2811
 -1      6003    3    0    1
 -2      2539      2822      2248      2906
 -1      6004    3    0    1
 -2       125      2579       126      2818
 -1      6005    3    0    1
 -2       167       168      2362      2898
 -1      6006    3    0    1
 -2      2325      2634      2380      2880
 -1      6007    3    0    1
 -2       948      2425       955      2460
 -1      6008    3    0    1
 -2      2274      2340      2900      3042
 -1      6009    3    0    1
 -2      2414      2756      2394      2810
 -1      6010    3    0    1
 -2      2588      2719      2291      3006
 -1      6011    3    0    1
 -2      1827      1826      1832      2930
 -1      6012    3    0    1
 -2      2485      2542      2284      2877
 -1      6013    3    0    1
 -2      2247      2473      2607      2698
 -1      6014    3    0    1
 -2      2334      2460       910      2989
 -1      6015    3    0    1
 -2       334      2553      2823      2978
 -1      6016    3    0    1
 -2      2382      2571      2291      2985
 -1      6017    3    0    1
 -2      2352      2406      2254      2909
 -1      6018    3    0    1
 -2      2335      2267      2512      2968
 -1      6019    3    0    1
 -2      2129      2465      2671      2958
 -1      6020    3    0    1
 -2      2395      2485      2371      2820
 -1      6021    3    0    1
 -2      2507      2512      2267      2968
 -1      6022    3    0    1
 -2      2232      2442      2378      2660
 -1      6023    3    0    1
 -2      2415      2463      2247      2698
 -1      6024    3    0    1
 -2      2358      2528      2327      2897
 -1      6025    3    0    1
 -2      2476      2527      2406      3048
 -1      6026    3    0    1
 -2      2385      2501      2337      3016
 -1      6027    3    0    1
 -2      2250      2459      2367      2688
 -1      6028    3    0    1
 -2       318      2572      1222      2741
 -1      6029    3    0    1
 -2      2072      2345      1774      2570
 -1      6030    3    0    1
 -2       829      2408       977      3031
 -1      6031    3    0    1
 -2      2345      2695      2358      2935
 -1      6032    3    0    1
 -2      2524      2713       105      2969
 -1      6033    3    0    1
 -2      2523      2567      2328      2779
 -1      6034    3    0    1
 -2       877       881      2611      2877
 -1      6035    3    0    1
 -2      2423      2511      2266      2782
 -1      6036    3    0    1
 -2      2177      2182      2150      2652
 -1      6037    3    0    1
 -2      2419      2861      2341      3005
 -1      6038    3    0    1
 -2      1558      1563      2493      2679
 -1      6039    3    0    1
 -2      2234      2389      2448      2902
 -1      6040    3    0    1
 -2      2254      2671      2465      2958
 -1      6041    3    0    1
 -2      2233      2310      2359      2491
 -1      6042    3    0    1
 -2      2429      2933      2735      2996
 -1      6043    3    0    1
 -2      2461      2237      2811      3046
 -1      6044    3    0    1
 -2      2358      2695      2345      2897
 -1      6045    3    0    1
 -2      2360      1154      2796      2984
 -1      6046    3    0    1
 -2      2303      2591        65      2838
 -1      6047    3    0    1
 -2      2308      2860      2579      2946
 -1      6048    3    0    1
 -2      2312      2889      2568      2962
 -1      6049    3    0    1
 -2      2176      2332      2177      2842
 -1      6050    3    0    1
 -2      2548      2248      2646      2830
 -1      6051    3    0    1
 -2      2339      2761      2415      2910
 -1      6052    3    0    1
 -2       524      2704      2305      2769
 -1      6053    3    0    1
 -2       815      2643      2391      2970
 -1      6054    3    0    1
 -2      2300      2518      2205      2640
 -1      6055    3    0    1
 -2      2332      2233      2435      2882
 -1      6056    3    0    1
 -2      1786      2689      2322      2926
 -1      6057    3    0    1
 -2      1177      2352      1172      2538
 -1      6058    3    0    1
 -2      2352      2254      2819      2841
 -1      6059    3    0    1
 -2      2289      2480      2456      2885
 -1      6060    3    0    1
 -2      2428      2535      2384      2910
 -1      6061    3    0    1
 -2      1345      2590      1350      2939
 -1      6062    3    0    1
 -2      2277      2680      2665      2992
 -1      6063    3    0    1
 -2      1721      2742      2549      2928
 -1      6064    3    0    1
 -2        38        40      2574      2916
 -1      6065    3    0    1
 -2       978      2593      2298      3031
 -1      6066    3    0    1
 -2       583      2475      2270      2798
 -1      6067    3    0    1
 -2      2285      2637      2424      3034
 -1      6068    3    0    1
 -2      2304      2489      2456      2564
 -1      6069    3    0    1
 -2      2020      2609      2324      2816
 -1      6070    3    0    1
 -2      1796       431       439      2926
 -1      6071    3    0    1
 -2      2398      2624      2322      2758
 -1      6072    3    0    1
 -2       273       264       272      2494
 -1      6073    3    0    1
 -2      2304      2489       177      2651
 -1      6074    3    0    1
 -2      2321      2529      2163      2842
 -1      6075    3    0    1
 -2      2248      2582      2567      2779
 -1      6076    3    0    1
 -2      2222      2646      2398      3041
 -1      6077    3    0    1
 -2       524      2305       526      2684
 -1      6078    3    0    1
 -2      2348      2722      2419      2833
 -1      6079    3    0    1
 -2      2352      2538      1177      2596
 -1      6080    3    0    1
 -2      1272      1269      1266      2362
 -1      6081    3    0    1
 -2      1238      2333      1619      2569
 -1      6082    3    0    1
 -2      1593      2301      2616      2970
 -1      6083    3    0    1
 -2      2127      2549      2491      2901
 -1      6084    3    0    1
 -2      1953      2552      2450      2962
 -1      6085    3    0    1
 -2       490      2510      1762      3001
 -1      6086    3    0    1
 -2      2562      2259      2678      2983
 -1      6087    3    0    1
 -2      1984      1910      1986      2454
 -1      6088    3    0    1
 -2      2244      2709      2628      2793
 -1      6089    3    0    1
 -2      1849      2801      1854      2925
 -1      6090    3    0    1
 -2      2383      2732      2281      2849
 -1      6091    3    0    1
 -2      2181      2359      2491      2686
 -1      6092    3    0    1
 -2      1322        84      2354      2837
 -1      6093    3    0    1
 -2      1956      2552      1953      2962
 -1      6094    3    0    1
 -2      1977      2364      1972      2544
 -1      6095    3    0    1
 -2      1871       368      2344      2693
 -1      6096    3    0    1
 -2       766      2461      2460      2509
 -1      6097    3    0    1
 -2      1213      2390      1216      2652
 -1      6098    3    0    1
 -2      2272      2447      2385      2528
 -1      6099    3    0    1
 -2       586      1738      2167      2730
 -1      6100    3    0    1
 -2      1826      1833      1832      2930
 -1      6101    3    0    1
 -2      2141      2538      2406      2943
 -1      6102    3    0    1
 -2      2255      2774      2485      2982
 -1      6103    3    0    1
 -2      2244      2312      2552      2763
 -1      6104    3    0    1
 -2      2325      2634      2539      2822
 -1      6105    3    0    1
 -2      2519      2732      2383      2849
 -1      6106    3    0    1
 -2      1519      2501      1336      2906
 -1      6107    3    0    1
 -2       459      2327       463      2897
 -1      6108    3    0    1
 -2       746      2331       741      2578
 -1      6109    3    0    1
 -2      1848      2618      1842      2764
 -1      6110    3    0    1
 -2      2267      2446      2335      2612
 -1      6111    3    0    1
 -2      1423      2566      2375      2884
 -1      6112    3    0    1
 -2      2422      2649      2258      2812
 -1      6113    3    0    1
 -2       655      2341       656      2861
 -1      6114    3    0    1
 -2      2183      2901      2310      2923
 -1      6115    3    0    1
 -2      2337      2501      2248      2779
 -1      6116    3    0    1
 -2      2269      2902      2389      3048
 -1      6117    3    0    1
 -2      2233      2332      2491      2882
 -1      6118    3    0    1
 -2      2283      2480      2456      2724
 -1      6119    3    0    1
 -2      2318      2716      2478      2879
 -1      6120    3    0    1
 -2      2254      2352      2557      2841
 -1      6121    3    0    1
 -2      1319      2545      2307      2852
 -1      6122    3    0    1
 -2      2258      2649      2712      2812
 -1      6123    3    0    1
 -2      1563      1559      1564      2679
 -1      6124    3    0    1
 -2      1868      2480      2004      2948
 -1      6125    3    0    1
 -2      2113      2180      2739      2923
 -1      6126    3    0    1
 -2      2356      2466      2240      2778
 -1      6127    3    0    1
 -2      2481      2496      2325      2714
 -1      6128    3    0    1
 -2      2324      2021      2563      2997
 -1      6129    3    0    1
 -2      2520      2579      2242      2860
 -1      6130    3    0    1
 -2      2312      2568       906      2976
 -1      6131    3    0    1
 -2      2495      2512      2249      2759
 -1      6132    3    0    1
 -2      1560      1556      1558      2715
 -1      6133    3    0    1
 -2      2181      2491      2359      2923
 -1      6134    3    0    1
 -2      2362      2564       172      2729
 -1      6135    3    0    1
 -2       258      2422      2311      2534
 -1      6136    3    0    1
 -2      2232      2281      2660      2743
 -1      6137    3    0    1
 -2       798      2453      2411      2681
 -1      6138    3    0    1
 -2      2410      2520      2295      2860
 -1      6139    3    0    1
 -2       373      2725      2587      2752
 -1      6140    3    0    1
 -2      1564      1569      1563      2451
 -1      6141    3    0    1
 -2      2266      2511      2701      2711
 -1      6142    3    0    1
 -2      1646      2320      1654      2954
 -1      6143    3    0    1
 -2      2298      2593       978      2766
 -1      6144    3    0    1
 -2      2314      2386      2367      2917
 -1      6145    3    0    1
 -2      2155      2379      2159      2562
 -1      6146    3    0    1
 -2      2335       503      2556      3036
 -1      6147    3    0    1
 -2      1321      1314      2786      2887
 -1      6148    3    0    1
 -2       505      2612       508      2963
 -1      6149    3    0    1
 -2      2276      2655      2473      2809
 -1      6150    3    0    1
 -2      2735      2933      2670      3025
 -1      6151    3    0    1
 -2      2397      2610      2404      2759
 -1      6152    3    0    1
 -2      1840      2374       142      2823
 -1      6153    3    0    1
 -2      1637      1630      1231      2650
 -1      6154    3    0    1
 -2       744      2578       741      2760
 -1      6155    3    0    1
 -2      2335      2246      2581      2610
 -1      6156    3    0    1
 -2      2326      1676      2572      2741
 -1      6157    3    0    1
 -2      2435      2521      2278      2991
 -1      6158    3    0    1
 -2      2553      2712      2649      2812
 -1      6159    3    0    1
 -2      2389      2678      2936      2983
 -1      6160    3    0    1
 -2      2473      2607      2276      2809
 -1      6161    3    0    1
 -2       862      2330      2800      2922
 -1      6162    3    0    1
 -2      2312      2708      2371      2973
 -1      6163    3    0    1
 -2      2277      2394      2756      2898
 -1      6164    3    0    1
 -2      1427      2600      2302      2853
 -1      6165    3    0    1
 -2      2445      2506      1241      2836
 -1      6166    3    0    1
 -2      2349      2846      2655      3035
 -1      6167    3    0    1
 -2      2335      2581      2446      2968
 -1      6168    3    0    1
 -2      2233      2521      2435      2991
 -1      6169    3    0    1
 -2      2031      2735      1811      2967
 -1      6170    3    0    1
 -2      2070      2069      2072      2447
 -1      6171    3    0    1
 -2      2590      2281      2732      2849
 -1      6172    3    0    1
 -2      2341      2806      1500      2861
 -1      6173    3    0    1
 -2      1719      1718      2449      2901
 -1      6174    3    0    1
 -2      2330       862      2641      2922
 -1      6175    3    0    1
 -2      1108      2722      2555      3044
 -1      6176    3    0    1
 -2      2010      2002      1991      2449
 -1      6177    3    0    1
 -2       288       291      2320      2434
 -1      6178    3    0    1
 -2       673      2378       665      2565
 -1      6179    3    0    1
 -2      2469      2541      2453      3027
 -1      6180    3    0    1
 -2      1152      2360      3022      3038
 -1      6181    3    0    1
 -2      1049      2368       722      2423
 -1      6182    3    0    1
 -2      2223      2727      2391      2807
 -1      6183    3    0    1
 -2      1468      2619      2342      2631
 -1      6184    3    0    1
 -2      2315      2778      2654      2895
 -1      6185    3    0    1
 -2      2533      2690      2706      2774
 -1      6186    3    0    1
 -2      2333      1619      2569      3047
 -1      6187    3    0    1
 -2       602       434       452      2449
 -1      6188    3    0    1
 -2      1987      2602      2594      2823
 -1      6189    3    0    1
 -2      1315      2481      1321      2786
 -1      6190    3    0    1
 -2      2562      2662      2259      2983
 -1      6191    3    0    1
 -2      2440      2680      2277      2892
 -1      6192    3    0    1
 -2      2236      2804      2477      2831
 -1      6193    3    0    1
 -2       171      2564      2394      2924
 -1      6194    3    0    1
 -2       368      1871      2344      2752
 -1      6195    3    0    1
 -2       604       497       602      2751
 -1      6196    3    0    1
 -2      2494      2674       264      2706
 -1      6197    3    0    1
 -2       635      1433      2402      2984
 -1      6198    3    0    1
 -2      2408      2691      1893      3031
 -1      6199    3    0    1
 -2      1244      2384      1246      2445
 -1      6200    3    0    1
 -2      1863      2724      2637      2752
 -1      6201    3    0    1
 -2      2443      2819      2671      2847
 -1      6202    3    0    1
 -2      1856      1857      2478      2801
 -1      6203    3    0    1
 -2      2330      2871      2650      3015
 -1      6204    3    0    1
 -2      2384      2415      2268      2727
 -1      6205    3    0    1
 -2      1376      2341      1500      2861
 -1      6206    3    0    1
 -2      2236      3020      2974      3025
 -1      6207    3    0    1
 -2      2508      2738      2313      2820
 -1      6208    3    0    1
 -2      2383      2442      2281      2519
 -1      6209    3    0    1
 -2      2360      2796      2402      2984
 -1      6210    3    0    1
 -2      1422      2566      1427      2600
 -1      6211    3    0    1
 -2      2418      2650      2330      2871
 -1      6212    3    0    1
 -2      2310      2462      2449      2751
 -1      6213    3    0    1
 -2      2352      1177      2677      2893
 -1      6214    3    0    1
 -2      2330      2571      2871      3015
 -1      6215    3    0    1
 -2       109       112       107      2697
 -1      6216    3    0    1
 -2      2020      2324      2609      2997
 -1      6217    3    0    1
 -2      2233      2416      2359      2462
 -1      6218    3    0    1
 -2      2466      2499      2240      2778
 -1      6219    3    0    1
 -2      2232      2404      2383      2426
 -1      6220    3    0    1
 -2      2325      2714      2496      2723
 -1      6221    3    0    1
 -2      2533      2297      2699      2774
 -1      6222    3    0    1
 -2      1044      1045      2511      2782
 -1      6223    3    0    1
 -2      2624      2689       448      2926
 -1      6224    3    0    1
 -2      2371      2708      2228      2973
 -1      6225    3    0    1
 -2       735      2444       731      2760
 -1      6226    3    0    1
 -2      1403      2483      1411      2899
 -1      6227    3    0    1
 -2      2453      2541       803      3027
 -1      6228    3    0    1
 -2      2370      2542      2485      2877
 -1      6229    3    0    1
 -2       177      2564      2304      2729
 -1      6230    3    0    1
 -2       906      2889      2312      2976
 -1      6231    3    0    1
 -2      2571      2856      2330      2871
 -1      6232    3    0    1
 -2      1413      2375      1422      2600
 -1      6233    3    0    1
 -2       642      2672      2483      3018
 -1      6234    3    0    1
 -2      2472      2560      2239      2698
 -1      6235    3    0    1
 -2      1681      2334      1684      2659
 -1      6236    3    0    1
 -2      2234      2406      2476      2819
 -1      6237    3    0    1
 -2      2102      2100      2106      2348
 -1      6238    3    0    1
 -2      2314      2694      2386      2917
 -1      6239    3    0    1
 -2      1561      1517      1508      2647
 -1      6240    3    0    1
 -2       235      2642       230      2929
 -1      6241    3    0    1
 -2      1386      1380      1384        40
 -1      6242    3    0    1
 -2      2400      2248      2646      2822
 -1      6243    3    0    1
 -2      1633       910      1684      2334
 -1      6244    3    0    1
 -2      2292      2479      2606      2644
 -1      6245    3    0    1
 -2      2234      2389      2902      3048
 -1      6246    3    0    1
 -2      2025      2563      2429      2816
 -1      6247    3    0    1
 -2      2470      2771       684      3016
 -1      6248    3    0    1
 -2      2325      2539      1526      2949
 -1      6249    3    0    1
 -2      1278      1276      1273      2417
 -1      6250    3    0    1
 -2      1959      1952      2450      2696
 -1      6251    3    0    1
 -2      2222      2548      2646      3041
 -1      6252    3    0    1
 -2      1187      2538      1183      2750
 -1      6253    3    0    1
 -2      1238      2333      2569      2937
 -1      6254    3    0    1
 -2       318      2515      2572      2741
 -1      6255    3    0    1
 -2      2461      2811      2518      3046
 -1      6256    3    0    1
 -2      2563      2735      2429      2933
 -1      6257    3    0    1
 -2      1041      1042      1037      2423
 -1      6258    3    0    1
 -2      2255      2874      2774      2982
 -1      6259    3    0    1
 -2      2383      2426      2404      2510
 -1      6260    3    0    1
 -2      2405      2522      2422      2792
 -1      6261    3    0    1
 -2      2069      2072      2447      2935
 -1      6262    3    0    1
 -2       842      2546       846      2641
 -1      6263    3    0    1
 -2      2411      2453       798      3027
 -1      6264    3    0    1
 -2      2352      2819      2406      2841
 -1      6265    3    0    1
 -2      2404      2731      2397      2759
 -1      6266    3    0    1
 -2       631      2550      2870      2984
 -1      6267    3    0    1
 -2      2514      2591      2303      2720
 -1      6268    3    0    1
 -2       632       631      1442      2870
 -1      6269    3    0    1
 -2      1040      2357      2038      2782
 -1      6270    3    0    1
 -2      1879      2691      1881      2692
 -1      6271    3    0    1
 -2      2364      2544      1975      2990
 -1      6272    3    0    1
 -2       642      2483      2672      2673
 -1      6273    3    0    1
 -2      2443      2615      2439      2938
 -1      6274    3    0    1
 -2      2463      2642      2473      3028
 -1      6275    3    0    1
 -2      1333      2582      2328      2932
 -1      6276    3    0    1
 -2      2151      2177      1209      2842
 -1      6277    3    0    1
 -2      2496      2714      2256      2723
 -1      6278    3    0    1
 -2       936      2363      2659      2989
 -1      6279    3    0    1
 -2      1269       169      1264      2362
 -1      6280    3    0    1
 -2      1828      2563      1833      2930
 -1      6281    3    0    1
 -2      2256      2477      2355      2831
 -1      6282    3    0    1
 -2      2285      2424      2637      2885
 -1      6283    3    0    1
 -2      2442      2660      2281      2821
 -1      6284    3    0    1
 -2      2553      2257      2823      2978
 -1      6285    3    0    1
 -2      2276      2809      2505      3030
 -1      6286    3    0    1
 -2      1562       763      1560      2715
 -1      6287    3    0    1
 -2      1425      1494      1433      2672
 -1      6288    3    0    1
 -2      2362       168      2564      2898
 -1      6289    3    0    1
 -2      2275      2392      2500      2879
 -1      6290    3    0    1
 -2      2241      2504      2654      2873
 -1      6291    3    0    1
 -2       704       707      2380      2880
 -1      6292    3    0    1
 -2      2254      2557      2443      2841
 -1      6293    3    0    1
 -2      2328      2567      2582      2779
 -1      6294    3    0    1
 -2      1742      2338       563      2903
 -1      6295    3    0    1
 -2      1274      2665      1270      2992
 -1      6296    3    0    1
 -2      2363      2659      2952      3014
 -1      6297    3    0    1
 -2      2378      2565       673      2583
 -1      6298    3    0    1
 -2      1289      1290      2554      2703
 -1      6299    3    0    1
 -2      1213      2549      1047      2742
 -1      6300    3    0    1
 -2       741      2331       742      2575
 -1      6301    3    0    1
 -2      2282      2560      2415      2761
 -1      6302    3    0    1
 -2      2377      2241      2774      3015
 -1      6303    3    0    1
 -2      1593      1592      2301      2681
 -1      6304    3    0    1
 -2      2540      2574      1404      2813
 -1      6305    3    0    1
 -2      2358      2595      1781      2689
 -1      6306    3    0    1
 -2      2455      2490      2257      2920
 -1      6307    3    0    1
 -2      2045      2711      2511      2782
 -1      6308    3    0    1
 -2      2355      2477      2804      2831
 -1      6309    3    0    1
 -2      2453      2479      2301      2667
 -1      6310    3    0    1
 -2      2198      2518      2461      2811
 -1      6311    3    0    1
 -2      1172      2538      2352      2909
 -1      6312    3    0    1
 -2       679       681       677      2771
 -1      6313    3    0    1
 -2       522        36      2574      2781
 -1      6314    3    0    1
 -2      2103      1760      1758      2512
 -1      6315    3    0    1
 -2      1368      2519      2442      2707
 -1      6316    3    0    1
 -2       631      2550      1442      2870
 -1      6317    3    0    1
 -2      2386      2788      2434      2832
 -1      6318    3    0    1
 -2       664      1502      2378      2806
 -1      6319    3    0    1
 -2      1479      1471      1478      2921
 -1      6320    3    0    1
 -2      2081      2080      2570      2731
 -1      6321    3    0    1
 -2      2392      2500       772      2966
 -1      6322    3    0    1
 -2      2244      2437      2312      2763
 -1      6323    3    0    1
 -2      2319      2349      2584      2846
 -1      6324    3    0    1
 -2       765      2601       768      2966
 -1      6325    3    0    1
 -2       334      2649      2553      2978
 -1      6326    3    0    1
 -2       765      2431       759      2715
 -1      6327    3    0    1
 -2       118      2579      2520      2946
 -1      6328    3    0    1
 -2      2293      2894      2799      2914
 -1      6329    3    0    1
 -2      2147      1183      2538      2662
 -1      6330    3    0    1
 -2       776       777      2493      2828
 -1      6331    3    0    1
 -2      1272      1269      2362      2665
 -1      6332    3    0    1
 -2       604      2462      2449      2739
 -1      6333    3    0    1
 -2       114       413       121      2946
 -1      6334    3    0    1
 -2      1574      2329      1575      2482
 -1      6335    3    0    1
 -2      2405      2422      2311      2792
 -1      6336    3    0    1
 -2      2373      2620      2227      2825
 -1      6337    3    0    1
 -2      2332      2435      2393      2866
 -1      6338    3    0    1
 -2       910       950      2460      2509
 -1      6339    3    0    1
 -2      1147      1155      1152      3038
 -1      6340    3    0    1
 -2       447      2624       448      2926
 -1      6341    3    0    1
 -2      1891      1898      1897      2691
 -1      6342    3    0    1
 -2      1408      1415      2540      2600
 -1      6343    3    0    1
 -2      2386      2694      2471      2917
 -1      6344    3    0    1
 -2      2386      2832      2515      2953
 -1      6345    3    0    1
 -2       211       206       215      2339
 -1      6346    3    0    1
 -2      2342      2299      2636      2896
 -1      6347    3    0    1
 -2      2065      2447      2067      2526
 -1      6348    3    0    1
 -2      1541      1543       737      2517
 -1      6349    3    0    1
 -2      2385      2634      2501      3016
 -1      6350    3    0    1
 -2      1392      2343      1386      2645
 -1      6351    3    0    1
 -2      1570      1571      2329      2451
 -1      6352    3    0    1
 -2      2293      2721      2648      2950
 -1      6353    3    0    1
 -2      1254      2754       393      2855
 -1      6354    3    0    1
 -2       955      2460      2425      2875
 -1      6355    3    0    1
 -2      2506      2569      2333      2937
 -1      6356    3    0    1
 -2      1413      2600      1415      2626
 -1      6357    3    0    1
 -2      1443      1439      1436      2733
 -1      6358    3    0    1
 -2      1457      2757      2270      2798
 -1      6359    3    0    1
 -2      2113      2180      2094      2739
 -1      6360    3    0    1
 -2      2274      2900      2414      3042
 -1      6361    3    0    1
 -2      2319      2584      2349      2719
 -1      6362    3    0    1
 -2      2247      2473      2463      2642
 -1      6363    3    0    1
 -2      2339      2415      2384      2727
 -1      6364    3    0    1
 -2      2333      2642      2506      2937
 -1      6365    3    0    1
 -2      1558      1565      1562      2493
 -1      6366    3    0    1
 -2      1069      2022      2549      2652
 -1      6367    3    0    1
 -2       896      2370      2542      2993
 -1      6368    3    0    1
 -2      2193      2196       119      2978
 -1      6369    3    0    1
 -2      2231      2419      2381      2960
 -1      6370    3    0    1
 -2      2463      2473      2294      3028
 -1      6371    3    0    1
 -2      2360      2402      2657      2984
 -1      6372    3    0    1
 -2      2223      2635      2391      2667
 -1      6373    3    0    1
 -2        93        97      1310        98
 -1      6374    3    0    1
 -2      2440      2753      2601      2995
 -1      6375    3    0    1
 -2       820      2458       829      2766
 -1      6376    3    0    1
 -2      1677      1671      1670      2659
 -1      6377    3    0    1
 -2      2544      2552      1965      2889
 -1      6378    3    0    1
 -2      2243      2386      2515      2694
 -1      6379    3    0    1
 -2      2358      2604       459      2897
 -1      6380    3    0    1
 -2      2268      2384      2505      2607
 -1      6381    3    0    1
 -2      2286      2659      1670      2942
 -1      6382    3    0    1
 -2      2287      2375      2657      2884
 -1      6383    3    0    1
 -2      1424      2402      2566      2884
 -1      6384    3    0    1
 -2      1363      1502      2378      2565
 -1      6385    3    0    1
 -2      2183      2185      2901      2923
 -1      6386    3    0    1
 -2      1781      2358      1779      2595
 -1      6387    3    0    1
 -2      2058      2468      2061      2487
 -1      6388    3    0    1
 -2      2349      2584      1906      2719
 -1      6389    3    0    1
 -2      2407      2857      2379      2868
 -1      6390    3    0    1
 -2      2411      2479      1583      2681
 -1      6391    3    0    1
 -2       496      2510      2383      2556
 -1      6392    3    0    1
 -2       314      1967      1966      2459
 -1      6393    3    0    1
 -2      2251      2484      2413      2713
 -1      6394    3    0    1
 -2      2372      2868      2630      2907
 -1      6395    3    0    1
 -2      1650      2778      1651      2895
 -1      6396    3    0    1
 -2       844      2467       840      2625
 -1      6397    3    0    1
 -2      1033      2038      2357      2700
 -1      6398    3    0    1
 -2      2138      2144      2527      3033
 -1      6399    3    0    1
 -2      2317      2715       758      3007
 -1      6400    3    0    1
 -2      2380      2634       704      2880
 -1      6401    3    0    1
 -2      2408      2584      2319      2829
 -1      6402    3    0    1
 -2      1246      1244      1604      2384
 -1      6403    3    0    1
 -2      2036      2357      2038      2700
 -1      6404    3    0    1
 -2      2284      2371      2370      2568
 -1      6405    3    0    1
 -2      2308      2670      2427      3025
 -1      6406    3    0    1
 -2      2690      2699      2377      2774
 -1      6407    3    0    1
 -2      1733      1732      2307      2852
 -1      6408    3    0    1
 -2      2293      2598      2070      2799
 -1      6409    3    0    1
 -2      2288      2507      2348      2627
 -1      6410    3    0    1
 -2      2370      2371      2312      2568
 -1      6411    3    0    1
 -2      1856      1854      1849      2801
 -1      6412    3    0    1
 -2      2028      2429      2563      2735
 -1      6413    3    0    1
 -2      2486      2290      2908      3026
 -1      6414    3    0    1
 -2      2381      2412      2288      2835
 -1      6415    3    0    1
 -2      1372      2442      1369      2707
 -1      6416    3    0    1
 -2      2331      2578       746      2780
 -1      6417    3    0    1
 -2      2460      2461      2237      2509
 -1      6418    3    0    1
 -2      2259      2538      2406      2936
 -1      6419    3    0    1
 -2       257      2585       256      2817
 -1      6420    3    0    1
 -2      1803      1804      2346      2484
 -1      6421    3    0    1
 -2      2266      2423      2357      2974
 -1      6422    3    0    1
 -2      2350      2261      2412      2626
 -1      6423    3    0    1
 -2      1471      1479      2859      2921
 -1      6424    3    0    1
 -2      2467      2607      2458      2625
 -1      6425    3    0    1
 -2       447      2398        91      2624
 -1      6426    3    0    1
 -2       604      2449       538      2739
 -1      6427    3    0    1
 -2      2156      2159      2155      2379
 -1      6428    3    0    1
 -2       122      1288      1291      2554
 -1      6429    3    0    1
 -2      2361      2874      2499      2982
 -1      6430    3    0    1
 -2      2280      2601      2440      2753
 -1      6431    3    0    1
 -2      2362      2729      1266      2878
 -1      6432    3    0    1
 -2      2370      2485      2284      2877
 -1      6433    3    0    1
 -2      2238      2541      2469      2885
 -1      6434    3    0    1
 -2      1487      1490      1480      2921
 -1      6435    3    0    1
 -2      1270      1272      2362      2665
 -1      6436    3    0    1
 -2      1984      2802      2613      2957
 -1      6437    3    0    1
 -2      2249      3005      2581      3037
 -1      6438    3    0    1
 -2      1934      2611      1928      2851
 -1      6439    3    0    1
 -2       146      2756      2417      2915
 -1      6440    3    0    1
 -2      1282      2417      1279      2669
 -1      6441    3    0    1
 -2      2330      2650      2418      2994
 -1      6442    3    0    1
 -2      2481      2786      2316      2887
 -1      6443    3    0    1
 -2      2045      2711      2782      3003
 -1      6444    3    0    1
 -2      1227       264      2494      2674
 -1      6445    3    0    1
 -2      2383      2442      2246      2610
 -1      6446    3    0    1
 -2      1972      2364      1974      2737
 -1      6447    3    0    1
 -2        27        29      2540      2853
 -1      6448    3    0    1
 -2      2240      2874      2499      2890
 -1      6449    3    0    1
 -2      1760      2335      1761      3036
 -1      6450    3    0    1
 -2       524       526      2305      2704
 -1      6451    3    0    1
 -2      1444      2351      1445      2797
 -1      6452    3    0    1
 -2       879      1638      2421      2800
 -1      6453    3    0    1
 -2      1403      1411      2483      2673
 -1      6454    3    0    1
 -2      2548      2758      2646      3041
 -1      6455    3    0    1
 -2       230      2642       235      2937
 -1      6456    3    0    1
 -2      2266      2831      2423      2974
 -1      6457    3    0    1
 -2      2316      2398      2354      2744
 -1      6458    3    0    1
 -2      1585      1582      1256      2479
 -1      6459    3    0    1
 -2      2412      2835      2287      2931
 -1      6460    3    0    1
 -2       845       848       856      2382
 -1      6461    3    0    1
 -2      1708      1719      2310      2901
 -1      6462    3    0    1
 -2      1802      2834      2346      2883
 -1      6463    3    0    1
 -2      2244      2543      2364      2628
 -1      6464    3    0    1
 -2      2799      2894      1080      2914
 -1      6465    3    0    1
 -2      2298      2458      2391      2766
 -1      6466    3    0    1
 -2      2207      2201      2311      2534
 -1      6467    3    0    1
 -2      2237      2518      2425      2920
 -1      6468    3    0    1
 -2      2264      2563      2783      2933
 -1      6469    3    0    1
 -2       517       521       524      2432
 -1      6470    3    0    1
 -2      2345      2447      2224      2721
 -1      6471    3    0    1
 -2      2244      2471      2492      2793
 -1      6472    3    0    1
 -2       211      2339       215      2445
 -1      6473    3    0    1
 -2      1368      1364      2442      2519
 -1      6474    3    0    1
 -2      2303      2530      2523      2765
 -1      6475    3    0    1
 -2      2318      2489       376      2924
 -1      6476    3    0    1
 -2      2313      2450      2371      2869
 -1      6477    3    0    1
 -2      2283      2559      2344      2752
 -1      6478    3    0    1
 -2      2243      2471      2386      2694
 -1      6479    3    0    1
 -2      1167      2677      2557      2909
 -1      6480    3    0    1
 -2      2357      2423      2266      2782
 -1      6481    3    0    1
 -2       836       845       841      2467
 -1      6482    3    0    1
 -2       559      2399      2439      2999
 -1      6483    3    0    1
 -2       653      2861      2419      2913
 -1      6484    3    0    1
 -2      2394      2810      2756      2898
 -1      6485    3    0    1
 -2      2515      2531       308      2832
 -1      6486    3    0    1
 -2       583       588       582      2532
 -1      6487    3    0    1
 -2      2362      2564      2394      2898
 -1      6488    3    0    1
 -2       635       632      1433      2984
 -1      6489    3    0    1
 -2      2264      2340      2441      2900
 -1      6490    3    0    1
 -2      2369      2520      2295      2749
 -1      6491    3    0    1
 -2      2400      2582      2354      2830
 -1      6492    3    0    1
 -2      1841      1836      2618      2710
 -1      6493    3    0    1
 -2      2327      2573      2525      2604
 -1      6494    3    0    1
 -2      1390      2645      2498      2986
 -1      6495    3    0    1
 -2       664       673       665      2565
 -1      6496    3    0    1
 -2        38        41        40      2916
 -1      6497    3    0    1
 -2      2303        65      2591      2939
 -1      6498    3    0    1
 -2      2229      2473      2409      3035
 -1      6499    3    0    1
 -2      2038      2036      2039      2357
 -1      6500    3    0    1
 -2      1894      1889      2472      2621
 -1      6501    3    0    1
 -2       803      2453       804      2541
 -1      6502    3    0    1
 -2      1975      2364      1977      2544
 -1      6503    3    0    1
 -2      1761      2404      1763      2510
 -1      6504    3    0    1
 -2      1848      2376      1842      2618
 -1      6505    3    0    1
 -2      1637      2650      1231      2674
 -1      6506    3    0    1
 -2      2653      2705      2289      3017
 -1      6507    3    0    1
 -2      1692      1599      1690      2522
 -1      6508    3    0    1
 -2      1718      2066      2449      2901
 -1      6509    3    0    1
 -2      2398      2646      2222      3010
 -1      6510    3    0    1
 -2      2645      2808      2350      2813
 -1      6511    3    0    1
 -2       722      2423      2368      2723
 -1      6512    3    0    1
 -2      1053      1050      2511      2872
 -1      6513    3    0    1
 -2      2424      2283      2637      2885
 -1      6514    3    0    1
 -2      1868      2004      1873      2948
 -1      6515    3    0    1
 -2      1704      1727      2751      2945
 -1      6516    3    0    1
 -2      2463      2473      2247      2698
 -1      6517    3    0    1
 -2       777      2392       772      2601
 -1      6518    3    0    1
 -2      2409      2473      2642      3028
 -1      6519    3    0    1
 -2      2533      2690       256      2738
 -1      6520    3    0    1
 -2      1854      2318      1856      2724
 -1      6521    3    0    1
 -2      2409      2642      2473      2809
 -1      6522    3    0    1
 -2      2114      2119      2617      2734
 -1      6523    3    0    1
 -2      2253      2331      2575      2702
 -1      6524    3    0    1
 -2      1738       596      2687      2730
 -1      6525    3    0    1
 -2      2039      2676      2357      3008
 -1      6526    3    0    1
 -2      1153      2360      1154      2796
 -1      6527    3    0    1
 -2      2075      2293      2070      2570
 -1      6528    3    0    1
 -2      2533      2706      2690      2738
 -1      6529    3    0    1
 -2      1961      1958      2367      2459
 -1      6530    3    0    1
 -2      2339      2463      2282      2767
 -1      6531    3    0    1
 -2      1385      2576      2498      2645
 -1      6532    3    0    1
 -2      2229      2699      2409      2871
 -1      6533    3    0    1
 -2      1877      2344      1875      2692
 -1      6534    3    0    1
 -2      2540      2574      2261      2770
 -1      6535    3    0    1
 -2      1487      2636      1481      2965
 -1      6536    3    0    1
 -2      2360      2657      2557      2984
 -1      6537    3    0    1
 -2      2278      2561      2521      3029
 -1      6538    3    0    1
 -2      1272      1266      1270      2362
 -1      6539    3    0    1
 -2      2452      2524      2295      2537
 -1      6540    3    0    1
 -2      1405      2540        32      2574
 -1      6541    3    0    1
 -2      2080      2078      1771      2570
 -1      6542    3    0    1
 -2       168       167      2362      2564
 -1      6543    3    0    1
 -2      1249      2886      2535      2918
 -1      6544    3    0    1
 -2      2548      2646      2248      2822
 -1      6545    3    0    1
 -2      2300      2656      1883      2848
 -1      6546    3    0    1
 -2      2655      2809      2276      2856
 -1      6547    3    0    1
 -2      1564      2679      1559      2680
 -1      6548    3    0    1
 -2      2383      2519      2281      2732
 -1      6549    3    0    1
 -2      1907      1995      2588      2829
 -1      6550    3    0    1
 -2      1681      1677      2436      2659
 -1      6551    3    0    1
 -2       149      2414       140      3042
 -1      6552    3    0    1
 -2      1779      2595      2358      2935
 -1      6553    3    0    1
 -2       139       146       133      2818
 -1      6554    3    0    1
 -2      1385      1386      2343      2645
 -1      6555    3    0    1
 -2      2313      2632      2395      2738
 -1      6556    3    0    1
 -2      2309      2464      2403      2919
 -1      6557    3    0    1
 -2       431       440      1796       439
 -1      6558    3    0    1
 -2      2258      2420      2326      2572
 -1      6559    3    0    1
 -2      2446      2612      2267      2876
 -1      6560    3    0    1
 -2       286      2789      2313      2864
 -1      6561    3    0    1
 -2       789       790       782      2469
 -1      6562    3    0    1
 -2      2297      2706      2533      2929
 -1      6563    3    0    1
 -2      2251      2413      2484      2638
 -1      6564    3    0    1
 -2       726      2423       721      2614
 -1      6565    3    0    1
 -2       820      2391       824      2458
 -1      6566    3    0    1
 -2      1995       972      2588      2829
 -1      6567    3    0    1
 -2      2490      2594      2257      2920
 -1      6568    3    0    1
 -2      2353      2769       534      2770
 -1      6569    3    0    1
 -2      2325      2714      2723      2880
 -1      6570    3    0    1
 -2      2266      2701      2366      2711
 -1      6571    3    0    1
 -2      1068      1213      1216      2652
 -1      6572    3    0    1
 -2      2304      2651       177      2729
 -1      6573    3    0    1
 -2      2234      2399      2902      2938
 -1      6574    3    0    1
 -2      2409      2294      2473      3028
 -1      6575    3    0    1
 -2      1491      2919      2403      2921
 -1      6576    3    0    1
 -2        84      2354        88      2744
 -1      6577    3    0    1
 -2       631      2870       632      2984
 -1      6578    3    0    1
 -2        91      2624      2398      2814
 -1      6579    3    0    1
 -2      2411      2479      2238      2482
 -1      6580    3    0    1
 -2      2230      2694      2551      2712
 -1      6581    3    0    1
 -2      2306      2735      2933      2996
 -1      6582    3    0    1
 -2      1021      1069      2022      2549
 -1      6583    3    0    1
 -2      2268      2607      2458      2807
 -1      6584    3    0    1
 -2      2409      2871      2699      2929
 -1      6585    3    0    1
 -2      2349      2655      2319      2985
 -1      6586    3    0    1
 -2      2232      2442      2383      2610
 -1      6587    3    0    1
 -2      1796       439       440      2926
 -1      6588    3    0    1
 -2       423      2834      1802      2883
 -1      6589    3    0    1
 -2       389      1841       386      2396
 -1      6590    3    0    1
 -2      2317      2736      2578      2865
 -1      6591    3    0    1
 -2      1796      2413       431      2926
 -1      6592    3    0    1
 -2      1319      2852      2307      2911
 -1      6593    3    0    1
 -2      2058      2056      2055      2468
 -1      6594    3    0    1
 -2      1471      1472      2475      2859
 -1      6595    3    0    1
 -2      2274      2438      2340      2710
 -1      6596    3    0    1
 -2      1044      1045      2047      2511
 -1      6597    3    0    1
 -2      1731      2503      1727      2545
 -1      6598    3    0    1
 -2      1966      1973       314      2745
 -1      6599    3    0    1
 -2      1264      2362       169      2729
 -1      6600    3    0    1
 -2      1316      1323      2744      2887
 -1      6601    3    0    1
 -2      1743      2476      2663      3033
 -1      6602    3    0    1
 -2       863       858      1623      2800
 -1      6603    3    0    1
 -2      2047      2511      2048      2711
 -1      6604    3    0    1
 -2      2369      2804      2787      2912
 -1      6605    3    0    1
 -2      2367      2314      2717      2745
 -1      6606    3    0    1
 -2      2469      2845       789      3027
 -1      6607    3    0    1
 -2      1651      1658       907      2497
 -1      6608    3    0    1
 -2      2538      2662      1183      2750
 -1      6609    3    0    1
 -2      1593      2301      1592      2616
 -1      6610    3    0    1
 -2      1246      2535      2428      2918
 -1      6611    3    0    1
 -2      2349      2577      1903      3013
 -1      6612    3    0    1
 -2       955      2425       952      2875
 -1      6613    3    0    1
 -2      2319      2655      2349      2846
 -1      6614    3    0    1
 -2      2285      2401      2948      3034
 -1      6615    3    0    1
 -2      1163      1214      2561      3029
 -1      6616    3    0    1
 -2      2322      2689      2624      2926
 -1      6617    3    0    1
 -2      1988      2594      2300      2848
 -1      6618    3    0    1
 -2      2469      2482      2329      2845
 -1      6619    3    0    1
 -2      2325      2822      2539      2906
 -1      6620    3    0    1
 -2      2028      2563      1824      2735
 -1      6621    3    0    1
 -2      2326      2572      2515      2741
 -1      6622    3    0    1
 -2      1894      2472      1896      2621
 -1      6623    3    0    1
 -2      2229      2571      2856      2985
 -1      6624    3    0    1
 -2      1680      1689      1684      2803
 -1      6625    3    0    1
 -2       325      2420       335      2812
 -1      6626    3    0    1
 -2      1910      1986      2454      2594
 -1      6627    3    0    1
 -2      2466      2492      2243      2793
 -1      6628    3    0    1
 -2      1384      1385      1386      2576
 -1      6629    3    0    1
 -2      1645      2361      2499      2654
 -1      6630    3    0    1
 -2       872       868       877      3006
 -1      6631    3    0    1
 -2      1307      2452       102      2697
 -1      6632    3    0    1
 -2      1558      2493      1562      2715
 -1      6633    3    0    1
 -2      2285      2480      2664      2705
 -1      6634    3    0    1
 -2      1376      1372      1369      2707
 -1      6635    3    0    1
 -2      2754      2855      1254      2945
 -1      6636    3    0    1
 -2      1854      2587      1855      2925
 -1      6637    3    0    1
 -2      1794        70        19        57
 -1      6638    3    0    1
 -2      1956      1953      1954      2962
 -1      6639    3    0    1
 -2      1269       169       166      1264
 -1      6640    3    0    1
 -2      2429      2780      1024      2816
 -1      6641    3    0    1
 -2      2102      2106      2104      2979
 -1      6642    3    0    1
 -2      1791      1786      1789      2322
 -1      6643    3    0    1
 -2      2343      2498      2246      2576
 -1      6644    3    0    1
 -2      2668      2764      2275      2995
 -1      6645    3    0    1
 -2      2264      2441      2340      2488
 -1      6646    3    0    1
 -2      2274      2376      2396      2716
 -1      6647    3    0    1
 -2       903      2497      2726      2895
 -1      6648    3    0    1
 -2      1174      2142      1180      2538
 -1      6649    3    0    1
 -2      2368      2714      2380      2880
 -1      6650    3    0    1
 -2       418      2883      2946      2969
 -1      6651    3    0    1
 -2      2229      2409      2473      2809
 -1      6652    3    0    1
 -2      2386      2471      2367      2917
 -1      6653    3    0    1
 -2      2364      1975      2613      2990
 -1      6654    3    0    1
 -2      2249      2555      2397      2610
 -1      6655    3    0    1
 -2      1366      1361      2378      2821
 -1      6656    3    0    1
 -2      1680      1684      1681      2803
 -1      6657    3    0    1
 -2      2590      2591      2281      2849
 -1      6658    3    0    1
 -2      2523      2779      2765      2941
 -1      6659    3    0    1
 -2      1670      1674      1677      2436
 -1      6660    3    0    1
 -2      2377      2774      2699      3015
 -1      6661    3    0    1
 -2      1871      1878       368      2693
 -1      6662    3    0    1
 -2      1708      2310      1719      2928
 -1      6663    3    0    1
 -2      2287      2657      2402      2884
 -1      6664    3    0    1
 -2       605      2416      2403      2854
 -1      6665    3    0    1
 -2       256      2706      2533      2738
 -1      6666    3    0    1
 -2      2312      2371      2708      2962
 -1      6667    3    0    1
 -2      2406      2538      2352      2936
 -1      6668    3    0    1
 -2      2285      2664      2480      2948
 -1      6669    3    0    1
 -2      2359      2462      2416      2739
 -1      6670    3    0    1
 -2      2263      2514      2591      2660
 -1      6671    3    0    1
 -2      2272      2548      2528      2567
 -1      6672    3    0    1
 -2      2400      2248      2582      2830
 -1      6673    3    0    1
 -2       740      2517      2433      2760
 -1      6674    3    0    1
 -2      2641      2800      2330      2994
 -1      6675    3    0    1
 -2      2478      2716      2376      2879
 -1      6676    3    0    1
 -2      1817      2735      1824      2930
 -1      6677    3    0    1
 -2      2224      2327      2720      2805
 -1      6678    3    0    1
 -2      2329      2451      1571      2878
 -1      6679    3    0    1
 -2       194       193      2292      2886
 -1      6680    3    0    1
 -2      2377      2571      2699      2985
 -1      6681    3    0    1
 -2      2440      2601      2275      2995
 -1      6682    3    0    1
 -2      2207      2208      2200      2534
 -1      6683    3    0    1
 -2      2114      2617      2112      2627
 -1      6684    3    0    1
 -2      2227      2438      2783      2900
 -1      6685    3    0    1
 -2      2275      2879      2668      2995
 -1      6686    3    0    1
 -2       269       254       262      2706
 -1      6687    3    0    1
 -2      2265      2699      2533      3035
 -1      6688    3    0    1
 -2      2077      2082      2079      2388
 -1      6689    3    0    1
 -2      2028      2429      2025      2563
 -1      6690    3    0    1
 -2       677      1092      2565      2583
 -1      6691    3    0    1
 -2       656      2341       655      2806
 -1      6692    3    0    1
 -2      2463      2294      2473      2698
 -1      6693    3    0    1
 -2      2078      2075      2570      2598
 -1      6694    3    0    1
 -2      1239      1238      1619      2569
 -1      6695    3    0    1
 -2      1391      1390      1383      2498
 -1      6696    3    0    1
 -2      2243      2694      2326      2772
 -1      6697    3    0    1
 -2       177       172      2564      2729
 -1      6698    3    0    1
 -2      1052      2723      2368      2880
 -1      6699    3    0    1
 -2      1202      1196      2842      2850
 -1      6700    3    0    1
 -2      1719      2310      1716      2928
 -1      6701    3    0    1
 -2      2456      2478      2289      2879
 -1      6702    3    0    1
 -2       936      2659      2363      3014
 -1      6703    3    0    1
 -2      2455      2490      2271      3000
 -1      6704    3    0    1
 -2      2048      2511      2045      2711
 -1      6705    3    0    1
 -2      2441      2579      2488      3021
 -1      6706    3    0    1
 -2      2291      2457      2961      3006
 -1      6707    3    0    1
 -2      1178      2596      2538      2750
 -1      6708    3    0    1
 -2      2287      2375      2626      2931
 -1      6709    3    0    1
 -2      2246      2343      2576      2916
 -1      6710    3    0    1
 -2      2034      2031      1811      2967
 -1      6711    3    0    1
 -2      1487      1480      2636      2921
 -1      6712    3    0    1
 -2       848       840       844      2467
 -1      6713    3    0    1
 -2      1394      1386      1392      2574
 -1      6714    3    0    1
 -2      2366      2273      2701      2728
 -1      6715    3    0    1
 -2      2590      2591        65      2939
 -1      6716    3    0    1
 -2      1471      1467      1466      2798
 -1      6717    3    0    1
 -2      2260      2605      2389      2747
 -1      6718    3    0    1
 -2      2382      2856      2571      2985
 -1      6719    3    0    1
 -2      2418      2330      2856      2871
 -1      6720    3    0    1
 -2      2355      2614       727      3043
 -1      6721    3    0    1
 -2      2450      2708      2371      2962
 -1      6722    3    0    1
 -2       491       496      2383      2556
 -1      6723    3    0    1
 -2      2196      2374      2193      2640
 -1      6724    3    0    1
 -2       389      1841      2396      2710
 -1      6725    3    0    1
 -2      1309      2477      2786      2956
 -1      6726    3    0    1
 -2      2303      2591      2590      2939
 -1      6727    3    0    1
 -2       286      2508      2313      2789
 -1      6728    3    0    1
 -2      1651      2497       907      2895
 -1      6729    3    0    1
 -2       177      2729      2651      2971
 -1      6730    3    0    1
 -2      2020      2324      2021      2816
 -1      6731    3    0    1
 -2       805       806      2681      2970
 -1      6732    3    0    1
 -2       790      2469       789      3027
 -1      6733    3    0    1
 -2      1490      1399      2464      2561
 -1      6734    3    0    1
 -2      2229      2409      2809      2871
 -1      6735    3    0    1
 -2      2261      2540      2626      2813
 -1      6736    3    0    1
 -2      2285      2948      2637      3034
 -1      6737    3    0    1
 -2      2420      2553       335      2812
 -1      6738    3    0    1
 -2      1315      1321      1314      2786
 -1      6739    3    0    1
 -2      2520      2703       115      2749
 -1      6740    3    0    1
 -2      1893      2584      2408      2829
 -1      6741    3    0    1
 -2       126      2579      2441      2818
 -1      6742    3    0    1
 -2       469       464      2513      2695
 -1      6743    3    0    1
 -2        99      2524      2452      2599
 -1      6744    3    0    1
 -2      1934      2775      2611      2851
 -1      6745    3    0    1
 -2      2506      2569      1241      2836
 -1      6746    3    0    1
 -2      1683      2326      2827      3045
 -1      6747    3    0    1
 -2      2412      2626      2261      2931
 -1      6748    3    0    1
 -2       786      2469      2541      3017
 -1      6749    3    0    1
 -2      2244      2471      2367      2688
 -1      6750    3    0    1
 -2      2255      2738      2508      2820
 -1      6751    3    0    1
 -2       675       679       677      2565
 -1      6752    3    0    1
 -2      2533      2706      2297      2774
 -1      6753    3    0    1
 -2      1652      2466      1656      2778
 -1      6754    3    0    1
 -2      2224      2385      2950      2951
 -1      6755    3    0    1
 -2      1363      1366      1361      2378
 -1      6756    3    0    1
 -2      2590      2732      2281      2821
 -1      6757    3    0    1
 -2      2497      2778      2726      2895
 -1      6758    3    0    1
 -2       948       952       955      2425
 -1      6759    3    0    1
 -2      2376      2716      2478      2801
 -1      6760    3    0    1
 -2       767      2493       768      2715
 -1      6761    3    0    1
 -2      1543      2433       740      2517
 -1      6762    3    0    1
 -2      2274      2396      2394      2716
 -1      6763    3    0    1
 -2       513       508      2876      2963
 -1      6764    3    0    1
 -2      1615      2994      2546      3030
 -1      6765    3    0    1
 -2      1519      1521      2501      2949
 -1      6766    3    0    1
 -2      2264      2735      2563      2933
 -1      6767    3    0    1
 -2      2394      2396      2274      2810
 -1      6768    3    0    1
 -2       205       197       368      2344
 -1      6769    3    0    1
 -2       571      2094      2687      2739
 -1      6770    3    0    1
 -2      2384      2339      2727      2910
 -1      6771    3    0    1
 -2      2455      2271      2658      3000
 -1      6772    3    0    1
 -2      2499      2874      2320      2890
 -1      6773    3    0    1
 -2      1882      2401      1879      2593
 -1      6774    3    0    1
 -2      2437      2497       911      2709
 -1      6775    3    0    1
 -2       455      2358      1778      2689
 -1      6776    3    0    1
 -2      2296      2338      2439      2663
 -1      6777    3    0    1
 -2      2425      2518      2300      2920
 -1      6778    3    0    1
 -2      2110      2348      2107      2627
 -1      6779    3    0    1
 -2       207      2339      2474      2767
 -1      6780    3    0    1
 -2      1896      2621      2472      3013
 -1      6781    3    0    1
 -2      1278      2417      1273      2992
 -1      6782    3    0    1
 -2      2107      2348      2110      2979
 -1      6783    3    0    1
 -2      1513      1516      1515      2337
 -1      6784    3    0    1
 -2      2505      2607      2625      2773
 -1      6785    3    0    1
 -2      2250      2688      2450      2696
 -1      6786    3    0    1
 -2      2417      2323      2669      2915
 -1      6787    3    0    1
 -2      2533      2706       249      2929
 -1      6788    3    0    1
 -2      1484      2403      1451      2859
 -1      6789    3    0    1
 -2      2308      2427      2579      2860
 -1      6790    3    0    1
 -2      2466      2793      2558      2858
 -1      6791    3    0    1
 -2      2056      2055      2468      2711
 -1      6792    3    0    1
 -2      2035      2036      2038      2700
 -1      6793    3    0    1
 -2      2606      2878      1257      2971
 -1      6794    3    0    1
 -2      2443      2615      2225      2847
 -1      6795    3    0    1
 -2      2441      2579       126      2972
 -1      6796    3    0    1
 -2      2395      2738      2255      2820
 -1      6797    3    0    1
 -2      2700      2996      2033      3008
 -1      6798    3    0    1
 -2      1144      1152      1146      3022
 -1      6799    3    0    1
 -2      2022      2088      2062      2652
 -1      6800    3    0    1
 -2      2206      2311      2640      3046
 -1      6801    3    0    1
 -2      2717      2745      2314      3040
 -1      6802    3    0    1
 -2      2468      2487      2273      2728
 -1      6803    3    0    1
 -2      2307      2503      2390      2742
 -1      6804    3    0    1
 -2      2268      2458      2607      2625
 -1      6805    3    0    1
 -2       139      2414       148      2756
 -1      6806    3    0    1
 -2      2251      2608      2346      2843
 -1      6807    3    0    1
 -2      1447      1439      1443      2733
 -1      6808    3    0    1
 -2      1817      2670      2735      2930
 -1      6809    3    0    1
 -2       535       527      2540      2770
 -1      6810    3    0    1
 -2      1427      2302      2566      2733
 -1      6811    3    0    1
 -2      1599      1600      2927      2934
 -1      6812    3    0    1
 -2      2223      2727      2415      2910
 -1      6813    3    0    1
 -2      1778      1779      1781      2358
 -1      6814    3    0    1
 -2      1614      1241      2569      2836
 -1      6815    3    0    1
 -2      2261      2412      2580      2808
 -1      6816    3    0    1
 -2      1582      2482      1256      2606
 -1      6817    3    0    1
 -2      1882      2691      2298      3031
 -1      6818    3    0    1
 -2      2350      2626      2287      2899
 -1      6819    3    0    1
 -2      2355      2804      2236      2831
 -1      6820    3    0    1
 -2      2291      2571      2377      2985
 -1      6821    3    0    1
 -2       522      2770      2432      2781
 -1      6822    3    0    1
 -2       335      2553      2420      2953
 -1      6823    3    0    1
 -2      2488      2579      2264      3021
 -1      6824    3    0    1
 -2       431      2413      1796      2834
 -1      6825    3    0    1
 -2       409      2579      2488      2972
 -1      6826    3    0    1
 -2       586      2167      2407      2730
 -1      6827    3    0    1
 -2      1529      2496      2481      2888
 -1      6828    3    0    1
 -2      1309      2786      2477      2888
 -1      6829    3    0    1
 -2      1619      2333      1238      3047
 -1      6830    3    0    1
 -2       453      2624      2358      2689
 -1      6831    3    0    1
 -2      1402      2350      1397      2986
 -1      6832    3    0    1
 -2      2329      2482      2469      2718
 -1      6833    3    0    1
 -2       249       254      2586      2706
 -1      6834    3    0    1
 -2      1041      2357      1039      2782
 -1      6835    3    0    1
 -2      2548      2567      2248      2830
 -1      6836    3    0    1
 -2      1385      2343      1386      2576
 -1      6837    3    0    1
 -2      2367      2459      2386      2745
 -1      6838    3    0    1
 -2      1325      1321      1318      2481
 -1      6839    3    0    1
 -2       656      2341       653      2861
 -1      6840    3    0    1
 -2      1804      1806      2883      2967
 -1      6841    3    0    1
 -2       281       286       276      2313
 -1      6842    3    0    1
 -2      1280      1557      2373      2679
 -1      6843    3    0    1
 -2      2295      2524      2410      2843
 -1      6844    3    0    1
 -2      2421      2675       879      2800
 -1      6845    3    0    1
 -2      2233      2491      2359      2882
 -1      6846    3    0    1
 -2      2020      2021      2324      2997
 -1      6847    3    0    1
 -2      1893      1898      2584      2829
 -1      6848    3    0    1
 -2      2121      1750      1748      2704
 -1      6849    3    0    1
 -2      2171      2176      2177      2842
 -1      6850    3    0    1
 -2       335      2420       325      2953
 -1      6851    3    0    1
 -2      1080      2894      2470      2914
 -1      6852    3    0    1
 -2      2135      2131      2132      2905
 -1      6853    3    0    1
 -2      1875      2344      1870      2637
 -1      6854    3    0    1
 -2       273      1227       264      2494
 -1      6855    3    0    1
 -2      2587      2725      2283      2752
 -1      6856    3    0    1
 -2       562      2338       557      2666
 -1      6857    3    0    1
 -2      2276      2505      2625      2773
 -1      6858    3    0    1
 -2       447       442        91      2398
 -1      6859    3    0    1
 -2      2160      2164      2161      2662
 -1      6860    3    0    1
 -2      2249      2335      2512      2581
 -1      6861    3    0    1
 -2      1091      2388      2863      2894
 -1      6862    3    0    1
 -2      1575      2329      1571      2878
 -1      6863    3    0    1
 -2       114      2520      2410      2946
 -1      6864    3    0    1
 -2      2303      2720      2591      2838
 -1      6865    3    0    1
 -2      2380      2768      2728      3002
 -1      6866    3    0    1
 -2       535        29        28      2853
 -1      6867    3    0    1
 -2      2237      2461      2425      2518
 -1      6868    3    0    1
 -2      2296      2476      2338      2663
 -1      6869    3    0    1
 -2      1033      2038      1040      2357
 -1      6870    3    0    1
 -2       872       877      2611      3006
 -1      6871    3    0    1
 -2       664      2378       665      2806
 -1      6872    3    0    1
 -2      2260      2536      2605      2747
 -1      6873    3    0    1
 -2      2412      2683      2580      2808
 -1      6874    3    0    1
 -2      2224      2720      2345      2721
 -1      6875    3    0    1
 -2       463      2327        74      2838
 -1      6876    3    0    1
 -2      2472      2560      2282      2692
 -1      6877    3    0    1
 -2       223       226       220      2506
 -1      6878    3    0    1
 -2      2352      2596      1177      2893
 -1      6879    3    0    1
 -2      2246      2442      2383      2519
 -1      6880    3    0    1
 -2      2285      2664      2541      2705
 -1      6881    3    0    1
 -2      2271      2490      2455      2920
 -1      6882    3    0    1
 -2      1084      2799      2598      2894
 -1      6883    3    0    1
 -2       564       565       573      2399
 -1      6884    3    0    1
 -2       399       401      2904      3042
 -1      6885    3    0    1
 -2      2425      2460       948      2461
 -1      6886    3    0    1
 -2      2243      2515      2326      2694
 -1      6887    3    0    1
 -2      1555      2679      1556      2865
 -1      6888    3    0    1
 -2       348      1991      2002      2449
 -1      6889    3    0    1
 -2      2578      2736      2433      2865
 -1      6890    3    0    1
 -2      2225      2657      2360      2835
 -1      6891    3    0    1
 -2      1174      2136      2142      2685
 -1      6892    3    0    1
 -2      2533      2699      2409      3035
 -1      6893    3    0    1
 -2      1802      1803      2346      2834
 -1      6894    3    0    1
 -2      2400      2887      2481      3010
 -1      6895    3    0    1
 -2      1588      2606      1252      2918
 -1      6896    3    0    1
 -2       878      2421       884      2542
 -1      6897    3    0    1
 -2      2365      2353      2615      2769
 -1      6898    3    0    1
 -2       750      2865      2317      3007
 -1      6899    3    0    1
 -2      2367      2717      2364      2737
 -1      6900    3    0    1
 -2      2251      2524      2843      2969
 -1      6901    3    0    1
 -2      2263      2591      2514      2720
 -1      6902    3    0    1
 -2      1633      1687      1591      2509
 -1      6903    3    0    1
 -2       837      2546       844      2625
 -1      6904    3    0    1
 -2      2299      2630      2475      2896
 -1      6905    3    0    1
 -2      2176      2529      2173      2686
 -1      6906    3    0    1
 -2       211      2445       212      2535
 -1      6907    3    0    1
 -2      2275      2668      2500      2764
 -1      6908    3    0    1
 -2      2249      2722      2495      2815
 -1      6909    3    0    1
 -2      2368      2785      1052      2880
 -1      6910    3    0    1
 -2      2305      2684      2683      2944
 -1      6911    3    0    1
 -2       821       952       948      2425
 -1      6912    3    0    1
 -2      2382      2571      2922      2961
 -1      6913    3    0    1
 -2      1114       653       656      2341
 -1      6914    3    0    1
 -2      1092       673      2565      2583
 -1      6915    3    0    1
 -2      2318      2489      2283      2587
 -1      6916    3    0    1
 -2      1527      2481      2325      2949
 -1      6917    3    0    1
 -2       582      2372       584      3004
 -1      6918    3    0    1
 -2      1245       212      2445      2535
 -1      6919    3    0    1
 -2      2308      2579      2427      3021
 -1      6920    3    0    1
 -2       760      2431      1015      2780
 -1      6921    3    0    1
 -2      1279      2373      2669      2992
 -1      6922    3    0    1
 -2       766      2461      2509      2811
 -1      6923    3    0    1
 -2       794       803      2541      3027
 -1      6924    3    0    1
 -2      2620      2825      2431      2867
 -1      6925    3    0    1
 -2      2683      2684      2267      2944
 -1      6926    3    0    1
 -2      2380      2634      2325      2822
 -1      6927    3    0    1
 -2      1786      2322      1791      2926
 -1      6928    3    0    1
 -2      2239      2458      2607      2807
 -1      6929    3    0    1
 -2      2433      2517      2253      2760
 -1      6930    3    0    1
 -2      2444      2760      2575      3020
 -1      6931    3    0    1
 -2      2203      2204      2198      2518
 -1      6932    3    0    1
 -2      1600      2422      1554      2927
 -1      6933    3    0    1
 -2      1070      2487      2064      2526
 -1      6934    3    0    1
 -2      2549      2742      2390      2928
 -1      6935    3    0    1
 -2       119       141        57      2374
 -1      6936    3    0    1
 -2      2302      2797      2746      2999
 -1      6937    3    0    1
 -2       515       517      2684      2963
 -1      6938    3    0    1
 -2       707      1059      1062      2785
 -1      6939    3    0    1
 -2      1404      2540      1405      2574
 -1      6940    3    0    1
 -2      2523      2765      2530      2941
 -1      6941    3    0    1
 -2       934       933       941      2363
 -1      6942    3    0    1
 -2       655      1500      2806      2861
 -1      6943    3    0    1
 -2      2308      2410      2860      2946
 -1      6944    3    0    1
 -2      2259      2662      2538      2750
 -1      6945    3    0    1
 -2      1582      2411      1580      2482
 -1      6946    3    0    1
 -2      1363      2378      1357      2565
 -1      6947    3    0    1
 -2      2397      2555      2249      3044
 -1      6948    3    0    1
 -2       559       557       553      2439
 -1      6949    3    0    1
 -2       631      2677      2550      2984
 -1      6950    3    0    1
 -2      2338      2234      2439      3048
 -1      6951    3    0    1
 -2      1952      1949      2450      2869
 -1      6952    3    0    1
 -2      2055      1792      2468      2711
 -1      6953    3    0    1
 -2      1833      2618      1837      2710
 -1      6954    3    0    1
 -2      2317      2620      2373      2825
 -1      6955    3    0    1
 -2      2552      2889      2312      2962
 -1      6956    3    0    1
 -2      2316      2354      2646      2887
 -1      6957    3    0    1
 -2      1228      1229       254      2674
 -1      6958    3    0    1
 -2        74        78      2573      2604
 -1      6959    3    0    1
 -2      1527      2400      1325      2481
 -1      6960    3    0    1
 -2      2285      2541      2480      2705
 -1      6961    3    0    1
 -2      2183      2491      2187      2923
 -1      6962    3    0    1
 -2      1588      1586      1252      2606
 -1      6963    3    0    1
 -2      2234      2406      2791      3048
 -1      6964    3    0    1
 -2      2227      2589      2892      2900
 -1      6965    3    0    1
 -2      1424      2566      2402      2870
 -1      6966    3    0    1
 -2      2253      2575      2760      3020
 -1      6967    3    0    1
 -2      2441      2488      2264      3021
 -1      6968    3    0    1
 -2      1021      2005      1019      2549
 -1      6969    3    0    1
 -2      2381      2288      2623      2835
 -1      6970    3    0    1
 -2      2340      2710      1832      2904
 -1      6971    3    0    1
 -2       462       463      2513      2897
 -1      6972    3    0    1
 -2      1889      1887      1885      2693
 -1      6973    3    0    1
 -2       217       218      2621      2767
 -1      6974    3    0    1
 -2      2258      2649      2455      2712
 -1      6975    3    0    1
 -2      2298      2593      1882      3031
 -1      6976    3    0    1
 -2      1516      2501      2337      2779
 -1      6977    3    0    1
 -2       845      2382       856      3024
 -1      6978    3    0    1
 -2      1614      1241      2506      2569
 -1      6979    3    0    1
 -2       778      2392       777      2828
 -1      6980    3    0    1
 -2       156      2756      2810      2898
 -1      6981    3    0    1
 -2       140       149       139      2414
 -1      6982    3    0    1
 -2      1656      2466      2356      2778
 -1      6983    3    0    1
 -2       660      1108      1114      2341
 -1      6984    3    0    1
 -2      2488      2579       409      2891
 -1      6985    3    0    1
 -2      2249      2512      2495      3037
 -1      6986    3    0    1
 -2       168      2394       171      2564
 -1      6987    3    0    1
 -2      2240      2437      2356      2726
 -1      6988    3    0    1
 -2      2505      2268      2607      2773
 -1      6989    3    0    1
 -2       747      1024      1028      2429
 -1      6990    3    0    1
 -2      2376      2764      2668      2995
 -1      6991    3    0    1
 -2      1464      1466      1457      2536
 -1      6992    3    0    1
 -2       897      2370       896      2976
 -1      6993    3    0    1
 -2      2244      2688      2552      2708
 -1      6994    3    0    1
 -2      2391      2964       815      2970
 -1      6995    3    0    1
 -2      2580      2683      2432      2808
 -1      6996    3    0    1
 -2      1749      1750      2684      2704
 -1      6997    3    0    1
 -2      2290      2620      2373      2736
 -1      6998    3    0    1
 -2       750      2578      2865      3007
 -1      6999    3    0    1
 -2      1535      2787      2517      3043
 -1      7000    3    0    1
 -2      2364      2543      2244      2544
 -1      7001    3    0    1
 -2      1391      2986      2336      2987
 -1      7002    3    0    1
 -2      1960      2450      2552      2688
 -1      7003    3    0    1
 -2       496       495      2510      2556
 -1      7004    3    0    1
 -2      2341      2555      2249      2610
 -1      7005    3    0    1
 -2      2273      2711      2511      2872
 -1      7006    3    0    1
 -2      2039      2037      2676      3008
 -1      7007    3    0    1
 -2      2223      2415      2560      2761
 -1      7008    3    0    1
 -2       524       528      2704      2769
 -1      7009    3    0    1
 -2      2148      2157      2156      2527
 -1      7010    3    0    1
 -2      2275      2500      2392      2966
 -1      7011    3    0    1
 -2      1386      1380        40      1387
 -1      7012    3    0    1
 -2      2330      2800      1626      2994
 -1      7013    3    0    1
 -2      2276      2505      2607      2625
 -1      7014    3    0    1
 -2      2389      2269      2868      2902
 -1      7015    3    0    1
 -2       260        96      1554       259
 -1      7016    3    0    1
 -2      2067      2526      2447      2799
 -1      7017    3    0    1
 -2      2425      2461       948      2794
 -1      7018    3    0    1
 -2      2313      2508       276      2738
 -1      7019    3    0    1
 -2      2368      2516      2266      2701
 -1      7020    3    0    1
 -2       399      1831      2710      2904
 -1      7021    3    0    1
 -2      1139      1144      2623      2988
 -1      7022    3    0    1
 -2      1663      1668      2558      2741
 -1      7023    3    0    1
 -2       550      2746      2797      2999
 -1      7024    3    0    1
 -2      2394      2564       168      2898
 -1      7025    3    0    1
 -2       731       726      2355      2444
 -1      7026    3    0    1
 -2      2207      2534      2405      2934
 -1      7027    3    0    1
 -2       564      2399       573      2666
 -1      7028    3    0    1
 -2      2443      2657      2557      2847
 -1      7029    3    0    1
 -2       584       588       590      2372
 -1      7030    3    0    1
 -2      2285      2635      2453      2964
 -1      7031    3    0    1
 -2      1811      2735      2670      2967
 -1      7032    3    0    1
 -2       281      2313       276      2632
 -1      7033    3    0    1
 -2      1091      2863      2583      2894
 -1      7034    3    0    1
 -2      2505      2809      2569      3030
 -1      7035    3    0    1
 -2      1424      2566      1423      2884
 -1      7036    3    0    1
 -2      2532      2868      2269      2902
 -1      7037    3    0    1
 -2      1087       677      2470      2894
 -1      7038    3    0    1
 -2      1028      2755      2575      2996
 -1      7039    3    0    1
 -2      2238      2411      2469      3027
 -1      7040    3    0    1
 -2      1527      2481      1529      2496
 -1      7041    3    0    1
 -2      2237      2460      2425      2461
 -1      7042    3    0    1
 -2       842       844      2546      2641
 -1      7043    3    0    1
 -2      2269      2399      2532      2902
 -1      7044    3    0    1
 -2      1556      2679      1558      2715
 -1      7045    3    0    1
 -2      2038      2357      2039      2782
 -1      7046    3    0    1
 -2      2599      2638      2398      2980
 -1      7047    3    0    1
 -2      2409      2699      2533      2929
 -1      7048    3    0    1
 -2      2339      2415      2727      2910
 -1      7049    3    0    1
 -2       677      1092       673      2565
 -1      7050    3    0    1
 -2      2259      2347      2596      2936
 -1      7051    3    0    1
 -2      2372      2630      2475      2907
 -1      7052    3    0    1
 -2       722      2368      1052      2723
 -1      7053    3    0    1
 -2      2238      2424      2667      2885
 -1      7054    3    0    1
 -2      2284      2485      2371      2775
 -1      7055    3    0    1
 -2      1879      2401      1882      2691
 -1      7056    3    0    1
 -2      2280      2680      2440      2825
 -1      7057    3    0    1
 -2       707      1059      2785      2880
 -1      7058    3    0    1
 -2       776      2828      2493      2955
 -1      7059    3    0    1
 -2      2403      2859      1484      2921
 -1      7060    3    0    1
 -2      1527      2400      2481      2949
 -1      7061    3    0    1
 -2       161       169       166      1269
 -1      7062    3    0    1
 -2      2180      2181      2359      2923
 -1      7063    3    0    1
 -2      2319      2291      2985      3024
 -1      7064    3    0    1
 -2      2349      2719      1914      3023
 -1      7065    3    0    1
 -2      2290      2633      2433      2736
 -1      7066    3    0    1
 -2      2159      2165      2163      2379
 -1      7067    3    0    1
 -2       534       527       535      2770
 -1      7068    3    0    1
 -2      2254      2909      2406      2958
 -1      7069    3    0    1
 -2      1772      2345      1773      2597
 -1      7070    3    0    1
 -2      2344      2401      2692      2761
 -1      7071    3    0    1
 -2       997      2742      1734      2852
 -1      7072    3    0    1
 -2      2233      2359      2416      2882
 -1      7073    3    0    1
 -2      1037      2423       726      2444
 -1      7074    3    0    1
 -2      2525      2573        78      2604
 -1      7075    3    0    1
 -2      2242      2427      2579      3021
 -1      7076    3    0    1
 -2      2415      2239      2560      2698
 -1      7077    3    0    1
 -2      2470      2293      2950      2951
 -1      7078    3    0    1
 -2      2600      2626      2375      2931
 -1      7079    3    0    1
 -2      1521      2539      2501      2949
 -1      7080    3    0    1
 -2      1977      2364      1975      2613
 -1      7081    3    0    1
 -2       376      2489      2318      2587
 -1      7082    3    0    1
 -2      1489      1490      1399      2464
 -1      7083    3    0    1
 -2       117       122       115      2703
 -1      7084    3    0    1
 -2      1070      1071      2487      2526
 -1      7085    3    0    1
 -2      2438      2563      2340      2930
 -1      7086    3    0    1
 -2      1570      2329      1574      2955
 -1      7087    3    0    1
 -2      2163      2321      2164      2662
 -1      7088    3    0    1
 -2      1828      1834      1833      2997
 -1      7089    3    0    1
 -2      2312      2708      2450      2962
 -1      7090    3    0    1
 -2      1708      2901      2310      2928
 -1      7091    3    0    1
 -2       105       437      2713      2980
 -1      7092    3    0    1
 -2      1555      2736      2679      2865
 -1      7093    3    0    1
 -2      2152      2527      2156      2562
 -1      7094    3    0    1
 -2       897       885      2542      2877
 -1      7095    3    0    1
 -2      2390      2503      2310      2928
 -1      7096    3    0    1
 -2      2363      2762      2543      2990
 -1      7097    3    0    1
 -2       118       125       124      2520
 -1      7098    3    0    1
 -2       591       588      2475      2622
 -1      7099    3    0    1
 -2      2358      2689      2624      2758
 -1      7100    3    0    1
 -2      2382      2467      2276      2655
 -1      7101    3    0    1
 -2      2544      2763      2552      2889
 -1      7102    3    0    1
 -2      2262      2523      2514      2530
 -1      7103    3    0    1
 -2      1894      1889      1896      2472
 -1      7104    3    0    1
 -2       782      2845      2828      2955
 -1      7105    3    0    1
 -2      2394      2716      2396      2924
 -1      7106    3    0    1
 -2      1988      1883      2300      2656
 -1      7107    3    0    1
 -2      2356      2726      2497      2778
 -1      7108    3    0    1
 -2      1567      2493      1570      2955
 -1      7109    3    0    1
 -2       291      2320      2434      2531
 -1      7110    3    0    1
 -2      1603      2643      2616      2773
 -1      7111    3    0    1
 -2      1904      1906      2584      2719
 -1      7112    3    0    1
 -2       491       496       488      2383
 -1      7113    3    0    1
 -2      2276      2546      2505      2773
 -1      7114    3    0    1
 -2      2350      2412      2261      2808
 -1      7115    3    0    1
 -2      2350      2626      1402      2813
 -1      7116    3    0    1
 -2      2328      2567      2523      2805
 -1      7117    3    0    1
 -2       934      2363       941      2762
 -1      7118    3    0    1
 -2      2721      2950      2293      2951
 -1      7119    3    0    1
 -2      1972      2544      2364      2737
 -1      7120    3    0    1
 -2      2238      2453      2411      3027
 -1      7121    3    0    1
 -2      2345      2570      2263      2597
 -1      7122    3    0    1
 -2      2506      2569      2247      2642
 -1      7123    3    0    1
 -2      1285      1286      1290      2554
 -1      7124    3    0    1
 -2       487      2383       496      2510
 -1      7125    3    0    1
 -2      2373      2620      2317      2736
 -1      7126    3    0    1
 -2      1804      2430      1807      2967
 -1      7127    3    0    1
 -2      1704      1727      1714      2751
 -1      7128    3    0    1
 -2      2392       772      2601      2966
 -1      7129    3    0    1
 -2       389       387       390      2810
 -1      7130    3    0    1
 -2      1242      1241      2445      2506
 -1      7131    3    0    1
 -2      2543      2628      2363      3000
 -1      7132    3    0    1
 -2      2333      2809      2409      2871
 -1      7133    3    0    1
 -2      2646      2887      2400      3010
 -1      7134    3    0    1
 -2       978       829      2298      2766
 -1      7135    3    0    1
 -2      2358      2604      2252      2624
 -1      7136    3    0    1
 -2      2308      2579      2670      2891
 -1      7137    3    0    1
 -2       235       230       239      2929
 -1      7138    3    0    1
 -2      2233      2882      2416      2991
 -1      7139    3    0    1
 -2      2488      2670      2579      2891
 -1      7140    3    0    1
 -2      1213      1068      1047      2549
 -1      7141    3    0    1
 -2      2251      2638      2599      2980
 -1      7142    3    0    1
 -2       364      2621       218      2693
 -1      7143    3    0    1
 -2       276      2313       286      2508
 -1      7144    3    0    1
 -2      2258      2422      2812      2826
 -1      7145    3    0    1
 -2       458      2695      2358      2897
 -1      7146    3    0    1
 -2      2555      2722      2249      3044
 -1      7147    3    0    1
 -2       588       590      2372      2622
 -1      7148    3    0    1
 -2      2268      2625      2607      2773
 -1      7149    3    0    1
 -2      1560       763       756      2715
 -1      7150    3    0    1
 -2      2728      2768      2272      3002
 -1      7151    3    0    1
 -2       660      1108      2341      2555
 -1      7152    3    0    1
 -2      2377      2284      2547      2775
 -1      7153    3    0    1
 -2      2481      2887      2316      3010
 -1      7154    3    0    1
 -2       525       524      2432      2769
 -1      7155    3    0    1
 -2      1270      1266      1265      2451
 -1      7156    3    0    1
 -2      1796      1791      2413      2926
 -1      7157    3    0    1
 -2      2291      2603      2547      2719
 -1      7158    3    0    1
 -2      1345      2765      1343      2941
 -1      7159    3    0    1
 -2      2053      2047      2711      2872
 -1      7160    3    0    1
 -2      2316      2887      2646      3010
 -1      7161    3    0    1
 -2      2348      2507      2288      2960
 -1      7162    3    0    1
 -2      2261      2580      2432      2808
 -1      7163    3    0    1
 -2      1353      1349      1347      2939
 -1      7164    3    0    1
 -2      2300      2794      2425      3019
 -1      7165    3    0    1
 -2      2355      2517      2787      3043
 -1      7166    3    0    1
 -2       573      2399      2532      2666
 -1      7167    3    0    1
 -2      2174      2686      2175      2740
 -1      7168    3    0    1
 -2      2575      2702      2331      2933
 -1      7169    3    0    1
 -2      2292      2535       194      2886
 -1      7170    3    0    1
 -2      1684      1687      2334      2803
 -1      7171    3    0    1
 -2      2285      2453      2635      2667
 -1      7172    3    0    1
 -2      1642      2421      2654      2895
 -1      7173    3    0    1
 -2      2286      2628      2709      2793
 -1      7174    3    0    1
 -2      2341      2246      2498      2707
 -1      7175    3    0    1
 -2      2619      2631       622      2748
 -1      7176    3    0    1
 -2      2434      2682      2508      2789
 -1      7177    3    0    1
 -2      2566      2600      2375      3032
 -1      7178    3    0    1
 -2      2472      2691      2560      2692
 -1      7179    3    0    1
 -2       734       735       731      2760
 -1      7180    3    0    1
 -2       459        74       463      2327
 -1      7181    3    0    1
 -2      2491      2549      2310      2901
 -1      7182    3    0    1
 -2        83      2604        85      2814
 -1      7183    3    0    1
 -2       911      2497      2437      2726
 -1      7184    3    0    1
 -2      1646      2361      1641      2674
 -1      7185    3    0    1
 -2      2377      2571      2241      3015
 -1      7186    3    0    1
 -2      2247      2473      2642      2809
 -1      7187    3    0    1
 -2       557       553      2439      2663
 -1      7188    3    0    1
 -2       831      2467      2458      2625
 -1      7189    3    0    1
 -2       505       508       510      2963
 -1      7190    3    0    1
 -2      1906      2584      2349      3013
 -1      7191    3    0    1
 -2      2369      2520      2242      2860
 -1      7192    3    0    1
 -2      1307       102      1304      2697
 -1      7193    3    0    1
 -2      2443      2819      2254      2841
 -1      7194    3    0    1
 -2      2108      2507      2106      2512
 -1      7195    3    0    1
 -2      2223      2428      2667      2727
 -1      7196    3    0    1
 -2      1472      1467      1471      2798
 -1      7197    3    0    1
 -2      1513      2779      2337      2941
 -1      7198    3    0    1
 -2      2368      2511      1051      2785
 -1      7199    3    0    1
 -2      1408      1409      1404      2540
 -1      7200    3    0    1
 -2      2301      2667      2428      2727
 -1      7201    3    0    1
 -2      2243      2326      2558      2772
 -1      7202    3    0    1
 -2      2491      2549      2127      2652
 -1      7203    3    0    1
 -2      2395      2377      2661      2775
 -1      7204    3    0    1
 -2       881      2851      2611      2877
 -1      7205    3    0    1
 -2      2101      2097      1760      2512
 -1      7206    3    0    1
 -2      1147      2465      1155      3038
 -1      7207    3    0    1
 -2      1542      1543      2433      2633
 -1      7208    3    0    1
 -2      1270      1274      1272      2665
 -1      7209    3    0    1
 -2      2028      2025      1824      2563
 -1      7210    3    0    1
 -2      2499      2654      2315      2778
 -1      7211    3    0    1
 -2      2394      2564      2362      2777
 -1      7212    3    0    1
 -2      1254       395       393      2754
 -1      7213    3    0    1
 -2      2245      2557      2443      2657
 -1      7214    3    0    1
 -2       546       540      2365      2905
 -1      7215    3    0    1
 -2      2342      2536      1468      2631
 -1      7216    3    0    1
 -2      2000       981      1999      2593
 -1      7217    3    0    1
 -2      2402      2796      1154      2984
 -1      7218    3    0    1
 -2      1617      1623       858      2994
 -1      7219    3    0    1
 -2      2262      2648      2514      2950
 -1      7220    3    0    1
 -2      2280      2753      2440      2777
 -1      7221    3    0    1
 -2      1416      1421      1427      2600
 -1      7222    3    0    1
 -2       703       705       709      2325
 -1      7223    3    0    1
 -2      1004      2500      2392      2653
 -1      7224    3    0    1
 -2       484       490      1762      3001
 -1      7225    3    0    1
 -2      2284      2542      2457      2877
 -1      7226    3    0    1
 -2      2228      2240      2315      2973
 -1      7227    3    0    1
 -2      2283      2637      2480      2724
 -1      7228    3    0    1
 -2      1385      2343      2576      2645
 -1      7229    3    0    1
 -2      2306      2996      2700      3008
 -1      7230    3    0    1
 -2      2275      2392      2879      2995
 -1      7231    3    0    1
 -2       141      2823      2374      2978
 -1      7232    3    0    1
 -2      2276      2467      2382      2641
 -1      7233    3    0    1
 -2       574       573      2399      2532
 -1      7234    3    0    1
 -2      2280      2601      2493      2715
 -1      7235    3    0    1
 -2      2229      2856      2571      2871
 -1      7236    3    0    1
 -2      2248      2634      2380      2822
 -1      7237    3    0    1
 -2      1376      1500      2341      2806
 -1      7238    3    0    1
 -2       831       836      2458      2467
 -1      7239    3    0    1
 -2      2180      2359      2178      2687
 -1      7240    3    0    1
 -2       684       683      2470      3016
 -1      7241    3    0    1
 -2       727      2355       725      2614
 -1      7242    3    0    1
 -2      2345      2528      2358      2897
 -1      7243    3    0    1
 -2      2466      2499      1652      2954
 -1      7244    3    0    1
 -2      2239      2415      2560      2807
 -1      7245    3    0    1
 -2      1773      2597      2345      2695
 -1      7246    3    0    1
 -2      1336      2582      1334      2906
 -1      7247    3    0    1
 -2      2320      2508      2434      2682
 -1      7248    3    0    1
 -2      2366      2468      2273      2728
 -1      7249    3    0    1
 -2       705       709      2325      2496
 -1      7250    3    0    1
 -2       161      2362      1269      2665
 -1      7251    3    0    1
 -2      2503      2390      2742      2928
 -1      7252    3    0    1
 -2      1139      2617      1144      2988
 -1      7253    3    0    1
 -2      2774      2874      2361      2982
 -1      7254    3    0    1
 -2      1073      2526      1074      2768
 -1      7255    3    0    1
 -2       283      1225      1226      2320
 -1      7256    3    0    1
 -2      2263      2513      2345      2597
 -1      7257    3    0    1
 -2      1587      1590      1592      2479
 -1      7258    3    0    1
 -2       684      2470       681      2771
 -1      7259    3    0    1
 -2      2495      2512      2348      3037
 -1      7260    3    0    1
 -2      2637      2948      2401      3034
 -1      7261    3    0    1
 -2       171      2394       165      2924
 -1      7262    3    0    1
 -2       442        94        91      2599
 -1      7263    3    0    1
 -2      1865      2004      2480      2705
 -1      7264    3    0    1
 -2      1216      1215      1182      2652
 -1      7265    3    0    1
 -2      1227      1226      1646      2494
 -1      7266    3    0    1
 -2      2547      2661      2377      2775
 -1      7267    3    0    1
 -2      1353      2590        62      2939
 -1      7268    3    0    1
 -2       257       256      2585      2738
 -1      7269    3    0    1
 -2      2291      2719      2319      2985
 -1      7270    3    0    1
 -2       786      2469       794      2541
 -1      7271    3    0    1
 -2      2310      2491      2390      2549
 -1      7272    3    0    1
 -2      2010      2066      2050      2449
 -1      7273    3    0    1
 -2      2279      2416      2359      2882
 -1      7274    3    0    1
 -2      1423      1422      2375      2566
 -1      7275    3    0    1
 -2       226      2506       223      2642
 -1      7276    3    0    1
 -2      1040      1039      2357      2782
 -1      7277    3    0    1
 -2      2271      2455      2658      2920
 -1      7278    3    0    1
 -2      2313       276      2632      2738
 -1      7279    3    0    1
 -2      1940      2371      2568      2962
 -1      7280    3    0    1
 -2      1472      2475       593      2798
 -1      7281    3    0    1
 -2      2366      2266      2711      3003
 -1      7282    3    0    1
 -2      2223      2391      2635      2807
 -1      7283    3    0    1
 -2       744       739      2433      2760
 -1      7284    3    0    1
 -2      2238      2667      2453      2885
 -1      7285    3    0    1
 -2      1350      1352      1347      2939
 -1      7286    3    0    1
 -2      2237      2639      2518      2920
 -1      7287    3    0    1
 -2       794       803       804      2541
 -1      7288    3    0    1
 -2       707       700       704      2380
 -1      7289    3    0    1
 -2      1119      2495      1116      2979
 -1      7290    3    0    1
 -2       513       510       508      2963
 -1      7291    3    0    1
 -2      2615      2769      2353      2881
 -1      7292    3    0    1
 -2      1490      1487      1434      2561
 -1      7293    3    0    1
 -2      2147      1188      1183      2662
 -1      7294    3    0    1
 -2       256       266      2706      2738
 -1      7295    3    0    1
 -2      2283      2587      2489      2725
 -1      7296    3    0    1
 -2      1988      2300      1883      2848
 -1      7297    3    0    1
 -2      2513      2591      2720      2838
 -1      7298    3    0    1
 -2      2446      2556      2246      2581
 -1      7299    3    0    1
 -2      2387      2465      2254      2671
 -1      7300    3    0    1
 -2      1289      1290      1286      2554
 -1      7301    3    0    1
 -2      1273      2417      1276      2665
 -1      7302    3    0    1
 -2      2293      2570      2388      2648
 -1      7303    3    0    1
 -2      1094      2388      2079      2862
 -1      7304    3    0    1
 -2      1356      2590      2530      2821
 -1      7305    3    0    1
 -2      2010      1991      1702      2449
 -1      7306    3    0    1
 -2      1333      2328      1339      2932
 -1      7307    3    0    1
 -2      1193      2750      2347      2840
 -1      7308    3    0    1
 -2       687       689       684      3016
 -1      7309    3    0    1
 -2      1444      2733      2351      2797
 -1      7310    3    0    1
 -2      1167      1170      2677      2909
 -1      7311    3    0    1
 -2      2325      2723      2496      2880
 -1      7312    3    0    1
 -2      2620      2780      2431      3007
 -1      7313    3    0    1
 -2      2165      2529      2379      2740
 -1      7314    3    0    1
 -2      1260      1262      1259      2729
 -1      7315    3    0    1
 -2       442        91      2398      2599
 -1      7316    3    0    1
 -2      2253      2702      2575      2933
 -1      7317    3    0    1
 -2       535       544      2353      2853
 -1      7318    3    0    1
 -2      1315      2481      2786      2888
 -1      7319    3    0    1
 -2       387       389       386      2396
 -1      7320    3    0    1
 -2      1197      1191      2161      2662
 -1      7321    3    0    1
 -2      2765      2779      1343      2941
 -1      7322    3    0    1
 -2      1763      2510      2426      3001
 -1      7323    3    0    1
 -2      1152      3022      1144      3038
 -1      7324    3    0    1
 -2       806       813      2964      2970
 -1      7325    3    0    1
 -2      2363      2990      2543      3000
 -1      7326    3    0    1
 -2      2487      2728      2272      3002
 -1      7327    3    0    1
 -2      1363      1357      1502      2565
 -1      7328    3    0    1
 -2      1039      1033      1040      2357
 -1      7329    3    0    1
 -2       635      2402      1433      2672
 -1      7330    3    0    1
 -2       804      2541      2453      3009
 -1      7331    3    0    1
 -2       821       773      2216       851
 -1      7332    3    0    1
 -2       389      2396       387      2810
 -1      7333    3    0    1
 -2       117       115      2520      2703
 -1      7334    3    0    1
 -2      1887      2621      1888      2693
 -1      7335    3    0    1
 -2      2323      2756      2417      2892
 -1      7336    3    0    1
 -2      2247      2506      2445      2836
 -1      7337    3    0    1
 -2      2025      2429      2024      2816
 -1      7338    3    0    1
 -2      1260      1257      2606      2878
 -1      7339    3    0    1
 -2      1929      2395      1939      2632
 -1      7340    3    0    1
 -2      1146      2623      1144      3022
 -1      7341    3    0    1
 -2      2238      2482      2479      2606
 -1      7342    3    0    1
 -2      2368      2423      2256      2723
 -1      7343    3    0    1
 -2      2257      2639      2374      2978
 -1      7344    3    0    1
 -2       762      2431       765      2966
 -1      7345    3    0    1
 -2      1309      2477      1306      2888
 -1      7346    3    0    1
 -2      2240      2682      2492      2708
 -1      7347    3    0    1
 -2      1960      2450      1953      2552
 -1      7348    3    0    1
 -2       517      2876      2684      2963
 -1      7349    3    0    1
 -2      2271      2594      2490      2920
 -1      7350    3    0    1
 -2      1209      2332      1215      2842
 -1      7351    3    0    1
 -2      2157      2158      2156      2839
 -1      7352    3    0    1
 -2      2253      2355      2517      2804
 -1      7353    3    0    1
 -2       935      1975      1970      2544
 -1      7354    3    0    1
 -2       530       534       543      2769
 -1      7355    3    0    1
 -2      2229      2409      2699      3035
 -1      7356    3    0    1
 -2      1445      1446      1438      2797
 -1      7357    3    0    1
 -2      1743      2663      2476      2905
 -1      7358    3    0    1
 -2      1178      1177      2538      2596
 -1      7359    3    0    1
 -2      2075      2070      2293      2598
 -1      7360    3    0    1
 -2      1960      1953      1956      2552
 -1      7361    3    0    1
 -2       978      2298       829      3031
 -1      7362    3    0    1
 -2       368       369      1871      2752
 -1      7363    3    0    1
 -2      2285      2637      2480      2885
 -1      7364    3    0    1
 -2      2036      2039      2357      3008
 -1      7365    3    0    1
 -2       906       901      2568      2889
 -1      7366    3    0    1
 -2      2480      2637      2283      2885
 -1      7367    3    0    1
 -2      1333      1339      2328      2582
 -1      7368    3    0    1
 -2      2156      2162      2159      2379
 -1      7369    3    0    1
 -2      2279      2372      2622      2907
 -1      7370    3    0    1
 -2       122       128      1288      2554
 -1      7371    3    0    1
 -2      2335      2246      2556      2581
 -1      7372    3    0    1
 -2      2360      2287      2796      2835
 -1      7373    3    0    1
 -2      2278      2965      2561      3029
 -1      7374    3    0    1
 -2      1242      1240      1241      2506
 -1      7375    3    0    1
 -2      2274      2810      2710      3042
 -1      7376    3    0    1
 -2       183       177      2489      2651
 -1      7377    3    0    1
 -2      2319      2985      2655      3024
 -1      7378    3    0    1
 -2       850       846       858      2641
 -1      7379    3    0    1
 -2      2281      2519      2442      2732
 -1      7380    3    0    1
 -2      1683      2326      1676      2572
 -1      7381    3    0    1
 -2      2045      2511      2047      2782
 -1      7382    3    0    1
 -2      2431      2324      2867      2966
 -1      7383    3    0    1
 -2      2457      2571      2291      2961
 -1      7384    3    0    1
 -2      2174      2175      2169      2740
 -1      7385    3    0    1
 -2      2425      2454      2300      3019
 -1      7386    3    0    1
 -2      2669      2908      2290      3026
 -1      7387    3    0    1
 -2       167       163       168      2898
 -1      7388    3    0    1
 -2      1177      1172      1178      2538
 -1      7389    3    0    1
 -2      2316      2646      2398      3010
 -1      7390    3    0    1
 -2      1856      2478      1857      2724
 -1      7391    3    0    1
 -2      2366      2638      2322      3041
 -1      7392    3    0    1
 -2      2312      2552      2450      2708
 -1      7393    3    0    1
 -2      2251      2713      2524      2969
 -1      7394    3    0    1
 -2      1136      2623      2381      2988
 -1      7395    3    0    1
 -2      2357      2676      2039      2782
 -1      7396    3    0    1
 -2      2273      2728      2487      3002
 -1      7397    3    0    1
 -2      2429      2331      2783      2933
 -1      7398    3    0    1
 -2      1597       259      1554      2422
 -1      7399    3    0    1
 -2      2450      2250      2682      2708
 -1      7400    3    0    1
 -2      1282      2669      2554      2915
 -1      7401    3    0    1
 -2      1732      2742      2307      2852
 -1      7402    3    0    1
 -2      2558      2793      2286      2858
 -1      7403    3    0    1
 -2      2232      2426      2383      2743
 -1      7404    3    0    1
 -2      2079      2388      2082      2862
 -1      7405    3    0    1
 -2       147       146      2417      2915
 -1      7406    3    0    1
 -2      2310      2503      2462      2751
 -1      7407    3    0    1
 -2      2252      2358      2624      2758
 -1      7408    3    0    1
 -2      2222      2398      2638      3041
 -1      7409    3    0    1
 -2      2283      2318      2587      2724
 -1      7410    3    0    1
 -2      2291      2377      2603      2985
 -1      7411    3    0    1
 -2      1427      2302      2797      2853
 -1      7412    3    0    1
 -2      2350      2645      1397      2986
 -1      7413    3    0    1
 -2      2160      2163      2164      2662
 -1      7414    3    0    1
 -2      1281       144      1276      2417
 -1      7415    3    0    1
 -2      1004       772      2392      2500
 -1      7416    3    0    1
 -2       305      2515      2832      2953
 -1      7417    3    0    1
 -2      1911      1908      1903      2577
 -1      7418    3    0    1
 -2      2333      2569      2506      2642
 -1      7419    3    0    1
 -2      2230      2658      2551      2952
 -1      7420    3    0    1
 -2      2441      2579      2242      2818
 -1      7421    3    0    1
 -2       112      2520       113      2749
 -1      7422    3    0    1
 -2       215      2339       207      2767
 -1      7423    3    0    1
 -2      2303      2514      2523      2530
 -1      7424    3    0    1
 -2       168       164       165      2394
 -1      7425    3    0    1
 -2       850       842       846      2641
 -1      7426    3    0    1
 -2      1803      1802      2346      2883
 -1      7427    3    0    1
 -2       467      2513      2838      2981
 -1      7428    3    0    1
 -2      2397      2249      2759      2815
 -1      7429    3    0    1
 -2      2478      2716      2318      2801
 -1      7430    3    0    1
 -2      1797      1796      2413      2484
 -1      7431    3    0    1
 -2       119      2196       330      2978
 -1      7432    3    0    1
 -2      2409      2333      2642      2809
 -1      7433    3    0    1
 -2       762       765       768      2966
 -1      7434    3    0    1
 -2      1571      1575      1574      2329
 -1      7435    3    0    1
 -2      1468      2536      1465      2631
 -1      7436    3    0    1
 -2      1639      2421      1638      2504
 -1      7437    3    0    1
 -2      2343      2645      2574      2813
 -1      7438    3    0    1
 -2      1685      2405      1577      2811
 -1      7439    3    0    1
 -2      2359      2416      2279      2687
 -1      7440    3    0    1
 -2      1681      1677      1680      2436
 -1      7441    3    0    1
 -2      2552      2688      2450      2708
 -1      7442    3    0    1
 -2      2091      2085      1763      2404
 -1      7443    3    0    1
 -2      2468      2322      2595      2758
 -1      7444    3    0    1
 -2      2543      2544       927      2763
 -1      7445    3    0    1
 -2      2329      2845      1574      2955
 -1      7446    3    0    1
 -2      2424      2635      2285      3034
 -1      7447    3    0    1
 -2       186      2489      2587      2725
 -1      7448    3    0    1
 -2      1975      2544       935      2990
 -1      7449    3    0    1
 -2      1170      2352      1177      2677
 -1      7450    3    0    1
 -2      2493      2679      2280      2715
 -1      7451    3    0    1
 -2      2524      2410      2843      2969
 -1      7452    3    0    1
 -2       444       447       448      2926
 -1      7453    3    0    1
 -2      1053      1056      1050      2872
 -1      7454    3    0    1
 -2       599       600      2416      2622
 -1      7455    3    0    1
 -2      2320      2434      2531      2890
 -1      7456    3    0    1
 -2      2098      2759      2495      2815
 -1      7457    3    0    1
 -2       308      2515       309      2531
 -1      7458    3    0    1
 -2       195      2535      1249      2886
 -1      7459    3    0    1
 -2       934      2543      2363      2762
 -1      7460    3    0    1
 -2      2455      2551      2258      2712
 -1      7461    3    0    1
 -2      2356      2466      1656      2858
 -1      7462    3    0    1
 -2      2263      2513      2591      2720
 -1      7463    3    0    1
 -2      2326      2572      1683      2827
 -1      7464    3    0    1
 -2      2366      2413      2322      2638
 -1      7465    3    0    1
 -2       830      2643      2773      2790
 -1      7466    3    0    1
 -2       483       481      2383      2743
 -1      7467    3    0    1
 -2       650      2861       653      2913
 -1      7468    3    0    1
 -2      1960      1958      2450      2688
 -1      7469    3    0    1
 -2      2163      2529      2170      2842
 -1      7470    3    0    1
 -2       557       564       566      2666
 -1      7471    3    0    1
 -2      2063      2065      2067      2526
 -1      7472    3    0    1
 -2      1799      1796      2484      2834
 -1      7473    3    0    1
 -2       584      2407       585      3004
 -1      7474    3    0    1
 -2      2227      2825      2620      2867
 -1      7475    3    0    1
 -2      2527      2791      2406      3048
 -1      7476    3    0    1
 -2       305      2832      2386      2953
 -1      7477    3    0    1
 -2       824      2458      2391      2790
 -1      7478    3    0    1
 -2       207       215       206      2339
 -1      7479    3    0    1
 -2      1828      2563      2021      2997
 -1      7480    3    0    1
 -2      1593      2616      2643      2970
 -1      7481    3    0    1
 -2       941       933       940      2363
 -1      7482    3    0    1
 -2      2093      2091      1761      2404
 -1      7483    3    0    1
 -2       736      2444       735      2760
 -1      7484    3    0    1
 -2      1070      2064      1071      2526
 -1      7485    3    0    1
 -2      2333      2937      1238      3047
 -1      7486    3    0    1
 -2       554       562       563      2338
 -1      7487    3    0    1
 -2      1974      1972      1977      2364
 -1      7488    3    0    1
 -2      2283      2725      2559      2752
 -1      7489    3    0    1
 -2      2263      2597      2426      2981
 -1      7490    3    0    1
 -2      2206      2518      2203      3046
 -1      7491    3    0    1
 -2      2288      2412      2381      2960
 -1      7492    3    0    1
 -2      2077      2388      2079      2598
 -1      7493    3    0    1
 -2      2264      2670      2735      2933
 -1      7494    3    0    1
 -2      1382      1385      1381      2498
 -1      7495    3    0    1
 -2       379       179       174      2924
 -1      7496    3    0    1
 -2      2241      2654      2421      2982
 -1      7497    3    0    1
 -2      2349      2319      2719      2985
 -1      7498    3    0    1
 -2      2069      2447      2070      2799
 -1      7499    3    0    1
 -2       126      2579       409      2972
 -1      7500    3    0    1
 -2       550      2797      2746      2853
 -1      7501    3    0    1
 -2       452       538       604      2449
 -1      7502    3    0    1
 -2      2349      2655      2985      3035
 -1      7503    3    0    1
 -2      2373      2679      1557      2736
 -1      7504    3    0    1
 -2       591       588       589      2475
 -1      7505    3    0    1
 -2      2442      2519      1364      2732
 -1      7506    3    0    1
 -2      2431      2620      2317      2825
 -1      7507    3    0    1
 -2       205      2344       368      2693
 -1      7508    3    0    1
 -2       535       527        29      2540
 -1      7509    3    0    1
 -2      2267      2684      2432      2876
 -1      7510    3    0    1
 -2      2287      2623      2381      3018
 -1      7511    3    0    1
 -2      2210      2374      1820      2848
 -1      7512    3    0    1
 -2      2336      2861      1391      2987
 -1      7513    3    0    1
 -2       924      2544      1965      2889
 -1      7514    3    0    1
 -2      1307      2697      1305      2956
 -1      7515    3    0    1
 -2      1074      2526      1073      2914
 -1      7516    3    0    1
 -2      1865      2004      1868      2480
 -1      7517    3    0    1
 -2      1050      1056      2785      2872
 -1      7518    3    0    1
 -2       898      2568      2370      2976
 -1      7519    3    0    1
 -2      1443      1450      1447      2550
 -1      7520    3    0    1
 -2      1675      2741      2326      3045
 -1      7521    3    0    1
 -2      2234      2448      2389      2936
 -1      7522    3    0    1
 -2      2367      2688      1958      2737
 -1      7523    3    0    1
 -2      2387      2847      2225      2881
 -1      7524    3    0    1
 -2      2275      2392      2601      2966
 -1      7525    3    0    1
 -2       303      2696      2459      2788
 -1      7526    3    0    1
 -2      1950      2450      1949      2869
 -1      7527    3    0    1
 -2       331       258      2422      2649
 -1      7528    3    0    1
 -2       105      2524       100      2599
 -1      7529    3    0    1
 -2      2582      2830      2328      2932
 -1      7530    3    0    1
 -2      1789      2468      1786      2595
 -1      7531    3    0    1
 -2      2238      2456      2644      2885
 -1      7532    3    0    1
 -2       204       205       208      2474
 -1      7533    3    0    1
 -2      2594      2602      2257      2823
 -1      7534    3    0    1
 -2      2386      2515      2694      2953
 -1      7535    3    0    1
 -2      2302      2746      2439      2999
 -1      7536    3    0    1
 -2       742       741       746      2331
 -1      7537    3    0    1
 -2      2327      2604      2358      2897
 -1      7538    3    0    1
 -2      2265      2776      2661      3023
 -1      7539    3    0    1
 -2      2518      2639      2300      2920
 -1      7540    3    0    1
 -2      2343      2808      2645      2813
 -1      7541    3    0    1
 -2      1692      2422      2522      2826
 -1      7542    3    0    1
 -2      2243      2492      2466      2890
 -1      7543    3    0    1
 -2       337      2311      2649      2978
 -1      7544    3    0    1
 -2      2544       919      2763      2889
 -1      7545    3    0    1
 -2      2427      2804      2369      2860
 -1      7546    3    0    1
 -2      2237      2658      2460      2940
 -1      7547    3    0    1
 -2       884      2542      2421      2993
 -1      7548    3    0    1
 -2      2282      2761      2339      2767
 -1      7549    3    0    1
 -2      2075      2293      2570      2598
 -1      7550    3    0    1
 -2       938      2613       935      2990
 -1      7551    3    0    1
 -2      1929      1938      1939      2395
 -1      7552    3    0    1
 -2      1743       555      1742      2663
 -1      7553    3    0    1
 -2      2456      2478      2318      2724
 -1      7554    3    0    1
 -2      2586      2650      1231      3047
 -1      7555    3    0    1
 -2      1163      2561      2965      3029
 -1      7556    3    0    1
 -2      1987      2594      1989      2823
 -1      7557    3    0    1
 -2      2174      2687      2686      2740
 -1      7558    3    0    1
 -2      2232      2404      2397      2610
 -1      7559    3    0    1
 -2      2244      2364      2544      2737
 -1      7560    3    0    1
 -2       200       194      2474      2535
 -1      7561    3    0    1
 -2       878      2421      2542      2675
 -1      7562    3    0    1
 -2      1727      1731      1714      2503
 -1      7563    3    0    1
 -2       584      2372       590      2730
 -1      7564    3    0    1
 -2      2365      2615      2353      2746
 -1      7565    3    0    1
 -2      2380      2728      2548      2822
 -1      7566    3    0    1
 -2      2250      2492      2434      2682
 -1      7567    3    0    1
 -2      2230      2551      2694      2772
 -1      7568    3    0    1
 -2      2590      2732        60      2849
 -1      7569    3    0    1
 -2      1574      2329      2482      2845
 -1      7570    3    0    1
 -2      1990      2594      2602      2802
 -1      7571    3    0    1
 -2      1989      1985      1839      2374
 -1      7572    3    0    1
 -2      2047      2042      2041      2782
 -1      7573    3    0    1
 -2       399      2710       397      3042
 -1      7574    3    0    1
 -2      2249      2722      2815      3044
 -1      7575    3    0    1
 -2      2742      2852      1089      2911
 -1      7576    3    0    1
 -2      2420      2515       316      2953
 -1      7577    3    0    1
 -2       725      2355       726      2614
 -1      7578    3    0    1
 -2      2348      2627      2110      2979
 -1      7579    3    0    1
 -2      2380      2785      2368      2880
 -1      7580    3    0    1
 -2      1201      2619       622      2748
 -1      7581    3    0    1
 -2      1276      2417       150      2665
 -1      7582    3    0    1
 -2      2314      2386      2694      2953
 -1      7583    3    0    1
 -2      1437      2733      1444      2797
 -1      7584    3    0    1
 -2      2326      2694      2551      2772
 -1      7585    3    0    1
 -2       483       487       489      2510
 -1      7586    3    0    1
 -2      2382      2655      2276      2856
 -1      7587    3    0    1
 -2       740      2433       739      2760
 -1      7588    3    0    1
 -2      1205      2748      2393      3029
 -1      7589    3    0    1
 -2      2338      3033      2476      3048
 -1      7590    3    0    1
 -2       582      2532      2372      3004
 -1      7591    3    0    1
 -2      1988      1985      2594      2848
 -1      7592    3    0    1
 -2      1527      1318      1529      2481
 -1      7593    3    0    1
 -2      2442      2732      1364      2821
 -1      7594    3    0    1
 -2      1363      2378      1502      2806
 -1      7595    3    0    1
 -2      1269      1264      1266      2362
 -1      7596    3    0    1
 -2       503      2612       505      3036
 -1      7597    3    0    1
 -2       564       573       566      2666
 -1      7598    3    0    1
 -2      1266      2729      1262      2878
 -1      7599    3    0    1
 -2      2372      2857      2407      2868
 -1      7600    3    0    1
 -2      2472      2621      2282      2698
 -1      7601    3    0    1
 -2      1474      1468      1475      2342
 -1      7602    3    0    1
 -2      2326      2515      2243      2741
 -1      7603    3    0    1
 -2      2231      2412      2350      2808
 -1      7604    3    0    1
 -2      1842      2376      1848      2801
 -1      7605    3    0    1
 -2      1445      2351      1444      2757
 -1      7606    3    0    1
 -2      1197      2321      1191      2662
 -1      7607    3    0    1
 -2       495      2510      2556      3036
 -1      7608    3    0    1
 -2      1147      1144      3022      3038
 -1      7609    3    0    1
 -2      2425      2957      2454      3019
 -1      7610    3    0    1
 -2      2511      2701      2273      2785
 -1      7611    3    0    1
 -2       310      2459      2386      2788
 -1      7612    3    0    1
 -2      1175      2550      2677      2893
 -1      7613    3    0    1
 -2      1309      1306      2477      2956
 -1      7614    3    0    1
 -2      2335      2556      2446      2581
 -1      7615    3    0    1
 -2      2329      2828      2469      2845
 -1      7616    3    0    1
 -2      1688      2826      2522      2827
 -1      7617    3    0    1
 -2      2452      2537      2295      2956
 -1      7618    3    0    1
 -2      1729      1734       997      2742
 -1      7619    3    0    1
 -2      1645      1640      2361      2654
 -1      7620    3    0    1
 -2      2161      2168      1197      2842
 -1      7621    3    0    1
 -2      2353      2600      2540      2853
 -1      7622    3    0    1
 -2      1513      1341      2779      2941
 -1      7623    3    0    1
 -2      2108      2107      2106      2507
 -1      7624    3    0    1
 -2       540      2365      2704      2769
 -1      7625    3    0    1
 -2      2477      2786      2537      2888
 -1      7626    3    0    1
 -2       217      2621      2463      2767
 -1      7627    3    0    1
 -2      2828      2845      2329      2955
 -1      7628    3    0    1
 -2      2592      2734      2124      2944
 -1      7629    3    0    1
 -2       766      2509      2647      2811
 -1      7630    3    0    1
 -2      2206      2207      2311      3046
 -1      7631    3    0    1
 -2      2580      2353      2769      2881
 -1      7632    3    0    1
 -2       642      2672       640      2673
 -1      7633    3    0    1
 -2      2390      2549      2491      2652
 -1      7634    3    0    1
 -2      1469      1475      1468      2619
 -1      7635    3    0    1
 -2       772      2500      1005      2966
 -1      7636    3    0    1
 -2      1100      1104      1106      2397
 -1      7637    3    0    1
 -2      2294      2349      2577      3035
 -1      7638    3    0    1
 -2      1917      2547      2603      2719
 -1      7639    3    0    1
 -2      2051      2739      2449      2923
 -1      7640    3    0    1
 -2       786      2541       993      3017
 -1      7641    3    0    1
 -2      2431      2317      2620      3007
 -1      7642    3    0    1
 -2      1402      2626      2350      2899
 -1      7643    3    0    1
 -2      1146      1153      1150      2360
 -1      7644    3    0    1
 -2      1225      1654      2320      2954
 -1      7645    3    0    1
 -2       896       897       885      2542
 -1      7646    3    0    1
 -2      1664      1673      1669      2741
 -1      7647    3    0    1
 -2      1971      2367      1968      2717
 -1      7648    3    0    1
 -2      2430      2967      2883      2975
 -1      7649    3    0    1
 -2       378      1855      2587      2925
 -1      7650    3    0    1
 -2      2523      2530      2262      2941
 -1      7651    3    0    1
 -2      1519      2501      2906      2949
 -1      7652    3    0    1
 -2      1292      2369      2486      2787
 -1      7653    3    0    1
 -2       525      2769      2432      2770
 -1      7654    3    0    1
 -2      2365      2746      2353      2769
 -1      7655    3    0    1
 -2      2232      2383      2404      2610
 -1      7656    3    0    1
 -2      1285      2554      1282      2669
 -1      7657    3    0    1
 -2      1896      2621      3013      3039
 -1      7658    3    0    1
 -2      2315      2240      2499      2778
 -1      7659    3    0    1
 -2      2624      2689      2322      2758
 -1      7660    3    0    1
 -2      1790      1784      1786      2926
 -1      7661    3    0    1
 -2      2302      2615      2443      2938
 -1      7662    3    0    1
 -2       855      2382       848      2641
 -1      7663    3    0    1
 -2       409      2488       407      2972
 -1      7664    3    0    1
 -2      1938      2632      2395      2869
 -1      7665    3    0    1
 -2      2329      2493      2753      2828
 -1      7666    3    0    1
 -2      1910      2454      1988      2594
 -1      7667    3    0    1
 -2      1248      2428      1590      2918
 -1      7668    3    0    1
 -2      2432      2781      2261      2808
 -1      7669    3    0    1
 -2      1940      2568      2371      2775
 -1      7670    3    0    1
 -2      1607      1603      2505      2773
 -1      7671    3    0    1
 -2      2276      2625      2546      2773
 -1      7672    3    0    1
 -2      1929      1930      2395      2632
 -1      7673    3    0    1
 -2       594      2622       598      2730
 -1      7674    3    0    1
 -2      2164      2321      2163      2842
 -1      7675    3    0    1
 -2      2227      2892      2414      2900
 -1      7676    3    0    1
 -2       797       803       794      3027
 -1      7677    3    0    1
 -2       586       596      1738      2730
 -1      7678    3    0    1
 -2      1011      2609      1015      2966
 -1      7679    3    0    1
 -2      2187      2185      2183      2923
 -1      7680    3    0    1
 -2      2358      2528      2345      2935
 -1      7681    3    0    1
 -2      1245      2445      1246      2535
 -1      7682    3    0    1
 -2       609      2462      2416      2854
 -1      7683    3    0    1
 -2       643       646       642      2483
 -1      7684    3    0    1
 -2      1051      2368      1049      2511
 -1      7685    3    0    1
 -2      2327       459      2604      2897
 -1      7686    3    0    1
 -2       832       977       829      2408
 -1      7687    3    0    1
 -2       477      2981      2743      3001
 -1      7688    3    0    1
 -2       483       481       487      2383
 -1      7689    3    0    1
 -2       910       811       950      2509
 -1      7690    3    0    1
 -2      2386      2243      2515      2832
 -1      7691    3    0    1
 -2      1119      2419      2722      2833
 -1      7692    3    0    1
 -2      1175      2677      1177      2893
 -1      7693    3    0    1
 -2      2364      2628      2543      3000
 -1      7694    3    0    1
 -2      1333      1332      2582      2932
 -1      7695    3    0    1
 -2      2547      2611      2291      3006
 -1      7696    3    0    1
 -2       522      2432       521      2781
 -1      7697    3    0    1
 -2      2270      2389      2868      2902
 -1      7698    3    0    1
 -2      2301      2479      2428      2667
 -1      7699    3    0    1
 -2      1401      1408      1404      2813
 -1      7700    3    0    1
 -2       993      2541       990      2705
 -1      7701    3    0    1
 -2      2430      2883      2346      2975
 -1      7702    3    0    1
 -2      1773      1772      1774      2345
 -1      7703    3    0    1
 -2      2241      2873      2654      2982
 -1      7704    3    0    1
 -2      1975      1977      1972      2544
 -1      7705    3    0    1
 -2      2635      2667      2453      2964
 -1      7706    3    0    1
 -2      2269      2389      2791      3048
 -1      7707    3    0    1
 -2      2609      2867      2324      2966
 -1      7708    3    0    1
 -2      2266      2608      2516      2831
 -1      7709    3    0    1
 -2      1593      1587      1592      2681
 -1      7710    3    0    1
 -2       631      1171      1175      2677
 -1      7711    3    0    1
 -2      1893      1901      1898      2829
 -1      7712    3    0    1
 -2      2557      2657      2360      2847
 -1      7713    3    0    1
 -2      1180      2147      1183      2538
 -1      7714    3    0    1
 -2       487       496       495      2510
 -1      7715    3    0    1
 -2      1930      2585      2395      2632
 -1      7716    3    0    1
 -2      1975       935      2613      2990
 -1      7717    3    0    1
 -2      2230      2455      2551      2658
 -1      7718    3    0    1
 -2      2142      2538      2141      2943
 -1      7719    3    0    1
 -2      2389      2747      2678      2983
 -1      7720    3    0    1
 -2      2256      2516      2368      2714
 -1      7721    3    0    1
 -2       331      2812      2422      2826
 -1      7722    3    0    1
 -2      2101      2512      2100      2759
 -1      7723    3    0    1
 -2      1562      2493       763      2715
 -1      7724    3    0    1
 -2      2254      2557      2352      2909
 -1      7725    3    0    1
 -2      2495      2759      2249      2815
 -1      7726    3    0    1
 -2       750      2578       749      2865
 -1      7727    3    0    1
 -2      1316        93      2452      2744
 -1      7728    3    0    1
 -2      1920      2611      2547      3006
 -1      7729    3    0    1
 -2      1034      2357      2444      2755
 -1      7730    3    0    1
 -2      2255      2706      2690      2774
 -1      7731    3    0    1
 -2      1631      2504      1638      2800
 -1      7732    3    0    1
 -2      2655      2985      2382      3024
 -1      7733    3    0    1
 -2      1526      2325      1527      2496
 -1      7734    3    0    1
 -2      2143      2406      2138      2527
 -1      7735    3    0    1
 -2      1218      1217      1216      2390
 -1      7736    3    0    1
 -2       824      2391       819      2790
 -1      7737    3    0    1
 -2      2493      2828      2329      2955
 -1      7738    3    0    1
 -2      1803      1800      1804      2484
 -1      7739    3    0    1
 -2      1968      2367      1958      2737
 -1      7740    3    0    1
 -2      2027      2429      1025      2816
 -1      7741    3    0    1
 -2      1081      1080      2470      2914
 -1      7742    3    0    1
 -2      2379      2529      2321      2866
 -1      7743    3    0    1
 -2      1012      1014      2609      2816
 -1      7744    3    0    1
 -2       521      2432       517      2876
 -1      7745    3    0    1
 -2      2485      2542      2370      2982
 -1      7746    3    0    1
 -2       828       836       832      2458
 -1      7747    3    0    1
 -2      2054      2055      2056      2711
 -1      7748    3    0    1
 -2      2049      2366      1792      2711
 -1      7749    3    0    1
 -2      1890      1897      1896      2472
 -1      7750    3    0    1
 -2      2320      2682      2434      2890
 -1      7751    3    0    1
 -2       991       990      2664      2705
 -1      7752    3    0    1
 -2      2490      2602      2594      2802
 -1      7753    3    0    1
 -2       898       897      2370      2877
 -1      7754    3    0    1
 -2      2230      2628      2917      3000
 -1      7755    3    0    1
 -2      2048      2047      2045      2511
 -1      7756    3    0    1
 -2      2746      2797      2302      2853
 -1      7757    3    0    1
 -2       152      2417       146      2756
 -1      7758    3    0    1
 -2      2389      2234      2791      3048
 -1      7759    3    0    1
 -2      2346      2946      2883      2969
 -1      7760    3    0    1
 -2      2253      2702      2933      3020
 -1      7761    3    0    1
 -2      2375      2626      1413      2884
 -1      7762    3    0    1
 -2      2381      2623      1136      3018
 -1      7763    3    0    1
 -2      2240      2492      2682      2890
 -1      7764    3    0    1
 -2      1017      2780      2324      2816
 -1      7765    3    0    1
 -2      2230      2490      2455      3000
 -1      7766    3    0    1
 -2       148       139       149      2414
 -1      7767    3    0    1
 -2      2498      2576      1381      2707
 -1      7768    3    0    1
 -2      2260      2448      2389      2605
 -1      7769    3    0    1
 -2      2368      2723      2714      2880
 -1      7770    3    0    1
 -2       169      1269       161      2362
 -1      7771    3    0    1
 -2      2315      2654      2421      2895
 -1      7772    3    0    1
 -2       309      2531      2515      2741
 -1      7773    3    0    1
 -2      2244      2492      2688      2708
 -1      7774    3    0    1
 -2      1284      2554       137      2915
 -1      7775    3    0    1
 -2      2282      2621      2463      2698
 -1      7776    3    0    1
 -2      1637      2650      2674      2873
 -1      7777    3    0    1
 -2       933      2363       934      2543
 -1      7778    3    0    1
 -2       906      2568       898      2976
 -1      7779    3    0    1
 -2       749      2578      2433      2865
 -1      7780    3    0    1
 -2       445      2689      1784      2926
 -1      7781    3    0    1
 -2      1854      1856      1859      2724
 -1      7782    3    0    1
 -2      2560      2635      2223      3034
 -1      7783    3    0    1
 -2      2282      2415      2560      2698
 -1      7784    3    0    1
 -2      2263      2660      2591      2743
 -1      7785    3    0    1
 -2      2258      2522      2422      2826
 -1      7786    3    0    1
 -2      1654      1646      1226      2320
 -1      7787    3    0    1
 -2      1676      2326      1675      2741
 -1      7788    3    0    1
 -2      1087      2470      1080      2894
 -1      7789    3    0    1
 -2      1481      2619      1482      2965
 -1      7790    3    0    1
 -2      2648      2721      2514      2950
 -1      7791    3    0    1
 -2      2319      2719      2291      3024
 -1      7792    3    0    1
 -2       601       571      2687      2739
 -1      7793    3    0    1
 -2      2165      2379      2162      2740
 -1      7794    3    0    1
 -2        87      1322        84      1323
 -1      7795    3    0    1
 -2      1824      2735      2563      2930
 -1      7796    3    0    1
 -2      1938      1939      2395      2632
 -1      7797    3    0    1
 -2       991       988      2003      2664
 -1      7798    3    0    1
 -2      2294      2577      2409      3035
 -1      7799    3    0    1
 -2       127       137      2554      2915
 -1      7800    3    0    1
 -2      1647      1642      2654      2895
 -1      7801    3    0    1
 -2      2264      2488      2340      2930
 -1      7802    3    0    1
 -2      2300      2518      2425      2794
 -1      7803    3    0    1
 -2      2234      2841      2448      2936
 -1      7804    3    0    1
 -2      2315      2499      2361      2654
 -1      7805    3    0    1
 -2       515      2876       517      2963
 -1      7806    3    0    1
 -2      1466      1463      1457      2798
 -1      7807    3    0    1
 -2      2356      2437      2240      2793
 -1      7808    3    0    1
 -2       879      1632      1638      2800
 -1      7809    3    0    1
 -2       600       603      2403      2859
 -1      7810    3    0    1
 -2      1280      1559      1557      2679
 -1      7811    3    0    1
 -2      1662      2531      2466      2954
 -1      7812    3    0    1
 -2       978      1999      2593      3031
 -1      7813    3    0    1
 -2      2237      2509      2461      2811
 -1      7814    3    0    1
 -2       887      2851       881      2877
 -1      7815    3    0    1
 -2      1226      1227       273      2494
 -1      7816    3    0    1
 -2      2173      2686      2529      2740
 -1      7817    3    0    1
 -2       323      2515      2420      2572
 -1      7818    3    0    1
 -2      1147      3022      2465      3038
 -1      7819    3    0    1
 -2       991      2664      2003      2705
 -1      7820    3    0    1
 -2       740       739      2517      2760
 -1      7821    3    0    1
 -2      1150      2360      1153      2796
 -1      7822    3    0    1
 -2      2398      2624      2252      2814
 -1      7823    3    0    1
 -2      2302      2600      2566      3032
 -1      7824    3    0    1
 -2       776       777       768      2493
 -1      7825    3    0    1
 -2      2456      2489      2304      2644
 -1      7826    3    0    1
 -2      1580      1582      1583      2411
 -1      7827    3    0    1
 -2      2443      2557      2254      2847
 -1      7828    3    0    1
 -2       419       418       425      2969
 -1      7829    3    0    1
 -2      2292      2559      2424      2644
 -1      7830    3    0    1
 -2      1051      1052      2368      2785
 -1      7831    3    0    1
 -2      2357      2700      2036      3008
 -1      7832    3    0    1
 -2      2279      2622      2372      2730
 -1      7833    3    0    1
 -2      1021      1068      1069      2549
 -1      7834    3    0    1
 -2      2460      2509      2237      2940
 -1      7835    3    0    1
 -2      2345      2570      2447      2721
 -1      7836    3    0    1
 -2       777       778       772      2392
 -1      7837    3    0    1
 -2      1856      2478      2724      2801
 -1      7838    3    0    1
 -2      2239      2607      2473      2698
 -1      7839    3    0    1
 -2      2206      2311      2201      2640
 -1      7840    3    0    1
 -2       913      2437       911      2709
 -1      7841    3    0    1
 -2       693      2501      2634      3016
 -1      7842    3    0    1
 -2      1313      1314      1317      2786
 -1      7843    3    0    1
 -2      2310      2901      2449      2923
 -1      7844    3    0    1
 -2      2258      2649      2422      2792
 -1      7845    3    0    1
 -2      1939      2632      1938      2869
 -1      7846    3    0    1
 -2      1639      2421      2504      2654
 -1      7847    3    0    1
 -2       766      2509       811      2647
 -1      7848    3    0    1
 -2      2348      2722      2495      3037
 -1      7849    3    0    1
 -2      2262      2565      2378      2583
 -1      7850    3    0    1
 -2       186      2587       373      2725
 -1      7851    3    0    1
 -2       849       857      2588      3024
 -1      7852    3    0    1
 -2      2090      2397      2731      2759
 -1      7853    3    0    1
 -2      1562      1565      1567      2493
 -1      7854    3    0    1
 -2      2079      2388      1094      2598
 -1      7855    3    0    1
 -2      2249      2815      2397      3044
 -1      7856    3    0    1
 -2      1989      2374      1839      2823
 -1      7857    3    0    1
 -2      2005      1695      1019      2549
 -1      7858    3    0    1
 -2      1098      2378       673      2583
 -1      7859    3    0    1
 -2      2229      2699      2571      2985
 -1      7860    3    0    1
 -2      2302      2733      1427      2797
 -1      7861    3    0    1
 -2      1451      2403         3      2859
 -1      7862    3    0    1
 -2      1952      1949      1958      2450
 -1      7863    3    0    1
 -2      2345      2720      2263      2721
 -1      7864    3    0    1
 -2      2543      2628      2244      2709
 -1      7865    3    0    1
 -2      1820      2210      1794      2374
 -1      7866    3    0    1
 -2      2508      2738      2255      2959
 -1      7867    3    0    1
 -2      1273      2417      2665      2992
 -1      7868    3    0    1
 -2      2285      2635      2424      2667
 -1      7869    3    0    1
 -2       234      2642      2502      2929
 -1      7870    3    0    1
 -2       584       585      2407      2730
 -1      7871    3    0    1
 -2       815      2643       817      2790
 -1      7872    3    0    1
 -2      1734      2742      1732      2852
 -1      7873    3    0    1
 -2      2623      2796      2287      2835
 -1      7874    3    0    1
 -2      2495      2722      1111      2815
 -1      7875    3    0    1
 -2      2475      2630      2270      2798
 -1      7876    3    0    1
 -2       632      1442      1432      2870
 -1      7877    3    0    1
 -2      1529      2481      1318      2888
 -1      7878    3    0    1
 -2      1760      2612      2335      3036
 -1      7879    3    0    1
 -2       837       844       835      2625
 -1      7880    3    0    1
 -2       760      2431      2780      3007
 -1      7881    3    0    1
 -2      2237      2792      2522      3046
 -1      7882    3    0    1
 -2      1015      2324      1017      2780
 -1      7883    3    0    1
 -2      2401      2560      2298      2691
 -1      7884    3    0    1
 -2      2280      2440      2680      2777
 -1      7885    3    0    1
 -2      2182      2176      2186      2491
 -1      7886    3    0    1
 -2      2344      2401      2761      3034
 -1      7887    3    0    1
 -2      2560      2692      2401      2761
 -1      7888    3    0    1
 -2       849       857       972      2588
 -1      7889    3    0    1
 -2      1193      1195      2347      2850
 -1      7890    3    0    1
 -2      2389      2605      2448      2902
 -1      7891    3    0    1
 -2      2287      2626      2375      2884
 -1      7892    3    0    1
 -2      1961      1958      1971      2367
 -1      7893    3    0    1
 -2      2419      2722      2348      3037
 -1      7894    3    0    1
 -2      1919      2603      2661      3023
 -1      7895    3    0    1
 -2      1239      1614      1241      2506
 -1      7896    3    0    1
 -2      2372      2622       590      2730
 -1      7897    3    0    1
 -2      2240      2228      2682      2708
 -1      7898    3    0    1
 -2      2114      2119      2112      2617
 -1      7899    3    0    1
 -2      2240      2708      2492      2793
 -1      7900    3    0    1
 -2      2553      2602      2257      2712
 -1      7901    3    0    1
 -2      2617      2623      1144      2988
 -1      7902    3    0    1
 -2      1877      2344      2692      2693
 -1      7903    3    0    1
 -2      1743      1742      2338      2663
 -1      7904    3    0    1
 -2      1845      2396      1847      2801
 -1      7905    3    0    1
 -2      1541      1538      1542      2517
 -1      7906    3    0    1
 -2      1348      2530      1345      2941
 -1      7907    3    0    1
 -2      2476      3033      2527      3048
 -1      7908    3    0    1
 -2      2206      2204      2203      2518
 -1      7909    3    0    1
 -2      2240      2466      2356      2793
 -1      7910    3    0    1
 -2      2277      2440      2394      2777
 -1      7911    3    0    1
 -2      2225      2580      2615      3032
 -1      7912    3    0    1
 -2      2452      2697      1307      2956
 -1      7913    3    0    1
 -2         3      2403       603      2859
 -1      7914    3    0    1
 -2      2377      2699      2571      3015
 -1      7915    3    0    1
 -2       164      2394       168      2898
 -1      7916    3    0    1
 -2       491       499       496      2556
 -1      7917    3    0    1
 -2      2170      2173      2176      2529
 -1      7918    3    0    1
 -2      1680      2803      2436      3045
 -1      7919    3    0    1
 -2      2332      2686      2491      2882
 -1      7920    3    0    1
 -2      1068      1069      2549      2652
 -1      7921    3    0    1
 -2      1425      2402      1433      2870
 -1      7922    3    0    1
 -2      2426      2981      2597      3001
 -1      7923    3    0    1
 -2      2629      2734      2592      2944
 -1      7924    3    0    1
 -2      2265      2603      2377      3035
 -1      7925    3    0    1
 -2      2407      2372      2868      3004
 -1      7926    3    0    1
 -2       571       539      2094      2739
 -1      7927    3    0    1
 -2      1345      2530      1350      2590
 -1      7928    3    0    1
 -2      2186      2184      2181      2686
 -1      7929    3    0    1
 -2      2112      2119      2120      2617
 -1      7930    3    0    1
 -2       288       285       292      2508
 -1      7931    3    0    1
 -2      1168      2685      1174      2909
 -1      7932    3    0    1
 -2       844       837       842      2546
 -1      7933    3    0    1
 -2      1846       384       386      2396
 -1      7934    3    0    1
 -2      2550      2677      2245      2984
 -1      7935    3    0    1
 -2       292      2508       285      2789
 -1      7936    3    0    1
 -2      1146      2623      2360      2796
 -1      7937    3    0    1
 -2      2302      2439      2938      2999
 -1      7938    3    0    1
 -2      1033      2035      2038      2700
 -1      7939    3    0    1
 -2      2480      2637      2285      2948
 -1      7940    3    0    1
 -2       933      2363      2543      3014
 -1      7941    3    0    1
 -2      2129      2685      2465      2958
 -1      7942    3    0    1
 -2      2322      2638      2398      3041
 -1      7943    3    0    1
 -2      2462      2503      2309      2751
 -1      7944    3    0    1
 -2       750       751       749      2578
 -1      7945    3    0    1
 -2      2306      2933      2735      3025
 -1      7946    3    0    1
 -2      2423      2444      2357      2974
 -1      7947    3    0    1
 -2       704      2380       700      2634
 -1      7948    3    0    1
 -2       113      2520       115      2749
 -1      7949    3    0    1
 -2      2405      2811      2237      3046
 -1      7950    3    0    1
 -2      1481      2636      2619      2965
 -1      7951    3    0    1
 -2      2254      2465      2387      2847
 -1      7952    3    0    1
 -2      2261      2574      2540      2813
 -1      7953    3    0    1
 -2      1457      1452      2605      2757
 -1      7954    3    0    1
 -2      2364      2613      1977      2802
 -1      7955    3    0    1
 -2      1988      1910      1829      2454
 -1      7956    3    0    1
 -2      2384      2727      2428      2910
 -1      7957    3    0    1
 -2       141      2374       119      2978
 -1      7958    3    0    1
 -2      1053      1044      2047      2511
 -1      7959    3    0    1
 -2      1034      2357      1037      2444
 -1      7960    3    0    1
 -2       249      2533       252      2706
 -1      7961    3    0    1
 -2      2435      2529      2279      2866
 -1      7962    3    0    1
 -2      2450      2552      2312      2962
 -1      7963    3    0    1
 -2      2240      2437      2708      2793
 -1      7964    3    0    1
 -2      2320      2874      2682      2890
 -1      7965    3    0    1
 -2      2366      2484      2266      3003
 -1      7966    3    0    1
 -2       750       751      2578      3007
 -1      7967    3    0    1
 -2      2352      2677      1170      2909
 -1      7968    3    0    1
 -2      1763      2404      2085      2426
 -1      7969    3    0    1
 -2      2425       888      2957      3019
 -1      7970    3    0    1
 -2      1281      1278      1279      2417
 -1      7971    3    0    1
 -2      2353      2615      2580      3032
 -1      7972    3    0    1
 -2      2382      2641       855      2922
 -1      7973    3    0    1
 -2       118      2520       114      2946
 -1      7974    3    0    1
 -2      2406      2791      2259      2936
 -1      7975    3    0    1
 -2      2480      2637      1863      2724
 -1      7976    3    0    1
 -2      2330      2504      2675      3015
 -1      7977    3    0    1
 -2      1463      2757      1457      2798
 -1      7978    3    0    1
 -2      2313      2789      2696      2864
 -1      7979    3    0    1
 -2       216       224       223      2463
 -1      7980    3    0    1
 -2      2522      2551      2258      2940
 -1      7981    3    0    1
 -2      2328      2582      1339      2779
 -1      7982    3    0    1
 -2      2385      2447      2272      2526
 -1      7983    3    0    1
 -2      2270      2536      2630      2747
 -1      7984    3    0    1
 -2      1299      1305      1303      2697
 -1      7985    3    0    1
 -2      1153      2360      1152      2557
 -1      7986    3    0    1
 -2      2589      2620      2290      2702
 -1      7987    3    0    1
 -2      2537      2786      2481      2888
 -1      7988    3    0    1
 -2      1041      1049      1042      2423
 -1      7989    3    0    1
 -2      2277      2680      2440      2777
 -1      7990    3    0    1
 -2       269      2494       264      2706
 -1      7991    3    0    1
 -2      2265      2377      2699      3035
 -1      7992    3    0    1
 -2       995       993      2705      3017
 -1      7993    3    0    1
 -2      2257      2455      2649      2712
 -1      7994    3    0    1
 -2      2306      2444      2357      2755
 -1      7995    3    0    1
 -2      2443      2557      2245      2841
 -1      7996    3    0    1
 -2      2595      2689      2358      2758
 -1      7997    3    0    1
 -2      2251      2524      2537      2843
 -1      7998    3    0    1
 -2      2314      2602      2553      2712
 -1      7999    3    0    1
 -2      2181      2187      2491      2923
 -1      8000    3    0    1
 -2      2502      2642      2409      2929
 -1      8001    3    0    1
 -2       320       335       325      2953
 -1      8002    3    0    1
 -2      2275      2438      2618      2997
 -1      8003    3    0    1
 -2      2468      2322      2758      3041
 -1      8004    3    0    1
 -2       389      2710      2810      3042
 -1      8005    3    0    1
 -2      2370      2568       898      2877
 -1      8006    3    0    1
 -2      1492      2919      1491      2921
 -1      8007    3    0    1
 -2      2326      2243      2558      2741
 -1      8008    3    0    1
 -2      1496      2673      2483      2987
 -1      8009    3    0    1
 -2       830      2773      2625      2790
 -1      8010    3    0    1
 -2      2361      2499      2315      2982
 -1      8011    3    0    1
 -2      2300      2656      2794      3019
 -1      8012    3    0    1
 -2      2429      2735      2028      2996
 -1      8013    3    0    1
 -2      2123      2592      2387      2734
 -1      8014    3    0    1
 -2      1690      1685      1691      2405
 -1      8015    3    0    1
 -2      1494       635      1433      2672
 -1      8016    3    0    1
 -2      1366      1369      1372      2442
 -1      8017    3    0    1
 -2      2541      2664       990      2705
 -1      8018    3    0    1
 -2      1929      2395      1930      2585
 -1      8019    3    0    1
 -2      2592      2671      2387      2881
 -1      8020    3    0    1
 -2       703      2325       709      2880
 -1      8021    3    0    1
 -2      2379      2562      2269      2678
 -1      8022    3    0    1
 -2      2381      2412      2231      2960
 -1      8023    3    0    1
 -2      1875      2401      1879      2692
 -1      8024    3    0    1
 -2      1859      1855      1854      2587
 -1      8025    3    0    1
 -2      2365      2769      2615      2881
 -1      8026    3    0    1
 -2      1856      2724      2318      2801
 -1      8027    3    0    1
 -2      2135      1743      2476      2905
 -1      8028    3    0    1
 -2       693      1078       690      3016
 -1      8029    3    0    1
 -2      2264      2441      2589      2900
 -1      8030    3    0    1
 -2      2463      2621      2282      2767
 -1      8031    3    0    1
 -2       407      2488       409      2891
 -1      8032    3    0    1
 -2      2439      2663       549      2746
 -1      8033    3    0    1
 -2      2217       686      2794      3019
 -1      8034    3    0    1
 -2      1708      1718      1719      2901
 -1      8035    3    0    1
 -2      1041      1037      1039      2423
 -1      8036    3    0    1
 -2      2575      2755      2306      2996
 -1      8037    3    0    1
 -2       110       112       113      2749
 -1      8038    3    0    1
 -2      1427      1428      2600      2853
 -1      8039    3    0    1
 -2      2340      2972      2900      3042
 -1      8040    3    0    1
 -2       941      2363       940      2762
 -1      8041    3    0    1
 -2      2340      2274      2710      3042
 -1      8042    3    0    1
 -2      2466      2558      1663      2858
 -1      8043    3    0    1
 -2      2331      2780      2429      2783
 -1      8044    3    0    1
 -2      2304      2878      2606      2971
 -1      8045    3    0    1
 -2       389      1835      1841      2710
 -1      8046    3    0    1
 -2      2429      2780      2324      2783
 -1      8047    3    0    1
 -2      1187      1178      1183      2538
 -1      8048    3    0    1
 -2       469      2513      2597      2695
 -1      8049    3    0    1
 -2      2423      2614      2256      2723
 -1      8050    3    0    1
 -2       917      2437      2763      2976
 -1      8051    3    0    1
 -2      2096      2759      2098      2815
 -1      8052    3    0    1
 -2       742       746       747      2331
 -1      8053    3    0    1
 -2      2483      2672      2287      3018
 -1      8054    3    0    1
 -2      2470      2894      2293      2914
 -1      8055    3    0    1
 -2       574       577       583      2532
 -1      8056    3    0    1
 -2      1839      2374      1985      2848
 -1      8057    3    0    1
 -2       693      2385      2634      2768
 -1      8058    3    0    1
 -2      1098       665       673      2378
 -1      8059    3    0    1
 -2      1988      1829      1883      2656
 -1      8060    3    0    1
 -2      2553      2649       336      2812
 -1      8061    3    0    1
 -2       156      2756       153      2810
 -1      8062    3    0    1
 -2       952      2425       821      3019
 -1      8063    3    0    1
 -2      2456      2289      2795      2879
 -1      8064    3    0    1
 -2      1542      2517      1538      2787
 -1      8065    3    0    1
 -2      1520      2501      1521      2539
 -1      8066    3    0    1
 -2      1587      1583      2479      2681
 -1      8067    3    0    1
 -2      2331      2620      2589      2702
 -1      8068    3    0    1
 -2       736      2575      2444      2760
 -1      8069    3    0    1
 -2      1047      2549      1721      2742
 -1      8070    3    0    1
 -2      1343      2779      1341      2941
 -1      8071    3    0    1
 -2      1315      1312      2481      2888
 -1      8072    3    0    1
 -2      1645      2361      1646      2499
 -1      8073    3    0    1
 -2      1434      2561      1487      2965
 -1      8074    3    0    1
 -2      2368      2701      2511      2785
 -1      8075    3    0    1
 -2      1190      2321      1197      2850
 -1      8076    3    0    1
 -2      2090      2731      2404      2759
 -1      8077    3    0    1
 -2      1541      1543      1537       737
 -1      8078    3    0    1
 -2      1260      2606      2482      2878
 -1      8079    3    0    1
 -2      2252      2528      2358      2758
 -1      8080    3    0    1
 -2      2340      2488      2441      2972
 -1      8081    3    0    1
 -2      2364      2917      2628      3000
 -1      8082    3    0    1
 -2      1087      1081      1080      2470
 -1      8083    3    0    1
 -2       455      2358       458      2695
 -1      8084    3    0    1
 -2       455       458       457      2695
 -1      8085    3    0    1
 -2      1702      1991       348      2449
 -1      8086    3    0    1
 -2      2323      2441      2900      2908
 -1      8087    3    0    1
 -2      1611      2505      1613      2546
 -1      8088    3    0    1
 -2       684       683       681      2470
 -1      8089    3    0    1
 -2      2395      2820      2371      2869
 -1      8090    3    0    1
 -2      2465      2685      2254      2958
 -1      8091    3    0    1
 -2      2353      2931      2600      3032
 -1      8092    3    0    1
 -2      2369      2486      2242      2703
 -1      8093    3    0    1
 -2      2268      2391      2727      2807
 -1      8094    3    0    1
 -2       573       565       574      2399
 -1      8095    3    0    1
 -2      2538      2662      2259      2943
 -1      8096    3    0    1
 -2      1804      1806      1803      2883
 -1      8097    3    0    1
 -2       522       521      2432      2770
 -1      8098    3    0    1
 -2      2252      2646      2398      2814
 -1      8099    3    0    1
 -2       665      2378       662      2806
 -1      8100    3    0    1
 -2       681      1087       677      2470
 -1      8101    3    0    1
 -2      1315      2786      1312      2888
 -1      8102    3    0    1
 -2      1368      1364      1365      2442
 -1      8103    3    0    1
 -2      2246      2556      2446      2916
 -1      8104    3    0    1
 -2      2282      2560      2472      2698
 -1      8105    3    0    1
 -2      1400       616      1373      2561
 -1      8106    3    0    1
 -2      2386      2459       310      2745
 -1      8107    3    0    1
 -2      2378      2232      2583      2863
 -1      8108    3    0    1
 -2      2236      2804      2444      3020
 -1      8109    3    0    1
 -2       204      2474       208      2767
 -1      8110    3    0    1
 -2       221      1242      2445      2506
 -1      8111    3    0    1
 -2      1772      1771      2570      2597
 -1      8112    3    0    1
 -2      2227      2373      2825      2892
 -1      8113    3    0    1
 -2      2743      2981      2426      3001
 -1      8114    3    0    1
 -2       431       438       439      2413
 -1      8115    3    0    1
 -2      1257      2878      2729      2971
 -1      8116    3    0    1
 -2      2967      3008      2306      3025
 -1      8117    3    0    1
 -2      2401      2285      2635      3034
 -1      8118    3    0    1
 -2      1513      1516      2337      2779
 -1      8119    3    0    1
 -2      1776      1779      2695      2935
 -1      8120    3    0    1
 -2      2245      2448      2841      2893
 -1      8121    3    0    1
 -2      1516      1336      2501      2779
 -1      8122    3    0    1
 -2        84        82      2354      2837
 -1      8123    3    0    1
 -2      1024      2429       747      2780
 -1      8124    3    0    1
 -2       896      2726      2370      2993
 -1      8125    3    0    1
 -2      1254      1698      2754      2945
 -1      8126    3    0    1
 -2      2345      2597      2513      2695
 -1      8127    3    0    1
 -2       858       863       850      2641
 -1      8128    3    0    1
 -2        65        62      2590      2939
 -1      8129    3    0    1
 -2      1283      1279      2373      2669
 -1      8130    3    0    1
 -2      2490      2717      2602      2802
 -1      8131    3    0    1
 -2      2504      2241      2675      3015
 -1      8132    3    0    1
 -2      1292      2486      2369      2703
 -1      8133    3    0    1
 -2      2330      2571      2382      2856
 -1      8134    3    0    1
 -2      2557      2677      2352      2909
 -1      8135    3    0    1
 -2      2359      2310      2462      2923
 -1      8136    3    0    1
 -2       320      2553       335      2953
 -1      8137    3    0    1
 -2      2484      2713      2346      2834
 -1      8138    3    0    1
 -2      2263      2345      2513      2720
 -1      8139    3    0    1
 -2      1469      2619      1468      2631
 -1      8140    3    0    1
 -2      2324      2563      2438      2997
 -1      8141    3    0    1
 -2       249       262       254      2706
 -1      8142    3    0    1
 -2      2251      2524      2713      2980
 -1      8143    3    0    1
 -2      2710      2904      2340      3042
 -1      8144    3    0    1
 -2      2237      2425      2460      2920
 -1      8145    3    0    1
 -2      1185      1193      1189      2840
 -1      8146    3    0    1
 -2      2266      2511      2368      2701
 -1      8147    3    0    1
 -2      2266      2608      2831      2974
 -1      8148    3    0    1
 -2      2457      2922      2571      2961
 -1      8149    3    0    1
 -2      2436      2803      2551      3045
 -1      8150    3    0    1
 -2      2295      2843      2410      2860
 -1      8151    3    0    1
 -2      1639      1631      1635      2504
 -1      8152    3    0    1
 -2      1357      2378      1361      2821
 -1      8153    3    0    1
 -2       593      2475      1472      2859
 -1      8154    3    0    1
 -2      1646      1653      2499      2954
 -1      8155    3    0    1
 -2       524       518       517      2684
 -1      8156    3    0    1
 -2      2571      2675      2241      3015
 -1      8157    3    0    1
 -2       124       117       118      2520
 -1      8158    3    0    1
 -2      2134      2142      2685      2958
 -1      8159    3    0    1
 -2      2253      2486      2369      2787
 -1      8160    3    0    1
 -2      1200      2393      1205      2748
 -1      8161    3    0    1
 -2        27        28        29      2853
 -1      8162    3    0    1
 -2       216      2463       215      2767
 -1      8163    3    0    1
 -2      1908      2577      1911      3023
 -1      8164    3    0    1
 -2      1797      1800      1799      2484
 -1      8165    3    0    1
 -2      2318      2724      2478      2801
 -1      8166    3    0    1
 -2      1413      1423      1422      2375
 -1      8167    3    0    1
 -2       515       517       518      2684
 -1      8168    3    0    1
 -2      1292      1295      2369      2787
 -1      8169    3    0    1
 -2      1260      1262      2729      2878
 -1      8170    3    0    1
 -2      2420      2515      2326      2572
 -1      8171    3    0    1
 -2       163       167       161      2898
 -1      8172    3    0    1
 -2      1592      2428      1248      2616
 -1      8173    3    0    1
 -2      2293      2447      2570      2721
 -1      8174    3    0    1
 -2      1250      2886      1249      2918
 -1      8175    3    0    1
 -2      1295      2787      1535      2912
 -1      8176    3    0    1
 -2      1402      2626      1406      2813
 -1      8177    3    0    1
 -2       853       889       796      2957
 -1      8178    3    0    1
 -2       309      1664      2531      2741
 -1      8179    3    0    1
 -2      1052       716      2723      2880
 -1      8180    3    0    1
 -2      2196      2201      2311      2640
 -1      8181    3    0    1
 -2       165       171       168      2394
 -1      8182    3    0    1
 -2      1848      2801      2376      2824
 -1      8183    3    0    1
 -2      1154      2402       637      2796
 -1      8184    3    0    1
 -2      1973       314      1967      1966
 -1      8185    3    0    1
 -2      1196      1190      1197      2850
 -1      8186    3    0    1
 -2      1417      2600      1416      2853
 -1      8187    3    0    1
 -2       875      2542      2457      2675
 -1      8188    3    0    1
 -2      2184      2176      2173      2686
 -1      8189    3    0    1
 -2      1876      1882      1879      2593
 -1      8190    3    0    1
 -2      2580      2615      2353      2881
 -1      8191    3    0    1
 -2       817      2643       815      2970
 -1      8192    3    0    1
 -2      2229      2985      2655      3035
 -1      8193    3    0    1
 -2      1875      2401      2637      2948
 -1      8194    3    0    1
 -2      2147      2154      1188      2662
 -1      8195    3    0    1
 -2      2237      2522      2405      3046
 -1      8196    3    0    1
 -2      2386      2459      2250      2788
 -1      8197    3    0    1
 -2       318      1673       311      2741
 -1      8198    3    0    1
 -2      2594      2639      2257      2920
 -1      8199    3    0    1
 -2       879       870      1632      2800
 -1      8200    3    0    1
 -2      1050      2785      2511      2872
 -1      8201    3    0    1
 -2      1014      1015      1011      2609
 -1      8202    3    0    1
 -2       737      1537      1541      2517
 -1      8203    3    0    1
 -2      2283      2344      2637      2752
 -1      8204    3    0    1
 -2       525      2432       521      2770
 -1      8205    3    0    1
 -2      1383      1376      1499      2861
 -1      8206    3    0    1
 -2      1089      2742       997      2852
 -1      8207    3    0    1
 -2       898       906       899      2568
 -1      8208    3    0    1
 -2        91      2398        89      2814
 -1      8209    3    0    1
 -2       191      2725       373      2752
 -1      8210    3    0    1
 -2      2313      2820      2395      2869
 -1      8211    3    0    1
 -2      1841      1842      2396      2618
 -1      8212    3    0    1
 -2      2104      2107      2110      2979
 -1      8213    3    0    1
 -2      2246      2519      2383      2556
 -1      8214    3    0    1
 -2       605       599       600      2416
 -1      8215    3    0    1
 -2      2413      2713      2484      2834
 -1      8216    3    0    1
 -2      2261      2781      2574      2808
 -1      8217    3    0    1
 -2       147      2417       144      2915
 -1      8218    3    0    1
 -2      2444      2974      2236      3020
 -1      8219    3    0    1
 -2       730      2355       727      2517
 -1      8220    3    0    1
 -2      2347      2631      2747      2998
 -1      8221    3    0    1
 -2        74      2327       459      2604
 -1      8222    3    0    1
 -2       621      1476       622      2619
 -1      8223    3    0    1
 -2      1870      2344      1871      2752
 -1      8224    3    0    1
 -2      1193      2347      1195      2840
 -1      8225    3    0    1
 -2       579       584       585      3004
 -1      8226    3    0    1
 -2      2101      1760      2103      2512
 -1      8227    3    0    1
 -2      2125      2387      2617      2734
 -1      8228    3    0    1
 -2       549      2439      2746      2999
 -1      8229    3    0    1
 -2      2262      2583      2378      2660
 -1      8230    3    0    1
 -2      2351      2605      1444      2757
 -1      8231    3    0    1
 -2      1806      1804      1807      2967
 -1      8232    3    0    1
 -2      1015      2431       760      2966
 -1      8233    3    0    1
 -2      2370      2726       896      2976
 -1      8234    3    0    1
 -2       991       990       988      2664
 -1      8235    3    0    1
 -2      2393      2619      2278      3029
 -1      8236    3    0    1
 -2      1684      1689      1687      2803
 -1      8237    3    0    1
 -2      1330      1419      1486      2945
 -1      8238    3    0    1
 -2      2585      2661      2265      2776
 -1      8239    3    0    1
 -2      1729      1732      1734      2742
 -1      8240    3    0    1
 -2      2247      2445      2384      2836
 -1      8241    3    0    1
 -2      2367      2364      2717      2917
 -1      8242    3    0    1
 -2      1647      2654      1645      2778
 -1      8243    3    0    1
 -2      2322      2689      2595      2758
 -1      8244    3    0    1
 -2      1778       457      1775      2695
 -1      8245    3    0    1
 -2      1835       386       389      1841
 -1      8246    3    0    1
 -2      2236      2974      2430      3025
 -1      8247    3    0    1
 -2      2273      2468      2366      2711
 -1      8248    3    0    1
 -2      1491      2403      1488      2921
 -1      8249    3    0    1
 -2       169      2362       167      2729
 -1      8250    3    0    1
 -2       254       264      1228      2674
 -1      8251    3    0    1
 -2      2348      2288      2627      2960
 -1      8252    3    0    1
 -2      1482      1487      1481      2965
 -1      8253    3    0    1
 -2      2538      2596      2259      2750
 -1      8254    3    0    1
 -2       105      2599       100      2980
 -1      8255    3    0    1
 -2      2665      2756       155      2898
 -1      8256    3    0    1
 -2      2258      2422      2522      2792
 -1      8257    3    0    1
 -2      2225      2360      2657      2847
 -1      8258    3    0    1
 -2      1144      2623      2617      3022
 -1      8259    3    0    1
 -2      2285      2635      2964      3009
 -1      8260    3    0    1
 -2      1400       616      2561      2965
 -1      8261    3    0    1
 -2      1111      2815      2722      3044
 -1      8262    3    0    1
 -2       749      2433       744      2865
 -1      8263    3    0    1
 -2      2591      2660      2281      2743
 -1      8264    3    0    1
 -2      2020      2019      2609      2816
 -1      8265    3    0    1
 -2      2282      2693      2761      2767
 -1      8266    3    0    1
 -2       122      1291       115      2703
 -1      8267    3    0    1
 -2      2332      2529      2435      2866
 -1      8268    3    0    1
 -2      1069      2088      2022      2652
 -1      8269    3    0    1
 -2      2239      2607      2415      2807
 -1      8270    3    0    1
 -2      1034      2444      1035      2755
 -1      8271    3    0    1
 -2      2138      2476      2406      2958
 -1      8272    3    0    1
 -2      2332      2842      2529      2866
 -1      8273    3    0    1
 -2       428      2713      2346      2969
 -1      8274    3    0    1
 -2        74      2327      2573      2838
 -1      8275    3    0    1
 -2      1848      1843      2376      2764
 -1      8276    3    0    1
 -2      2330      2675      2571      3015
 -1      8277    3    0    1
 -2      2224      2567      2528      3012
 -1      8278    3    0    1
 -2      2229      2699      2985      3035
 -1      8279    3    0    1
 -2      1324      1321      1325      2400
 -1      8280    3    0    1
 -2      1675      1676      1683      2326
 -1      8281    3    0    1
 -2       637      2402      2672      2796
 -1      8282    3    0    1
 -2      2511      2711      2266      3003
 -1      8283    3    0    1
 -2      1062      2380      2785      3002
 -1      8284    3    0    1
 -2       693      2634       698      2768
 -1      8285    3    0    1
 -2       291       282       288      2320
 -1      8286    3    0    1
 -2      1324      1321      2400      2887
 -1      8287    3    0    1
 -2      1283      1282      1279      2669
 -1      8288    3    0    1
 -2      2251      2599      2524      2980
 -1      8289    3    0    1
 -2       820       828       829      2458
 -1      8290    3    0    1
 -2      2457      2542       876      2877
 -1      8291    3    0    1
 -2      2384      2505      2247      2836
 -1      8292    3    0    1
 -2       837      2546      2625      2773
 -1      8293    3    0    1
 -2       517       515       513      2876
 -1      8294    3    0    1
 -2      1800      1803      1799      2484
 -1      8295    3    0    1
 -2      1659      1657      1656      2356
 -1      8296    3    0    1
 -2      2257      2649      2639      2978
 -1      8297    3    0    1
 -2      2437      2709      2244      2793
 -1      8298    3    0    1
 -2      2543      2990      2364      3000
 -1      8299    3    0    1
 -2      1716      2503      1715      2928
 -1      8300    3    0    1
 -2      2285      2453      2667      2885
 -1      8301    3    0    1
 -2       756       754      1556      2865
 -1      8302    3    0    1
 -2      2392      2753      2601      2828
 -1      8303    3    0    1
 -2      2366      2484      2413      2638
 -1      8304    3    0    1
 -2      2279      2529      2435      2882
 -1      8305    3    0    1
 -2      2446      2556       504      2916
 -1      8306    3    0    1
 -2      2458      2625      2268      2790
 -1      8307    3    0    1
 -2      2336      2483      2381      2913
 -1      8308    3    0    1
 -2      2430      3008      2967      3025
 -1      8309    3    0    1
 -2      2366      2701      2273      2711
 -1      8310    3    0    1
 -2      2401      2593      2298      2635
 -1      8311    3    0    1
 -2       783      2828      2469      3017
 -1      8312    3    0    1
 -2      2682      2874      2228      2890
 -1      8313    3    0    1
 -2      2027      1025      2026      2816
 -1      8314    3    0    1
 -2      1919      1913      2603      3023
 -1      8315    3    0    1
 -2      1598      2405      1685      2934
 -1      8316    3    0    1
 -2      1419      2919      1486      2945
 -1      8317    3    0    1
 -2      1295      1535      1300      2912
 -1      8318    3    0    1
 -2      2296      2671      2592      2881
 -1      8319    3    0    1
 -2       937      1678      1684      2659
 -1      8320    3    0    1
 -2      2063      2064      2487      2526
 -1      8321    3    0    1
 -2      1838      1842      2618      2764
 -1      8322    3    0    1
 -2      1521      1520      1519      2501
 -1      8323    3    0    1
 -2      2197      2405      1598      2934
 -1      8324    3    0    1
 -2      2305      2629      2592      2944
 -1      8325    3    0    1
 -2      2269      2407      2868      3004
 -1      8326    3    0    1
 -2       376      2587      2318      2925
 -1      8327    3    0    1
 -2       744      2433       749      2578
 -1      8328    3    0    1
 -2      2418      2569      1622      3047
 -1      8329    3    0    1
 -2      2317      2865      2578      3007
 -1      8330    3    0    1
 -2       717      2496      1530      2614
 -1      8331    3    0    1
 -2      1228      1230      1229      2674
 -1      8332    3    0    1
 -2       995      2705      2653      3017
 -1      8333    3    0    1
 -2      2200      2196      2201      2534
 -1      8334    3    0    1
 -2      2247      2569      2506      2836
 -1      8335    3    0    1
 -2       264      2674       254      2706
 -1      8336    3    0    1
 -2      1185      2750      1193      2840
 -1      8337    3    0    1
 -2      1861      1863      1867      2752
 -1      8338    3    0    1
 -2      1692      2522      1688      2826
 -1      8339    3    0    1
 -2      2403      2919      2464      2921
 -1      8340    3    0    1
 -2       830      2625       827      2790
 -1      8341    3    0    1
 -2      2297      2873      2650      3015
 -1      8342    3    0    1
 -2      1172      2352      1170      2909
 -1      8343    3    0    1
 -2        32      2540        33      2574
 -1      8344    3    0    1
 -2      1012      2609      2019      2816
 -1      8345    3    0    1
 -2      1326      1328      2354      2837
 -1      8346    3    0    1
 -2      1670      2659      1671      2942
 -1      8347    3    0    1
 -2      1004      1005       772      2500
 -1      8348    3    0    1
 -2      2411      2845      2469      3027
 -1      8349    3    0    1
 -2      2425       888      2875      2957
 -1      8350    3    0    1
 -2       503       504      2446      2556
 -1      8351    3    0    1
 -2      2332      2435      2529      2882
 -1      8352    3    0    1
 -2       837      2625       830      2773
 -1      8353    3    0    1
 -2       464       462       469      2513
 -1      8354    3    0    1
 -2       330      2311       337      2978
 -1      8355    3    0    1
 -2      1803      1799      2484      2834
 -1      8356    3    0    1
 -2      1995      1996       972      2829
 -1      8357    3    0    1
 -2      2254      2685      2909      2958
 -1      8358    3    0    1
 -2       266      2706      2738      2959
 -1      8359    3    0    1
 -2      1958      1968      1971      2367
 -1      8360    3    0    1
 -2      2134      2141      2142      2958
 -1      8361    3    0    1
 -2      2283      2424      2644      2885
 -1      8362    3    0    1
 -2      2121      2592      2124      2944
 -1      8363    3    0    1
 -2      2067      2069      2070      2799
 -1      8364    3    0    1
 -2      1952      1944      1949      2869
 -1      8365    3    0    1
 -2      1659      2356      1656      2858
 -1      8366    3    0    1
 -2      2162      2165      2159      2379
 -1      8367    3    0    1
 -2        60      2591      2590      2849
 -1      8368    3    0    1
 -2       705      1524      1526      2539
 -1      8369    3    0    1
 -2      2492      2682      2250      2708
 -1      8370    3    0    1
 -2       193       200       194      2474
 -1      8371    3    0    1
 -2      2153      2155      2159      2562
 -1      8372    3    0    1
 -2      1239      1614      2506      2569
 -1      8373    3    0    1
 -2      2382      2985      2291      3024
 -1      8374    3    0    1
 -2      1595      2616      1603      2643
 -1      8375    3    0    1
 -2      1098       662       665      2378
 -1      8376    3    0    1
 -2      2287      2672      2483      2899
 -1      8377    3    0    1
 -2       194       187       193      2886
 -1      8378    3    0    1
 -2      2281      2732      2442      2821
 -1      8379    3    0    1
 -2       240       247       246      2502
 -1      8380    3    0    1
 -2      2761      2910      2474      3034
 -1      8381    3    0    1
 -2      2320      2499      2361      2874
 -1      8382    3    0    1
 -2      2326      2551      2258      2827
 -1      8383    3    0    1
 -2      2401      2635      2560      3034
 -1      8384    3    0    1
 -2       139       148       146      2756
 -1      8385    3    0    1
 -2       943       935       938      2613
 -1      8386    3    0    1
 -2       292       297      2434      2789
 -1      8387    3    0    1
 -2      1266      2362      1264      2729
 -1      8388    3    0    1
 -2      1743      2663      2338      3033
 -1      8389    3    0    1
 -2      2067      2447      2069      2799
 -1      8390    3    0    1
 -2      2385      2337      2950      3016
 -1      8391    3    0    1
 -2      1901      2584      1898      2829
 -1      8392    3    0    1
 -2      2352      2538      2406      2909
 -1      8393    3    0    1
 -2      1796      1791      1797      2413
 -1      8394    3    0    1
 -2      2391      2301      2667      2964
 -1      8395    3    0    1
 -2      2167      2174      2166      2740
 -1      8396    3    0    1
 -2      1413      2626      1410      2884
 -1      8397    3    0    1
 -2      1385      1392      1386      2645
 -1      8398    3    0    1
 -2       896       885       883      2542
 -1      8399    3    0    1
 -2       903       907      2497      2895
 -1      8400    3    0    1
 -2       601      2687       608      2739
 -1      8401    3    0    1
 -2      1055      1089      2852      2911
 -1      8402    3    0    1
 -2      1021      1019      1068      2549
 -1      8403    3    0    1
 -2       206       200       207      2474
 -1      8404    3    0    1
 -2      2454      2656      2300      3019
 -1      8405    3    0    1
 -2      2053      2047      2048      2711
 -1      8406    3    0    1
 -2       112       110       107      2749
 -1      8407    3    0    1
 -2      1119      1121      2833      2979
 -1      8408    3    0    1
 -2      2334      2509      2460      2940
 -1      8409    3    0    1
 -2      2529      2842      2321      2866
 -1      8410    3    0    1
 -2      2315      2654      2361      2982
 -1      8411    3    0    1
 -2      2427      2933      2702      3020
 -1      8412    3    0    1
 -2       150      2665      2417      2756
 -1      8413    3    0    1
 -2       768       765       761      2715
 -1      8414    3    0    1
 -2      2269      2562      2527      2791
 -1      8415    3    0    1
 -2      2292      2606      2479      2918
 -1      8416    3    0    1
 -2        89      2398      2744      2814
 -1      8417    3    0    1
 -2      2295      2537      2524      2843
 -1      8418    3    0    1
 -2      2320      2890      2531      2954
 -1      8419    3    0    1
 -2      2243      2434      2492      2890
 -1      8420    3    0    1
 -2      2330      2382      2571      2922
 -1      8421    3    0    1
 -2      2252      2567      2548      2830
 -1      8422    3    0    1
 -2      1763      1762      2510      3001
 -1      8423    3    0    1
 -2        18        27      1417      2853
 -1      8424    3    0    1
 -2      1243      1244      1246      2445
 -1      8425    3    0    1
 -2        85      2624        91      2814
 -1      8426    3    0    1
 -2      2668      2879      2376      2995
 -1      8427    3    0    1
 -2      1772      1768      1771      2597
 -1      8428    3    0    1
 -2      1326      2400      1327      2582
 -1      8429    3    0    1
 -2      2414      2756      2323      2892
 -1      8430    3    0    1
 -2       520       603         3      2403
 -1      8431    3    0    1
 -2       726       725       730      2355
 -1      8432    3    0    1
 -2       935      1970       928      2544
 -1      8433    3    0    1
 -2      1291      2554      1290      2703
 -1      8434    3    0    1
 -2      2260      2893      2596      2936
 -1      8435    3    0    1
 -2      1413      1422      1415      2600
 -1      8436    3    0    1
 -2      2228      2874      2240      2890
 -1      8437    3    0    1
 -2       695      2501      1520      2539
 -1      8438    3    0    1
 -2      1552      1280      1557      2373
 -1      8439    3    0    1
 -2      2388      2862      1093      2863
 -1      8440    3    0    1
 -2      2387      2847      2465      3022
 -1      8441    3    0    1
 -2        90        84        88      2744
 -1      8442    3    0    1
 -2      2272      2487      2468      2728
 -1      8443    3    0    1
 -2      2294      2621      2472      2698
 -1      8444    3    0    1
 -2      1940      1943      2371      2962
 -1      8445    3    0    1
 -2      1248      1592      1590      2428
 -1      8446    3    0    1
 -2      2181      2187      2186      2491
 -1      8447    3    0    1
 -2       582       588       584      2372
 -1      8448    3    0    1
 -2       212      1245       202      2535
 -1      8449    3    0    1
 -2      2229      2856      2655      2985
 -1      8450    3    0    1
 -2      2259      2596      2538      2936
 -1      8451    3    0    1
 -2      1403      2483      1496      2673
 -1      8452    3    0    1
 -2      1469       622      2619      2631
 -1      8453    3    0    1
 -2       860       848       855      2382
 -1      8454    3    0    1
 -2      1000      1004      2392      2653
 -1      8455    3    0    1
 -2      2551      2658      2334      2952
 -1      8456    3    0    1
 -2        71      2573      2932      2939
 -1      8457    3    0    1
 -2      2366      2711      2049      3003
 -1      8458    3    0    1
 -2      1613      2546      2505      3030
 -1      8459    3    0    1
 -2      1748      2592      2121      2704
 -1      8460    3    0    1
 -2      1098       662      2378      2555
 -1      8461    3    0    1
 -2      2297      2674      2650      2873
 -1      8462    3    0    1
 -2      2256      2537      2481      2888
 -1      8463    3    0    1
 -2      1368      2519      2707      2947
 -1      8464    3    0    1
 -2      2097      2512      2101      2759
 -1      8465    3    0    1
 -2      1170      1172      1177      2352
 -1      8466    3    0    1
 -2      2487      2272      2768      3002
 -1      8467    3    0    1
 -2      1513      2337      2771      2941
 -1      8468    3    0    1
 -2      2463      2621      2294      2698
 -1      8469    3    0    1
 -2      2289      2541      2480      2885
 -1      8470    3    0    1
 -2      2400      2646      2354      2887
 -1      8471    3    0    1
 -2      1619      1622      2569      3047
 -1      8472    3    0    1
 -2       605      2403       603      2854
 -1      8473    3    0    1
 -2      1392      1394      2574      2813
 -1      8474    3    0    1
 -2      2059      2063      2064      2487
 -1      8475    3    0    1
 -2       204       196       205      2474
 -1      8476    3    0    1
 -2      1365      2442      1364      2821
 -1      8477    3    0    1
 -2       303      2696      2788      2789
 -1      8478    3    0    1
 -2      2253      2427      2702      3020
 -1      8479    3    0    1
 -2      2334      2659      2436      2952
 -1      8480    3    0    1
 -2      2378      2555      2232      2863
 -1      8481    3    0    1
 -2       687       680      1515      2771
 -1      8482    3    0    1
 -2      1067      2380      1062      3002
 -1      8483    3    0    1
 -2       299      2531      2434      2832
 -1      8484    3    0    1
 -2       693      2634      2385      3016
 -1      8485    3    0    1
 -2       193       196      2474      2559
 -1      8486    3    0    1
 -2      1491      2855      2403      2919
 -1      8487    3    0    1
 -2       221      1240      1242      2506
 -1      8488    3    0    1
 -2      1116      2495      1119      2722
 -1      8489    3    0    1
 -2      2254      2671      2819      2847
 -1      8490    3    0    1
 -2      2283      2489      2456      2644
 -1      8491    3    0    1
 -2      1034      1037      1035      2444
 -1      8492    3    0    1
 -2      1314      1317      2786      2887
 -1      8493    3    0    1
 -2      2655      2856      2382      2985
 -1      8494    3    0    1
 -2       794       786       790      2469
 -1      8495    3    0    1
 -2       465      2597      1770      2695
 -1      8496    3    0    1
 -2      2583      2863      2388      2894
 -1      8497    3    0    1
 -2       718      2614       720      2723
 -1      8498    3    0    1
 -2      1191      1197      1190      2321
 -1      8499    3    0    1
 -2      2385      2950      2470      3016
 -1      8500    3    0    1
 -2      2228      2371      2485      2820
 -1      8501    3    0    1
 -2      2369      2787      1295      2912
 -1      8502    3    0    1
 -2      2237      2509      2522      2940
 -1      8503    3    0    1
 -2      2277      2417      2756      2892
 -1      8504    3    0    1
 -2      2239      2415      2607      2698
 -1      8505    3    0    1
 -2       934      2543      2762      2990
 -1      8506    3    0    1
 -2      1460      2536      2260      2631
 -1      8507    3    0    1
 -2       167      2362       161      2898
 -1      8508    3    0    1
 -2      2446      2808      2781      2876
 -1      8509    3    0    1
 -2       490       492       493      2510
 -1      8510    3    0    1
 -2      2242      2486      2702      2908
 -1      8511    3    0    1
 -2      2252      2646      2548      2758
 -1      8512    3    0    1
 -2      2692      2693      2344      2761
 -1      8513    3    0    1
 -2       554       557       562      2338
 -1      8514    3    0    1
 -2      2206      2203      2405      3046
 -1      8515    3    0    1
 -2      2266      2357      2676      2974
 -1      8516    3    0    1
 -2       276      2738      2508      2959
 -1      8517    3    0    1
 -2       776       768       767      2493
 -1      8518    3    0    1
 -2      2163      2160      2159      2662
 -1      8519    3    0    1
 -2      2288      2683      2412      2960
 -1      8520    3    0    1
 -2      1600      2422      1692      2826
 -1      8521    3    0    1
 -2      1415      1409      1408      2540
 -1      8522    3    0    1
 -2      1777      1776      1774      2345
 -1      8523    3    0    1
 -2       316      2420       323      2515
 -1      8524    3    0    1
 -2      1435      2797        18      2853
 -1      8525    3    0    1
 -2      2395      2585      1929      2661
 -1      8526    3    0    1
 -2      2300      2639      2594      2920
 -1      8527    3    0    1
 -2      2086      2397      2089      2862
 -1      8528    3    0    1
 -2      1943      1950      2869      2962
 -1      8529    3    0    1
 -2      2241      2542      2485      2982
 -1      8530    3    0    1
 -2       981       978      2593      2766
 -1      8531    3    0    1
 -2      1894      1896      1899      2621
 -1      8532    3    0    1
 -2      2060      2064      1070      2487
 -1      8533    3    0    1
 -2      2334      2460      2658      2940
 -1      8534    3    0    1
 -2      1484      2859      1479      2921
 -1      8535    3    0    1
 -2      2180      2178      2094      2687
 -1      8536    3    0    1
 -2      2279      2857      2372      2907
 -1      8537    3    0    1
 -2      2361      2494      2320      2874
 -1      8538    3    0    1
 -2      2250      2688      2492      2708
 -1      8539    3    0    1
 -2      1890      2691      2472      2692
 -1      8540    3    0    1
 -2      1657      2356      1659      2497
 -1      8541    3    0    1
 -2      1567      1563      1569      2493
 -1      8542    3    0    1
 -2      1691      2405      1685      2811
 -1      8543    3    0    1
 -2      2254      2465      2847      3038
 -1      8544    3    0    1
 -2      2257      2455      2639      2649
 -1      8545    3    0    1
 -2       495      2556       503      3036
 -1      8546    3    0    1
 -2      2419      2833      2381      2960
 -1      8547    3    0    1
 -2      2285      2667      2424      2885
 -1      8548    3    0    1
 -2      2253      2933      2575      3020
 -1      8549    3    0    1
 -2      2089      2397      2092      2815
 -1      8550    3    0    1
 -2      2376      2668      1843      2824
 -1      8551    3    0    1
 -2      2285      2593      2401      2635
 -1      8552    3    0    1
 -2       112      2410       114      2520
 -1      8553    3    0    1
 -2      1783      2468      1789      2595
 -1      8554    3    0    1
 -2      2346      2608      2430      2975
 -1      8555    3    0    1
 -2        32      1405        31      2540
 -1      8556    3    0    1
 -2      2409      2333      2871      2929
 -1      8557    3    0    1
 -2      2552      2763      2312      2889
 -1      8558    3    0    1
 -2      1402      1396      1397      2350
 -1      8559    3    0    1
 -2       297      2788      2434      2789
 -1      8560    3    0    1
 -2      1282      1281      2417      2915
 -1      8561    3    0    1
 -2      2338      2439      2399      3048
 -1      8562    3    0    1
 -2      1316      1322      1323      2887
 -1      8563    3    0    1
 -2      2550      2245      2870      2984
 -1      8564    3    0    1
 -2       217       225      2463      2621
 -1      8565    3    0    1
 -2       637       635      2402      2984
 -1      8566    3    0    1
 -2       718      2496      2614      2723
 -1      8567    3    0    1
 -2      2230      2455      2490      2712
 -1      8568    3    0    1
 -2        82      2814      2354      2837
 -1      8569    3    0    1
 -2       524       528       526      2704
 -1      8570    3    0    1
 -2      2183      2185      2179      2901
 -1      8571    3    0    1
 -2      2589      2900      2441      2908
 -1      8572    3    0    1
 -2       207      2474       204      2767
 -1      8573    3    0    1
 -2       896      2542       883      2993
 -1      8574    3    0    1
 -2      1511      1506      1351      2565
 -1      8575    3    0    1
 -2      2290      2702      2486      2908
 -1      8576    3    0    1
 -2       288       292       291      2434
 -1      8577    3    0    1
 -2      2069      1777      2072      2935
 -1      8578    3    0    1
 -2      2283      2424      2559      2644
 -1      8579    3    0    1
 -2       790       786       783      2469
 -1      8580    3    0    1
 -2      1359      1356      1360      2821
 -1      8581    3    0    1
 -2      2360      1152      2557      3038
 -1      8582    3    0    1
 -2      2317      2715      2431      2825
 -1      8583    3    0    1
 -2      1789      2061      2058      2468
 -1      8584    3    0    1
 -2      2400      2481      2325      3010
 -1      8585    3    0    1
 -2      1627      2800      1623      2994
 -1      8586    3    0    1
 -2      2399      2439      2234      3048
 -1      8587    3    0    1
 -2       877      2457       876      2877
 -1      8588    3    0    1
 -2      2298      2560      2401      2635
 -1      8589    3    0    1
 -2       573      2666      2532      3004
 -1      8590    3    0    1
 -2      1074      2768      2526      2914
 -1      8591    3    0    1
 -2      2261      2350      2808      2813
 -1      8592    3    0    1
 -2      1111      2722      1110      3044
 -1      8593    3    0    1
 -2      1256      2482      1260      2606
 -1      8594    3    0    1
 -2      1843      1851      1850      2824
 -1      8595    3    0    1
 -2      2380      2714      2325      2880
 -1      8596    3    0    1
 -2       943      1975       935      2613
 -1      8597    3    0    1
 -2      1303      1305      1307      2697
 -1      8598    3    0    1
 -2      1776      2695      2345      2935
 -1      8599    3    0    1
 -2       869      2800      2675      2922
 -1      8600    3    0    1
 -2      2285      2480      2541      2885
 -1      8601    3    0    1
 -2      2661      2776      1921      3023
 -1      8602    3    0    1
 -2      1826      1828      1833      2930
 -1      8603    3    0    1
 -2      2356      2286      2709      2793
 -1      8604    3    0    1
 -2      1229       250       254      2586
 -1      8605    3    0    1
 -2      1199      1205      1200      2393
 -1      8606    3    0    1
 -2      2329      2493      2451      2753
 -1      8607    3    0    1
 -2      2412      2288      2629      2683
 -1      8608    3    0    1
 -2      2280      2451      2753      2777
 -1      8609    3    0    1
 -2      2507      2629      2288      2683
 -1      8610    3    0    1
 -2      1580      2482      2411      2845
 -1      8611    3    0    1
 -2      1843      1848      2376      2824
 -1      8612    3    0    1
 -2      2393      2321      2866      2983
 -1      8613    3    0    1
 -2      1104      1106      2397      2815
 -1      8614    3    0    1
 -2      2488      2579      2441      2972
 -1      8615    3    0    1
 -2      2113      2739      2051      2923
 -1      8616    3    0    1
 -2      1295      1292      2369      2703
 -1      8617    3    0    1
 -2      2179      2901      2185      2923
 -1      8618    3    0    1
 -2       211       212       202      2535
 -1      8619    3    0    1
 -2      1025      2429      2027      2996
 -1      8620    3    0    1
 -2      2398       442      2599      2980
 -1      8621    3    0    1
 -2      2639      2649      2455      2792
 -1      8622    3    0    1
 -2      2424      2667      2635      3034
 -1      8623    3    0    1
 -2      2288      2629      2507      2734
 -1      8624    3    0    1
 -2      1463      1453      1457      2757
 -1      8625    3    0    1
 -2      2325      2714      2380      2822
 -1      8626    3    0    1
 -2       862      2800       869      2922
 -1      8627    3    0    1
 -2      1893      2691      1891      3031
 -1      8628    3    0    1
 -2      2690      2706      2255      2738
 -1      8629    3    0    1
 -2      2602      2717      1979      2802
 -1      8630    3    0    1
 -2      2232      2397      2555      2610
 -1      8631    3    0    1
 -2       148      2414       153      2756
 -1      8632    3    0    1
 -2       454      2604      2358      2624
 -1      8633    3    0    1
 -2      2422      2649      2311      2792
 -1      8634    3    0    1
 -2      2243      2466      2531      2890
 -1      8635    3    0    1
 -2      1288       128      1284      2554
 -1      8636    3    0    1
 -2       991       993       990      2705
 -1      8637    3    0    1
 -2      1140      2623      1136      2988
 -1      8638    3    0    1
 -2      1444      1445      1438      2797
 -1      8639    3    0    1
 -2      2365      2663       546      2905
 -1      8640    3    0    1
 -2      1270      2451      1564      2680
 -1      8641    3    0    1
 -2      2269      2379      2678      2868
 -1      8642    3    0    1
 -2      2425      2794       821      3019
 -1      8643    3    0    1
 -2       794      2541      2469      3027
 -1      8644    3    0    1
 -2        82        88        84      2354
 -1      8645    3    0    1
 -2       554       557      2338      2663
 -1      8646    3    0    1
 -2      2086      2084      2397      2862
 -1      8647    3    0    1
 -2      2237      2460      2658      2920
 -1      8648    3    0    1
 -2       637      2402       635      2672
 -1      8649    3    0    1
 -2       113       117       115      2520
 -1      8650    3    0    1
 -2      2357      2266      2676      2782
 -1      8651    3    0    1
 -2       608       601       598      2687
 -1      8652    3    0    1
 -2      2315      2726      2370      2973
 -1      8653    3    0    1
 -2      2256      2888      2614      3043
 -1      8654    3    0    1
 -2      1353        55      2590      2732
 -1      8655    3    0    1
 -2      1099      1093      2862      2863
 -1      8656    3    0    1
 -2       490       493      1762      2510
 -1      8657    3    0    1
 -2       921       911      2497      2709
 -1      8658    3    0    1
 -2      1786      1791      1790      2926
 -1      8659    3    0    1
 -2       306      2386       305      2832
 -1      8660    3    0    1
 -2      1295      2369      1294      2703
 -1      8661    3    0    1
 -2       279      2508      2494      2959
 -1      8662    3    0    1
 -2      2347      2750      1193      2850
 -1      8663    3    0    1
 -2      2400      2906      2325      2949
 -1      8664    3    0    1
 -2      1945      2864      1939      2869
 -1      8665    3    0    1
 -2      1146      2360      1150      2796
 -1      8666    3    0    1
 -2      2346      2713       428      2834
 -1      8667    3    0    1
 -2       919      2544       924      2889
 -1      8668    3    0    1
 -2      2451      2493      2280      2753
 -1      8669    3    0    1
 -2      2269      2678      2562      2791
 -1      8670    3    0    1
 -2      2151      2150      1182      2652
 -1      8671    3    0    1
 -2      2403      2921      2464      2991
 -1      8672    3    0    1
 -2      2359      2686      2178      2687
 -1      8673    3    0    1
 -2      2440      2825      2227      2867
 -1      8674    3    0    1
 -2      2535      2886      2292      2918
 -1      8675    3    0    1
 -2      2226      2435      2866      2998
 -1      8676    3    0    1
 -2       525       524       521      2432
 -1      8677    3    0    1
 -2      2417      2892      2277      2992
 -1      8678    3    0    1
 -2      2267      2876      2612      2963
 -1      8679    3    0    1
 -2      2243      2531      2434      2890
 -1      8680    3    0    1
 -2       311      1673       309      2741
 -1      8681    3    0    1
 -2      1179      1174      1180      2538
 -1      8682    3    0    1
 -2      2010      1718      2066      2449
 -1      8683    3    0    1
 -2      1593      2616      1595      2643
 -1      8684    3    0    1
 -2      2452      2786      2537      2956
 -1      8685    3    0    1
 -2      1290      1291      1288      2554
 -1      8686    3    0    1
 -2      2538      2596      2352      2936
 -1      8687    3    0    1
 -2      1195      2748      2347      2850
 -1      8688    3    0    1
 -2      2256      2477      2888      3043
 -1      8689    3    0    1
 -2      2110      2107      2112      2627
 -1      8690    3    0    1
 -2      2298      2691      2408      3031
 -1      8691    3    0    1
 -2      1410      2626      1402      2899
 -1      8692    3    0    1
 -2      1409      1405      1404      2540
 -1      8693    3    0    1
 -2      1299      1305      2697      2956
 -1      8694    3    0    1
 -2      2320      2508      2682      2874
 -1      8695    3    0    1
 -2      2449      2462      2310      2923
 -1      8696    3    0    1
 -2       240      2577      2502      3028
 -1      8697    3    0    1
 -2      1896      1899      2621      3039
 -1      8698    3    0    1
 -2      1998       977      2408      3031
 -1      8699    3    0    1
 -2       150      1276       144      2417
 -1      8700    3    0    1
 -2      1990      2602      1979      2802
 -1      8701    3    0    1
 -2      2281      2743      2383      2849
 -1      8702    3    0    1
 -2      2347      2748      2631      2998
 -1      8703    3    0    1
 -2      2431      2601      2280      2715
 -1      8704    3    0    1
 -2      1877      1871      1870      2344
 -1      8705    3    0    1
 -2       436      2413       431      2834
 -1      8706    3    0    1
 -2       786       783      2469      3017
 -1      8707    3    0    1
 -2        43      2576        40      2916
 -1      8708    3    0    1
 -2       598      2687       601      2730
 -1      8709    3    0    1
 -2      2359      2462      2739      2923
 -1      8710    3    0    1
 -2      2258      2551      2522      2827
 -1      8711    3    0    1
 -2      2387      2835      2225      2847
 -1      8712    3    0    1
 -2      1645      2654      2499      2778
 -1      8713    3    0    1
 -2       401      2972      2904      3042
 -1      8714    3    0    1
 -2      2522      2803      2551      2940
 -1      8715    3    0    1
 -2      1418      2375      1413      2884
 -1      8716    3    0    1
 -2      1444      2605      2351      2733
 -1      8717    3    0    1
 -2       747      2331       746      2780
 -1      8718    3    0    1
 -2       121      2579       118      2946
 -1      8719    3    0    1
 -2      2219      2656      2218      2794
 -1      8720    3    0    1
 -2      2288      2734      2617      3022
 -1      8721    3    0    1
 -2      2354      2744      2398      2814
 -1      8722    3    0    1
 -2      1141      2617      1139      2988
 -1      8723    3    0    1
 -2       448      2624       453      2689
 -1      8724    3    0    1
 -2      1359      1364      2732      2821
 -1      8725    3    0    1
 -2      2391      2667      2635      2964
 -1      8726    3    0    1
 -2      2474      2535      2292      2910
 -1      8727    3    0    1
 -2      2158      2407      2166      2740
 -1      8728    3    0    1
 -2      2393      2850      2321      2983
 -1      8729    3    0    1
 -2      2417      2665      2277      2756
 -1      8730    3    0    1
 -2      1833      1834      1837      2618
 -1      8731    3    0    1
 -2      1962      2459       307      2696
 -1      8732    3    0    1
 -2       913       911      2437      2726
 -1      8733    3    0    1
 -2      2312      2568      2371      2962
 -1      8734    3    0    1
 -2      2258      2572      2326      2827
 -1      8735    3    0    1
 -2      1973      2717      1978      3040
 -1      8736    3    0    1
 -2      2213      2202      2194      2848
 -1      8737    3    0    1
 -2      2132      2131      2592      2905
 -1      8738    3    0    1
 -2       877       867      2457      2961
 -1      8739    3    0    1
 -2      2207      2201      2206      2311
 -1      8740    3    0    1
 -2      1958      2459      1961      2696
 -1      8741    3    0    1
 -2      2435      2279      2857      2866
 -1      8742    3    0    1
 -2       694       693      2501      2634
 -1      8743    3    0    1
 -2      2242      2520      2369      2703
 -1      8744    3    0    1
 -2      1681      1671      1677      2659
 -1      8745    3    0    1
 -2      1091      1097      2583      2863
 -1      8746    3    0    1
 -2      1173      1168      1174      2909
 -1      8747    3    0    1
 -2       782       779      2845      2955
 -1      8748    3    0    1
 -2      2252      2548      2646      2830
 -1      8749    3    0    1
 -2      1225      1654      1226      2320
 -1      8750    3    0    1
 -2      1004       778      1000      2392
 -1      8751    3    0    1
 -2       831       840       836      2467
 -1      8752    3    0    1
 -2      1428      2797      1435      2853
 -1      8753    3    0    1
 -2       786       794       993      2541
 -1      8754    3    0    1
 -2      1552      2373      1557      2736
 -1      8755    3    0    1
 -2       840      2467       831      2625
 -1      8756    3    0    1
 -2      1368      2442      1365      2707
 -1      8757    3    0    1
 -2       458       453       454      2358
 -1      8758    3    0    1
 -2       693      1074      2385      2768
 -1      8759    3    0    1
 -2      1622      2569      2418      3030
 -1      8760    3    0    1
 -2      2306      2357      2700      2755
 -1      8761    3    0    1
 -2      2480      2705      2289      2844
 -1      8762    3    0    1
 -2       727       730       725      2355
 -1      8763    3    0    1
 -2      2465      3022      2847      3038
 -1      8764    3    0    1
 -2       521      2432       514      2781
 -1      8765    3    0    1
 -2      1260      2729      1257      2878
 -1      8766    3    0    1
 -2       673       664       672      2565
 -1      8767    3    0    1
 -2      1265      1266      1262      2878
 -1      8768    3    0    1
 -2      1452      1445      1444      2757
 -1      8769    3    0    1
 -2      2617      2734      2387      3022
 -1      8770    3    0    1
 -2      2697      2749      1299      2956
 -1      8771    3    0    1
 -2      2124      2592      2123      2734
 -1      8772    3    0    1
 -2      2059      2056      2061      2487
 -1      8773    3    0    1
 -2      1519      1516      1336      2501
 -1      8774    3    0    1
 -2      1843      2668      2376      2764
 -1      8775    3    0    1
 -2      2268      2415      2607      2807
 -1      8776    3    0    1
 -2       570       561        13      2757
 -1      8777    3    0    1
 -2      1499      1376      1500      2861
 -1      8778    3    0    1
 -2      1629      2504      1626      2650
 -1      8779    3    0    1
 -2       709      2325      2496      2880
 -1      8780    3    0    1
 -2       860      2382       855      2922
 -1      8781    3    0    1
 -2      2560      2691      2401      2692
 -1      8782    3    0    1
 -2       443       393      2754      2855
 -1      8783    3    0    1
 -2      1929      1939      1930      2632
 -1      8784    3    0    1
 -2      2241      2774      2873      2982
 -1      8785    3    0    1
 -2      2301      2643      2616      2970
 -1      8786    3    0    1
 -2      2616      2643      2268      2773
 -1      8787    3    0    1
 -2      1794      1839      1820      2374
 -1      8788    3    0    1
 -2      2550      2893       626      3011
 -1      8789    3    0    1
 -2      2151      1182      1209      2652
 -1      8790    3    0    1
 -2      2289      2653      2392      2879
 -1      8791    3    0    1
 -2      2600      2931      2375      3032
 -1      8792    3    0    1
 -2      2300      2374      2639      2640
 -1      8793    3    0    1
 -2      2431      2715      2280      2825
 -1      8794    3    0    1
 -2       364      1888      2621      2693
 -1      8795    3    0    1
 -2      1743      2135      2476      3033
 -1      8796    3    0    1
 -2      2263      2426      2743      2981
 -1      8797    3    0    1
 -2       759      2715      2431      3007
 -1      8798    3    0    1
 -2      1639      2504      1635      2873
 -1      8799    3    0    1
 -2      2454      2957       888      3019
 -1      8800    3    0    1
 -2      1914      2349      1906      2719
 -1      8801    3    0    1
 -2      2260      2536      1459      2605
 -1      8802    3    0    1
 -2      2298      2391      2458      2807
 -1      8803    3    0    1
 -2      2613      2802      2271      2957
 -1      8804    3    0    1
 -2      1385      2498      1382      2645
 -1      8805    3    0    1
 -2      2505      2546      2276      3030
 -1      8806    3    0    1
 -2      1788       668      2215      2656
 -1      8807    3    0    1
 -2      2245      2550      2448      2893
 -1      8808    3    0    1
 -2       914      2763      2889      2976
 -1      8809    3    0    1
 -2      1227      1646      1641      2674
 -1      8810    3    0    1
 -2      1363      1361      1357      2378
 -1      8811    3    0    1
 -2      2511      2785      2273      2872
 -1      8812    3    0    1
 -2      2327      2604      2525      3012
 -1      8813    3    0    1
 -2      2352      2677      2557      2841
 -1      8814    3    0    1
 -2       160      2394       164      2898
 -1      8815    3    0    1
 -2      1359      1360      1364      2821
 -1      8816    3    0    1
 -2      2291      2719      2588      3024
 -1      8817    3    0    1
 -2      1633       910       874      1684
 -1      8818    3    0    1
 -2       910       937       874      1684
 -1      8819    3    0    1
 -2      2319      2588      2719      3024
 -1      8820    3    0    1
 -2      2018      2020      2019      2609
 -1      8821    3    0    1
 -2        71      2932      1340      2939
 -1      8822    3    0    1
 -2      1797      2484      2366      3003
 -1      8823    3    0    1
 -2       132       124       125      2818
 -1      8824    3    0    1
 -2       952      2425       888      2875
 -1      8825    3    0    1
 -2      1156      1159      1155      3038
 -1      8826    3    0    1
 -2      2091      2093      2090      2404
 -1      8827    3    0    1
 -2      2270      2757      2605      2902
 -1      8828    3    0    1
 -2      2241      2421      2542      2982
 -1      8829    3    0    1
 -2      1084      1086      1080      2894
 -1      8830    3    0    1
 -2      2025      2028      2024      2429
 -1      8831    3    0    1
 -2      2227      2620      2783      2867
 -1      8832    3    0    1
 -2      2128      2129      2387      2671
 -1      8833    3    0    1
 -2      1426      1435        18      2853
 -1      8834    3    0    1
 -2      1730      1735      1733      2545
 -1      8835    3    0    1
 -2      2249      2495      2722      3037
 -1      8836    3    0    1
 -2      1639      2654      2504      2873
 -1      8837    3    0    1
 -2      2557      2657      2245      2984
 -1      8838    3    0    1
 -2      1797      1792      2049      2366
 -1      8839    3    0    1
 -2      2085      2426      2404      2731
 -1      8840    3    0    1
 -2      2285      2964      2453      3009
 -1      8841    3    0    1
 -2      1402      2899      2350      2986
 -1      8842    3    0    1
 -2        89      2354        82      2814
 -1      8843    3    0    1
 -2      1280      2679      2373      2680
 -1      8844    3    0    1
 -2      1840        86       142      1795
 -1      8845    3    0    1
 -2      1423      1413      1418      2375
 -1      8846    3    0    1
 -2      2226      2747      2389      2868
 -1      8847    3    0    1
 -2      2335      2556      2510      3036
 -1      8848    3    0    1
 -2       711       766       713      2977
 -1      8849    3    0    1
 -2      2393      2866      2435      2998
 -1      8850    3    0    1
 -2      2332      2529      2686      2882
 -1      8851    3    0    1
 -2       488      2383       487      2849
 -1      8852    3    0    1
 -2       903      2497       911      2726
 -1      8853    3    0    1
 -2      1144      1139      1141      2617
 -1      8854    3    0    1
 -2      2390      2742      1213      2784
 -1      8855    3    0    1
 -2      1943      1940      2371      2775
 -1      8856    3    0    1
 -2      1199      2393      1200      2850
 -1      8857    3    0    1
 -2      1530      2888      1531      3043
 -1      8858    3    0    1
 -2      1028       742       747      2429
 -1      8859    3    0    1
 -2       127       137      1284      2554
 -1      8860    3    0    1
 -2      2089      2086      2092      2397
 -1      8861    3    0    1
 -2      1698       395      1254      2754
 -1      8862    3    0    1
 -2      2240      2726      2315      2973
 -1      8863    3    0    1
 -2      2212      2656      2221      2848
 -1      8864    3    0    1
 -2      1943      2775      2371      2869
 -1      8865    3    0    1
 -2      1511      2565      1351      2941
 -1      8866    3    0    1
 -2       879      2675       869      2800
 -1      8867    3    0    1
 -2      1786      1781      2595      2689
 -1      8868    3    0    1
 -2      1160      2557      1167      2677
 -1      8869    3    0    1
 -2      1868      2637      2480      2948
 -1      8870    3    0    1
 -2      2485      2774      2241      2982
 -1      8871    3    0    1
 -2      1427      2566      1429      2733
 -1      8872    3    0    1
 -2      2709      2942       929      3014
 -1      8873    3    0    1
 -2      2485      2820      2255      2874
 -1      8874    3    0    1
 -2      2297      2699      2871      2929
 -1      8875    3    0    1
 -2      2245      2841      2677      2893
 -1      8876    3    0    1
 -2      2147      1180      2142      2538
 -1      8877    3    0    1
 -2       594       598       601      2730
 -1      8878    3    0    1
 -2      1426      1428      1435      2853
 -1      8879    3    0    1
 -2      1907      1996      1995      2829
 -1      8880    3    0    1
 -2      1071      2064      2068      2526
 -1      8881    3    0    1
 -2      2280      2493      2601      2753
 -1      8882    3    0    1
 -2      2228      2874      2485      2982
 -1      8883    3    0    1
 -2      1452      1444      2605      2757
 -1      8884    3    0    1
 -2      2316      2744      2354      2887
 -1      8885    3    0    1
 -2      2504      2330      2650      3015
 -1      8886    3    0    1
 -2       823      2643       830      2790
 -1      8887    3    0    1
 -2      1475      2342      2619      2636
 -1      8888    3    0    1
 -2      1935      1934      1928      2851
 -1      8889    3    0    1
 -2      2460      2425      2875      2920
 -1      8890    3    0    1
 -2      2248      2539      2501      2634
 -1      8891    3    0    1
 -2      2470      2950      2385      2951
 -1      8892    3    0    1
 -2      1416      1417      2540      2600
 -1      8893    3    0    1
 -2      2068      1076      1071      2526
 -1      8894    3    0    1
 -2      2162      2158      2166      2740
 -1      8895    3    0    1
 -2      2212      1883      2656      2848
 -1      8896    3    0    1
 -2       483       481      2743      3001
 -1      8897    3    0    1
 -2      1530      2614      2888      3043
 -1      8898    3    0    1
 -2      1167      2909      2557      3038
 -1      8899    3    0    1
 -2      1622      1616      2569      3030
 -1      8900    3    0    1
 -2      2339      2535      2474      2910
 -1      8901    3    0    1
 -2      1469       622      1476      2619
 -1      8902    3    0    1
 -2      2368      2256      2714      2723
 -1      8903    3    0    1
 -2      2385      2526      2272      2768
 -1      8904    3    0    1
 -2       546       531       540      2905
 -1      8905    3    0    1
 -2      2230      2551      2455      2712
 -1      8906    3    0    1
 -2       693      2385      1074      3016
 -1      8907    3    0    1
 -2      2377      2547      2291      2603
 -1      8908    3    0    1
 -2      1530      2614      2496      2888
 -1      8909    3    0    1
 -2      1230      1637      1231      2674
 -1      8910    3    0    1
 -2      1130      2381      1136      3018
 -1      8911    3    0    1
 -2       503       504       508      2446
 -1      8912    3    0    1
 -2      1324      2400      1327      2887
 -1      8913    3    0    1
 -2      1206      2748      1205      3029
 -1      8914    3    0    1
 -2       637      2402      1154      2984
 -1      8915    3    0    1
 -2       334       336      2553      2649
 -1      8916    3    0    1
 -2      1481      1475      1482      2619
 -1      8917    3    0    1
 -2       195       194      2535      2886
 -1      8918    3    0    1
 -2      2420      2694      2515      2953
 -1      8919    3    0    1
 -2      2331      2702      2589      2933
 -1      8920    3    0    1
 -2      1347      1345      1350      2939
 -1      8921    3    0    1
 -2      2297      2774      2873      3015
 -1      8922    3    0    1
 -2      1248      1246      2428      2918
 -1      8923    3    0    1
 -2      2443      2302      2938      3049
 -1      8924    3    0    1
 -2       141       142      2374      2823
 -1      8925    3    0    1
 -2       431       436       438      2413
 -1      8926    3    0    1
 -2       888       952       852      3019
 -1      8927    3    0    1
 -2      2227      2825      2440      2892
 -1      8928    3    0    1
 -2        18      1417      1426      2853
 -1      8929    3    0    1
 -2      2091      2404      2090      2731
 -1      8930    3    0    1
 -2      1051       722      1049      2368
 -1      8931    3    0    1
 -2      1441      1432      1442      2870
 -1      8932    3    0    1
 -2      1527      2325      1526      2949
 -1      8933    3    0    1
 -2      2626      2884      2287      2899
 -1      8934    3    0    1
 -2      2345      2263      2570      2721
 -1      8935    3    0    1
 -2       734       730      2517      2760
 -1      8936    3    0    1
 -2      2449      2739      2462      2923
 -1      8937    3    0    1
 -2      1817      1818      1824      2735
 -1      8938    3    0    1
 -2      2226      2389      2678      2868
 -1      8939    3    0    1
 -2      2463      2621       225      3028
 -1      8940    3    0    1
 -2      1997      2408       974      2829
 -1      8941    3    0    1
 -2      2084      2731      2397      2862
 -1      8942    3    0    1
 -2      1391      1393      2986      2987
 -1      8943    3    0    1
 -2      2515      2531      2243      2741
 -1      8944    3    0    1
 -2      2704      2769      2365      2881
 -1      8945    3    0    1
 -2       286       285      2508      2789
 -1      8946    3    0    1
 -2       721      2423       722      2723
 -1      8947    3    0    1
 -2      2256      2477      2537      2888
 -1      8948    3    0    1
 -2       308      2531       299      2832
 -1      8949    3    0    1
 -2      1397      2350      1396      2645
 -1      8950    3    0    1
 -2       153      2756      2414      2810
 -1      8951    3    0    1
 -2       454       459      2358      2604
 -1      8952    3    0    1
 -2      2265      2377      2661      2690
 -1      8953    3    0    1
 -2      1205      2393      1202      3029
 -1      8954    3    0    1
 -2      2257      2602      2490      2712
 -1      8955    3    0    1
 -2      2551      2658      2455      2940
 -1      8956    3    0    1
 -2      2234      2389      2791      2936
 -1      8957    3    0    1
 -2      1327      2400      1326      2887
 -1      8958    3    0    1
 -2      2335      2512      2581      2968
 -1      8959    3    0    1
 -2      2434      2682      2492      2890
 -1      8960    3    0    1
 -2      2346      2969      2843      2975
 -1      8961    3    0    1
 -2      1612      1617       838      2546
 -1      8962    3    0    1
 -2       318       311      2515      2741
 -1      8963    3    0    1
 -2      2107      2114      2112      2627
 -1      8964    3    0    1
 -2      1960      2688      2552      2737
 -1      8965    3    0    1
 -2       897       896       900      2976
 -1      8966    3    0    1
 -2       150       147       146      2417
 -1      8967    3    0    1
 -2      1427      2797      1428      2853
 -1      8968    3    0    1
 -2      2438      2275      2867      2997
 -1      8969    3    0    1
 -2      2687      2730      2279      2740
 -1      8970    3    0    1
 -2      2265      2377      2603      2661
 -1      8971    3    0    1
 -2      2269      2532      2399      2666
 -1      8972    3    0    1
 -2       862       850       863      2641
 -1      8973    3    0    1
 -2      1475      1474      2342      2636
 -1      8974    3    0    1
 -2      2360      2796      2623      2835
 -1      8975    3    0    1
 -2       879      2421       878      2675
 -1      8976    3    0    1
 -2      1322      2354      1328      2837
 -1      8977    3    0    1
 -2        44       504      2556      2916
 -1      8978    3    0    1
 -2        89      2744      2354      2814
 -1      8979    3    0    1
 -2       629      2550      1175      2893
 -1      8980    3    0    1
 -2       481      2383      2743      2849
 -1      8981    3    0    1
 -2      1570      1569      1571      2451
 -1      8982    3    0    1
 -2      2282      2693      2692      2761
 -1      8983    3    0    1
 -2      2366      2728      2701      3041
 -1      8984    3    0    1
 -2      1704      2751      2754      2945
 -1      8985    3    0    1
 -2      1794      2210      2189      2374
 -1      8986    3    0    1
 -2       553       549      2439      2663
 -1      8987    3    0    1
 -2      1121      1127      2833      2979
 -1      8988    3    0    1
 -2      1206      1200      1205      2748
 -1      8989    3    0    1
 -2      2041      2045      2047      2782
 -1      8990    3    0    1
 -2      2223      2635      2560      2807
 -1      8991    3    0    1
 -2      2568      2889      1951      2962
 -1      8992    3    0    1
 -2       559       564      2399      2999
 -1      8993    3    0    1
 -2      2113      2052      2051      2739
 -1      8994    3    0    1
 -2       806       803       798      2453
 -1      8995    3    0    1
 -2      2380      2273      2785      3002
 -1      8996    3    0    1
 -2       877       868       867      2961
 -1      8997    3    0    1
 -2      1519      1522      1521      2949
 -1      8998    3    0    1
 -2       642      2796      2672      3018
 -1      8999    3    0    1
 -2       815      2964       813      2970
 -1      9000    3    0    1
 -2       768       777       772      2601
 -1      9001    3    0    1
 -2      1040      1041      1039      2782
 -1      9002    3    0    1
 -2       331      2422       259      2826
 -1      9003    3    0    1
 -2      2501      2539      2248      2906
 -1      9004    3    0    1
 -2       819      2391      2766      2964
 -1      9005    3    0    1
 -2       215       223       220      2445
 -1      9006    3    0    1
 -2       990      2541       804      3009
 -1      9007    3    0    1
 -2      1655      2466      1652      2954
 -1      9008    3    0    1
 -2        95      2534      2199      2927
 -1      9009    3    0    1
 -2      1379      1382      1381      2707
 -1      9010    3    0    1
 -2      2239      2473      2655      2846
 -1      9011    3    0    1
 -2      2567      2582      2248      2830
 -1      9012    3    0    1
 -2      2356      2286      2497      2709
 -1      9013    3    0    1
 -2      1183      1190      1187      2750
 -1      9014    3    0    1
 -2      1591      1561      2647      2811
 -1      9015    3    0    1
 -2        74        78        77      2573
 -1      9016    3    0    1
 -2       981       978      1999      2593
 -1      9017    3    0    1
 -2       459       458      2358      2897
 -1      9018    3    0    1
 -2       635      1494       636      2672
 -1      9019    3    0    1
 -2       135       126       409      2972
 -1      9020    3    0    1
 -2      2553      2823      2602      3040
 -1      9021    3    0    1
 -2      1421      1415      1422      2600
 -1      9022    3    0    1
 -2      2217      2794      2220      3019
 -1      9023    3    0    1
 -2      2125      2387      2129      2465
 -1      9024    3    0    1
 -2      2370      2568      2312      2976
 -1      9025    3    0    1
 -2      1662      2466      1655      2954
 -1      9026    3    0    1
 -2       258       337      2311      2649
 -1      9027    3    0    1
 -2      2260      2840      2596      2893
 -1      9028    3    0    1
 -2      2143      2138      2144      2527
 -1      9029    3    0    1
 -2      2217       668       686      3019
 -1      9030    3    0    1
 -2      1662      1663      1655      2466
 -1      9031    3    0    1
 -2      2331      2589      2783      2933
 -1      9032    3    0    1
 -2      2230      2455      2658      3000
 -1      9033    3    0    1
 -2       845       840       848      2467
 -1      9034    3    0    1
 -2       127      1284       128      2554
 -1      9035    3    0    1
 -2      2275      2601      2392      2995
 -1      9036    3    0    1
 -2       107       103      2524      2697
 -1      9037    3    0    1
 -2       169       167       172      2729
 -1      9038    3    0    1
 -2      1721      1728      2742      2928
 -1      9039    3    0    1
 -2      2403      2299      2921      2991
 -1      9040    3    0    1
 -2      2257      2649      2553      2712
 -1      9041    3    0    1
 -2      2525      2573      2327      3012
 -1      9042    3    0    1
 -2      1037      1034      1039      2357
 -1      9043    3    0    1
 -2      2397      2404      2232      2731
 -1      9044    3    0    1
 -2      2393      2748      1200      2850
 -1      9045    3    0    1
 -2      2470      2771      2337      2950
 -1      9046    3    0    1
 -2      2410      2843      2969      2975
 -1      9047    3    0    1
 -2      2389      2448      2260      2936
 -1      9048    3    0    1
 -2       606       498      2754      2854
 -1      9049    3    0    1
 -2      1294      2369      1295      2912
 -1      9050    3    0    1
 -2      2373      2680      2825      2892
 -1      9051    3    0    1
 -2      2598      2799      2293      2894
 -1      9052    3    0    1
 -2      2329      2718      2469      2795
 -1      9053    3    0    1
 -2      1729       997      1089      2742
 -1      9054    3    0    1
 -2      1114      1120       653      2419
 -1      9055    3    0    1
 -2      2371      2568      2284      2775
 -1      9056    3    0    1
 -2       711       787       766      2977
 -1      9057    3    0    1
 -2      1312      2786      1309      2888
 -1      9058    3    0    1
 -2      2387      2225      2629      2881
 -1      9059    3    0    1
 -2       820       824       828      2458
 -1      9060    3    0    1
 -2      1146      1152      1153      2360
 -1      9061    3    0    1
 -2        78      2525        77      2573
 -1      9062    3    0    1
 -2       653      2419      1124      2913
 -1      9063    3    0    1
 -2      1939      2864      2632      2869
 -1      9064    3    0    1
 -2      2324      2780      2429      2816
 -1      9065    3    0    1
 -2      2601      2753      2392      2995
 -1      9066    3    0    1
 -2      2234      2439      2399      2938
 -1      9067    3    0    1
 -2      2353      2580      2931      3032
 -1      9068    3    0    1
 -2       561      2797      2351      2999
 -1      9069    3    0    1
 -2       995      2006      2653      2705
 -1      9070    3    0    1
 -2      2259      2596      2347      2750
 -1      9071    3    0    1
 -2      2448      2902      2351      2938
 -1      9072    3    0    1
 -2      1074      2385      2768      2914
 -1      9073    3    0    1
 -2      2059      2064      2060      2487
 -1      9074    3    0    1
 -2      2280      2680      2451      2777
 -1      9075    3    0    1
 -2      1475      2619      1481      2636
 -1      9076    3    0    1
 -2      1423      1430      1429      2566
 -1      9077    3    0    1
 -2      2305      2580      2432      2769
 -1      9078    3    0    1
 -2       700      2634      2380      2768
 -1      9079    3    0    1
 -2      1596      1604      1608      2384
 -1      9080    3    0    1
 -2      1316      1323        90      2744
 -1      9081    3    0    1
 -2       100       105       104      2524
 -1      9082    3    0    1
 -2      2519      2576      2246      2707
 -1      9083    3    0    1
 -2       246       244       240      2502
 -1      9084    3    0    1
 -2      2275      2867      2609      2966
 -1      9085    3    0    1
 -2      2378      2555       662      2806
 -1      9086    3    0    1
 -2      1174      1179      1173      2538
 -1      9087    3    0    1
 -2      2381      2483      2287      3018
 -1      9088    3    0    1
 -2      1283      2373      1552      2669
 -1      9089    3    0    1
 -2       221      2445       220      2506
 -1      9090    3    0    1
 -2       766      2647      2461      2811
 -1      9091    3    0    1
 -2      2262      2514      2523      2950
 -1      9092    3    0    1
 -2       611       986      1277      2911
 -1      9093    3    0    1
 -2      1390      1397      1396      2645
 -1      9094    3    0    1
 -2      2675      2800      2330      2922
 -1      9095    3    0    1
 -2      2507      2734      2629      2944
 -1      9096    3    0    1
 -2      1006      2500      2013      2609
 -1      9097    3    0    1
 -2       878      2542       875      2675
 -1      9098    3    0    1
 -2      1990      2594      1987      2602
 -1      9099    3    0    1
 -2      2226      2678      2389      2747
 -1      9100    3    0    1
 -2      2288      2387      2734      3022
 -1      9101    3    0    1
 -2       165      2396       383      2924
 -1      9102    3    0    1
 -2      1721      1019      1695      2549
 -1      9103    3    0    1
 -2      2378      2583      2232      2660
 -1      9104    3    0    1
 -2      2284      2568      2370      2877
 -1      9105    3    0    1
 -2      2883      2967      2308      2975
 -1      9106    3    0    1
 -2       191      2559      2725      2752
 -1      9107    3    0    1
 -2      2528      2548      2252      2567
 -1      9108    3    0    1
 -2      2206      2405      2207      3046
 -1      9109    3    0    1
 -2      1059      1052      2785      2880
 -1      9110    3    0    1
 -2      2337      2771      2941      2950
 -1      9111    3    0    1
 -2      1532       727      2614      3043
 -1      9112    3    0    1
 -2      1870      2637      2344      2752
 -1      9113    3    0    1
 -2      2061      2468      1783      2595
 -1      9114    3    0    1
 -2      2546      2994      2276      3030
 -1      9115    3    0    1
 -2      1091      1093      2388      2894
 -1      9116    3    0    1
 -2      2240      2682      2228      2890
 -1      9117    3    0    1
 -2      2297      2533      2699      2929
 -1      9118    3    0    1
 -2      2686      2687      2279      2740
 -1      9119    3    0    1
 -2      1873      2664      2593      2948
 -1      9120    3    0    1
 -2      2480      2541      2289      2705
 -1      9121    3    0    1
 -2      1691      2509      1693      2522
 -1      9122    3    0    1
 -2      1425      2672      2402      2884
 -1      9123    3    0    1
 -2      1513      1341      1516      2779
 -1      9124    3    0    1
 -2       257      2585       267      2738
 -1      9125    3    0    1
 -2      2154      2161      1191      2662
 -1      9126    3    0    1
 -2      2108      2106      2103      2512
 -1      9127    3    0    1
 -2      1505      1506      1511      2565
 -1      9128    3    0    1
 -2      2481      2316      2537      3010
 -1      9129    3    0    1
 -2      1817      1823      2670      2930
 -1      9130    3    0    1
 -2      2387      2629      2225      2835
 -1      9131    3    0    1
 -2      1877      1870      1875      2344
 -1      9132    3    0    1
 -2      2470      2950      2337      3016
 -1      9133    3    0    1
 -2       990      2664      2541      3009
 -1      9134    3    0    1
 -2      2333      2409      2642      2929
 -1      9135    3    0    1
 -2       670      2454       795      3019
 -1      9136    3    0    1
 -2      2199      2927      2534      2934
 -1      9137    3    0    1
 -2      2243      2531      2515      2832
 -1      9138    3    0    1
 -2        61      2591        60      2849
 -1      9139    3    0    1
 -2       419      2883       418      2969
 -1      9140    3    0    1
 -2      2387      2465      2125      2617
 -1      9141    3    0    1
 -2       142        57       141      2374
 -1      9142    3    0    1
 -2      1320      1319      1399      2911
 -1      9143    3    0    1
 -2         3       520      2403      2855
 -1      9144    3    0    1
 -2      2230      2628      2471      2917
 -1      9145    3    0    1
 -2      2289      2541      2469      3017
 -1      9146    3    0    1
 -2       549      2746       550      2999
 -1      9147    3    0    1
 -2      2078      2388      2077      2598
 -1      9148    3    0    1
 -2      2262      2941      2771      2950
 -1      9149    3    0    1
 -2       778      1000      2392      3017
 -1      9150    3    0    1
 -2       608       609       607      2739
 -1      9151    3    0    1
 -2      1281      1276      1278      2417
 -1      9152    3    0    1
 -2      2421      2315      2895      2993
 -1      9153    3    0    1
 -2       793       789      2845      3027
 -1      9154    3    0    1
 -2      2276      2546      2641      2994
 -1      9155    3    0    1
 -2         3      2403      1420      2855
 -1      9156    3    0    1
 -2      2360      2225      2835      2847
 -1      9157    3    0    1
 -2      2262      2771      2470      2950
 -1      9158    3    0    1
 -2      2393      2748      2619      3029
 -1      9159    3    0    1
 -2      2015      2609      2500      2764
 -1      9160    3    0    1
 -2       944      2334       910      2989
 -1      9161    3    0    1
 -2      2125      2617      2119      2734
 -1      9162    3    0    1
 -2      1847      1842      1848      2801
 -1      9163    3    0    1
 -2      2326      2551      2436      2772
 -1      9164    3    0    1
 -2      1576      2192      2190      2811
 -1      9165    3    0    1
 -2      2118      2124      2734      2944
 -1      9166    3    0    1
 -2      2021      2025      2024      2816
 -1      9167    3    0    1
 -2      2363      2762      2990      3000
 -1      9168    3    0    1
 -2      2031      2034      2033      3008
 -1      9169    3    0    1
 -2      2285      2541      2453      2885
 -1      9170    3    0    1
 -2       161      2362      2665      2898
 -1      9171    3    0    1
 -2      2225      2931      2580      3032
 -1      9172    3    0    1
 -2      1441      2550      1440      2870
 -1      9173    3    0    1
 -2      2481      2496      2256      2888
 -1      9174    3    0    1
 -2      1839      1820      2374      2848
 -1      9175    3    0    1
 -2      2309      2754      2751      2945
 -1      9176    3    0    1
 -2      2315      2726      2778      2895
 -1      9177    3    0    1
 -2      2302      2353      2600      3032
 -1      9178    3    0    1
 -2      2225      2615      2580      2881
 -1      9179    3    0    1
 -2      2069      2067      2065      2447
 -1      9180    3    0    1
 -2      2094       539      2052      2739
 -1      9181    3    0    1
 -2      1444      1438      1437      2797
 -1      9182    3    0    1
 -2      1834      1828      2021      2997
 -1      9183    3    0    1
 -2      2432      2580      2305      2683
 -1      9184    3    0    1
 -2      2577      2776       240      2817
 -1      9185    3    0    1
 -2      2012      2500      2653      2668
 -1      9186    3    0    1
 -2      2142      2147      2538      2943
 -1      9187    3    0    1
 -2      2428      2616      2301      2727
 -1      9188    3    0    1
 -2        71      2573        77      2932
 -1      9189    3    0    1
 -2      1421      1422      1427      2600
 -1      9190    3    0    1
 -2      1241      1244      2445      2836
 -1      9191    3    0    1
 -2      2557      2677      2245      2841
 -1      9192    3    0    1
 -2      1921      2661      2585      2776
 -1      9193    3    0    1
 -2       798      2453       803      3027
 -1      9194    3    0    1
 -2       650      2861      2913      2987
 -1      9195    3    0    1
 -2      2316      2537      2452      2786
 -1      9196    3    0    1
 -2      1726      1388      1374      2545
 -1      9197    3    0    1
 -2      2529      2857      2279      2866
 -1      9198    3    0    1
 -2      1130      2833      2381      2913
 -1      9199    3    0    1
 -2       496       487       488      2383
 -1      9200    3    0    1
 -2       429       105      2713      2969
 -1      9201    3    0    1
 -2      1611      1607      2505      2773
 -1      9202    3    0    1
 -2      2539      2906      2501      2949
 -1      9203    3    0    1
 -2       734       731       730      2760
 -1      9204    3    0    1
 -2      1735      1733      2545      2852
 -1      9205    3    0    1
 -2      1656      2356      1657      2778
 -1      9206    3    0    1
 -2        85        83       454      2604
 -1      9207    3    0    1
 -2       990       804       808      3009
 -1      9208    3    0    1
 -2       643      2483       642      2673
 -1      9209    3    0    1
 -2      1348      1345      1343      2941
 -1      9210    3    0    1
 -2      2342      2747      2631      2998
 -1      9211    3    0    1
 -2      2371      2869      2450      2962
 -1      9212    3    0    1
 -2       436      2713      2413      2834
 -1      9213    3    0    1
 -2       899      2568       887      2877
 -1      9214    3    0    1
 -2       542      2746      2365      2769
 -1      9215    3    0    1
 -2      2606      2886      1252      2918
 -1      9216    3    0    1
 -2      1804      2484      1801      2676
 -1      9217    3    0    1
 -2      2347      2747      2631      2840
 -1      9218    3    0    1
 -2       804      2453       803      3009
 -1      9219    3    0    1
 -2       279       280      2508      2959
 -1      9220    3    0    1
 -2       731       726       730      2355
 -1      9221    3    0    1
 -2      2243      2471      2694      2772
 -1      9222    3    0    1
 -2       727      1534      2517      3043
 -1      9223    3    0    1
 -2      2250      2450      2688      2708
 -1      9224    3    0    1
 -2      2311      2405      2792      3046
 -1      9225    3    0    1
 -2      1185      2596      2750      2840
 -1      9226    3    0    1
 -2      1749      2684       526      2704
 -1      9227    3    0    1
 -2      2393      2983      2866      2998
 -1      9228    3    0    1
 -2      2522      2826      2258      2827
 -1      9229    3    0    1
 -2      1953      2450      1950      2962
 -1      9230    3    0    1
 -2      2447      2914      2385      2951
 -1      9231    3    0    1
 -2       794      2469       790      3027
 -1      9232    3    0    1
 -2      1438      1446        13      2797
 -1      9233    3    0    1
 -2       459       463       462      2897
 -1      9234    3    0    1
 -2      1783      1789      1786      2595
 -1      9235    3    0    1
 -2      1716      1719      1713      2751
 -1      9236    3    0    1
 -2       258      2534       157      2927
 -1      9237    3    0    1
 -2      1119      1120      2419      2833
 -1      9238    3    0    1
 -2      1708      1719      1716      2928
 -1      9239    3    0    1
 -2      2226      2630      2868      2907
 -1      9240    3    0    1
 -2      1000      2653      2392      3017
 -1      9241    3    0    1
 -2      1008       772      1005      2966
 -1      9242    3    0    1
 -2      2627      2833      1127      2979
 -1      9243    3    0    1
 -2      1476       621      1483      2619
 -1      9244    3    0    1
 -2      2401      2593      2285      2948
 -1      9245    3    0    1
 -2      1587      1583      1585      2479
 -1      9246    3    0    1
 -2      2167      2166      2407      2740
 -1      9247    3    0    1
 -2      2400      2354      2646      2830
 -1      9248    3    0    1
 -2      1622      1618      1616      3030
 -1      9249    3    0    1
 -2       104       109      2524      2969
 -1      9250    3    0    1
 -2      2226      2866      2379      2983
 -1      9251    3    0    1
 -2       223      2463       224      2642
 -1      9252    3    0    1
 -2      2236      2608      2430      2974
 -1      9253    3    0    1
 -2      2344      2761      2474      3034
 -1      9254    3    0    1
 -2       263       262       249      2706
 -1      9255    3    0    1
 -2      1784       445      1785      2689
 -1      9256    3    0    1
 -2        31      1405      1412      2540
 -1      9257    3    0    1
 -2      1527      1325      1318      2481
 -1      9258    3    0    1
 -2       740       739       737      2517
 -1      9259    3    0    1
 -2      2460      2875      2658      2920
 -1      9260    3    0    1
 -2       156      2810       160      2898
 -1      9261    3    0    1
 -2      2404      2426      2232      2731
 -1      9262    3    0    1
 -2      2226      2379      2678      2983
 -1      9263    3    0    1
 -2      2295      2369      2749      2912
 -1      9264    3    0    1
 -2      1382      2498      1381      2707
 -1      9265    3    0    1
 -2      2075      2070      2072      2570
 -1      9266    3    0    1
 -2      2458      2790      2268      2807
 -1      9267    3    0    1
 -2      2560      2761      2401      3034
 -1      9268    3    0    1
 -2      1792      1797      1791      2366
 -1      9269    3    0    1
 -2      2472      2621      2294      3013
 -1      9270    3    0    1
 -2       500       503       505      3036
 -1      9271    3    0    1
 -2      2295      2524      2452      2697
 -1      9272    3    0    1
 -2      1150      1153      1154      2796
 -1      9273    3    0    1
 -2      1423      2375      1418      2884
 -1      9274    3    0    1
 -2      1879      1882      1881      2691
 -1      9275    3    0    1
 -2      1912      1907      2588      2719
 -1      9276    3    0    1
 -2       647      2483       646      2987
 -1      9277    3    0    1
 -2      2353      2540      2261      2770
 -1      9278    3    0    1
 -2      1708      1716      1715      2928
 -1      9279    3    0    1
 -2       438       444      2926      2980
 -1      9280    3    0    1
 -2       387       386       384      2396
 -1      9281    3    0    1
 -2      1365      1366      1372      2442
 -1      9282    3    0    1
 -2       554       548       547      2663
 -1      9283    3    0    1
 -2       463       467      2513      2838
 -1      9284    3    0    1
 -2      2257      2374      2823      2978
 -1      9285    3    0    1
 -2       144      2417      1281      2915
 -1      9286    3    0    1
 -2       263       256       266      2706
 -1      9287    3    0    1
 -2      1889      1890      2472      2692
 -1      9288    3    0    1
 -2      2345      2528      2447      2935
 -1      9289    3    0    1
 -2      2507      2683      2267      2944
 -1      9290    3    0    1
 -2      2490      2602      2314      2712
 -1      9291    3    0    1
 -2      2629      2683      2507      2944
 -1      9292    3    0    1
 -2      2803      2827      2551      3045
 -1      9293    3    0    1
 -2      1153      2557      1160      2984
 -1      9294    3    0    1
 -2      2347      2750      2596      2840
 -1      9295    3    0    1
 -2      2542      2982      2421      2993
 -1      9296    3    0    1
 -2      2334      2658      2551      2940
 -1      9297    3    0    1
 -2      2527      2562      2152      2943
 -1      9298    3    0    1
 -2      2302      2439      2615      2938
 -1      9299    3    0    1
 -2       423       419      2834      2883
 -1      9300    3    0    1
 -2      1758      1755      2103      2612
 -1      9301    3    0    1
 -2      2232      2583      2388      2648
 -1      9302    3    0    1
 -2      1339      2328      2765      2932
 -1      9303    3    0    1
 -2      2304      2564      2362      2729
 -1      9304    3    0    1
 -2      1195      2347      2748      2840
 -1      9305    3    0    1
 -2      2452      2599      2316      2744
 -1      9306    3    0    1
 -2      2492      2793      2466      2890
 -1      9307    3    0    1
 -2      1863      2637      1867      2752
 -1      9308    3    0    1
 -2      2904      2972      2340      3042
 -1      9309    3    0    1
 -2      2270      2868      2532      2902
 -1      9310    3    0    1
 -2      2347      2259      2750      2983
 -1      9311    3    0    1
 -2       399       397       401      3042
 -1      9312    3    0    1
 -2      2085      2404      2091      2731
 -1      9313    3    0    1
 -2      1062      1067       700      2380
 -1      9314    3    0    1
 -2      1495      2672      1411      2673
 -1      9315    3    0    1
 -2       601       607       571      2739
 -1      9316    3    0    1
 -2      2276      2607      2467      2625
 -1      9317    3    0    1
 -2      1778      1775      1779      2695
 -1      9318    3    0    1
 -2      1422      1429      1427      2566
 -1      9319    3    0    1
 -2      2855      2919      1419      2945
 -1      9320    3    0    1
 -2      2251      2537      2516      2831
 -1      9321    3    0    1
 -2      1940      2568      2775      2851
 -1      9322    3    0    1
 -2       337      2649       331      2812
 -1      9323    3    0    1
 -2      1402      1397      1398      2986
 -1      9324    3    0    1
 -2       498       497       606      2754
 -1      9325    3    0    1
 -2      1129      1136      1130      2381
 -1      9326    3    0    1
 -2       542       543      2746      2769
 -1      9327    3    0    1
 -2      1376      1383      1382      2498
 -1      9328    3    0    1
 -2       269       272       264      2494
 -1      9329    3    0    1
 -2      2037      2430      1804      2676
 -1      9330    3    0    1
 -2      1183      2662      1191      2750
 -1      9331    3    0    1
 -2      2257      2490      2455      2712
 -1      9332    3    0    1
 -2      1370      1367      2519      2947
 -1      9333    3    0    1
 -2      1310       102      1307      2452
 -1      9334    3    0    1
 -2       240       247      2502      2817
 -1      9335    3    0    1
 -2       924      1970      1965      2544
 -1      9336    3    0    1
 -2      2420      2326      2515      2694
 -1      9337    3    0    1
 -2        43      1380        40      2576
 -1      9338    3    0    1
 -2      1622      2418      1618      3030
 -1      9339    3    0    1
 -2      2257      2594      2490      2602
 -1      9340    3    0    1
 -2       477      2743       481      3001
 -1      9341    3    0    1
 -2      1254      1720      1698      2945
 -1      9342    3    0    1
 -2       186      2489       376      2587
 -1      9343    3    0    1
 -2      1028      2429      1024      2996
 -1      9344    3    0    1
 -2       165       387       383      2396
 -1      9345    3    0    1
 -2       899       887       898      2877
 -1      9346    3    0    1
 -2      1333      1339      1332      2932
 -1      9347    3    0    1
 -2      1492      2464      2919      2921
 -1      9348    3    0    1
 -2      2274      2618      2438      2710
 -1      9349    3    0    1
 -2      1372      1365      2442      2707
 -1      9350    3    0    1
 -2      2500      2668      2014      2764
 -1      9351    3    0    1
 -2      2346      2843      2608      2975
 -1      9352    3    0    1
 -2      2448      2605      2351      2902
 -1      9353    3    0    1
 -2        38      2574        36      2781
 -1      9354    3    0    1
 -2      2430      2676      2037      3008
 -1      9355    3    0    1
 -2      2235      2392      2753      2995
 -1      9356    3    0    1
 -2        93      1310      1316      2452
 -1      9357    3    0    1
 -2      2148      2156      2152      2527
 -1      9358    3    0    1
 -2       169       161       167      2362
 -1      9359    3    0    1
 -2      2030      2028      2735      2996
 -1      9360    3    0    1
 -2       245      2929      2586      2937
 -1      9361    3    0    1
 -2       487      2383       481      2849
 -1      9362    3    0    1
 -2       990       808      2664      3009
 -1      9363    3    0    1
 -2      2367      2244      2688      2737
 -1      9364    3    0    1
 -2       776       782      2828      2955
 -1      9365    3    0    1
 -2      1338      2932      2765      2939
 -1      9366    3    0    1
 -2      2239      2584      2472      2846
 -1      9367    3    0    1
 -2      2429      2563      2324      2816
 -1      9368    3    0    1
 -2       778      1004       772      2392
 -1      9369    3    0    1
 -2       107       104       109      2524
 -1      9370    3    0    1
 -2      2338      2903      1742      3033
 -1      9371    3    0    1
 -2      1807      2967      2430      3008
 -1      9372    3    0    1
 -2      1141      1132      2617      2988
 -1      9373    3    0    1
 -2      1908      2776      2577      3023
 -1      9374    3    0    1
 -2      2388      2232      2648      2731
 -1      9375    3    0    1
 -2      2224      2514      2523      2805
 -1      9376    3    0    1
 -2      2261      2353      2580      2931
 -1      9377    3    0    1
 -2      2149      1741      2839      2903
 -1      9378    3    0    1
 -2       831      2625      2458      2790
 -1      9379    3    0    1
 -2      1368      1370      1364      2519
 -1      9380    3    0    1
 -2       419      2346      2883      2969
 -1      9381    3    0    1
 -2      1326      1332      1328      2837
 -1      9382    3    0    1
 -2        82        89        88      2354
 -1      9383    3    0    1
 -2      1326      1333      1332      2582
 -1      9384    3    0    1
 -2      1601      2643      1603      2773
 -1      9385    3    0    1
 -2      1147      1152      1144      3038
 -1      9386    3    0    1
 -2      1488      2403      1484      2921
 -1      9387    3    0    1
 -2      2511      2266      2782      3003
 -1      9388    3    0    1
 -2      2390      2310      2549      2928
 -1      9389    3    0    1
 -2      1293       115      2703      2749
 -1      9390    3    0    1
 -2      1797      2366      2049      3003
 -1      9391    3    0    1
 -2      2241      2571      2457      2675
 -1      9392    3    0    1
 -2      2052       402      2051      2739
 -1      9393    3    0    1
 -2       200       201       194      2535
 -1      9394    3    0    1
 -2      2297      2650      2586      3047
 -1      9395    3    0    1
 -2      2231      2683      2808      2968
 -1      9396    3    0    1
 -2      2251      2516      2608      2831
 -1      9397    3    0    1
 -2      2447      2526      2385      2914
 -1      9398    3    0    1
 -2      2315      2370      2726      2993
 -1      9399    3    0    1
 -2      1777      1776      2345      2935
 -1      9400    3    0    1
 -2      2271      2454      2425      2957
 -1      9401    3    0    1
 -2      2217      2220       668      3019
 -1      9402    3    0    1
 -2      1758      2612      1760      3036
 -1      9403    3    0    1
 -2      1130      2913      2381      3018
 -1      9404    3    0    1
 -2      1631      1639      1638      2504
 -1      9405    3    0    1
 -2       454      2358       453      2624
 -1      9406    3    0    1
 -2      1408      1413      1415      2626
 -1      9407    3    0    1
 -2      1928      2547      1920      2611
 -1      9408    3    0    1
 -2      2127      2549      2062      2652
 -1      9409    3    0    1
 -2       272       279       282      2494
 -1      9410    3    0    1
 -2       336      2649       337      2812
 -1      9411    3    0    1
 -2       355      2577      1909      2776
 -1      9412    3    0    1
 -2       797       798       803      3027
 -1      9413    3    0    1
 -2      1637      1630      2650      2873
 -1      9414    3    0    1
 -2        33      2540       527      2770
 -1      9415    3    0    1
 -2      2387      2592      2629      2734
 -1      9416    3    0    1
 -2      1624      2418      1622      3047
 -1      9417    3    0    1
 -2      2318      2564      2489      2924
 -1      9418    3    0    1
 -2      2527      2791      2562      2943
 -1      9419    3    0    1
 -2      2430      2608      2236      2975
 -1      9420    3    0    1
 -2      2264      2783      2589      2933
 -1      9421    3    0    1
 -2      1879      1872      1876      2948
 -1      9422    3    0    1
 -2       168       172       167      2564
 -1      9423    3    0    1
 -2      1189      1193      1195      2840
 -1      9424    3    0    1
 -2      2066      1708      1707      2901
 -1      9425    3    0    1
 -2      1981      1979      1990      2602
 -1      9426    3    0    1
 -2      1102      2863      2397      3044
 -1      9427    3    0    1
 -2      1789      2055      1792      2468
 -1      9428    3    0    1
 -2       147       150       144      2417
 -1      9429    3    0    1
 -2      2014      2015      2500      2764
 -1      9430    3    0    1
 -2      1769      2081      2426      2731
 -1      9431    3    0    1
 -2      2290      2486      2633      3026
 -1      9432    3    0    1
 -2      1373      1399      2561      2911
 -1      9433    3    0    1
 -2      1926      2395      1929      2661
 -1      9434    3    0    1
 -2        67        65      2838      2939
 -1      9435    3    0    1
 -2        36        32        33      2574
 -1      9436    3    0    1
 -2      2273      2380      2728      3002
 -1      9437    3    0    1
 -2      2240      2437      2726      2973
 -1      9438    3    0    1
 -2      2258      2455      2649      2792
 -1      9439    3    0    1
 -2      1742       563      1741      2903
 -1      9440    3    0    1
 -2       351      1932       268      1931
 -1      9441    3    0    1
 -2      1906      1900      2584      3013
 -1      9442    3    0    1
 -2       689      2501       693      3016
 -1      9443    3    0    1
 -2      1418      1413      1410      2884
 -1      9444    3    0    1
 -2       149       153       148      2414
 -1      9445    3    0    1
 -2       978       829       977      3031
 -1      9446    3    0    1
 -2       279       285       288      2508
 -1      9447    3    0    1
 -2      1538      2517      1535      2787
 -1      9448    3    0    1
 -2      1368      2707      1375      2947
 -1      9449    3    0    1
 -2      1543       740       737      2517
 -1      9450    3    0    1
 -2       879       878       869      2675
 -1      9451    3    0    1
 -2      2226      2678      2379      2857
 -1      9452    3    0    1
 -2      2028      1824      1818      2735
 -1      9453    3    0    1
 -2      1485      1489      1319      2545
 -1      9454    3    0    1
 -2      1346      1343      1341      2941
 -1      9455    3    0    1
 -2       402      2449      2051      2739
 -1      9456    3    0    1
 -2      2261      2808      2574      2813
 -1      9457    3    0    1
 -2      2369      1294      2703      2749
 -1      9458    3    0    1
 -2      2253      2787      2369      2804
 -1      9459    3    0    1
 -2       522       521       514      2781
 -1      9460    3    0    1
 -2       469      2597       465      2695
 -1      9461    3    0    1
 -2      2377      2690      2265      2699
 -1      9462    3    0    1
 -2      1231      2650      1630      3047
 -1      9463    3    0    1
 -2      1754      2684      1752      2944
 -1      9464    3    0    1
 -2      2092      2397      2759      2815
 -1      9465    3    0    1
 -2      2175      2686      2174      2687
 -1      9466    3    0    1
 -2      2139      2476      2135      3033
 -1      9467    3    0    1
 -2      1460      1459      2260      2536
 -1      9468    3    0    1
 -2      1979      2602      1981      2717
 -1      9469    3    0    1
 -2      1641      1645      1640      2361
 -1      9470    3    0    1
 -2      1034      2700      2357      2755
 -1      9471    3    0    1
 -2       921       913       911      2709
 -1      9472    3    0    1
 -2       622      1462       624      2631
 -1      9473    3    0    1
 -2       493      1762      2510      3036
 -1      9474    3    0    1
 -2      2361      2654      1640      2873
 -1      9475    3    0    1
 -2      2229      2809      2655      2856
 -1      9476    3    0    1
 -2      1279      1280      2373      2992
 -1      9477    3    0    1
 -2      2097      2100      2096      2759
 -1      9478    3    0    1
 -2      1703      2751       497      2754
 -1      9479    3    0    1
 -2      2611      2851      2284      2877
 -1      9480    3    0    1
 -2       935      2544       928      2990
 -1      9481    3    0    1
 -2      2372      2730      2407      2857
 -1      9482    3    0    1
 -2       761       765       759      2715
 -1      9483    3    0    1
 -2      1074      2385      1078      3016
 -1      9484    3    0    1
 -2      1555      1557      2679      2736
 -1      9485    3    0    1
 -2       540      2704       528      2769
 -1      9486    3    0    1
 -2       521       514      2432      2876
 -1      9487    3    0    1
 -2      2635      2667      2223      3034
 -1      9488    3    0    1
 -2      1280      1552      1283      2373
 -1      9489    3    0    1
 -2      2551      2803      2522      2827
 -1      9490    3    0    1
 -2      1367      1364      1370      2519
 -1      9491    3    0    1
 -2      1410      2884      2626      2899
 -1      9492    3    0    1
 -2      2346      2883      2946      2975
 -1      9493    3    0    1
 -2      2395      2661      2377      2690
 -1      9494    3    0    1
 -2      2237      2455      2920      2940
 -1      9495    3    0    1
 -2      1294      2749      2369      2912
 -1      9496    3    0    1
 -2       629      1175      1181      2893
 -1      9497    3    0    1
 -2      1388      1486      1485      2545
 -1      9498    3    0    1
 -2      2174      1738      1737      2687
 -1      9499    3    0    1
 -2       303      2459       310      2788
 -1      9500    3    0    1
 -2      1294      1295      1297      2912
 -1      9501    3    0    1
 -2      2292      2479      2428      2918
 -1      9502    3    0    1
 -2       305      2386       313      2953
 -1      9503    3    0    1
 -2      2241      2421      2504      2675
 -1      9504    3    0    1
 -2       443       393       395      2754
 -1      9505    3    0    1
 -2      1873      2593      1876      2948
 -1      9506    3    0    1
 -2      2305      2769      2704      2881
 -1      9507    3    0    1
 -2      1450      2260      1459      2605
 -1      9508    3    0    1
 -2       573       575      2666      3004
 -1      9509    3    0    1
 -2      2530      2590      2281      2821
 -1      9510    3    0    1
 -2      1322      1329        84      2837
 -1      9511    3    0    1
 -2       513      2876       515      2963
 -1      9512    3    0    1
 -2      1006      2500      2609      2966
 -1      9513    3    0    1
 -2      1005      2500      1006      2966
 -1      9514    3    0    1
 -2      2381      2833      2419      2913
 -1      9515    3    0    1
 -2      2237      2920      2658      2940
 -1      9516    3    0    1
 -2      2253      2804      2427      3020
 -1      9517    3    0    1
 -2       888      2425       952      3019
 -1      9518    3    0    1
 -2      2226      2678      2747      2983
 -1      9519    3    0    1
 -2       534      2769       530      2770
 -1      9520    3    0    1
 -2      1067      2768      2380      3002
 -1      9521    3    0    1
 -2      1595      1603      1601      2643
 -1      9522    3    0    1
 -2      1368      1370      2519      2947
 -1      9523    3    0    1
 -2       105       104      2524      2969
 -1      9524    3    0    1
 -2      2283      2559      2489      2644
 -1      9525    3    0    1
 -2      2227      2783      2589      2900
 -1      9526    3    0    1
 -2      2442      2519      2246      2707
 -1      9527    3    0    1
 -2        44       504       499      2556
 -1      9528    3    0    1
 -2      2294      2577      2349      3013
 -1      9529    3    0    1
 -2      2400      2325      2822      3010
 -1      9530    3    0    1
 -2      2051      2002      2010      2449
 -1      9531    3    0    1
 -2      2606      2644      2304      2651
 -1      9532    3    0    1
 -2      1055      1089       997      2852
 -1      9533    3    0    1
 -2       509      2446       504      2916
 -1      9534    3    0    1
 -2      1411      2672      2884      2899
 -1      9535    3    0    1
 -2      2502      2577      2265      3035
 -1      9536    3    0    1
 -2      1678      1681      1684      2659
 -1      9537    3    0    1
 -2       799      2411      1584      2681
 -1      9538    3    0    1
 -2      2288      2507      2683      2960
 -1      9539    3    0    1
 -2      2229      2473      2655      2809
 -1      9540    3    0    1
 -2      2324      2563      2429      2783
 -1      9541    3    0    1
 -2      2288      2627      2960      2988
 -1      9542    3    0    1
 -2      2234      2443      2938      3049
 -1      9543    3    0    1
 -2      2346      2834       419      2883
 -1      9544    3    0    1
 -2      2603      2719      2349      3023
 -1      9545    3    0    1
 -2       305       306       313      2386
 -1      9546    3    0    1
 -2      2039      2676      2043      2782
 -1      9547    3    0    1
 -2       386      1841      1846      2396
 -1      9548    3    0    1
 -2      1424      1430      2566      2870
 -1      9549    3    0    1
 -2       493      2510       492      3036
 -1      9550    3    0    1
 -2      2197      2191      2192      2811
 -1      9551    3    0    1
 -2       553      2439       549      2999
 -1      9552    3    0    1
 -2       204       207       200      2474
 -1      9553    3    0    1
 -2      2850      2983      2393      2998
 -1      9554    3    0    1
 -2      2225      2657      2931      3032
 -1      9555    3    0    1
 -2      1965      1970      1969      2544
 -1      9556    3    0    1
 -2      2498      2576      2343      2645
 -1      9557    3    0    1
 -2      2006      2008      2653      2705
 -1      9558    3    0    1
 -2      1084      1080      1079      2799
 -1      9559    3    0    1
 -2      1056      1058      2785      2872
 -1      9560    3    0    1
 -2      1338      2765      1342      2939
 -1      9561    3    0    1
 -2       554       555       548      2663
 -1      9562    3    0    1
 -2       334      2823       238      2978
 -1      9563    3    0    1
 -2       899       898      2568      2877
 -1      9564    3    0    1
 -2      1801      1804      1800      2484
 -1      9565    3    0    1
 -2      1132      2627      2617      2988
 -1      9566    3    0    1
 -2      2153      2562      2159      2662
 -1      9567    3    0    1
 -2       179       183       177      2489
 -1      9568    3    0    1
 -2      1100      2397      1102      2862
 -1      9569    3    0    1
 -2       243      2502      2533      2929
 -1      9570    3    0    1
 -2      2451      2329      2718      2878
 -1      9571    3    0    1
 -2      1624      2650      2418      3047
 -1      9572    3    0    1
 -2       841       974      2408      2829
 -1      9573    3    0    1
 -2      2522      2792      2405      3046
 -1      9574    3    0    1
 -2      2094      2052      2113      2739
 -1      9575    3    0    1
 -2       813       806       805      2970
 -1      9576    3    0    1
 -2      1426      1417      1416      2853
 -1      9577    3    0    1
 -2       853      1884      2613      2957
 -1      9578    3    0    1
 -2       606      2462       609      2854
 -1      9579    3    0    1
 -2       940      2762      2363      2989
 -1      9580    3    0    1
 -2       258      2422      2534      2927
 -1      9581    3    0    1
 -2      2579      2891      2308      2946
 -1      9582    3    0    1
 -2      2028      2027      2429      2996
 -1      9583    3    0    1
 -2      1324      1327      1326      2887
 -1      9584    3    0    1
 -2      2729      2878      2304      2971
 -1      9585    3    0    1
 -2       159      1271      1276      2665
 -1      9586    3    0    1
 -2      1850      2478      1857      2801
 -1      9587    3    0    1
 -2      2297      2774      2674      2873
 -1      9588    3    0    1
 -2      1388      1486      2545      2945
 -1      9589    3    0    1
 -2       977       974      1997      2408
 -1      9590    3    0    1
 -2      2235      2456      2795      2879
 -1      9591    3    0    1
 -2      1552      2669      2373      2736
 -1      9592    3    0    1
 -2      2037      1807      2430      3008
 -1      9593    3    0    1
 -2      2420      2694      2314      2712
 -1      9594    3    0    1
 -2      1315      1318      1321      2481
 -1      9595    3    0    1
 -2       547      2663       548      2905
 -1      9596    3    0    1
 -2      2395      2632      2313      2869
 -1      9597    3    0    1
 -2       822       814      1594      2643
 -1      9598    3    0    1
 -2      1044      2511      1041      2782
 -1      9599    3    0    1
 -2       160      2810      2394      2898
 -1      9600    3    0    1
 -2      1410      1406      1402      2626
 -1      9601    3    0    1
 -2      2135      2476      2133      2671
 -1      9602    3    0    1
 -2      2781      2808      2432      2876
 -1      9603    3    0    1
 -2      2318      2716      2564      2924
 -1      9604    3    0    1
 -2      1581      2411       791      2845
 -1      9605    3    0    1
 -2      1858      2705      2480      2844
 -1      9606    3    0    1
 -2      1864      2480      1868      2637
 -1      9607    3    0    1
 -2      2343      2574      2808      2813
 -1      9608    3    0    1
 -2      1539      1542      1538      2787
 -1      9609    3    0    1
 -2       901      1951      2568      2889
 -1      9610    3    0    1
 -2      1134      2742      1089      2911
 -1      9611    3    0    1
 -2      1094      1093      2388      2862
 -1      9612    3    0    1
 -2      2254      2387      2671      2847
 -1      9613    3    0    1
 -2       579       582       584      3004
 -1      9614    3    0    1
 -2      1542      1545      1543      2633
 -1      9615    3    0    1
 -2      2315      2421      2982      2993
 -1      9616    3    0    1
 -2      1395      1405        32      2574
 -1      9617    3    0    1
 -2      2543      2544      2364      2990
 -1      9618    3    0    1
 -2      2271      2425      2875      2957
 -1      9619    3    0    1
 -2      2315      2421      2654      2982
 -1      9620    3    0    1
 -2       693       698      1074      2768
 -1      9621    3    0    1
 -2      1559      2679      1280      2680
 -1      9622    3    0    1
 -2      2337      2771      2470      3016
 -1      9623    3    0    1
 -2      1328      1322      1326      2354
 -1      9624    3    0    1
 -2       799       791      1581      2411
 -1      9625    3    0    1
 -2      1339      2765      2328      2779
 -1      9626    3    0    1
 -2      2348      2512      2507      2968
 -1      9627    3    0    1
 -2      2395      2661      1926      2775
 -1      9628    3    0    1
 -2      2223      2560      2415      2807
 -1      9629    3    0    1
 -2      2453      2541      2285      3009
 -1      9630    3    0    1
 -2      2001      1876      1873      2593
 -1      9631    3    0    1
 -2      2039      2037      2040      2676
 -1      9632    3    0    1
 -2        99       100      2524      2599
 -1      9633    3    0    1
 -2      1512      1513      1515      2771
 -1      9634    3    0    1
 -2      2265      2690      2585      2817
 -1      9635    3    0    1
 -2       184      2559       193      2651
 -1      9636    3    0    1
 -2      1286      2554      1285      2669
 -1      9637    3    0    1
 -2      2061      1783      2065      2595
 -1      9638    3    0    1
 -2      2749      2912      1299      2956
 -1      9639    3    0    1
 -2      2279      2435      2857      2907
 -1      9640    3    0    1
 -2      2833      2960      2627      2988
 -1      9641    3    0    1
 -2      1490      1434      1399      2561
 -1      9642    3    0    1
 -2      2262      2648      2583      2660
 -1      9643    3    0    1
 -2       309      1223       301      1664
 -1      9644    3    0    1
 -2      2387      2288      2835      3022
 -1      9645    3    0    1
 -2       522       525       521      2770
 -1      9646    3    0    1
 -2      1940      2568      1947      2962
 -1      9647    3    0    1
 -2      2436      2326      2772      3045
 -1      9648    3    0    1
 -2      2356      2709      2437      2793
 -1      9649    3    0    1
 -2      1807      2034      2967      3008
 -1      9650    3    0    1
 -2       155      2665       150      2756
 -1      9651    3    0    1
 -2       611      1277      1320      2911
 -1      9652    3    0    1
 -2       448       451       453      2624
 -1      9653    3    0    1
 -2      2328      2582      2567      2830
 -1      9654    3    0    1
 -2      1669      1668      1662      2741
 -1      9655    3    0    1
 -2      1616      1610      2569      3030
 -1      9656    3    0    1
 -2      2001      2593      1873      2664
 -1      9657    3    0    1
 -2      2240      2499      2466      2890
 -1      9658    3    0    1
 -2       252      2533       263      2706
 -1      9659    3    0    1
 -2      2605      2757      2351      2902
 -1      9660    3    0    1
 -2       240      2502      2577      2817
 -1      9661    3    0    1
 -2       668      2656       670      3019
 -1      9662    3    0    1
 -2      2321      2379      2866      2983
 -1      9663    3    0    1
 -2      1998       977      1997      2408
 -1      9664    3    0    1
 -2       307      2459       303      2696
 -1      9665    3    0    1
 -2      1388      2545      1726      2945
 -1      9666    3    0    1
 -2       917      2437       913      2763
 -1      9667    3    0    1
 -2      2288      2629      2387      2835
 -1      9668    3    0    1
 -2      2459      2696      2250      2788
 -1      9669    3    0    1
 -2      1033      1039      1034      2357
 -1      9670    3    0    1
 -2       660      2555      2341      2806
 -1      9671    3    0    1
 -2      1973       322      2745      3040
 -1      9672    3    0    1
 -2       691       687      1515      2501
 -1      9673    3    0    1
 -2      2365      2439      2296      2615
 -1      9674    3    0    1
 -2       835       840       831      2625
 -1      9675    3    0    1
 -2       995       991      2006      2705
 -1      9676    3    0    1
 -2       693       689       694      2501
 -1      9677    3    0    1
 -2      2015      2013      2500      2609
 -1      9678    3    0    1
 -2      1446        11        13      2757
 -1      9679    3    0    1
 -2       660      2341       656      2806
 -1      9680    3    0    1
 -2      2235      2718      2451      2753
 -1      9681    3    0    1
 -2      2414      2892      2323      2900
 -1      9682    3    0    1
 -2      2304      2729      2362      2878
 -1      9683    3    0    1
 -2      1790       445      1784      2926
 -1      9684    3    0    1
 -2      2312      2889      2763      2976
 -1      9685    3    0    1
 -2      1367      2519        50      2732
 -1      9686    3    0    1
 -2       694      2501       697      2634
 -1      9687    3    0    1
 -2      2608      2676      2430      2974
 -1      9688    3    0    1
 -2      2276      2641      2382      2856
 -1      9689    3    0    1
 -2      1492      1491      1488      2921
 -1      9690    3    0    1
 -2      2255      2494      2706      2774
 -1      9691    3    0    1
 -2      1283      1279      1280      2373
 -1      9692    3    0    1
 -2      1978      2717      2602      3040
 -1      9693    3    0    1
 -2       617      1483       621      2619
 -1      9694    3    0    1
 -2      1424      1430      1423      2566
 -1      9695    3    0    1
 -2      2636      2896      2299      2921
 -1      9696    3    0    1
 -2      2244      2552      2544      2763
 -1      9697    3    0    1
 -2        51        47       491      2519
 -1      9698    3    0    1
 -2      1315      1309      1312      2786
 -1      9699    3    0    1
 -2      2730      2740      2407      2857
 -1      9700    3    0    1
 -2      1597      2422      1600      2826
 -1      9701    3    0    1
 -2      1798       431      1796      2834
 -1      9702    3    0    1
 -2       819      2766       816      2964
 -1      9703    3    0    1
 -2       335      2553       336      2812
 -1      9704    3    0    1
 -2      1460      1465      2536      2631
 -1      9705    3    0    1
 -2      2090      2404      2093      2759
 -1      9706    3    0    1
 -2      1300      1297      1295      2912
 -1      9707    3    0    1
 -2      2223      2910      2761      3034
 -1      9708    3    0    1
 -2      1066      2526      1073      2768
 -1      9709    3    0    1
 -2       697      2501      2539      2634
 -1      9710    3    0    1
 -2      1137      1128      1138      2116
 -1      9711    3    0    1
 -2       308       300       299      2531
 -1      9712    3    0    1
 -2       489       487       495      2510
 -1      9713    3    0    1
 -2        56      2732        51      2849
 -1      9714    3    0    1
 -2      1971      1968      1974      2717
 -1      9715    3    0    1
 -2      1539      1544      1542      2787
 -1      9716    3    0    1
 -2      2373      2680      2892      2992
 -1      9717    3    0    1
 -2      2314      2694      2420      2953
 -1      9718    3    0    1
 -2      1913      1917      1919      2603
 -1      9719    3    0    1
 -2      2504      2675      2421      2800
 -1      9720    3    0    1
 -2       883       878       884      2542
 -1      9721    3    0    1
 -2      1119      2419      1120      2722
 -1      9722    3    0    1
 -2       160       164       156      2898
 -1      9723    3    0    1
 -2      1909      2577       358      3039
 -1      9724    3    0    1
 -2      1373      1320      1399      2911
 -1      9725    3    0    1
 -2      2389      2260      2747      2936
 -1      9726    3    0    1
 -2      2537      2786      2477      2956
 -1      9727    3    0    1
 -2       900       906       898      2976
 -1      9728    3    0    1
 -2      2227      2783      2438      2867
 -1      9729    3    0    1
 -2      2659       929      2942      3014
 -1      9730    3    0    1
 -2      2182      2491      2127      2652
 -1      9731    3    0    1
 -2      1387        35        40      2574
 -1      9732    3    0    1
 -2      1081      2914      2470      3016
 -1      9733    3    0    1
 -2       180       177      2651      2971
 -1      9734    3    0    1
 -2      2282      2692      2560      2761
 -1      9735    3    0    1
 -2      1841      1842      1847      2396
 -1      9736    3    0    1
 -2      1830      2656      2454      3019
 -1      9737    3    0    1
 -2      1746      2704       541      2905
 -1      9738    3    0    1
 -2      1797      1799      1796      2484
 -1      9739    3    0    1
 -2      2178      1736      2094      2687
 -1      9740    3    0    1
 -2       870       879       869      2800
 -1      9741    3    0    1
 -2      2356      2497      1657      2778
 -1      9742    3    0    1
 -2      1743      2140      2135      3033
 -1      9743    3    0    1
 -2      1102      1105      1103      3044
 -1      9744    3    0    1
 -2       200       193       196      2474
 -1      9745    3    0    1
 -2      1835      1836      1841      2710
 -1      9746    3    0    1
 -2      2190      1576      1577      2192
 -1      9747    3    0    1
 -2       937       936      2659      2989
 -1      9748    3    0    1
 -2       766      1509       715      2647
 -1      9749    3    0    1
 -2      1526      1527      1529      2496
 -1      9750    3    0    1
 -2       544      2746      2353      2853
 -1      9751    3    0    1
 -2       917       913       923      2763
 -1      9752    3    0    1
 -2      2252      2548      2528      2758
 -1      9753    3    0    1
 -2      1848      1842      1843      2764
 -1      9754    3    0    1
 -2      1367      1364      2519      2732
 -1      9755    3    0    1
 -2       899       906       901      2568
 -1      9756    3    0    1
 -2      1478      2896      2636      2921
 -1      9757    3    0    1
 -2      2592      2704      2365      2881
 -1      9758    3    0    1
 -2      1705       434      1717      2449
 -1      9759    3    0    1
 -2      1897      2472      2584      3013
 -1      9760    3    0    1
 -2      1511      2771      2565      2941
 -1      9761    3    0    1
 -2       877       881       872      2611
 -1      9762    3    0    1
 -2      1400      1373      1434      2561
 -1      9763    3    0    1
 -2      2343      2781      2446      2808
 -1      9764    3    0    1
 -2      1904      1906      1900      2584
 -1      9765    3    0    1
 -2      2359      2491      2310      2923
 -1      9766    3    0    1
 -2       732       730       727      2517
 -1      9767    3    0    1
 -2      2235      2879      2392      2995
 -1      9768    3    0    1
 -2       492      2510       495      3036
 -1      9769    3    0    1
 -2       903      2895      2726      2993
 -1      9770    3    0    1
 -2      2221      2212      1812      2656
 -1      9771    3    0    1
 -2      2589      2933      2702      3021
 -1      9772    3    0    1
 -2       129       127      1284       128
 -1      9773    3    0    1
 -2      1293      1296       115      2749
 -1      9774    3    0    1
 -2         8       593      2475      2798
 -1      9775    3    0    1
 -2       953       955       952      2875
 -1      9776    3    0    1
 -2      1949      1960      1958      2450
 -1      9777    3    0    1
 -2      1102      2862      2397      2863
 -1      9778    3    0    1
 -2      2361      2873      2774      2982
 -1      9779    3    0    1
 -2      1524      1526      2539      2949
 -1      9780    3    0    1
 -2      1209      1215      1202      2842
 -1      9781    3    0    1
 -2      2348      2627      2833      2960
 -1      9782    3    0    1
 -2      2468      2728      2366      3041
 -1      9783    3    0    1
 -2      2392      2653      2289      3017
 -1      9784    3    0    1
 -2      2264      2735      2670      2930
 -1      9785    3    0    1
 -2      1618      1622      1624      2418
 -1      9786    3    0    1
 -2      2387      2592      2128      2671
 -1      9787    3    0    1
 -2      2261      2626      2350      2813
 -1      9788    3    0    1
 -2      2224      2720      2514      2805
 -1      9789    3    0    1
 -2       142        86      1840      2823
 -1      9790    3    0    1
 -2      1608      2505      2384      2836
 -1      9791    3    0    1
 -2       691      1515      1518      2501
 -1      9792    3    0    1
 -2       876      2457       875      2542
 -1      9793    3    0    1
 -2      2375      2931      2657      3032
 -1      9794    3    0    1
 -2       709      2496      2723      2880
 -1      9795    3    0    1
 -2       566       573       575      2666
 -1      9796    3    0    1
 -2      2433      2736      2633      2865
 -1      9797    3    0    1
 -2      2190      2192      2191      2811
 -1      9798    3    0    1
 -2      2619      2748      1206      3029
 -1      9799    3    0    1
 -2      2593      2664       983      3009
 -1      9800    3    0    1
 -2       522        38        36      2781
 -1      9801    3    0    1
 -2      2613      2990      2762      3000
 -1      9802    3    0    1
 -2       680      1512      1515      2771
 -1      9803    3    0    1
 -2      1160      1167      1170      2677
 -1      9804    3    0    1
 -2       954      2460       955      2875
 -1      9805    3    0    1
 -2      2560      2635      2298      2807
 -1      9806    3    0    1
 -2      1260      1257      1256      2606
 -1      9807    3    0    1
 -2      2465      2617      2387      3022
 -1      9808    3    0    1
 -2      2287      2796      2623      3018
 -1      9809    3    0    1
 -2      1722      1047      1721      2742
 -1      9810    3    0    1
 -2      1483      2619       617      2965
 -1      9811    3    0    1
 -2      2437      2497      2356      2726
 -1      9812    3    0    1
 -2      1106      1102      1100      2397
 -1      9813    3    0    1
 -2      2262      2530      2514      2660
 -1      9814    3    0    1
 -2      2500      2609      2275      2764
 -1      9815    3    0    1
 -2      2265      2577      2502      2817
 -1      9816    3    0    1
 -2      1191      1183      1188      2662
 -1      9817    3    0    1
 -2      2502      2533      2265      2817
 -1      9818    3    0    1
 -2      2391      2268      2790      2807
 -1      9819    3    0    1
 -2      1086      1084      2598      2894
 -1      9820    3    0    1
 -2      2313      2371      2820      2869
 -1      9821    3    0    1
 -2       164       168       163      2898
 -1      9822    3    0    1
 -2      1700      2549      2044      2901
 -1      9823    3    0    1
 -2       756       750       754      2865
 -1      9824    3    0    1
 -2      2448      2893      2260      2936
 -1      9825    3    0    1
 -2      2269      2527      2839      2903
 -1      9826    3    0    1
 -2       846       838      1617      2546
 -1      9827    3    0    1
 -2       588       591       590      2622
 -1      9828    3    0    1
 -2      2226      2678      2857      2868
 -1      9829    3    0    1
 -2      1119      1116      1121      2979
 -1      9830    3    0    1
 -2       886       898       887      2877
 -1      9831    3    0    1
 -2      1845      1846      2396      2925
 -1      9832    3    0    1
 -2      2308      2860      2410      2975
 -1      9833    3    0    1
 -2      1584       799      1581      2411
 -1      9834    3    0    1
 -2      2639      2649      2311      2978
 -1      9835    3    0    1
 -2       717      1530       723      2614
 -1      9836    3    0    1
 -2      1135      2561      1214      2784
 -1      9837    3    0    1
 -2      2240      2708      2437      2973
 -1      9838    3    0    1
 -2       670      2656      1766      3019
 -1      9839    3    0    1
 -2      1933      1938      1929      2395
 -1      9840    3    0    1
 -2       216       223       215      2463
 -1      9841    3    0    1
 -2      1652      1655      1656      2466
 -1      9842    3    0    1
 -2       739       740       744      2433
 -1      9843    3    0    1
 -2      2138      2476      2139      3033
 -1      9844    3    0    1
 -2      2464      2636      2278      2991
 -1      9845    3    0    1
 -2       887       881       886      2877
 -1      9846    3    0    1
 -2      1608      2384      1604      2836
 -1      9847    3    0    1
 -2      1858      1865      2480      2705
 -1      9848    3    0    1
 -2      2431      2715      2317      3007
 -1      9849    3    0    1
 -2      1457      1453      1452      2757
 -1      9850    3    0    1
 -2      2312      2763      2437      2976
 -1      9851    3    0    1
 -2      1058      1050      1056      2785
 -1      9852    3    0    1
 -2      2240      2793      2492      2890
 -1      9853    3    0    1
 -2        43      2916        44      2947
 -1      9854    3    0    1
 -2      1062       700       707      2380
 -1      9855    3    0    1
 -2        82      2525      2814      2837
 -1      9856    3    0    1
 -2      1740      1741       576      2839
 -1      9857    3    0    1
 -2       927      2544       928      2763
 -1      9858    3    0    1
 -2       121       125       118      2579
 -1      9859    3    0    1
 -2      2292      2886      2606      2918
 -1      9860    3    0    1
 -2      1006      2018      1010      2609
 -1      9861    3    0    1
 -2       835       844       840      2625
 -1      9862    3    0    1
 -2       653      1120      1124      2419
 -1      9863    3    0    1
 -2      1597      1554      1600      2422
 -1      9864    3    0    1
 -2      2241      2542      2421      2675
 -1      9865    3    0    1
 -2      2455      2257      2639      2920
 -1      9866    3    0    1
 -2      1129      2381      1130      2833
 -1      9867    3    0    1
 -2      2339      2761      2474      2767
 -1      9868    3    0    1
 -2      1858      2480      2724      2844
 -1      9869    3    0    1
 -2      1482      1476      1483      2619
 -1      9870    3    0    1
 -2       546       549      2663      2746
 -1      9871    3    0    1
 -2      2220      2656       668      3019
 -1      9872    3    0    1
 -2       886       881       877      2877
 -1      9873    3    0    1
 -2      2225      2580      2412      2629
 -1      9874    3    0    1
 -2      1933      1938      2395      2869
 -1      9875    3    0    1
 -2        89        88      2354      2744
 -1      9876    3    0    1
 -2       317      2420       316      2953
 -1      9877    3    0    1
 -2      2365      2663      2439      2746
 -1      9878    3    0    1
 -2      2536      2631      2342      2747
 -1      9879    3    0    1
 -2      2272      2728      2468      2758
 -1      9880    3    0    1
 -2        85      2604       451      2624
 -1      9881    3    0    1
 -2      2421      2895       890      2993
 -1      9882    3    0    1
 -2      1396      2350      1402      2813
 -1      9883    3    0    1
 -2       789       782       779      2845
 -1      9884    3    0    1
 -2      2357      2430      2676      2974
 -1      9885    3    0    1
 -2       231      2577       240      3028
 -1      9886    3    0    1
 -2      1634      2509      1691      2811
 -1      9887    3    0    1
 -2       759       765       762      2431
 -1      9888    3    0    1
 -2       180       178       175      2971
 -1      9889    3    0    1
 -2       467      2838       473      2981
 -1      9890    3    0    1
 -2      1817      1824      1823      2930
 -1      9891    3    0    1
 -2       141       238      2823      2978
 -1      9892    3    0    1
 -2       646       642      2483      3018
 -1      9893    3    0    1
 -2       423       419       426      2834
 -1      9894    3    0    1
 -2      1887      1880      1885      2693
 -1      9895    3    0    1
 -2      1762      1761      1763      2510
 -1      9896    3    0    1
 -2      1175      1170      1177      2677
 -1      9897    3    0    1
 -2      2591      2838      2513      2981
 -1      9898    3    0    1
 -2      2226      2857      2379      2866
 -1      9899    3    0    1
 -2      2207      2200      2201      2534
 -1      9900    3    0    1
 -2       546      2663      2365      2746
 -1      9901    3    0    1
 -2      2043      2782      2676      3003
 -1      9902    3    0    1
 -2       469      2513       470      2597
 -1      9903    3    0    1
 -2      1280      2680      2373      2992
 -1      9904    3    0    1
 -2      2240      2466      2793      2890
 -1      9905    3    0    1
 -2      2293      2914      2447      2951
 -1      9906    3    0    1
 -2      2658      2920      2455      2940
 -1      9907    3    0    1
 -2      2358      2595      2528      2935
 -1      9908    3    0    1
 -2      2482      2606      2304      2878
 -1      9909    3    0    1
 -2       477       481      2743      2981
 -1      9910    3    0    1
 -2      1420      2403      1491      2855
 -1      9911    3    0    1
 -2      2143      2406      2527      2943
 -1      9912    3    0    1
 -2      2259      2562      2791      2943
 -1      9913    3    0    1
 -2       423      1802      1805      2883
 -1      9914    3    0    1
 -2        63        68        65      2838
 -1      9915    3    0    1
 -2       592      2622      2475      2859
 -1      9916    3    0    1
 -2      2262      2514      2648      2660
 -1      9917    3    0    1
 -2       243      2533       252      2929
 -1      9918    3    0    1
 -2      1012      2018      2019      2609
 -1      9919    3    0    1
 -2      1883      1812      2212      2656
 -1      9920    3    0    1
 -2      2609      2867      2275      2997
 -1      9921    3    0    1
 -2      2532      2868      2372      3004
 -1      9922    3    0    1
 -2      1434      1400      2561      2965
 -1      9923    3    0    1
 -2      2334      2551      2436      2803
 -1      9924    3    0    1
 -2      1975       943      1937      2613
 -1      9925    3    0    1
 -2      1845      2396      2801      2925
 -1      9926    3    0    1
 -2       697      2539       704      2634
 -1      9927    3    0    1
 -2      2139      2135      2140      3033
 -1      9928    3    0    1
 -2      2324      2867      2609      2997
 -1      9929    3    0    1
 -2      2432      2769      2580      2770
 -1      9930    3    0    1
 -2       226       223       230      2642
 -1      9931    3    0    1
 -2      2425      2518      2461      2794
 -1      9932    3    0    1
 -2      1147      2617      2465      3022
 -1      9933    3    0    1
 -2       913      2726      2437      2976
 -1      9934    3    0    1
 -2      1962      1966      1967      2459
 -1      9935    3    0    1
 -2      2427      2860      2308      3025
 -1      9936    3    0    1
 -2       177       172       173      2564
 -1      9937    3    0    1
 -2      1046      1044      1045      2047
 -1      9938    3    0    1
 -2      1665      2858      1670      2942
 -1      9939    3    0    1
 -2      2847      3022      2360      3038
 -1      9940    3    0    1
 -2       257       267       256      2738
 -1      9941    3    0    1
 -2      1769      2426      2085      2731
 -1      9942    3    0    1
 -2       156       148       153      2756
 -1      9943    3    0    1
 -2      2407      2740      2379      2857
 -1      9944    3    0    1
 -2      2438      2563      2324      2783
 -1      9945    3    0    1
 -2      2107      2108      2114      2507
 -1      9946    3    0    1
 -2      1181      2893      2840      3011
 -1      9947    3    0    1
 -2      2406      2538      2259      2943
 -1      9948    3    0    1
 -2      2303      2514      2720      2805
 -1      9949    3    0    1
 -2        77      2573      2525      2932
 -1      9950    3    0    1
 -2      2588       864      3006      3024
 -1      9951    3    0    1
 -2      1918      2588      1994      3006
 -1      9952    3    0    1
 -2       291      2434       299      2531
 -1      9953    3    0    1
 -2      1583      1584      2411      2681
 -1      9954    3    0    1
 -2       609      2462       607      2739
 -1      9955    3    0    1
 -2       603      2403       520      2854
 -1      9956    3    0    1
 -2       670      1830      2454      3019
 -1      9957    3    0    1
 -2      1893      2408      1997      2829
 -1      9958    3    0    1
 -2      1214      1163      1208      3029
 -1      9959    3    0    1
 -2      2684      2876      2267      2963
 -1      9960    3    0    1
 -2       823       817      2643      2790
 -1      9961    3    0    1
 -2       856       848       860      2382
 -1      9962    3    0    1
 -2       183      2651      2489      2725
 -1      9963    3    0    1
 -2      1556      1550      1555      2865
 -1      9964    3    0    1
 -2      2268      2727      2415      2807
 -1      9965    3    0    1
 -2      1326      2354      1322      2887
 -1      9966    3    0    1
 -2       127       129      1284       137
 -1      9967    3    0    1
 -2      1216      1213      1218      2390
 -1      9968    3    0    1
 -2      2059      2061      2063      2487
 -1      9969    3    0    1
 -2      2024      2020      2021      2816
 -1      9970    3    0    1
 -2      2384      2268      2616      2727
 -1      9971    3    0    1
 -2        11       570        13      2757
 -1      9972    3    0    1
 -2      1796      1790      1791      2926
 -1      9973    3    0    1
 -2      1227      1228       264      2674
 -1      9974    3    0    1
 -2      2277      2892      2680      2992
 -1      9975    3    0    1
 -2       102      1304      1310      1307
 -1      9976    3    0    1
 -2       762      1011      1015      2966
 -1      9977    3    0    1
 -2      1267      1720      1254      2945
 -1      9978    3    0    1
 -2      2250      2434      2788      2789
 -1      9979    3    0    1
 -2       119      2189      2193      2374
 -1      9980    3    0    1
 -2      1482      2619      1483      2965
 -1      9981    3    0    1
 -2      2236      2860      3020      3025
 -1      9982    3    0    1
 -2      2409      2577      2502      3035
 -1      9983    3    0    1
 -2      2307      2852      2742      2911
 -1      9984    3    0    1
 -2      2245      2677      2550      2893
 -1      9985    3    0    1
 -2      2121      2124      2118      2944
 -1      9986    3    0    1
 -2      2167      2166      2158      2407
 -1      9987    3    0    1
 -2       995       993       991      2705
 -1      9988    3    0    1
 -2      1695      2005      2044      2549
 -1      9989    3    0    1
 -2      1897      2584      1900      3013
 -1      9990    3    0    1
 -2      2088      2127      2062      2652
 -1      9991    3    0    1
 -2      2126      2465      1148      2617
 -1      9992    3    0    1
 -2      2551      2772      2230      2952
 -1      9993    3    0    1
 -2       742      2575      1028      2755
 -1      9994    3    0    1
 -2      2502      2577      2409      3028
 -1      9995    3    0    1
 -2       632      1432      1433      2870
 -1      9996    3    0    1
 -2      1164      2909      1167      3038
 -1      9997    3    0    1
 -2      1751      2684      1754      2963
 -1      9998    3    0    1
 -2       999      2500      1004      2653
 -1      9999    3    0    1
 -2      2232      2388      2583      2863
 -1     10000    3    0    1
 -2      2353      2615      2302      2746
 -1     10001    3    0    1
 -2      2231      2419      2960      3037
 -1     10002    3    0    1
 -2      2389      2269      2678      2868
 -1     10003    3    0    1
 -2       664       661      1502      2806
 -1     10004    3    0    1
 -2      2241      2504      2873      3015
 -1     10005    3    0    1
 -2      2042      1045      1040      2782
 -1     10006    3    0    1
 -2       152       150      2417      2756
 -1     10007    3    0    1
 -2      1528       705      1526      2496
 -1     10008    3    0    1
 -2      2241      2457      2542      2675
 -1     10009    3    0    1
 -2      2223      2415      2727      2807
 -1     10010    3    0    1
 -2      2357      2306      2700      3008
 -1     10011    3    0    1
 -2       680       687       684      2771
 -1     10012    3    0    1
 -2      1782       455      1778      2689
 -1     10013    3    0    1
 -2      2505      2569      1610      3030
 -1     10014    3    0    1
 -2        63        65      2591      2838
 -1     10015    3    0    1
 -2      2409      2577      2294      3028
 -1     10016    3    0    1
 -2      1390      1382      1383      2498
 -1     10017    3    0    1
 -2        83      2525      2604      2814
 -1     10018    3    0    1
 -2      1218      2390      1213      2784
 -1     10019    3    0    1
 -2       697       694       695      2501
 -1     10020    3    0    1
 -2        18      1435        16      2797
 -1     10021    3    0    1
 -2      1354      1357      1361      2821
 -1     10022    3    0    1
 -2      2243      2434      2531      2832
 -1     10023    3    0    1
 -2      1282      2554      1284      2915
 -1     10024    3    0    1
 -2      2316      2599      2398      2744
 -1     10025    3    0    1
 -2       567      2839      1741      2903
 -1     10026    3    0    1
 -2      2163      2165      2170      2529
 -1     10027    3    0    1
 -2       635      1162       632      2984
 -1     10028    3    0    1
 -2      2225      2412      2580      2931
 -1     10029    3    0    1
 -2      2441      2818      2242      2908
 -1     10030    3    0    1
 -2      2314      2953      2553      3040
 -1     10031    3    0    1
 -2      1943      2869      2371      2962
 -1     10032    3    0    1
 -2      1093      2598      2388      2894
 -1     10033    3    0    1
 -2       864      2588       857      3024
 -1     10034    3    0    1
 -2      1793        70        19      1794
 -1     10035    3    0    1
 -2      1167      1158      1164      3038
 -1     10036    3    0    1
 -2       722       721       726      2423
 -1     10037    3    0    1
 -2      1604      1244      1609      2836
 -1     10038    3    0    1
 -2      1617      1620      1623      2994
 -1     10039    3    0    1
 -2      1333      1339      2582      2779
 -1     10040    3    0    1
 -2      1277      2852      1320      2911
 -1     10041    3    0    1
 -2        38        40        35      2574
 -1     10042    3    0    1
 -2        75      2525      2837      2932
 -1     10043    3    0    1
 -2      2558      2772      2326      3045
 -1     10044    3    0    1
 -2      2253      2517      2787      2804
 -1     10045    3    0    1
 -2      2099      2098      2495      2815
 -1     10046    3    0    1
 -2      2427      3020      2860      3025
 -1     10047    3    0    1
 -2       591      2475       592      2622
 -1     10048    3    0    1
 -2      2532      2666      2269      3004
 -1     10049    3    0    1
 -2       549       550       556      2999
 -1     10050    3    0    1
 -2       646      2483      1131      3018
 -1     10051    3    0    1
 -2      2261      2580      2353      2770
 -1     10052    3    0    1
 -2      2379      2857      2678      2868
 -1     10053    3    0    1
 -2       548       555      1743      2663
 -1     10054    3    0    1
 -2        50      2519      1367      2947
 -1     10055    3    0    1
 -2       770       763      1562      2493
 -1     10056    3    0    1
 -2      2269      2389      2678      2791
 -1     10057    3    0    1
 -2      2143      2137      2138      2406
 -1     10058    3    0    1
 -2      1420      1484      1488      2403
 -1     10059    3    0    1
 -2      1940      1946      1943      2962
 -1     10060    3    0    1
 -2      2255      2738      2706      2959
 -1     10061    3    0    1
 -2      1308      2452      1307      2956
 -1     10062    3    0    1
 -2      1053      1050      1044      2511
 -1     10063    3    0    1
 -2      1954      1951      2889      2962
 -1     10064    3    0    1
 -2      2428      2910      2292      2918
 -1     10065    3    0    1
 -2       263      2533       256      2706
 -1     10066    3    0    1
 -2       542      2365       540      2769
 -1     10067    3    0    1
 -2      2395      2690      2255      2738
 -1     10068    3    0    1
 -2      2489      2559      2283      2725
 -1     10069    3    0    1
 -2      1754      1752      2109      2944
 -1     10070    3    0    1
 -2      1686      1692      1688      2826
 -1     10071    3    0    1
 -2      2447      2293      2799      2914
 -1     10072    3    0    1
 -2      2264      2563      2735      2930
 -1     10073    3    0    1
 -2      1960      2552      1963      2737
 -1     10074    3    0    1
 -2       110       113       115      2749
 -1     10075    3    0    1
 -2      2289      2844      2653      2879
 -1     10076    3    0    1
 -2      2277      2665      2417      2992
 -1     10077    3    0    1
 -2      1092      2583       677      2894
 -1     10078    3    0    1
 -2      2305      2683      2629      2944
 -1     10079    3    0    1
 -2      2098      2099      2095      2815
 -1     10080    3    0    1
 -2       819      2391       815      2790
 -1     10081    3    0    1
 -2      2036      2037      2039      3008
 -1     10082    3    0    1
 -2       972       970      1995      2588
 -1     10083    3    0    1
 -2      2114      2507      2115      2734
 -1     10084    3    0    1
 -2      2391      2298      2635      2807
 -1     10085    3    0    1
 -2       292       285       293      2789
 -1     10086    3    0    1
 -2      2030      2735      2031      2996
 -1     10087    3    0    1
 -2       470      2513       467      2981
 -1     10088    3    0    1
 -2       310      2386       306      2788
 -1     10089    3    0    1
 -2      1533      2477      1300      3043
 -1     10090    3    0    1
 -2       695       697      2501      2539
 -1     10091    3    0    1
 -2      1131      1130      1136      3018
 -1     10092    3    0    1
 -2       559      2439       553      2999
 -1     10093    3    0    1
 -2       164       160       165      2394
 -1     10094    3    0    1
 -2      1907      1912      1904      2719
 -1     10095    3    0    1
 -2      1540      1598      1685      2934
 -1     10096    3    0    1
 -2      2350      2899      2483      2986
 -1     10097    3    0    1
 -2       134       126       135      2818
 -1     10098    3    0    1
 -2       776       779       782      2955
 -1     10099    3    0    1
 -2       642       639      2672      2796
 -1     10100    3    0    1
 -2      1559      1563      1558      2679
 -1     10101    3    0    1
 -2       311       309      2515      2741
 -1     10102    3    0    1
 -2      1984      1884      2454      2957
 -1     10103    3    0    1
 -2      1485      1374      1388      2545
 -1     10104    3    0    1
 -2       527        33        29      2540
 -1     10105    3    0    1
 -2       910      2460       950      2989
 -1     10106    3    0    1
 -2      1205      1199      1202      2393
 -1     10107    3    0    1
 -2       948      2460       766      2461
 -1     10108    3    0    1
 -2       933      2543       926      3014
 -1     10109    3    0    1
 -2      2438      2783      2324      2867
 -1     10110    3    0    1
 -2      1143      2623      1146      2796
 -1     10111    3    0    1
 -2      2229      2571      2699      2871
 -1     10112    3    0    1
 -2      2354      2814      2525      2837
 -1     10113    3    0    1
 -2      2455      2258      2551      2940
 -1     10114    3    0    1
 -2      2491      2686      2359      2882
 -1     10115    3    0    1
 -2      1556       754      1551      2865
 -1     10116    3    0    1
 -2      2234      2841      2443      3049
 -1     10117    3    0    1
 -2      2302      2938      2797      2999
 -1     10118    3    0    1
 -2         8      1472       593      2798
 -1     10119    3    0    1
 -2      2115      2507      2109      2944
 -1     10120    3    0    1
 -2      2043      2039      2040      2676
 -1     10121    3    0    1
 -2      2303      2523      2514      2805
 -1     10122    3    0    1
 -2      1136      2381      1129      2988
 -1     10123    3    0    1
 -2      2294      3013      2621      3039
 -1     10124    3    0    1
 -2       497      1703       602      2751
 -1     10125    3    0    1
 -2      2292      2644      2606      2651
 -1     10126    3    0    1
 -2      2275      2618      2764      2997
 -1     10127    3    0    1
 -2      2071      2070      2598      2799
 -1     10128    3    0    1
 -2      2278      2619      2342      2636
 -1     10129    3    0    1
 -2      2123      2387      2125      2734
 -1     10130    3    0    1
 -2      2120      2116      2112      2617
 -1     10131    3    0    1
 -2      2325      2400      2822      2906
 -1     10132    3    0    1
 -2      2087      2127      2183      2901
 -1     10133    3    0    1
 -2      2468      2758      2728      3041
 -1     10134    3    0    1
 -2      2314      2367      2717      2917
 -1     10135    3    0    1
 -2      2457      2675      2571      2922
 -1     10136    3    0    1
 -2      2259      2662      2750      2983
 -1     10137    3    0    1
 -2      2453      2964       803      3009
 -1     10138    3    0    1
 -2      1115      1110      1111      2722
 -1     10139    3    0    1
 -2       863       869       862      2800
 -1     10140    3    0    1
 -2      1474      2342      2636      2896
 -1     10141    3    0    1
 -2      2287      2672      2402      2796
 -1     10142    3    0    1
 -2       509      2446      2781      2876
 -1     10143    3    0    1
 -2      2138      2406      2137      2958
 -1     10144    3    0    1
 -2        43      2576      2916      2947
 -1     10145    3    0    1
 -2      2577      3013      2294      3039
 -1     10146    3    0    1
 -2      1675      2558      2741      3045
 -1     10147    3    0    1
 -2      2356      2497      2437      2709
 -1     10148    3    0    1
 -2      2235      2753      2451      2777
 -1     10149    3    0    1
 -2       687       680       682      1515
 -1     10150    3    0    1
 -2      1207      1205      1202      3029
 -1     10151    3    0    1
 -2      2453      2667      2301      2964
 -1     10152    3    0    1
 -2       420      2946      2410      2969
 -1     10153    3    0    1
 -2       406      1819      2488      2891
 -1     10154    3    0    1
 -2      2576      2707      2519      2947
 -1     10155    3    0    1
 -2       841       974       832      2408
 -1     10156    3    0    1
 -2      1919      2661      1915      3023
 -1     10157    3    0    1
 -2      1688      2522      2803      2827
 -1     10158    3    0    1
 -2       986      2852      1277      2911
 -1     10159    3    0    1
 -2      2269      2527      2903      3048
 -1     10160    3    0    1
 -2      2409      2533      2502      2929
 -1     10161    3    0    1
 -2      2257      2602      2553      2823
 -1     10162    3    0    1
 -2      1610      2569      2505      2836
 -1     10163    3    0    1
 -2      1049       722      1042      2423
 -1     10164    3    0    1
 -2       940      2363       936      2989
 -1     10165    3    0    1
 -2       594       590      2622      2730
 -1     10166    3    0    1
 -2      1308      1307      1305      2956
 -1     10167    3    0    1
 -2       726      1037      1042      2423
 -1     10168    3    0    1
 -2       524       526       518      2684
 -1     10169    3    0    1
 -2      2016      2609      2015      2764
 -1     10170    3    0    1
 -2       306      2788      2386      2832
 -1     10171    3    0    1
 -2       650      2913       647      2987
 -1     10172    3    0    1
 -2      2436      2551      2326      3045
 -1     10173    3    0    1
 -2      1124      2419      1120      2833
 -1     10174    3    0    1
 -2      2531      2890      2466      2954
 -1     10175    3    0    1
 -2      2613      2364      2990      3000
 -1     10176    3    0    1
 -2      2451      2718      2329      2753
 -1     10177    3    0    1
 -2      1078      2385      2914      3016
 -1     10178    3    0    1
 -2      2206      2640      2518      3046
 -1     10179    3    0    1
 -2      2251      2537      2831      2843
 -1     10180    3    0    1
 -2      2497      2709      2286      2942
 -1     10181    3    0    1
 -2      2381      2623      2288      2988
 -1     10182    3    0    1
 -2      2289      2392      2795      2879
 -1     10183    3    0    1
 -2      1594      2643       814      2970
 -1     10184    3    0    1
 -2      2308      2946      2883      2975
 -1     10185    3    0    1
 -2      2481      2537      2316      2786
 -1     10186    3    0    1
 -2       224      2642      2463      3028
 -1     10187    3    0    1
 -2      1903      1906      1911      2349
 -1     10188    3    0    1
 -2      1984      2613      1884      2957
 -1     10189    3    0    1
 -2       253       248      2776      2817
 -1     10190    3    0    1
 -2      2361      2674      2494      2774
 -1     10191    3    0    1
 -2      2342      2631      2748      2998
 -1     10192    3    0    1
 -2      2226      2747      2630      2998
 -1     10193    3    0    1
 -2      1033      2357      1034      2700
 -1     10194    3    0    1
 -2      2437      2708      2312      2973
 -1     10195    3    0    1
 -2      1094      2388      1093      2598
 -1     10196    3    0    1
 -2      2232      2583      2648      2660
 -1     10197    3    0    1
 -2      1667      2558      1670      2858
 -1     10198    3    0    1
 -2      2436      2551      2334      2952
 -1     10199    3    0    1
 -2       727      1536       732      2517
 -1     10200    3    0    1
 -2      2395      2632      2585      2738
 -1     10201    3    0    1
 -2       292       293       297      2789
 -1     10202    3    0    1
 -2      2630      2747      2342      2998
 -1     10203    3    0    1
 -2       650       653      1124      2913
 -1     10204    3    0    1
 -2      2037      1807      1804      2430
 -1     10205    3    0    1
 -2       447       451       448      2624
 -1     10206    3    0    1
 -2      2613      2762      2271      3000
 -1     10207    3    0    1
 -2      2250      2682      2434      2789
 -1     10208    3    0    1
 -2      2333      2418      2569      2809
 -1     10209    3    0    1
 -2       723      1532       727      2614
 -1     10210    3    0    1
 -2       124       132      2554      2818
 -1     10211    3    0    1
 -2      2057      2056      2059      2487
 -1     10212    3    0    1
 -2       919       928      2544      2763
 -1     10213    3    0    1
 -2      2198      2461      2191      2811
 -1     10214    3    0    1
 -2      1771      2081      2080      2570
 -1     10215    3    0    1
 -2      1330      2855      1419      2945
 -1     10216    3    0    1
 -2      2263      2591      2513      2981
 -1     10217    3    0    1
 -2      2295      2697      2452      2956
 -1     10218    3    0    1
 -2       837       830       833      2773
 -1     10219    3    0    1
 -2      2437      2244      2709      2763
 -1     10220    3    0    1
 -2       105       100       437      2980
 -1     10221    3    0    1
 -2      2559      2651       184      2725
 -1     10222    3    0    1
 -2      1285      1284      1282      2554
 -1     10223    3    0    1
 -2      1310      1313      1316      2452
 -1     10224    3    0    1
 -2       767       768       761      2715
 -1     10225    3    0    1
 -2       893       903      2726      2993
 -1     10226    3    0    1
 -2      1751      1754      1753      2963
 -1     10227    3    0    1
 -2       700      2380      1067      2768
 -1     10228    3    0    1
 -2      1191      1188      2154      2662
 -1     10229    3    0    1
 -2      1159      1156      2685      3038
 -1     10230    3    0    1
 -2      2394      2777      2362      2898
 -1     10231    3    0    1
 -2       275       276       280      2959
 -1     10232    3    0    1
 -2      1576      1577      2192      2811
 -1     10233    3    0    1
 -2      2516      2701      2368      2714
 -1     10234    3    0    1
 -2       321       320      2953      3040
 -1     10235    3    0    1
 -2      2141      2406      2137      2943
 -1     10236    3    0    1
 -2      2580      2629      2305      2683
 -1     10237    3    0    1
 -2        85       447        91      2624
 -1     10238    3    0    1
 -2      2387      2629      2288      2734
 -1     10239    3    0    1
 -2      1516      1519      1518      2501
 -1     10240    3    0    1
 -2       453      2358       455      2689
 -1     10241    3    0    1
 -2      1119      1123      1120      2833
 -1     10242    3    0    1
 -2       329      2823      2553      3040
 -1     10243    3    0    1
 -2      2135      2139      2138      2476
 -1     10244    3    0    1
 -2      1098       662      2555      2863
 -1     10245    3    0    1
 -2      1444      1447      2605      2733
 -1     10246    3    0    1
 -2      1171      2677       631      2984
 -1     10247    3    0    1
 -2      1933      2395      2775      2869
 -1     10248    3    0    1
 -2      1182      2150      1151      2652
 -1     10249    3    0    1
 -2      2228      2820      2485      2874
 -1     10250    3    0    1
 -2      2436      2772      2551      2952
 -1     10251    3    0    1
 -2        67      2838      2573      2939
 -1     10252    3    0    1
 -2       267      2585      2632      2738
 -1     10253    3    0    1
 -2      1097      1093      1099      2863
 -1     10254    3    0    1
 -2       221      1242       219      2445
 -1     10255    3    0    1
 -2       903       904       907      2895
 -1     10256    3    0    1
 -2      2226      2857      2866      2907
 -1     10257    3    0    1
 -2      1749       519       526      2684
 -1     10258    3    0    1
 -2      2302      2600      2353      2853
 -1     10259    3    0    1
 -2      2314      2712      2694      2917
 -1     10260    3    0    1
 -2      1816      2670      1823      2930
 -1     10261    3    0    1
 -2      1752      2684      1750      2944
 -1     10262    3    0    1
 -2      2674      2706      2494      2774
 -1     10263    3    0    1
 -2      1635      2504      1636      2873
 -1     10264    3    0    1
 -2       798      2411       799      2681
 -1     10265    3    0    1
 -2      1580      2411      1581      2845
 -1     10266    3    0    1
 -2      2578      2780      2620      3007
 -1     10267    3    0    1
 -2      1678       874       937      1684
 -1     10268    3    0    1
 -2      2961      3006       864      3024
 -1     10269    3    0    1
 -2       837       833      2546      2773
 -1     10270    3    0    1
 -2      1584      1581      1583      2411
 -1     10271    3    0    1
 -2       276       285       280      2508
 -1     10272    3    0    1
 -2      1151      2150      2088      2652
 -1     10273    3    0    1
 -2      1098      1103       662      2863
 -1     10274    3    0    1
 -2      2275      2609      2500      2966
 -1     10275    3    0    1
 -2       542       530       543      2769
 -1     10276    3    0    1
 -2       127      2818       133      2915
 -1     10277    3    0    1
 -2       504       509       508      2446
 -1     10278    3    0    1
 -2      2284      2775      2568      2851
 -1     10279    3    0    1
 -2      2014      2016      2015      2764
 -1     10280    3    0    1
 -2      2295      2749      2697      2956
 -1     10281    3    0    1
 -2      1312      1529      1318      2888
 -1     10282    3    0    1
 -2      1486      2919      2545      2945
 -1     10283    3    0    1
 -2      1202      2393      1199      2850
 -1     10284    3    0    1
 -2      1312      1318      2481      2888
 -1     10285    3    0    1
 -2       950       951       944      2989
 -1     10286    3    0    1
 -2       462       463       467      2513
 -1     10287    3    0    1
 -2      2259      2791      2678      2936
 -1     10288    3    0    1
 -2      1979      2717      1974      2802
 -1     10289    3    0    1
 -2      1290      1288      1285      2554
 -1     10290    3    0    1
 -2      1961      1971      1966      2459
 -1     10291    3    0    1
 -2       731      1037       726      2444
 -1     10292    3    0    1
 -2      2294      2621      2463      3028
 -1     10293    3    0    1
 -2       258       294       157      2534
 -1     10294    3    0    1
 -2       889      2454       796      2957
 -1     10295    3    0    1
 -2       698      2634       700      2768
 -1     10296    3    0    1
 -2      2653      2844      2668      2879
 -1     10297    3    0    1
 -2      2366      2701      2638      3041
 -1     10298    3    0    1
 -2      2436      2659      2286      2952
 -1     10299    3    0    1
 -2      2604      2624        85      2814
 -1     10300    3    0    1
 -2      2254      2819      2443      2847
 -1     10301    3    0    1
 -2      2225      2835      2412      2931
 -1     10302    3    0    1
 -2       605       609      2416      2854
 -1     10303    3    0    1
 -2      1533      1300      1535      3043
 -1     10304    3    0    1
 -2      2489      2304      2644      2651
 -1     10305    3    0    1
 -2      2677      2841      2352      2893
 -1     10306    3    0    1
 -2       448      2689       445      2926
 -1     10307    3    0    1
 -2       664       665       661      2806
 -1     10308    3    0    1
 -2       436      2413      2713      2980
 -1     10309    3    0    1
 -2       637      2672       639      2796
 -1     10310    3    0    1
 -2       892       899       901      2568
 -1     10311    3    0    1
 -2      2194      2640      2374      2848
 -1     10312    3    0    1
 -2      2751      2754      2309      2854
 -1     10313    3    0    1
 -2       699      1524       705      2539
 -1     10314    3    0    1
 -2      1513      1346      1341      2941
 -1     10315    3    0    1
 -2      2302      2615      2439      2746
 -1     10316    3    0    1
 -2      1611      1612      1606      2546
 -1     10317    3    0    1
 -2      2235      2753      2392      2795
 -1     10318    3    0    1
 -2      1822      1827      2904      2930
 -1     10319    3    0    1
 -2      2481      2714      2325      3010
 -1     10320    3    0    1
 -2        31      1412        27      2540
 -1     10321    3    0    1
 -2      1123      1119      1121      2833
 -1     10322    3    0    1
 -2      2268      2773      2643      2790
 -1     10323    3    0    1
 -2      1057      1056      1053      2872
 -1     10324    3    0    1
 -2      1264       169       166      1261
 -1     10325    3    0    1
 -2      1394      1387      1386      2574
 -1     10326    3    0    1
 -2       884       883      2542      2993
 -1     10327    3    0    1
 -2      2672      2796      2287      3018
 -1     10328    3    0    1
 -2       749       744       745      2865
 -1     10329    3    0    1
 -2      2436      2772      2558      3045
 -1     10330    3    0    1
 -2       509       508      2446      2876
 -1     10331    3    0    1
 -2      1773      2345      1776      2695
 -1     10332    3    0    1
 -2      1887      1889      1894      2621
 -1     10333    3    0    1
 -2       221       220       226      2506
 -1     10334    3    0    1
 -2      1424      2402      1425      2870
 -1     10335    3    0    1
 -2      2527      2406      2791      2943
 -1     10336    3    0    1
 -2      2038      2042      1040      2782
 -1     10337    3    0    1
 -2      2427      2242      2702      3021
 -1     10338    3    0    1
 -2      1116      1119      1115      2722
 -1     10339    3    0    1
 -2      2288      2623      2617      2988
 -1     10340    3    0    1
 -2      2452      2524       103      2697
 -1     10341    3    0    1
 -2       725       726       721      2614
 -1     10342    3    0    1
 -2      1942      1939      1945      2864
 -1     10343    3    0    1
 -2      2360      2557      2847      3038
 -1     10344    3    0    1
 -2      2256      2537      2477      2831
 -1     10345    3    0    1
 -2      1612       838       833      2546
 -1     10346    3    0    1
 -2      2830      2837      2525      2932
 -1     10347    3    0    1
 -2       691       694       689      2501
 -1     10348    3    0    1
 -2      1615      2546      1613      3030
 -1     10349    3    0    1
 -2      1857      2478      1858      2724
 -1     10350    3    0    1
 -2      2334      2658      2363      2952
 -1     10351    3    0    1
 -2      1828      2025      2021      2563
 -1     10352    3    0    1
 -2      2372      2279      2730      2857
 -1     10353    3    0    1
 -2      1131      2913      1130      3018
 -1     10354    3    0    1
 -2      1206      1208      2965      3029
 -1     10355    3    0    1
 -2      2412      2683      2231      2960
 -1     10356    3    0    1
 -2       646      2483       647      2913
 -1     10357    3    0    1
 -2       263       252       256      2533
 -1     10358    3    0    1
 -2      2337      2941      2523      2950
 -1     10359    3    0    1
 -2      1809      2891      2883      2967
 -1     10360    3    0    1
 -2       626      2550       629      2893
 -1     10361    3    0    1
 -2      1661      2466      1663      2858
 -1     10362    3    0    1
 -2      1076      2526      2068      2799
 -1     10363    3    0    1
 -2       253      2776       257      2817
 -1     10364    3    0    1
 -2       286       290      2789      2864
 -1     10365    3    0    1
 -2       364       217       218      2621
 -1     10366    3    0    1
 -2      2142      2141      2147      2943
 -1     10367    3    0    1
 -2       225      3028      2621      3039
 -1     10368    3    0    1
 -2      2197      2405      2198      2811
 -1     10369    3    0    1
 -2       767       763      2493      2715
 -1     10370    3    0    1
 -2      2355      2787      2517      2804
 -1     10371    3    0    1
 -2      1864      1863      2480      2637
 -1     10372    3    0    1
 -2      1875      2637      1869      2948
 -1     10373    3    0    1
 -2      1709      1701      2901      2928
 -1     10374    3    0    1
 -2      1127      1123      1121      2833
 -1     10375    3    0    1
 -2      2222      2638      2701      3041
 -1     10376    3    0    1
 -2      2353      2302      2615      3032
 -1     10377    3    0    1
 -2      2403      2855      2309      2919
 -1     10378    3    0    1
 -2       257      2776      2585      2817
 -1     10379    3    0    1
 -2      1453      1445      1452      2757
 -1     10380    3    0    1
 -2      2163      2170      2171      2842
 -1     10381    3    0    1
 -2      2543      2709      2244      2763
 -1     10382    3    0    1
 -2      2482      2718      2329      2878
 -1     10383    3    0    1
 -2      2420      2314      2553      2712
 -1     10384    3    0    1
 -2        60      2590        55      2732
 -1     10385    3    0    1
 -2      1350      2530      1356      2590
 -1     10386    3    0    1
 -2      1147      1144      2617      3022
 -1     10387    3    0    1
 -2      2487      2526      1066      2768
 -1     10388    3    0    1
 -2      2518      2639      2237      3046
 -1     10389    3    0    1
 -2      2069      2447      2065      2935
 -1     10390    3    0    1
 -2      2439      2615      2365      2746
 -1     10391    3    0    1
 -2      1245       212      1243      2445
 -1     10392    3    0    1
 -2      1293       115      1291      2703
 -1     10393    3    0    1
 -2      2333      2586      2871      2929
 -1     10394    3    0    1
 -2      2420      2572      2258      2812
 -1     10395    3    0    1
 -2      2841      2893      2448      2936
 -1     10396    3    0    1
 -2       972       841       849      2829
 -1     10397    3    0    1
 -2      2020      2609      2017      2997
 -1     10398    3    0    1
 -2       791       793      2845      3027
 -1     10399    3    0    1
 -2      1102      1103      2863      3044
 -1     10400    3    0    1
 -2      1260      1259      1257      2729
 -1     10401    3    0    1
 -2      1485      1489      2545      2919
 -1     10402    3    0    1
 -2      1372      1368      1365      2707
 -1     10403    3    0    1
 -2      2242      2579      2441      3021
 -1     10404    3    0    1
 -2       736       731       735      2444
 -1     10405    3    0    1
 -2      2337      2779      2523      2941
 -1     10406    3    0    1
 -2       231      2577      3028      3039
 -1     10407    3    0    1
 -2       286       293       285      2789
 -1     10408    3    0    1
 -2      2116      2112      2617      2627
 -1     10409    3    0    1
 -2      1098      2583      1097      2863
 -1     10410    3    0    1
 -2      2402      2245      2657      2984
 -1     10411    3    0    1
 -2      2272      2526      2487      2768
 -1     10412    3    0    1
 -2      2409      2642      2502      3028
 -1     10413    3    0    1
 -2      2297      2871      2586      2929
 -1     10414    3    0    1
 -2      1217      1214      2521      2784
 -1     10415    3    0    1
 -2      1333      2582      1336      2779
 -1     10416    3    0    1
 -2      1652      2499      1653      2954
 -1     10417    3    0    1
 -2      2371      2775      2395      2869
 -1     10418    3    0    1
 -2       121       118       114      2946
 -1     10419    3    0    1
 -2      2251      2413      2638      2980
 -1     10420    3    0    1
 -2      1100      2083      2089      2862
 -1     10421    3    0    1
 -2      2031      1818      1811      2735
 -1     10422    3    0    1
 -2      2057      2056      2487      2872
 -1     10423    3    0    1
 -2       512       519      1751      2684
 -1     10424    3    0    1
 -2       258       337       330      2311
 -1     10425    3    0    1
 -2      1931       268      2585      2632
 -1     10426    3    0    1
 -2      1845      1846      1841      2396
 -1     10427    3    0    1
 -2       759       758      2715      3007
 -1     10428    3    0    1
 -2      2235      2376      2879      2995
 -1     10429    3    0    1
 -2      2279      2359      2686      2882
 -1     10430    3    0    1
 -2       744       746       741      2578
 -1     10431    3    0    1
 -2       950       948       955      2460
 -1     10432    3    0    1
 -2      2342      2630      2536      2747
 -1     10433    3    0    1
 -2      1721      1710      1728      2928
 -1     10434    3    0    1
 -2      1908      1916      2776      3023
 -1     10435    3    0    1
 -2      1972      1969      1975      2544
 -1     10436    3    0    1
 -2      2232      2555      2397      2863
 -1     10437    3    0    1
 -2       562       557       566      2666
 -1     10438    3    0    1
 -2       438      2926      2413      2980
 -1     10439    3    0    1
 -2       596      1737      1738      2687
 -1     10440    3    0    1
 -2      2206      2203      2207      2405
 -1     10441    3    0    1
 -2      2374      2640      2300      2848
 -1     10442    3    0    1
 -2      1642      1643      2421      2895
 -1     10443    3    0    1
 -2      1700      1701      2044      2549
 -1     10444    3    0    1
 -2      2330      2571      2675      2922
 -1     10445    3    0    1
 -2       314      1973       322      2745
 -1     10446    3    0    1
 -2       514      2781      2432      2876
 -1     10447    3    0    1
 -2      2398      2646      2354      2814
 -1     10448    3    0    1
 -2      2277      2756      2414      2892
 -1     10449    3    0    1
 -2      2392      2828       778      3017
 -1     10450    3    0    1
 -2      2302      2443      2615      3032
 -1     10451    3    0    1
 -2      2236      2860      2804      3020
 -1     10452    3    0    1
 -2      1014      1011      1010      2609
 -1     10453    3    0    1
 -2      1137      1141      1132      2617
 -1     10454    3    0    1
 -2      2336      2913      2861      2987
 -1     10455    3    0    1
 -2       470      2597      2513      2981
 -1     10456    3    0    1
 -2       329       334      2553      2823
 -1     10457    3    0    1
 -2      1408      1406      1413      2626
 -1     10458    3    0    1
 -2      2090      2397      2084      2731
 -1     10459    3    0    1
 -2       983      2000      2001      2593
 -1     10460    3    0    1
 -2      2464      2921      2636      2991
 -1     10461    3    0    1
 -2      2238      2644      2424      2885
 -1     10462    3    0    1
 -2      1641      1646      1645      2361
 -1     10463    3    0    1
 -2      1515      1516      1518      2501
 -1     10464    3    0    1
 -2      1579       781       784       785
 -1     10465    3    0    1
 -2      2224      2523      2514      2950
 -1     10466    3    0    1
 -2      2499      2890      2320      2954
 -1     10467    3    0    1
 -2      2617      2623      2288      3022
 -1     10468    3    0    1
 -2      1616      1619      1622      2569
 -1     10469    3    0    1
 -2      1839      1985      1820      2848
 -1     10470    3    0    1
 -2      2424      2223      2667      3034
 -1     10471    3    0    1
 -2      1006      2015      2018      2609
 -1     10472    3    0    1
 -2      1127      2833      2627      2988
 -1     10473    3    0    1
 -2      1014      1010      1012      2609
 -1     10474    3    0    1
 -2      2401      2344      2637      3034
 -1     10475    3    0    1
 -2      1776      1773      1774      2345
 -1     10476    3    0    1
 -2      2305      2704      2592      2881
 -1     10477    3    0    1
 -2      2565      2771      2262      2941
 -1     10478    3    0    1
 -2      1714      2503      1716      2751
 -1     10479    3    0    1
 -2      1937       853      1884      2613
 -1     10480    3    0    1
 -2      1564      1270      1569      2451
 -1     10481    3    0    1
 -2       753       670       795      3019
 -1     10482    3    0    1
 -2       490       489       492      2510
 -1     10483    3    0    1
 -2      2128      2387      2123      2592
 -1     10484    3    0    1
 -2       512       515      2684      2963
 -1     10485    3    0    1
 -2      2097      2101      2100      2759
 -1     10486    3    0    1
 -2       720       717       723      2614
 -1     10487    3    0    1
 -2      1615      1613      2994      3030
 -1     10488    3    0    1
 -2      2312      2973      2370      2976
 -1     10489    3    0    1
 -2       875      2457       866      2675
 -1     10490    3    0    1
 -2      2235      2376      2716      2879
 -1     10491    3    0    1
 -2       267      2585       268      2632
 -1     10492    3    0    1
 -2      1450      1455      1447      2605
 -1     10493    3    0    1
 -2      1491      1420      1488      2403
 -1     10494    3    0    1
 -2       831       827      2625      2790
 -1     10495    3    0    1
 -2      2224      2805      2567      3012
 -1     10496    3    0    1
 -2      2382      2291      2961      3024
 -1     10497    3    0    1
 -2        75        71        77      2932
 -1     10498    3    0    1
 -2      1403      1496      1495      2673
 -1     10499    3    0    1
 -2      1177      2596      1181      2893
 -1     10500    3    0    1
 -2      2242      2818      2554      2908
 -1     10501    3    0    1
 -2      1612       833      1606      2546
 -1     10502    3    0    1
 -2       622      1201       621      2619
 -1     10503    3    0    1
 -2       577       578       583      2798
 -1     10504    3    0    1
 -2       436       438      2413      2980
 -1     10505    3    0    1
 -2      1103      2555       662      2863
 -1     10506    3    0    1
 -2      1547       740      1543      2433
 -1     10507    3    0    1
 -2      2303      2805      2720      2838
 -1     10508    3    0    1
 -2      2631      2748      2347      2840
 -1     10509    3    0    1
 -2      2254      2557      2909      3038
 -1     10510    3    0    1
 -2        75        77      2525      2932
 -1     10511    3    0    1
 -2      2131      2135      2133      2671
 -1     10512    3    0    1
 -2      2504      2650      1629      2873
 -1     10513    3    0    1
 -2      1429      2566      1436      2733
 -1     10514    3    0    1
 -2      2461      2191      2811      2977
 -1     10515    3    0    1
 -2       823       830       827      2790
 -1     10516    3    0    1
 -2      1331      1330      1254      2945
 -1     10517    3    0    1
 -2        90      1310        97        92
 -1     10518    3    0    1
 -2       844       855       848      2641
 -1     10519    3    0    1
 -2       893      2895       903      2993
 -1     10520    3    0    1
 -2      1292      1289      2486      2703
 -1     10521    3    0    1
 -2      2249      2581      2512      3037
 -1     10522    3    0    1
 -2       972       857       970      2588
 -1     10523    3    0    1
 -2      1920      1918      1994      3006
 -1     10524    3    0    1
 -2       249       252      2533      2929
 -1     10525    3    0    1
 -2       914      2889       906      2976
 -1     10526    3    0    1
 -2      2526      2768      2385      2914
 -1     10527    3    0    1
 -2      1715      1709      1708      2928
 -1     10528    3    0    1
 -2      1752      1749      1750      2684
 -1     10529    3    0    1
 -2      2129      2671      2133      2958
 -1     10530    3    0    1
 -2      1931      2585      1930      2632
 -1     10531    3    0    1
 -2       271      2823       329      3040
 -1     10532    3    0    1
 -2       758       751       750      3007
 -1     10533    3    0    1
 -2      1837      2618      1836      2710
 -1     10534    3    0    1
 -2       941       940       949      2762
 -1     10535    3    0    1
 -2      2568      2851       887      2877
 -1     10536    3    0    1
 -2       286       281       290      2864
 -1     10537    3    0    1
 -2       793       790       789      3027
 -1     10538    3    0    1
 -2       249       252       263      2706
 -1     10539    3    0    1
 -2      1766      2656      1830      3019
 -1     10540    3    0    1
 -2       565      2399       564      2999
 -1     10541    3    0    1
 -2       656       655       658      2806
 -1     10542    3    0    1
 -2       303       310       302      2788
 -1     10543    3    0    1
 -2      2571      2699      2871      3015
 -1     10544    3    0    1
 -2       923       926      2543      2709
 -1     10545    3    0    1
 -2      1539      2486      1544      2787
 -1     10546    3    0    1
 -2      1875      1869      1872      2948
 -1     10547    3    0    1
 -2      2222      2728      2548      3041
 -1     10548    3    0    1
 -2      2349      2584      2846      3013
 -1     10549    3    0    1
 -2      2272      2468      2595      2758
 -1     10550    3    0    1
 -2      2263      2648      2514      2660
 -1     10551    3    0    1
 -2      2235      2716      2376      2995
 -1     10552    3    0    1
 -2      2246      2576      2498      2707
 -1     10553    3    0    1
 -2      2222      2638      2516      2701
 -1     10554    3    0    1
 -2       983      2664       808      3009
 -1     10555    3    0    1
 -2      2271      2802      2613      3000
 -1     10556    3    0    1
 -2      1933      1929      1926      2395
 -1     10557    3    0    1
 -2       122       127       128      2554
 -1     10558    3    0    1
 -2       355       358      1909      2577
 -1     10559    3    0    1
 -2      2231      2683      2412      2808
 -1     10560    3    0    1
 -2      1959      1958      1961      2696
 -1     10561    3    0    1
 -2      1606      2546       833      2773
 -1     10562    3    0    1
 -2      2241      2873      2774      3015
 -1     10563    3    0    1
 -2       770      1568       774      2493
 -1     10564    3    0    1
 -2      1675      2558      1668      2741
 -1     10565    3    0    1
 -2      2356      2286      2793      2858
 -1     10566    3    0    1
 -2      2126      1156      1148      2465
 -1     10567    3    0    1
 -2      2382      2922       860      2961
 -1     10568    3    0    1
 -2      1044      1040      1045      2782
 -1     10569    3    0    1
 -2      2047      2053      1053      2872
 -1     10570    3    0    1
 -2      1180      1183      1179      2538
 -1     10571    3    0    1
 -2      1396      2645      2350      2813
 -1     10572    3    0    1
 -2      1353        55        60      2590
 -1     10573    3    0    1
 -2      1120      2419      1114      2722
 -1     10574    3    0    1
 -2      2351      2605      2448      2733
 -1     10575    3    0    1
 -2       595      2687       596      2730
 -1     10576    3    0    1
 -2      2373      2669      2290      2736
 -1     10577    3    0    1
 -2      1071      1073      1066      2526
 -1     10578    3    0    1
 -2      2379      2740      2529      2857
 -1     10579    3    0    1
 -2       159      1276       150      2665
 -1     10580    3    0    1
 -2      2251      2831      2608      2843
 -1     10581    3    0    1
 -2      2883      2891       412      2946
 -1     10582    3    0    1
 -2      2342      2631      2619      2748
 -1     10583    3    0    1
 -2      2261      2580      2412      2931
 -1     10584    3    0    1
 -2      2223      2761      2560      3034
 -1     10585    3    0    1
 -2      1610      1614      2569      2836
 -1     10586    3    0    1
 -2      1602       825      2643      2773
 -1     10587    3    0    1
 -2      1301      1735      2545      2852
 -1     10588    3    0    1
 -2      2261      2432      2580      2770
 -1     10589    3    0    1
 -2      1784      1790      1785       445
 -1     10590    3    0    1
 -2      2001       983      2593      2664
 -1     10591    3    0    1
 -2      2455      2237      2639      2792
 -1     10592    3    0    1
 -2      1973      1971      1976      2717
 -1     10593    3    0    1
 -2       812      2593       983      3009
 -1     10594    3    0    1
 -2        90        93      1316      2744
 -1     10595    3    0    1
 -2      1237      1239      2506      2937
 -1     10596    3    0    1
 -2      1012      1010      2018      2609
 -1     10597    3    0    1
 -2      2193      2374      2194      2640
 -1     10598    3    0    1
 -2      2277      2777      2394      2898
 -1     10599    3    0    1
 -2       622      2631      1194      2748
 -1     10600    3    0    1
 -2      2265      2661      2585      2690
 -1     10601    3    0    1
 -2      1425      2402      1424      2884
 -1     10602    3    0    1
 -2      2554      2669      2323      2915
 -1     10603    3    0    1
 -2      1224      1225       295      2531
 -1     10604    3    0    1
 -2      2090      2086      2084      2397
 -1     10605    3    0    1
 -2      2754      2854       498      2855
 -1     10606    3    0    1
 -2       983       981      2000      2593
 -1     10607    3    0    1
 -2      1637      1636      1630      2873
 -1     10608    3    0    1
 -2      1977      1979      1974      2802
 -1     10609    3    0    1
 -2      1926      2661      2547      2775
 -1     10610    3    0    1
 -2       246       243      2502      2533
 -1     10611    3    0    1
 -2      2670      2891      1815      2967
 -1     10612    3    0    1
 -2      2292      2559      2644      2651
 -1     10613    3    0    1
 -2      1624      1629      1626      2650
 -1     10614    3    0    1
 -2      1940      1947      1946      2962
 -1     10615    3    0    1
 -2      2288      2412      2629      2835
 -1     10616    3    0    1
 -2      2489      2644      2559      2651
 -1     10617    3    0    1
 -2      2269      2903      2666      3048
 -1     10618    3    0    1
 -2      2183      2127      2187      2491
 -1     10619    3    0    1
 -2      1355      1352      1350      2590
 -1     10620    3    0    1
 -2         4         3       603      2859
 -1     10621    3    0    1
 -2       218       208      2693      2767
 -1     10622    3    0    1
 -2         4      1451         3      2859
 -1     10623    3    0    1
 -2      2347      2983      2850      2998
 -1     10624    3    0    1
 -2       234      2502       243      2929
 -1     10625    3    0    1
 -2      1025      2429      1024      2816
 -1     10626    3    0    1
 -2       175      2729       177      2971
 -1     10627    3    0    1
 -2      2264      2933      2589      3021
 -1     10628    3    0    1
 -2       599      2416       598      2622
 -1     10629    3    0    1
 -2      2679      2715      2317      2825
 -1     10630    3    0    1
 -2      2447      2799      2526      2914
 -1     10631    3    0    1
 -2        60        65      2590      2591
 -1     10632    3    0    1
 -2       828       831       836      2458
 -1     10633    3    0    1
 -2      1980      1977      2613      2802
 -1     10634    3    0    1
 -2       837       835       830      2625
 -1     10635    3    0    1
 -2      1212      1213      2742      2784
 -1     10636    3    0    1
 -2       602      1703      1712      2751
 -1     10637    3    0    1
 -2       438       439      2413      2926
 -1     10638    3    0    1
 -2       483       477       481      3001
 -1     10639    3    0    1
 -2      1078      2385      1074      2914
 -1     10640    3    0    1
 -2      2230      2694      2712      2917
 -1     10641    3    0    1
 -2      2296      2439      2365      2663
 -1     10642    3    0    1
 -2      2356      2497      2286      2942
 -1     10643    3    0    1
 -2       114      2410       420      2946
 -1     10644    3    0    1
 -2      1396      1402      1406      2813
 -1     10645    3    0    1
 -2      2373      2679      2317      2825
 -1     10646    3    0    1
 -2        18        28        27      2853
 -1     10647    3    0    1
 -2      1490      2464      1492      2921
 -1     10648    3    0    1
 -2      1904      2584      1901      2829
 -1     10649    3    0    1
 -2      2522      2792      2237      2940
 -1     10650    3    0    1
 -2      1156      1155      2465      3038
 -1     10651    3    0    1
 -2      1951      1947      2568      2962
 -1     10652    3    0    1
 -2      1764       484      1762      3001
 -1     10653    3    0    1
 -2      2462      2751      2309      2854
 -1     10654    3    0    1
 -2      1536      1535      1538      2517
 -1     10655    3    0    1
 -2      1518      1519      1520      2501
 -1     10656    3    0    1
 -2      2266      2484      2608      2676
 -1     10657    3    0    1
 -2       125       121       126      2579
 -1     10658    3    0    1
 -2      1244      1242      1241      2445
 -1     10659    3    0    1
 -2      2279      2740      2730      2857
 -1     10660    3    0    1
 -2      1024      2429      1025      2996
 -1     10661    3    0    1
 -2         3       474       520      2855
 -1     10662    3    0    1
 -2       535        28       544      2853
 -1     10663    3    0    1
 -2      1145      2122      1148      2617
 -1     10664    3    0    1
 -2        60        63        65      2591
 -1     10665    3    0    1
 -2      1185      2596      1187      2750
 -1     10666    3    0    1
 -2       471       475       477      2597
 -1     10667    3    0    1
 -2       830      2643       825      2773
 -1     10668    3    0    1
 -2      2033      2030      2031      2996
 -1     10669    3    0    1
 -2      2265      2776      2577      2817
 -1     10670    3    0    1
 -2       676       679      2565      2771
 -1     10671    3    0    1
 -2      2804      2860      2427      3020
 -1     10672    3    0    1
 -2      2226      2866      2435      2907
 -1     10673    3    0    1
 -2      2029      1025      2027      2996
 -1     10674    3    0    1
 -2        73        77        71      2573
 -1     10675    3    0    1
 -2       384      2396      1846      2925
 -1     10676    3    0    1
 -2      2259      2791      2406      2943
 -1     10677    3    0    1
 -2      1715      2503      1731      2928
 -1     10678    3    0    1
 -2      2260      2631      2747      2840
 -1     10679    3    0    1
 -2      2295      2537      2477      2956
 -1     10680    3    0    1
 -2      1770       478      1767      2597
 -1     10681    3    0    1
 -2       734      2517       739      2760
 -1     10682    3    0    1
 -2      1626      2504      1631      2800
 -1     10683    3    0    1
 -2      2289      2705      2653      2844
 -1     10684    3    0    1
 -2      1298      1299      1303      2697
 -1     10685    3    0    1
 -2      2387      2629      2592      2881
 -1     10686    3    0    1
 -2      2237      2455      2639      2920
 -1     10687    3    0    1
 -2      2333      2569      2418      3047
 -1     10688    3    0    1
 -2      2194      2374      2210      2848
 -1     10689    3    0    1
 -2       520      2854      2403      2855
 -1     10690    3    0    1
 -2      1134      1089      1055      2911
 -1     10691    3    0    1
 -2      1546      2633      2486      3026
 -1     10692    3    0    1
 -2      1969      1970      1975      2544
 -1     10693    3    0    1
 -2      1312      1309      1306      2888
 -1     10694    3    0    1
 -2       726      1042       722      2423
 -1     10695    3    0    1
 -2      1646      1654      1653      2954
 -1     10696    3    0    1
 -2      1573      1570      1574      2955
 -1     10697    3    0    1
 -2      1416      2540      1415      2600
 -1     10698    3    0    1
 -2      1437      1427      2733      2797
 -1     10699    3    0    1
 -2       246      2533      2502      2817
 -1     10700    3    0    1
 -2       103      2452        99      2524
 -1     10701    3    0    1
 -2      1492      2464      1489      2919
 -1     10702    3    0    1
 -2      1488      1484      1479      2921
 -1     10703    3    0    1
 -2       146       152       150      2417
 -1     10704    3    0    1
 -2      2766      2964      2635      3009
 -1     10705    3    0    1
 -2      2220      2794      2656      3019
 -1     10706    3    0    1
 -2       622      1469      1462      2631
 -1     10707    3    0    1
 -2      1087       683      1081      2470
 -1     10708    3    0    1
 -2       538      2449       402      2739
 -1     10709    3    0    1
 -2      2222      2714      2516      3010
 -1     10710    3    0    1
 -2       842       838       846      2546
 -1     10711    3    0    1
 -2      2364      2613      2802      3000
 -1     10712    3    0    1
 -2      1071      1066      2487      2526
 -1     10713    3    0    1
 -2      2266      2676      2608      2974
 -1     10714    3    0    1
 -2      1581      1580      1583      2411
 -1     10715    3    0    1
 -2      2402      2566      2657      2870
 -1     10716    3    0    1
 -2      2000       980      1999       981
 -1     10717    3    0    1
 -2       107       103       104      2524
 -1     10718    3    0    1
 -2      1072      2068      1071      2064
 -1     10719    3    0    1
 -2      1585      1590      1587      2479
 -1     10720    3    0    1
 -2      1604      1596      1246      2384
 -1     10721    3    0    1
 -2       855      2641       862      2922
 -1     10722    3    0    1
 -2       636       637       635      2672
 -1     10723    3    0    1
 -2      2669      2736      1552      3026
 -1     10724    3    0    1
 -2      2181      2175      2178      2686
 -1     10725    3    0    1
 -2      2494      2508      2320      2874
 -1     10726    3    0    1
 -2      1134      2784      2742      2911
 -1     10727    3    0    1
 -2      2317      2679      2373      2736
 -1     10728    3    0    1
 -2      2068      1071      1076      1072
 -1     10729    3    0    1
 -2       613      1373       616      2561
 -1     10730    3    0    1
 -2      2292      2910      2535      2918
 -1     10731    3    0    1
 -2       883       875       878      2542
 -1     10732    3    0    1
 -2       729       766      1509       715
 -1     10733    3    0    1
 -2      1137      2617      1132      2627
 -1     10734    3    0    1
 -2      1351      2530      1348      2941
 -1     10735    3    0    1
 -2       165      2394       160      2810
 -1     10736    3    0    1
 -2      2288      2960      2381      2988
 -1     10737    3    0    1
 -2      1338      1342      1344      2939
 -1     10738    3    0    1
 -2       127      2554      2818      2915
 -1     10739    3    0    1
 -2      1613      1615      1611      2546
 -1     10740    3    0    1
 -2       186       179       376      2489
 -1     10741    3    0    1
 -2        90      1310        92      1316
 -1     10742    3    0    1
 -2      2395      2585      2690      2738
 -1     10743    3    0    1
 -2       760      2431       762      2966
 -1     10744    3    0    1
 -2      2135      2132      1743      2905
 -1     10745    3    0    1
 -2      2286      2558      2436      2772
 -1     10746    3    0    1
 -2       112       114       118      2520
 -1     10747    3    0    1
 -2      2420      2553      2314      2953
 -1     10748    3    0    1
 -2        82      2525        83      2814
 -1     10749    3    0    1
 -2      2131      2128      2592      2671
 -1     10750    3    0    1
 -2        60        56        61      2849
 -1     10751    3    0    1
 -2      1545      1542      1544      2633
 -1     10752    3    0    1
 -2      2244      2544      2543      2763
 -1     10753    3    0    1
 -2      2592      2629      2305      2881
 -1     10754    3    0    1
 -2      2087      2549      2127      2901
 -1     10755    3    0    1
 -2       336       337       331      2812
 -1     10756    3    0    1
 -2       923      2709      2543      2763
 -1     10757    3    0    1
 -2      1431      1436      1430      2870
 -1     10758    3    0    1
 -2      1905      1899      1903      3039
 -1     10759    3    0    1
 -2      1411      2884      1407      2899
 -1     10760    3    0    1
 -2       890      2421      1643      2895
 -1     10761    3    0    1
 -2      2412      2629      2580      2683
 -1     10762    3    0    1
 -2       323      2572      2420      2812
 -1     10763    3    0    1
 -2      1907      1904      1901      2829
 -1     10764    3    0    1
 -2       110       115      1296      2749
 -1     10765    3    0    1
 -2      2348      2833      2627      2979
 -1     10766    3    0    1
 -2      1856      1850      1857      2801
 -1     10767    3    0    1
 -2       796       889       888      2454
 -1     10768    3    0    1
 -2      2419      2833      1124      2913
 -1     10769    3    0    1
 -2       745      2433      1547      2865
 -1     10770    3    0    1
 -2      2239      2472      2698      2846
 -1     10771    3    0    1
 -2      1942      2632      1939      2864
 -1     10772    3    0    1
 -2       473      2838      2591      2981
 -1     10773    3    0    1
 -2      1365      1364      1360      2821
 -1     10774    3    0    1
 -2      2397      2731      2232      2863
 -1     10775    3    0    1
 -2      1318      1315      1312      2481
 -1     10776    3    0    1
 -2      1320      2852      1319      2911
 -1     10777    3    0    1
 -2      2077      2080      2082      2388
 -1     10778    3    0    1
 -2      2476      2671      2296      2819
 -1     10779    3    0    1
 -2       301       309      1664      2531
 -1     10780    3    0    1
 -2      2323      2818      2441      2908
 -1     10781    3    0    1
 -2      1279      1282      1281      2417
 -1     10782    3    0    1
 -2      1368      1375      1370      2947
 -1     10783    3    0    1
 -2      2298      2391      2635      2766
 -1     10784    3    0    1
 -2      2762      2875       949      2957
 -1     10785    3    0    1
 -2      1591      1509       811      2647
 -1     10786    3    0    1
 -2      1819       406      2488      2904
 -1     10787    3    0    1
 -2       679       675       676      2565
 -1     10788    3    0    1
 -2      1395      1404      1405      2574
 -1     10789    3    0    1
 -2       943       853      1937      2613
 -1     10790    3    0    1
 -2      1184      1183      2147      1188
 -1     10791    3    0    1
 -2      2204      2214      2198      2518
 -1     10792    3    0    1
 -2      1858      2007      1865      2705
 -1     10793    3    0    1
 -2       152       155       150      2756
 -1     10794    3    0    1
 -2       789       791       793      2845
 -1     10795    3    0    1
 -2       668       670       753      3019
 -1     10796    3    0    1
 -2      2199      1503      2927      2934
 -1     10797    3    0    1
 -2       147       136       146      2915
 -1     10798    3    0    1
 -2      1094      1095      1099      2862
 -1     10799    3    0    1
 -2      1279      2417      1278      2992
 -1     10800    3    0    1
 -2      2010      2050      2051      2449
 -1     10801    3    0    1
 -2      2082      2388      2080      2862
 -1     10802    3    0    1
 -2      1057      1053      2053      2872
 -1     10803    3    0    1
 -2      1593      1589      2681      2970
 -1     10804    3    0    1
 -2       626      2893      1181      3011
 -1     10805    3    0    1
 -2      1544      2486      1546      2633
 -1     10806    3    0    1
 -2       937       944       936      2989
 -1     10807    3    0    1
 -2      1962      1961      2459      2696
 -1     10808    3    0    1
 -2      1221      2572       327      2826
 -1     10809    3    0    1
 -2       567      2666      2839      2903
 -1     10810    3    0    1
 -2      1022      2026      1025      2816
 -1     10811    3    0    1
 -2      2364      2717      2490      2802
 -1     10812    3    0    1
 -2      1424      1431      1430      2870
 -1     10813    3    0    1
 -2      1661      1656      2466      2858
 -1     10814    3    0    1
 -2      1206      2965      2619      3029
 -1     10815    3    0    1
 -2      2396      2924      2716      2925
 -1     10816    3    0    1
 -2      1865      1868      1864      2480
 -1     10817    3    0    1
 -2      2090      2092      2397      2759
 -1     10818    3    0    1
 -2      1920      1993      2611      3006
 -1     10819    3    0    1
 -2      1618      1624      1621      2418
 -1     10820    3    0    1
 -2      1197      1202      1196      2842
 -1     10821    3    0    1
 -2      2455      2792      2258      2940
 -1     10822    3    0    1
 -2       879       884       878      2421
 -1     10823    3    0    1
 -2      2428      2535      2910      2918
 -1     10824    3    0    1
 -2       842       850       844      2641
 -1     10825    3    0    1
 -2      1246      1245      1243      2445
 -1     10826    3    0    1
 -2      1374      1301      1726      2545
 -1     10827    3    0    1
 -2      1944      1945      1939      2869
 -1     10828    3    0    1
 -2      2248      2400      2582      2906
 -1     10829    3    0    1
 -2        56        51       488      2849
 -1     10830    3    0    1
 -2      1998      2408      1893      3031
 -1     10831    3    0    1
 -2       493      1759      1762      3036
 -1     10832    3    0    1
 -2      2279      2686      2529      2882
 -1     10833    3    0    1
 -2        73      2573        67      2838
 -1     10834    3    0    1
 -2      1906      2349      1903      3013
 -1     10835    3    0    1
 -2      1721      1728      1722      2742
 -1     10836    3    0    1
 -2      1083      1085      1082      2598
 -1     10837    3    0    1
 -2      2255      2508      2494      2874
 -1     10838    3    0    1
 -2      1580      1574      2482      2845
 -1     10839    3    0    1
 -2      2327      2720      2805      2838
 -1     10840    3    0    1
 -2      2252      2528      2567      3012
 -1     10841    3    0    1
 -2        60        65        62      2590
 -1     10842    3    0    1
 -2      1676      1222      1221      2572
 -1     10843    3    0    1
 -2       547       546      2663      2905
 -1     10844    3    0    1
 -2       953       952       888      2875
 -1     10845    3    0    1
 -2       953       954       955      2875
 -1     10846    3    0    1
 -2      2654      2873      2361      2982
 -1     10847    3    0    1
 -2      1331      1254      2855      2945
 -1     10848    3    0    1
 -2       224       217       225      2463
 -1     10849    3    0    1
 -2      1129      2381      2833      2988
 -1     10850    3    0    1
 -2      2014      2500      2012      2668
 -1     10851    3    0    1
 -2       438       442       444      2980
 -1     10852    3    0    1
 -2      2225      2629      2412      2835
 -1     10853    3    0    1
 -2      2299      2859      2403      2921
 -1     10854    3    0    1
 -2      2390      2307      2742      2784
 -1     10855    3    0    1
 -2      1489      1492      1490      2464
 -1     10856    3    0    1
 -2       954      2875       949      2989
 -1     10857    3    0    1
 -2      1078      1081       690      3016
 -1     10858    3    0    1
 -2      2265      2690      2533      2699
 -1     10859    3    0    1
 -2      1722      1211      1047      2742
 -1     10860    3    0    1
 -2       827       830       835      2625
 -1     10861    3    0    1
 -2       551        18      2797      2853
 -1     10862    3    0    1
 -2      1419      2855      1491      2919
 -1     10863    3    0    1
 -2      2765      2932      2573      2939
 -1     10864    3    0    1
 -2      1897      1898      1900      2584
 -1     10865    3    0    1
 -2       337      2649       334      2978
 -1     10866    3    0    1
 -2      2534      2927      2422      2934
 -1     10867    3    0    1
 -2       885       876      2542      2877
 -1     10868    3    0    1
 -2      1965      2544      1964      2552
 -1     10869    3    0    1
 -2      1390      1382      2498      2645
 -1     10870    3    0    1
 -2      1890      1897      2472      2691
 -1     10871    3    0    1
 -2      1940      2775      1934      2851
 -1     10872    3    0    1
 -2      1773      1770      2597      2695
 -1     10873    3    0    1
 -2       936      2363       933      3014
 -1     10874    3    0    1
 -2      2384      2616      2428      2727
 -1     10875    3    0    1
 -2       978       820       829      2766
 -1     10876    3    0    1
 -2      2225      2443      2657      3032
 -1     10877    3    0    1
 -2      1286      1285      1282      2669
 -1     10878    3    0    1
 -2      2235      2795      2392      2879
 -1     10879    3    0    1
 -2       193      2559       184      2725
 -1     10880    3    0    1
 -2      1573      1574      2845      2955
 -1     10881    3    0    1
 -2      2109      2115      2108      2507
 -1     10882    3    0    1
 -2      2190      2647      1576      2811
 -1     10883    3    0    1
 -2      2245      2657      2566      2870
 -1     10884    3    0    1
 -2      2083      2086      2089      2862
 -1     10885    3    0    1
 -2       462       470       469      2513
 -1     10886    3    0    1
 -2      1185      1178      1187      2596
 -1     10887    3    0    1
 -2      2044      2005      2062      2549
 -1     10888    3    0    1
 -2      1663      2558      1667      2858
 -1     10889    3    0    1
 -2      1357      1506      1504      2565
 -1     10890    3    0    1
 -2       598       599       608      2416
 -1     10891    3    0    1
 -2      2323      2669      2554      2908
 -1     10892    3    0    1
 -2       454       459       458      2358
 -1     10893    3    0    1
 -2      2402      2657      2245      2870
 -1     10894    3    0    1
 -2      1933      2395      1926      2775
 -1     10895    3    0    1
 -2      1940      1934      1935      2851
 -1     10896    3    0    1
 -2      2293      2648      2388      2894
 -1     10897    3    0    1
 -2      2225      2615      2443      3032
 -1     10898    3    0    1
 -2       233      1237      2506      2937
 -1     10899    3    0    1
 -2      2256      2516      2537      2831
 -1     10900    3    0    1
 -2      1064      1066      1063      2487
 -1     10901    3    0    1
 -2      2372      2475      2622      2907
 -1     10902    3    0    1
 -2      2329      2753      2718      2795
 -1     10903    3    0    1
 -2      1553      1599      1600      2927
 -1     10904    3    0    1
 -2      2134      2685      2129      2958
 -1     10905    3    0    1
 -2       951      2460       954      2989
 -1     10906    3    0    1
 -2       127      2554       132      2818
 -1     10907    3    0    1
 -2      1390      1397      2645      2986
 -1     10908    3    0    1
 -2      1677      1674      1680      2436
 -1     10909    3    0    1
 -2      1485      2545      1486      2919
 -1     10910    3    0    1
 -2      1981      1990      1987      2602
 -1     10911    3    0    1
 -2      2435      2866      2857      2907
 -1     10912    3    0    1
 -2      1336      1333      1334      2582
 -1     10913    3    0    1
 -2      1019       963      2005      1021
 -1     10914    3    0    1
 -2       389       397      1835      2710
 -1     10915    3    0    1
 -2      2300      2639      2518      2640
 -1     10916    3    0    1
 -2      2295      2912      2749      2956
 -1     10917    3    0    1
 -2      2860      2975      2308      3025
 -1     10918    3    0    1
 -2      1968      1958      1963      2737
 -1     10919    3    0    1
 -2       850       862       855      2641
 -1     10920    3    0    1
 -2      1782      1778      1781      2689
 -1     10921    3    0    1
 -2      1403      2483      2986      2987
 -1     10922    3    0    1
 -2      2343      2574      2781      2808
 -1     10923    3    0    1
 -2      2547      2603      2377      2661
 -1     10924    3    0    1
 -2      2658      2952      2230      3000
 -1     10925    3    0    1
 -2      2235      2718      2753      2795
 -1     10926    3    0    1
 -2      2564      2716      2394      2924
 -1     10927    3    0    1
 -2      1354      1356      2530      2821
 -1     10928    3    0    1
 -2      2294      2698      2472      2846
 -1     10929    3    0    1
 -2      2012      2668      2653      2844
 -1     10930    3    0    1
 -2      1455      2536      1457      2605
 -1     10931    3    0    1
 -2      2063      2067      2064      2526
 -1     10932    3    0    1
 -2       348       452      1705      2449
 -1     10933    3    0    1
 -2       646      1131      2483      2913
 -1     10934    3    0    1
 -2      1322      1328      1329      2837
 -1     10935    3    0    1
 -2      1751       519      1749      2684
 -1     10936    3    0    1
 -2      1972      1969      2544      2737
 -1     10937    3    0    1
 -2       736       735       741      2760
 -1     10938    3    0    1
 -2      1181      2596      2840      2893
 -1     10939    3    0    1
 -2      1175      1177      1181      2893
 -1     10940    3    0    1
 -2      1254       393      1331      2855
 -1     10941    3    0    1
 -2      1292      2486      1539      2787
 -1     10942    3    0    1
 -2      1593      1592      1595      2616
 -1     10943    3    0    1
 -2       879      1638       890      2421
 -1     10944    3    0    1
 -2      1019      1721      1047      2549
 -1     10945    3    0    1
 -2      2044      2549      2087      2901
 -1     10946    3    0    1
 -2       249      2586       245      2929
 -1     10947    3    0    1
 -2       527       534       530      2770
 -1     10948    3    0    1
 -2      1964      2552      2544      2737
 -1     10949    3    0    1
 -2       169      1261      1264      2729
 -1     10950    3    0    1
 -2      2437      2709       913      2763
 -1     10951    3    0    1
 -2       297      2434      2788      2832
 -1     10952    3    0    1
 -2       947       949      2875      2957
 -1     10953    3    0    1
 -2      1980      1977      1975      2613
 -1     10954    3    0    1
 -2      1376      1379      1372      2707
 -1     10955    3    0    1
 -2      1478      1471      1473      2896
 -1     10956    3    0    1
 -2      2647      2811      2191      2977
 -1     10957    3    0    1
 -2      1688      1686      2826      2827
 -1     10958    3    0    1
 -2       397      2710       389      3042
 -1     10959    3    0    1
 -2      1680      1682      2803      3045
 -1     10960    3    0    1
 -2      2254      2847      2557      3038
 -1     10961    3    0    1
 -2      2051      2449      2050      2923
 -1     10962    3    0    1
 -2      2092      2759      2096      2815
 -1     10963    3    0    1
 -2       791      2845      2411      3027
 -1     10964    3    0    1
 -2      2833      2960      2419      3037
 -1     10965    3    0    1
 -2       360       225      2621      3039
 -1     10966    3    0    1
 -2      1547       745       740      2433
 -1     10967    3    0    1
 -2       947      2875       888      2957
 -1     10968    3    0    1
 -2      2321      2750      2662      2983
 -1     10969    3    0    1
 -2      2289      2795      2392      3017
 -1     10970    3    0    1
 -2      1148      2465      1147      2617
 -1     10971    3    0    1
 -2      2382      2641      2330      2856
 -1     10972    3    0    1
 -2      1779      1780      2595      2935
 -1     10973    3    0    1
 -2      2494      2508      2255      2959
 -1     10974    3    0    1
 -2      1647      1645      1649      2778
 -1     10975    3    0    1
 -2      1201       622      1194      2748
 -1     10976    3    0    1
 -2      1781      1779      1780      2595
 -1     10977    3    0    1
 -2      2529      2740      2279      2857
 -1     10978    3    0    1
 -2       512       515       518      2684
 -1     10979    3    0    1
 -2      2179      2185      2050      2923
 -1     10980    3    0    1
 -2      1173      1179      1178      2538
 -1     10981    3    0    1
 -2       512      2684      1751      2963
 -1     10982    3    0    1
 -2      1923      2547      1926      2661
 -1     10983    3    0    1
 -2      2225      2657      2443      2847
 -1     10984    3    0    1
 -2      2490      2717      2364      2917
 -1     10985    3    0    1
 -2       936       940       933      2363
 -1     10986    3    0    1
 -2       578       577      2757      2798
 -1     10987    3    0    1
 -2      1460      2631      2260      3011
 -1     10988    3    0    1
 -2      2279      2686      2359      2687
 -1     10989    3    0    1
 -2      2392      2795      2753      2828
 -1     10990    3    0    1
 -2      2728      2758      2548      3041
 -1     10991    3    0    1
 -2      2548      2728      2222      2822
 -1     10992    3    0    1
 -2      1890      1891      1897      2691
 -1     10993    3    0    1
 -2       336       335       334      2553
 -1     10994    3    0    1
 -2      1657      1659      1660      2497
 -1     10995    3    0    1
 -2      1948      2696       298      2864
 -1     10996    3    0    1
 -2      2324      2438      2867      2997
 -1     10997    3    0    1
 -2      2357      2676      2430      3008
 -1     10998    3    0    1
 -2       645       646       643      2483
 -1     10999    3    0    1
 -2      2528      2548      2272      2758
 -1     11000    3    0    1
 -2      1923      1917      1920      2547
 -1     11001    3    0    1
 -2      1605      2546      1606      2773
 -1     11002    3    0    1
 -2      1449      1448      2550      3011
 -1     11003    3    0    1
 -2      2038      2041      2042      2782
 -1     11004    3    0    1
 -2      1739       586      2167      2407
 -1     11005    3    0    1
 -2      2113      2185      2187      2923
 -1     11006    3    0    1
 -2      1402      1398      2899      2986
 -1     11007    3    0    1
 -2      2254      2406      2819      2958
 -1     11008    3    0    1
 -2      2268      2625      2773      2790
 -1     11009    3    0    1
 -2       736      2444      2575      2755
 -1     11010    3    0    1
 -2      1845      2801      1849      2925
 -1     11011    3    0    1
 -2      2006       991      2003      2705
 -1     11012    3    0    1
 -2       469       465       464      2695
 -1     11013    3    0    1
 -2      1976      1981      2602      2717
 -1     11014    3    0    1
 -2      1816      1817      1823      2670
 -1     11015    3    0    1
 -2       196       204       200      2474
 -1     11016    3    0    1
 -2       292       299       291      2434
 -1     11017    3    0    1
 -2      2461      2811      2647      2977
 -1     11018    3    0    1
 -2      2333      2871      2586      3047
 -1     11019    3    0    1
 -2      2593      2635      2285      3009
 -1     11020    3    0    1
 -2      2508      2682      2313      2789
 -1     11021    3    0    1
 -2      1665      1667      1670      2858
 -1     11022    3    0    1
 -2      1174      1168      2136      2685
 -1     11023    3    0    1
 -2       583         8       589      2475
 -1     11024    3    0    1
 -2      1005      1004      1002      2500
 -1     11025    3    0    1
 -2        73      2573        71      2939
 -1     11026    3    0    1
 -2       896       893      2726      2993
 -1     11027    3    0    1
 -2      2020      2018      2017      2609
 -1     11028    3    0    1
 -2      2291      2588      3006      3024
 -1     11029    3    0    1
 -2       852       952       821      3019
 -1     11030    3    0    1
 -2      2835      2847      2387      3022
 -1     11031    3    0    1
 -2       314       307      1967      2459
 -1     11032    3    0    1
 -2        60      2732        56      2849
 -1     11033    3    0    1
 -2       532       541      1746      2704
 -1     11034    3    0    1
 -2      1602      2643      1601      2773
 -1     11035    3    0    1
 -2       378      2587       376      2925
 -1     11036    3    0    1
 -2      1773       465      1770      2695
 -1     11037    3    0    1
 -2       444       448       445      2926
 -1     11038    3    0    1
 -2      1965      1969      1964      2544
 -1     11039    3    0    1
 -2      2544      2552      2244      2737
 -1     11040    3    0    1
 -2      2231      3005      2419      3037
 -1     11041    3    0    1
 -2      2678      2791      2389      2936
 -1     11042    3    0    1
 -2       233      1237       228      2506
 -1     11043    3    0    1
 -2      1908      2577      1909      3039
 -1     11044    3    0    1
 -2      1769      1768      1765      3001
 -1     11045    3    0    1
 -2      1627      1626      2800      2994
 -1     11046    3    0    1
 -2      2585      2661      2395      2690
 -1     11047    3    0    1
 -2      2149      1741      1740      2839
 -1     11048    3    0    1
 -2      2040      2037      1804      2676
 -1     11049    3    0    1
 -2       601       608       607      2739
 -1     11050    3    0    1
 -2       553       546       549      2663
 -1     11051    3    0    1
 -2      2062      2087      2044      2549
 -1     11052    3    0    1
 -2      2620      2780      2331      2783
 -1     11053    3    0    1
 -2      2114      2108      2115      2507
 -1     11054    3    0    1
 -2      1460      1465      1459      2536
 -1     11055    3    0    1
 -2       567      1741       563      2903
 -1     11056    3    0    1
 -2      2514      2263      2720      2721
 -1     11057    3    0    1
 -2      1819       406      1814      2891
 -1     11058    3    0    1
 -2      1103      1098      1097      2863
 -1     11059    3    0    1
 -2      1667      2558      1675      3045
 -1     11060    3    0    1
 -2      1473      2636      1478      2896
 -1     11061    3    0    1
 -2      1726      1301      1735      2545
 -1     11062    3    0    1
 -2      1847      1845      1841      2396
 -1     11063    3    0    1
 -2       108      1298      2697      2749
 -1     11064    3    0    1
 -2      2490      2594      2271      2802
 -1     11065    3    0    1
 -2       452       434      1705      2449
 -1     11066    3    0    1
 -2       221       219       220      2445
 -1     11067    3    0    1
 -2      1534      1535      2517      3043
 -1     11068    3    0    1
 -2       401       140      2972      3042
 -1     11069    3    0    1
 -2       907      1660       915      2497
 -1     11070    3    0    1
 -2      1810      2670      1815      2967
 -1     11071    3    0    1
 -2      1224      1225      2531      2954
 -1     11072    3    0    1
 -2      2714      2822      2325      3010
 -1     11073    3    0    1
 -2      1746       541      1744      2905
 -1     11074    3    0    1
 -2      2413      2251      2713      2980
 -1     11075    3    0    1
 -2      1353        60        62      2590
 -1     11076    3    0    1
 -2      2141      2137      2406      2958
 -1     11077    3    0    1
 -2      2365      2592      2296      2905
 -1     11078    3    0    1
 -2       631       632      1162      2984
 -1     11079    3    0    1
 -2      2090      2092      2086      2397
 -1     11080    3    0    1
 -2      1501      1502       661      2806
 -1     11081    3    0    1
 -2      2302      2443      3032      3049
 -1     11082    3    0    1
 -2       321      2953      2745      3040
 -1     11083    3    0    1
 -2      1808      2883      1809      2891
 -1     11084    3    0    1
 -2      1135      1163      1214      2561
 -1     11085    3    0    1
 -2      2099      2495      1112      2815
 -1     11086    3    0    1
 -2      2365      2704      2592      2905
 -1     11087    3    0    1
 -2       687       691       689      2501
 -1     11088    3    0    1
 -2       763       770       767      2493
 -1     11089    3    0    1
 -2      2345      2695      2513      2897
 -1     11090    3    0    1
 -2      2379      2857      2529      2866
 -1     11091    3    0    1
 -2      1612      1615      1617      2546
 -1     11092    3    0    1
 -2      2566      3032      2657      3049
 -1     11093    3    0    1
 -2       374      1855      1860      2587
 -1     11094    3    0    1
 -2      1287      2669      1552      3026
 -1     11095    3    0    1
 -2      1154      1153      1160      2984
 -1     11096    3    0    1
 -2      1767      2597       478      3001
 -1     11097    3    0    1
 -2       126       132       125      2818
 -1     11098    3    0    1
 -2       629      2550       631      2677
 -1     11099    3    0    1
 -2      2657      3032      2443      3049
 -1     11100    3    0    1
 -2      1387      1395        35      2574
 -1     11101    3    0    1
 -2       744      2433       745      2865
 -1     11102    3    0    1
 -2        75      2525        79      2837
 -1     11103    3    0    1
 -2      2068      2526      2067      2799
 -1     11104    3    0    1
 -2      2138      2139      2144      3033
 -1     11105    3    0    1
 -2       234      2502      2642      3028
 -1     11106    3    0    1
 -2       977       832       974      2408
 -1     11107    3    0    1
 -2       556       553       549      2999
 -1     11108    3    0    1
 -2      2288      2617      2627      2988
 -1     11109    3    0    1
 -2      1160      1153      1152      2557
 -1     11110    3    0    1
 -2      1035      2444       736      2755
 -1     11111    3    0    1
 -2       384       383      2396      2925
 -1     11112    3    0    1
 -2      2388      2731      2080      2862
 -1     11113    3    0    1
 -2      1596      1592      1248      2616
 -1     11114    3    0    1
 -2       680       681       679      2771
 -1     11115    3    0    1
 -2      2589      2620      2331      2783
 -1     11116    3    0    1
 -2       410       409       412      2891
 -1     11117    3    0    1
 -2       406      2488       407      2891
 -1     11118    3    0    1
 -2      1167      1172      1170      2909
 -1     11119    3    0    1
 -2      2326      2741      2558      3045
 -1     11120    3    0    1
 -2      1547      2433      1543      2633
 -1     11121    3    0    1
 -2      1575      1582      1580      2482
 -1     11122    3    0    1
 -2       293       303       302      2788
 -1     11123    3    0    1
 -2      2057      2487      2060      2872
 -1     11124    3    0    1
 -2      2296      2592      2365      2881
 -1     11125    3    0    1
 -2       317       325       323      2420
 -1     11126    3    0    1
 -2      1915      1921      2776      3023
 -1     11127    3    0    1
 -2      1019      1047      1068      2549
 -1     11128    3    0    1
 -2       260       259      1554      1597
 -1     11129    3    0    1
 -2      1237      1238      1239      2937
 -1     11130    3    0    1
 -2      2024      2429      2027      2816
 -1     11131    3    0    1
 -2      1073      2526      1075      2914
 -1     11132    3    0    1
 -2      1247      2535      1246      2918
 -1     11133    3    0    1
 -2       358      2577       231      3039
 -1     11134    3    0    1
 -2      1184      1183      1180      2147
 -1     11135    3    0    1
 -2       492       495       500      3036
 -1     11136    3    0    1
 -2       384       383       387      2396
 -1     11137    3    0    1
 -2         3      1420       474      2855
 -1     11138    3    0    1
 -2      2230      2471      2694      2917
 -1     11139    3    0    1
 -2      2259      2562      2678      2791
 -1     11140    3    0    1
 -2       501      2612      1757      3036
 -1     11141    3    0    1
 -2      2391      2790      2458      2807
 -1     11142    3    0    1
 -2       531       547       541      2905
 -1     11143    3    0    1
 -2        44        47        46      2947
 -1     11144    3    0    1
 -2      2602      2823      1982      3040
 -1     11145    3    0    1
 -2      1366      2442      1365      2821
 -1     11146    3    0    1
 -2       402       486      2052       433
 -1     11147    3    0    1
 -2      1693      2522      2509      2803
 -1     11148    3    0    1
 -2      2007      2705      1858      2844
 -1     11149    3    0    1
 -2      1345      1348      1350      2530
 -1     11150    3    0    1
 -2       699       705       703      2539
 -1     11151    3    0    1
 -2      2523      2941      2262      2950
 -1     11152    3    0    1
 -2      1838      1843      1842      2764
 -1     11153    3    0    1
 -2      2373      2680      2679      2825
 -1     11154    3    0    1
 -2      2330      2641      2382      2922
 -1     11155    3    0    1
 -2       210       271      1924      2823
 -1     11156    3    0    1
 -2      2430      2975      2236      3025
 -1     11157    3    0    1
 -2      2522      2258      2792      2940
 -1     11158    3    0    1
 -2       238       333       337      2978
 -1     11159    3    0    1
 -2       599       609       608      2416
 -1     11160    3    0    1
 -2      2353      2746      2302      2853
 -1     11161    3    0    1
 -2      2275      2431      2867      2966
 -1     11162    3    0    1
 -2       481       476      2849      2981
 -1     11163    3    0    1
 -2      1953      1960      1949      2450
 -1     11164    3    0    1
 -2      2363      2658      2334      2989
 -1     11165    3    0    1
 -2      1515       680       682      1512
 -1     11166    3    0    1
 -2      1749      1748      1750      2704
 -1     11167    3    0    1
 -2       144      1284       137      2915
 -1     11168    3    0    1
 -2      1601      1593      1595      2643
 -1     11169    3    0    1
 -2      2628      2709      2543      3014
 -1     11170    3    0    1
 -2      1353      1358        55      2732
 -1     11171    3    0    1
 -2       323      2420       325      2812
 -1     11172    3    0    1
 -2       796       888       795      2454
 -1     11173    3    0    1
 -2       926      2543      2709      3014
 -1     11174    3    0    1
 -2      1540      2197      1598      2934
 -1     11175    3    0    1
 -2      1530      1531      1532      3043
 -1     11176    3    0    1
 -2      2840      2893      2260      3011
 -1     11177    3    0    1
 -2       774      2493      1568      2955
 -1     11178    3    0    1
 -2      1524      1525      1526      2949
 -1     11179    3    0    1
 -2       331       337       258      2649
 -1     11180    3    0    1
 -2       806       803      2453      2964
 -1     11181    3    0    1
 -2      2483      2899      1403      2986
 -1     11182    3    0    1
 -2      2529      2686      2279      2740
 -1     11183    3    0    1
 -2       815       806       813      2964
 -1     11184    3    0    1
 -2      1015       760       762      2966
 -1     11185    3    0    1
 -2      1782       449       455      2689
 -1     11186    3    0    1
 -2      2528      2595      2358      2758
 -1     11187    3    0    1
 -2      2448      2550      2260      2893
 -1     11188    3    0    1
 -2        95      2195      2199      2534
 -1     11189    3    0    1
 -2      2196      2193      2194      2640
 -1     11190    3    0    1
 -2      2348      2507      2960      2968
 -1     11191    3    0    1
 -2      1510      2565      1511      2771
 -1     11192    3    0    1
 -2      2489      2651      2559      2725
 -1     11193    3    0    1
 -2      2224      2721      2447      2951
 -1     11194    3    0    1
 -2       947       953       888      2875
 -1     11195    3    0    1
 -2        99      2452        93      2599
 -1     11196    3    0    1
 -2       191       196       190      2559
 -1     11197    3    0    1
 -2       184       193       187      2651
 -1     11198    3    0    1
 -2      2170      2165      2173      2529
 -1     11199    3    0    1
 -2      1816      2488      2670      2930
 -1     11200    3    0    1
 -2      1653      1645      1646      2499
 -1     11201    3    0    1
 -2      1602      1606       825      2773
 -1     11202    3    0    1
 -2      1384      1381      1385      2576
 -1     11203    3    0    1
 -2      1597      1600      1692      2826
 -1     11204    3    0    1
 -2      1409      1415      1416      2540
 -1     11205    3    0    1
 -2      1129      1130      1124      2833
 -1     11206    3    0    1
 -2      1234      2586      1231      3047
 -1     11207    3    0    1
 -2      2466      2890      2499      2954
 -1     11208    3    0    1
 -2      2400      2248      2822      2906
 -1     11209    3    0    1
 -2      2066      1707      2073      2901
 -1     11210    3    0    1
 -2       378      1855       376      2587
 -1     11211    3    0    1
 -2      1530      1532      2614      3043
 -1     11212    3    0    1
 -2      2397      2862      2731      2863
 -1     11213    3    0    1
 -2      1987      1990      1989      2594
 -1     11214    3    0    1
 -2      2028      2030      2027      2996
 -1     11215    3    0    1
 -2      2578      2620      2317      3007
 -1     11216    3    0    1
 -2      2650      2873      2504      3015
 -1     11217    3    0    1
 -2      1450      1459      1455      2605
 -1     11218    3    0    1
 -2      2460      2875       954      2989
 -1     11219    3    0    1
 -2      1954      1957      2552      2889
 -1     11220    3    0    1
 -2      1695      2044      1701      2549
 -1     11221    3    0    1
 -2      2593      2766      2635      3009
 -1     11222    3    0    1
 -2      2133      2671      2476      2958
 -1     11223    3    0    1
 -2       522        33       527      2770
 -1     11224    3    0    1
 -2       709      2723       716      2880
 -1     11225    3    0    1
 -2      1722      1728      1211      2742
 -1     11226    3    0    1
 -2      2286      2952      2659      3014
 -1     11227    3    0    1
 -2       259      2422       258      2927
 -1     11228    3    0    1
 -2      2809      2856      2229      2871
 -1     11229    3    0    1
 -2      2098      2100      2102      2495
 -1     11230    3    0    1
 -2      1602       822      1594      2643
 -1     11231    3    0    1
 -2       193       190       196      2559
 -1     11232    3    0    1
 -2      1839      1840      1925      2823
 -1     11233    3    0    1
 -2      1423      1429      1422      2566
 -1     11234    3    0    1
 -2       233      2506       232      2937
 -1     11235    3    0    1
 -2      1136      2623      1140      3018
 -1     11236    3    0    1
 -2      1141      1139      1132      2988
 -1     11237    3    0    1
 -2      1767      1768      2597      3001
 -1     11238    3    0    1
 -2      1442      1448      1441      2550
 -1     11239    3    0    1
 -2      1394      1395      1387      2574
 -1     11240    3    0    1
 -2      1234      2937      2586      3047
 -1     11241    3    0    1
 -2      2327      2720      2513      2897
 -1     11242    3    0    1
 -2      1436      2566      1430      2870
 -1     11243    3    0    1
 -2      2386      2314      2745      2953
 -1     11244    3    0    1
 -2      1857      1858      2478      2844
 -1     11245    3    0    1
 -2      1056      1061      1058      2872
 -1     11246    3    0    1
 -2      2233      2435      2882      2991
 -1     11247    3    0    1
 -2      1859      1860      1855      2587
 -1     11248    3    0    1
 -2      2272      2548      2728      2758
 -1     11249    3    0    1
 -2      2165      2162      2169      2740
 -1     11250    3    0    1
 -2      1267      1254      1330      2945
 -1     11251    3    0    1
 -2      2410      2860      2843      2975
 -1     11252    3    0    1
 -2      1530      1532       723      2614
 -1     11253    3    0    1
 -2       686      2216      2217      2794
 -1     11254    3    0    1
 -2       866      2675      2457      2922
 -1     11255    3    0    1
 -2      1485      1319      1301      2545
 -1     11256    3    0    1
 -2        93      2599      2452      2744
 -1     11257    3    0    1
 -2      2239      2698      2473      2846
 -1     11258    3    0    1
 -2       376      1855       374      2587
 -1     11259    3    0    1
 -2      1002      1004       999      2500
 -1     11260    3    0    1
 -2      2043      2045      2782      3003
 -1     11261    3    0    1
 -2      1616      1610      1614      2569
 -1     11262    3    0    1
 -2      1092      1098       673      2583
 -1     11263    3    0    1
 -2      2077      2078      2080      2388
 -1     11264    3    0    1
 -2       745       744       740      2433
 -1     11265    3    0    1
 -2      2099      1112      2095      2815
 -1     11266    3    0    1
 -2       327      2572      2812      2826
 -1     11267    3    0    1
 -2        43        40        41      2916
 -1     11268    3    0    1
 -2      1349        69        66        64
 -1     11269    3    0    1
 -2       263      2706       266      2959
 -1     11270    3    0    1
 -2      1076      1075      2526      2799
 -1     11271    3    0    1
 -2      2119      2123      2125      2734
 -1     11272    3    0    1
 -2       220       219       211      2445
 -1     11273    3    0    1
 -2       594       590       598      2622
 -1     11274    3    0    1
 -2      1331      2855      1330      2945
 -1     11275    3    0    1
 -2       331       327       332      2812
 -1     11276    3    0    1
 -2       224       227      2642      3028
 -1     11277    3    0    1
 -2      1241      1609      1244      2836
 -1     11278    3    0    1
 -2      2356      2286      2858      2942
 -1     11279    3    0    1
 -2      2286      2709      2628      3014
 -1     11280    3    0    1
 -2       548      2663      1743      2905
 -1     11281    3    0    1
 -2      2308      2967      2670      3025
 -1     11282    3    0    1
 -2      2275      2601      2431      2966
 -1     11283    3    0    1
 -2       225       224      2463      3028
 -1     11284    3    0    1
 -2      2260      2550      1450      3011
 -1     11285    3    0    1
 -2       335       320       326      2553
 -1     11286    3    0    1
 -2      1306      2888      2477      3043
 -1     11287    3    0    1
 -2      2115      2734      2507      2944
 -1     11288    3    0    1
 -2        32        31        33      2540
 -1     11289    3    0    1
 -2        99       102        98      2452
 -1     11290    3    0    1
 -2      2280      2715      2679      2825
 -1     11291    3    0    1
 -2      2242      2441      2908      3021
 -1     11292    3    0    1
 -2      2092      2096      2098      2815
 -1     11293    3    0    1
 -2      2505      2569      2247      2836
 -1     11294    3    0    1
 -2       703       709       704      2880
 -1     11295    3    0    1
 -2      1406      1410      1413      2626
 -1     11296    3    0    1
 -2       210      1840        86      2823
 -1     11297    3    0    1
 -2      2602      2717      2314      3040
 -1     11298    3    0    1
 -2      2230      2471      2628      2772
 -1     11299    3    0    1
 -2      1753      1754      1755      2963
 -1     11300    3    0    1
 -2       736       741      2575      2760
 -1     11301    3    0    1
 -2       613       616      1163      2561
 -1     11302    3    0    1
 -2       645       646      2483      2987
 -1     11303    3    0    1
 -2       276      2508       280      2959
 -1     11304    3    0    1
 -2      1391      1383      1499      2861
 -1     11305    3    0    1
 -2      1259      1257      2729      2971
 -1     11306    3    0    1
 -2      2348      2960      2833      3037
 -1     11307    3    0    1
 -2      2369      2703      2520      2749
 -1     11308    3    0    1
 -2       531       541      2704      2905
 -1     11309    3    0    1
 -2       323       316       317      2420
 -1     11310    3    0    1
 -2       928      1970       924      2544
 -1     11311    3    0    1
 -2      1034      1035       736      2755
 -1     11312    3    0    1
 -2      1973      1976      1978      2717
 -1     11313    3    0    1
 -2       183      2489       179      2725
 -1     11314    3    0    1
 -2       355       248       240      2776
 -1     11315    3    0    1
 -2      2143      2137      2406      2943
 -1     11316    3    0    1
 -2       876       877       867      2457
 -1     11317    3    0    1
 -2      1412      1417        27      2540
 -1     11318    3    0    1
 -2      2027      2024      2028      2429
 -1     11319    3    0    1
 -2       592       600      2622      2859
 -1     11320    3    0    1
 -2      2215       668      2220      2656
 -1     11321    3    0    1
 -2      2651      2886       180      2971
 -1     11322    3    0    1
 -2      1200      2748      1195      2850
 -1     11323    3    0    1
 -2      1234      1238      2937      3047
 -1     11324    3    0    1
 -2       927      2543       934      2990
 -1     11325    3    0    1
 -2      2125      2465      2126      2617
 -1     11326    3    0    1
 -2       950      2460       951      2989
 -1     11327    3    0    1
 -2       246       252       243      2533
 -1     11328    3    0    1
 -2      1769      2085      2081      2731
 -1     11329    3    0    1
 -2      1123      1124      1120      2833
 -1     11330    3    0    1
 -2      2474      2761      2339      2910
 -1     11331    3    0    1
 -2       520       498      2854      2855
 -1     11332    3    0    1
 -2      2198      2197      2203      2405
 -1     11333    3    0    1
 -2      1274      1273      1272      2665
 -1     11334    3    0    1
 -2      1641      2674      2361      2873
 -1     11335    3    0    1
 -2      1864      1868      1869      2637
 -1     11336    3    0    1
 -2      2264      2589      2441      3021
 -1     11337    3    0    1
 -2       845       836       840      2467
 -1     11338    3    0    1
 -2      1571      1569      1270      2451
 -1     11339    3    0    1
 -2      1943      1950      1949      2869
 -1     11340    3    0    1
 -2      1910      1988      1986      2594
 -1     11341    3    0    1
 -2       637      1162       635      2984
 -1     11342    3    0    1
 -2       760      2780       752      3007
 -1     11343    3    0    1
 -2       323       318      2515      2572
 -1     11344    3    0    1
 -2       704       697       703      2539
 -1     11345    3    0    1
 -2       670      1766      1830      3019
 -1     11346    3    0    1
 -2      2015      1006      2013      2609
 -1     11347    3    0    1
 -2      2632      2864      2313      2869
 -1     11348    3    0    1
 -2      1893      1997      1901      2829
 -1     11349    3    0    1
 -2       853      2613       945      2957
 -1     11350    3    0    1
 -2      2376      2396      2716      2801
 -1     11351    3    0    1
 -2      2153      2662      2154      2943
 -1     11352    3    0    1
 -2      1475      1469      1476      2619
 -1     11353    3    0    1
 -2      2138      2133      2476      2958
 -1     11354    3    0    1
 -2      1550      2736      1555      2865
 -1     11355    3    0    1
 -2      1181      2840      1186      3011
 -1     11356    3    0    1
 -2       812       983       808      3009
 -1     11357    3    0    1
 -2       911       903       907      2497
 -1     11358    3    0    1
 -2       136       147       144      2915
 -1     11359    3    0    1
 -2      1562      1568       770      2493
 -1     11360    3    0    1
 -2      2473      2698      2294      2846
 -1     11361    3    0    1
 -2      2291      3006      2961      3024
 -1     11362    3    0    1
 -2      2143      2527      2152      2943
 -1     11363    3    0    1
 -2      1998       978       977      3031
 -1     11364    3    0    1
 -2      2016      2764      1838      2997
 -1     11365    3    0    1
 -2      2388      2598      2293      2894
 -1     11366    3    0    1
 -2       317       325      2420      2953
 -1     11367    3    0    1
 -2      1102      1099      2862      2863
 -1     11368    3    0    1
 -2      1444      1439      1447      2733
 -1     11369    3    0    1
 -2       156       155       152      2756
 -1     11370    3    0    1
 -2      2222      2646      2548      2822
 -1     11371    3    0    1
 -2      1550      1556      1551      2865
 -1     11372    3    0    1
 -2      1375      1381      2576      2707
 -1     11373    3    0    1
 -2      1046      1044      2047      1053
 -1     11374    3    0    1
 -2      1216      1151      1068      2652
 -1     11375    3    0    1
 -2       861      2382      2961      3024
 -1     11376    3    0    1
 -2      2348      2833      2419      3037
 -1     11377    3    0    1
 -2      1716      1714      1715      2503
 -1     11378    3    0    1
 -2       469       470       475      2597
 -1     11379    3    0    1
 -2      2577      2294      3028      3039
 -1     11380    3    0    1
 -2      1424      1423      1418      2884
 -1     11381    3    0    1
 -2       477      2597      2981      3001
 -1     11382    3    0    1
 -2      2252      2646      2814      2830
 -1     11383    3    0    1
 -2       383      2924      2396      2925
 -1     11384    3    0    1
 -2      1843      1850      1848      2824
 -1     11385    3    0    1
 -2      2236      2843      2860      2975
 -1     11386    3    0    1
 -2      1239      1619      1614      2569
 -1     11387    3    0    1
 -2       940       949      2762      2989
 -1     11388    3    0    1
 -2      1163      2965      1208      3029
 -1     11389    3    0    1
 -2      2277      2756      2665      2898
 -1     11390    3    0    1
 -2      2418      2856      2809      2871
 -1     11391    3    0    1
 -2       109       420       114      2410
 -1     11392    3    0    1
 -2      2223      2428      2727      2910
 -1     11393    3    0    1
 -2      2716      2924      2318      2925
 -1     11394    3    0    1
 -2      1998      1997      1893      2408
 -1     11395    3    0    1
 -2      1241      1240      1239      2506
 -1     11396    3    0    1
 -2       655      1500       658      2806
 -1     11397    3    0    1
 -2      2679      2680      2280      2825
 -1     11398    3    0    1
 -2      1962      1961      1966      2459
 -1     11399    3    0    1
 -2      1211      1213      1047      2742
 -1     11400    3    0    1
 -2      2331      2620      2578      2780
 -1     11401    3    0    1
 -2      2175      2181      2184      2686
 -1     11402    3    0    1
 -2       210      1925      1840      2823
 -1     11403    3    0    1
 -2      1183      1191      1190      2750
 -1     11404    3    0    1
 -2      1212      2742      1134      2784
 -1     11405    3    0    1
 -2       699       695      1520      2539
 -1     11406    3    0    1
 -2       887      2568       899      2851
 -1     11407    3    0    1
 -2      2553      2602      2314      3040
 -1     11408    3    0    1
 -2      1388      1726      1724      2945
 -1     11409    3    0    1
 -2       141       238       142      2823
 -1     11410    3    0    1
 -2       902      2726       913      2976
 -1     11411    3    0    1
 -2      1902      1909       358      3039
 -1     11412    3    0    1
 -2      2230      2917      2490      3000
 -1     11413    3    0    1
 -2       409       126       121      2579
 -1     11414    3    0    1
 -2      2214      2461      2198      2518
 -1     11415    3    0    1
 -2      1354      1348      1351      2530
 -1     11416    3    0    1
 -2      1078      2914      1081      3016
 -1     11417    3    0    1
 -2      2327      2805      2573      2838
 -1     11418    3    0    1
 -2       591       592       600      2622
 -1     11419    3    0    1
 -2      2323      2554      2818      2908
 -1     11420    3    0    1
 -2      1380        43      1378      2947
 -1     11421    3    0    1
 -2      1258      1259      1261      2729
 -1     11422    3    0    1
 -2       481      2849      2743      2981
 -1     11423    3    0    1
 -2      1605      1611      1606      2546
 -1     11424    3    0    1
 -2       546       547       531      2905
 -1     11425    3    0    1
 -2      1902      1905      1908      3039
 -1     11426    3    0    1
 -2      1091      1097      1092      2583
 -1     11427    3    0    1
 -2       948       950       766      2460
 -1     11428    3    0    1
 -2      2444      2575      2306      3020
 -1     11429    3    0    1
 -2       560       569       565      2999
 -1     11430    3    0    1
 -2      2363      2952      2658      3000
 -1     11431    3    0    1
 -2      1675      1667      1668      2558
 -1     11432    3    0    1
 -2      2276      2856      2809      3030
 -1     11433    3    0    1
 -2      1533      1306      1300      2477
 -1     11434    3    0    1
 -2      2306      2575      2444      2755
 -1     11435    3    0    1
 -2      1094      2079      1095      2862
 -1     11436    3    0    1
 -2      1708      2066      1718      2901
 -1     11437    3    0    1
 -2       595       594       601      2730
 -1     11438    3    0    1
 -2      1314      1321      1317      2887
 -1     11439    3    0    1
 -2       410      1814       406      2891
 -1     11440    3    0    1
 -2       888      2454       889      2957
 -1     11441    3    0    1
 -2      2207      2405      2209      2934
 -1     11442    3    0    1
 -2      1830       795       670      2454
 -1     11443    3    0    1
 -2      2263      2514      2648      2721
 -1     11444    3    0    1
 -2      1864      2480      1863      2724
 -1     11445    3    0    1
 -2       799       798       791      2411
 -1     11446    3    0    1
 -2      2475      2622      2299      2859
 -1     11447    3    0    1
 -2        78        83      2525      2604
 -1     11448    3    0    1
 -2      1093      1086      2598      2894
 -1     11449    3    0    1
 -2      1139      1144      1140      2623
 -1     11450    3    0    1
 -2       455       453       458      2358
 -1     11451    3    0    1
 -2      2347      2850      2748      2998
 -1     11452    3    0    1
 -2      2076      1085      1083      2598
 -1     11453    3    0    1
 -2      2116      2617      1137      2627
 -1     11454    3    0    1
 -2       168       173       172      2564
 -1     11455    3    0    1
 -2      1621      2418      1624      2994
 -1     11456    3    0    1
 -2      1549      1548      1546      2633
 -1     11457    3    0    1
 -2        18        16       551      2797
 -1     11458    3    0    1
 -2       822       825       830      2643
 -1     11459    3    0    1
 -2      1005      1006      1008      2966
 -1     11460    3    0    1
 -2       195      1249      1251      2886
 -1     11461    3    0    1
 -2      1801      2676      2484      3003
 -1     11462    3    0    1
 -2      1390      1391      1393      2986
 -1     11463    3    0    1
 -2      2123      2117      2118      2734
 -1     11464    3    0    1
 -2      2265      2533      2690      2817
 -1     11465    3    0    1
 -2      1770      1767      1768      2597
 -1     11466    3    0    1
 -2       559       565       564      2999
 -1     11467    3    0    1
 -2      1643       890      1638      2421
 -1     11468    3    0    1
 -2      1049      1041      1044      2511
 -1     11469    3    0    1
 -2      2153      2562      2662      2943
 -1     11470    3    0    1
 -2       830       823       822      2643
 -1     11471    3    0    1
 -2      1082      1086      1084      2598
 -1     11472    3    0    1
 -2      2349      3023      2577      3035
 -1     11473    3    0    1
 -2      2130      1156      2126      2465
 -1     11474    3    0    1
 -2      1407      1410      1402      2899
 -1     11475    3    0    1
 -2      2271      2875      2425      2920
 -1     11476    3    0    1
 -2      2399      2666      2338      3048
 -1     11477    3    0    1
 -2       477      2597       475      2981
 -1     11478    3    0    1
 -2        35      1395        39        37
 -1     11479    3    0    1
 -2       709      2496       718      2723
 -1     11480    3    0    1
 -2      1448      1450      2550      3011
 -1     11481    3    0    1
 -2      1625      1624      1622      3047
 -1     11482    3    0    1
 -2      1593      2643      1594      2970
 -1     11483    3    0    1
 -2      1833      1837      1832      2710
 -1     11484    3    0    1
 -2      2250      2788      2696      2789
 -1     11485    3    0    1
 -2      1822      1826      1827      2930
 -1     11486    3    0    1
 -2       509      2781       514      2876
 -1     11487    3    0    1
 -2       686       821      2794      3019
 -1     11488    3    0    1
 -2      2068      2064      2067      2526
 -1     11489    3    0    1
 -2       731       736      1035      2444
 -1     11490    3    0    1
 -2       157      2534        95      2927
 -1     11491    3    0    1
 -2       913      2709       923      2763
 -1     11492    3    0    1
 -2      1822      2904      2488      2930
 -1     11493    3    0    1
 -2      1501      1363      1502      2806
 -1     11494    3    0    1
 -2      2356      2793      2466      2858
 -1     11495    3    0    1
 -2      2230      2694      2471      2772
 -1     11496    3    0    1
 -2       249       254       245      2586
 -1     11497    3    0    1
 -2      1419      1420      1491      2855
 -1     11498    3    0    1
 -2      1310        98       102      2452
 -1     11499    3    0    1
 -2      2397      2815      1106      3044
 -1     11500    3    0    1
 -2      2299      2622      2475      2907
 -1     11501    3    0    1
 -2      1645      1652      1649      2778
 -1     11502    3    0    1
 -2      2286      2772      2436      2952
 -1     11503    3    0    1
 -2       297      2788       306      2832
 -1     11504    3    0    1
 -2       861      2382       860      2961
 -1     11505    3    0    1
 -2      2085      2091      2090      2731
 -1     11506    3    0    1
 -2       253       248       257      2776
 -1     11507    3    0    1
 -2      2191      2461      2198      2977
 -1     11508    3    0    1
 -2      2488      2904       405      2972
 -1     11509    3    0    1
 -2      2260      2631      2536      2747
 -1     11510    3    0    1
 -2      1342      2765      1345      2939
 -1     11511    3    0    1
 -2       509      2781      2446      2916
 -1     11512    3    0    1
 -2      1544      1539      1292      2486
 -1     11513    3    0    1
 -2      1145      1148      1147      2617
 -1     11514    3    0    1
 -2      1757       501       506      2612
 -1     11515    3    0    1
 -2       389      2810       391      3042
 -1     11516    3    0    1
 -2      2153      2152      2562      2943
 -1     11517    3    0    1
 -2       501       505       506      2612
 -1     11518    3    0    1
 -2      2172      2177      2151      2842
 -1     11519    3    0    1
 -2      2541      2664      2285      3009
 -1     11520    3    0    1
 -2       420      2410       109      2969
 -1     11521    3    0    1
 -2       297       293      2788      2789
 -1     11522    3    0    1
 -2      1660      2497      1659      2942
 -1     11523    3    0    1
 -2       410       407       409      2891
 -1     11524    3    0    1
 -2      1178      1179      1183      2538
 -1     11525    3    0    1
 -2        60        55        56      2732
 -1     11526    3    0    1
 -2       298      1962       307      2696
 -1     11527    3    0    1
 -2      1635      1629      1636      2504
 -1     11528    3    0    1
 -2       231      3028       225      3039
 -1     11529    3    0    1
 -2       624      2631      1462      3011
 -1     11530    3    0    1
 -2      2593      2664      2285      2948
 -1     11531    3    0    1
 -2      2551      2827      2326      3045
 -1     11532    3    0    1
 -2      1841      1836      1837      2618
 -1     11533    3    0    1
 -2      1273      2665      1274      2992
 -1     11534    3    0    1
 -2      1175      2550       629      2677
 -1     11535    3    0    1
 -2      1819      2488      1822      2904
 -1     11536    3    0    1
 -2       835       831       827      2625
 -1     11537    3    0    1
 -2      2153      2159      2160      2662
 -1     11538    3    0    1
 -2      1233       241      1232      2586
 -1     11539    3    0    1
 -2      1006      2018      1009      1010
 -1     11540    3    0    1
 -2       923      2543       927      2763
 -1     11541    3    0    1
 -2      2388      2232      2731      2863
 -1     11542    3    0    1
 -2      2044      2073      1700      2901
 -1     11543    3    0    1
 -2       981       983       812      2593
 -1     11544    3    0    1
 -2       355       240      2577      2776
 -1     11545    3    0    1
 -2      1133      2111      2116      2627
 -1     11546    3    0    1
 -2      2549      2901      1701      2928
 -1     11547    3    0    1
 -2      1636      2504      1629      2873
 -1     11548    3    0    1
 -2      2271      2762      2658      3000
 -1     11549    3    0    1
 -2      2016      2017      2015      2609
 -1     11550    3    0    1
 -2      2037      2034      1807      3008
 -1     11551    3    0    1
 -2       629      1442       631      2550
 -1     11552    3    0    1
 -2      1449      2550       626      3011
 -1     11553    3    0    1
 -2      2155      2153      2152      2562
 -1     11554    3    0    1
 -2       966      1993       882       962
 -1     11555    3    0    1
 -2      2809      2856      2418      3030
 -1     11556    3    0    1
 -2      1499      1500       655      2861
 -1     11557    3    0    1
 -2       752      2578       751      3007
 -1     11558    3    0    1
 -2      1858      2724      2478      2844
 -1     11559    3    0    1
 -2       567       576      1741      2839
 -1     11560    3    0    1
 -2       760      1017       752      2780
 -1     11561    3    0    1
 -2      1288      1284      1285      2554
 -1     11562    3    0    1
 -2       559       553       556      2999
 -1     11563    3    0    1
 -2      2197      2198      2191      2811
 -1     11564    3    0    1
 -2       647      2913      2483      2987
 -1     11565    3    0    1
 -2      2402      2672      2287      2884
 -1     11566    3    0    1
 -2      1972      1974      1968      2737
 -1     11567    3    0    1
 -2       418      2946       420      2969
 -1     11568    3    0    1
 -2       551      2797       550      2853
 -1     11569    3    0    1
 -2       470       475      2597      2981
 -1     11570    3    0    1
 -2      2269      2666      2399      3048
 -1     11571    3    0    1
 -2      2552      2688      2244      2737
 -1     11572    3    0    1
 -2      1037       731      1035      2444
 -1     11573    3    0    1
 -2      1859      1861      1862      2587
 -1     11574    3    0    1
 -2       752      2780      2578      3007
 -1     11575    3    0    1
 -2       156       153       160      2810
 -1     11576    3    0    1
 -2      1680      2436      1674      3045
 -1     11577    3    0    1
 -2      2125      2128      2129      2387
 -1     11578    3    0    1
 -2      1074      1073      1075      2914
 -1     11579    3    0    1
 -2      1775      1776      1779      2695
 -1     11580    3    0    1
 -2       539       402      2052      2739
 -1     11581    3    0    1
 -2      1270      1564      1275      2680
 -1     11582    3    0    1
 -2       945      2762       949      2957
 -1     11583    3    0    1
 -2      1755      2612      1756      2963
 -1     11584    3    0    1
 -2      2180      2113      2181      2923
 -1     11585    3    0    1
 -2      2297      2586      2871      3047
 -1     11586    3    0    1
 -2      2059      2060      2057      2487
 -1     11587    3    0    1
 -2      1310        90        93      1316
 -1     11588    3    0    1
 -2       737       732      1537      2517
 -1     11589    3    0    1
 -2      2008      2007      1858      2844
 -1     11590    3    0    1
 -2      1523        23      1503      2927
 -1     11591    3    0    1
 -2       171       174      2564      2924
 -1     11592    3    0    1
 -2       625      1449       627       626
 -1     11593    3    0    1
 -2       211       201       206      2535
 -1     11594    3    0    1
 -2      2585      2776      2265      2817
 -1     11595    3    0    1
 -2       583         8      2475      2798
 -1     11596    3    0    1
 -2       949      2875      2762      2989
 -1     11597    3    0    1
 -2       247       246      2502      2817
 -1     11598    3    0    1
 -2       348      1705      1702      2449
 -1     11599    3    0    1
 -2       918       927       928      2763
 -1     11600    3    0    1
 -2      1256      1582      1575      2482
 -1     11601    3    0    1
 -2      2260      2893      2550      3011
 -1     11602    3    0    1
 -2       698       700      1067      2768
 -1     11603    3    0    1
 -2       327      2572       332      2812
 -1     11604    3    0    1
 -2      1695      2044      1700      1701
 -1     11605    3    0    1
 -2        61        63        60      2591
 -1     11606    3    0    1
 -2      2441      2900      2340      2972
 -1     11607    3    0    1
 -2       317       305       313      2953
 -1     11608    3    0    1
 -2      1590      1585      1586      2479
 -1     11609    3    0    1
 -2      2114      2115      2117      2734
 -1     11610    3    0    1
 -2       183       180       177      2651
 -1     11611    3    0    1
 -2       739       734       737      2517
 -1     11612    3    0    1
 -2      1006      1002      2013      2500
 -1     11613    3    0    1
 -2       968       966      1993      3006
 -1     11614    3    0    1
 -2      2256      2614      2496      2723
 -1     11615    3    0    1
 -2       589       592       591      2475
 -1     11616    3    0    1
 -2      2286      2942      2709      3014
 -1     11617    3    0    1
 -2        73        74      2573      2838
 -1     11618    3    0    1
 -2       143      1924       210       209
 -1     11619    3    0    1
 -2       923       926       927      2543
 -1     11620    3    0    1
 -2       861       856      2382      3024
 -1     11621    3    0    1
 -2      1339      2765      1338      2932
 -1     11622    3    0    1
 -2      1572      1570      1573      2955
 -1     11623    3    0    1
 -2      1178      1172      1173      2538
 -1     11624    3    0    1
 -2      1709      2901      1708      2928
 -1     11625    3    0    1
 -2       369       197       191      2752
 -1     11626    3    0    1
 -2      1352      1355      1353      2590
 -1     11627    3    0    1
 -2      1485      1301      1374      2545
 -1     11628    3    0    1
 -2      2055      1789      2058      2468
 -1     11629    3    0    1
 -2       921      2497       922      2709
 -1     11630    3    0    1
 -2       645       647       646      2987
 -1     11631    3    0    1
 -2       462       464       458      2897
 -1     11632    3    0    1
 -2      2682      2820      2228      2874
 -1     11633    3    0    1
 -2      2683      2960      2507      2968
 -1     11634    3    0    1
 -2       815      2391       819      2964
 -1     11635    3    0    1
 -2       930      2659       929      2942
 -1     11636    3    0    1
 -2      2234      2819      2443      2841
 -1     11637    3    0    1
 -2      1292      1539      1295      2787
 -1     11638    3    0    1
 -2      2249      2722      2419      3037
 -1     11639    3    0    1
 -2      2230      2712      2490      2917
 -1     11640    3    0    1
 -2       241      2586      1233      2937
 -1     11641    3    0    1
 -2       464      2695       458      2897
 -1     11642    3    0    1
 -2      2298      2635      2593      2766
 -1     11643    3    0    1
 -2      2658      2762      2271      2875
 -1     11644    3    0    1
 -2      2209      2405      2197      2934
 -1     11645    3    0    1
 -2      2753      2795      2329      2828
 -1     11646    3    0    1
 -2      2306      2427      2933      3025
 -1     11647    3    0    1
 -2      1943      1946      1950      2962
 -1     11648    3    0    1
 -2      2222      2646      2822      3010
 -1     11649    3    0    1
 -2      1091      2583      1092      2894
 -1     11650    3    0    1
 -2      1425      1414      2672      2884
 -1     11651    3    0    1
 -2       970       864       968      2588
 -1     11652    3    0    1
 -2       609       606       607      2462
 -1     11653    3    0    1
 -2       414      2883      1808      2891
 -1     11654    3    0    1
 -2      2126      1148      2122      2617
 -1     11655    3    0    1
 -2       373      2587       371      2752
 -1     11656    3    0    1
 -2       909       901       906      2889
 -1     11657    3    0    1
 -2       968      2588       864      3006
 -1     11658    3    0    1
 -2       864       970       857      2588
 -1     11659    3    0    1
 -2       693      1074      1078      3016
 -1     11660    3    0    1
 -2       180       175       177      2971
 -1     11661    3    0    1
 -2      1333      1336      1339      2779
 -1     11662    3    0    1
 -2       191       373       371      2752
 -1     11663    3    0    1
 -2       727      1534      1536      2517
 -1     11664    3    0    1
 -2      1256      1575      1260      2482
 -1     11665    3    0    1
 -2      2230      2952      2628      3000
 -1     11666    3    0    1
 -2       853       796      1884      2957
 -1     11667    3    0    1
 -2       334       337       336      2649
 -1     11668    3    0    1
 -2      2375      2657      2566      3032
 -1     11669    3    0    1
 -2       540       531       528      2704
 -1     11670    3    0    1
 -2      2496      2614      2256      2888
 -1     11671    3    0    1
 -2      1605      1606      1602      2773
 -1     11672    3    0    1
 -2       201       211       202      2535
 -1     11673    3    0    1
 -2       234       243       239      2929
 -1     11674    3    0    1
 -2      1862      1866      2587      2752
 -1     11675    3    0    1
 -2      1682      2827      2803      3045
 -1     11676    3    0    1
 -2      1524      2539      1521      2949
 -1     11677    3    0    1
 -2      1565      1563      1567      2493
 -1     11678    3    0    1
 -2      2619      2636      2278      2965
 -1     11679    3    0    1
 -2      2702      2933      2427      3021
 -1     11680    3    0    1
 -2      2263      2648      2570      2721
 -1     11681    3    0    1
 -2      2525      2604      2252      3012
 -1     11682    3    0    1
 -2      2171      2164      2163      2842
 -1     11683    3    0    1
 -2       219      1243       212      2445
 -1     11684    3    0    1
 -2       429       105       437      2713
 -1     11685    3    0    1
 -2      2635      2766      2391      2964
 -1     11686    3    0    1
 -2      1130      1124      2833      2913
 -1     11687    3    0    1
 -2      1757      2612      1758      3036
 -1     11688    3    0    1
 -2      1529      1530      2496      2888
 -1     11689    3    0    1
 -2      1786      1781      1783      2595
 -1     11690    3    0    1
 -2      1111      1112      1116      2495
 -1     11691    3    0    1
 -2      1853      2478      1857      2824
 -1     11692    3    0    1
 -2      2628      2952      2363      3000
 -1     11693    3    0    1
 -2      1498      1391      2861      2987
 -1     11694    3    0    1
 -2       321       326       320      3040
 -1     11695    3    0    1
 -2      1319      1301      2545      2852
 -1     11696    3    0    1
 -2       892      1992       882      2851
 -1     11697    3    0    1
 -2      2443      2245      2657      3049
 -1     11698    3    0    1
 -2      2513      2720      2327      2838
 -1     11699    3    0    1
 -2       942      2762      2613      2990
 -1     11700    3    0    1
 -2        75      1335      1340      2932
 -1     11701    3    0    1
 -2       919       928       924      2544
 -1     11702    3    0    1
 -2      1747      2132      2131      2592
 -1     11703    3    0    1
 -2      1460      2260      1450      3011
 -1     11704    3    0    1
 -2      2008      2653      2705      2844
 -1     11705    3    0    1
 -2      2528      2272      2595      2758
 -1     11706    3    0    1
 -2      2304      2718      2482      2878
 -1     11707    3    0    1
 -2       676      2565      1510      2771
 -1     11708    3    0    1
 -2       181      2886      1255      2971
 -1     11709    3    0    1
 -2      1803      1805      1802      2883
 -1     11710    3    0    1
 -2      1921      1929      2585      2661
 -1     11711    3    0    1
 -2       124       132       127      2554
 -1     11712    3    0    1
 -2       530      2769       525      2770
 -1     11713    3    0    1
 -2       876       875       883      2542
 -1     11714    3    0    1
 -2      1160      1161      1154      2984
 -1     11715    3    0    1
 -2       761       759       758      2715
 -1     11716    3    0    1
 -2      1380      2576        43      2947
 -1     11717    3    0    1
 -2       720      2614       721      2723
 -1     11718    3    0    1
 -2      1874      1883      2212      2848
 -1     11719    3    0    1
 -2      1887      1888      1880      2693
 -1     11720    3    0    1
 -2      1076      1079      1075      2799
 -1     11721    3    0    1
 -2      1258      1259      2729      2971
 -1     11722    3    0    1
 -2       947       945       949      2957
 -1     11723    3    0    1
 -2      1956      1954      1957      2552
 -1     11724    3    0    1
 -2      2475      2630      2299      2907
 -1     11725    3    0    1
 -2      2222      2701      2728      3041
 -1     11726    3    0    1
 -2      1380      1378      1377      2947
 -1     11727    3    0    1
 -2      2089      1109      1104      2815
 -1     11728    3    0    1
 -2        79      2525        82      2837
 -1     11729    3    0    1
 -2       725       721       720      2614
 -1     11730    3    0    1
 -2      1324      1325      1327      2400
 -1     11731    3    0    1
 -2      1645      1644      1640      2654
 -1     11732    3    0    1
 -2       981       820       978      2766
 -1     11733    3    0    1
 -2      1875      1879      1881      2692
 -1     11734    3    0    1
 -2      2051       402      2002      2449
 -1     11735    3    0    1
 -2      2577      3023      2265      3035
 -1     11736    3    0    1
 -2      1086      1087      1080      2894
 -1     11737    3    0    1
 -2      2513      2720      2345      2897
 -1     11738    3    0    1
 -2      1079      2799      1080      2914
 -1     11739    3    0    1
 -2      1953      1949      1950      2450
 -1     11740    3    0    1
 -2      1211      1728      1729      2742
 -1     11741    3    0    1
 -2       233       228       232      2506
 -1     11742    3    0    1
 -2      1886      1881      1889      2692
 -1     11743    3    0    1
 -2       915      2497      1660      2942
 -1     11744    3    0    1
 -2      2224      2514      2720      2721
 -1     11745    3    0    1
 -2      1962      1967       307      2459
 -1     11746    3    0    1
 -2      1985      1988      1883      2848
 -1     11747    3    0    1
 -2       178      1255      1258      2971
 -1     11748    3    0    1
 -2      2748      2850      2393      2998
 -1     11749    3    0    1
 -2       327      2812       331      2826
 -1     11750    3    0    1
 -2      2191      2647      2190      2811
 -1     11751    3    0    1
 -2      1172      1173      2538      2909
 -1     11752    3    0    1
 -2       318      1221      1222      2572
 -1     11753    3    0    1
 -2      2276      2994      2856      3030
 -1     11754    3    0    1
 -2       675       673       672      2565
 -1     11755    3    0    1
 -2       966       882      1993      2611
 -1     11756    3    0    1
 -2       963      1694       965       964
 -1     11757    3    0    1
 -2      1348      1343      1346      2941
 -1     11758    3    0    1
 -2      1915      2661      1921      3023
 -1     11759    3    0    1
 -2      1140      2623      1143      3018
 -1     11760    3    0    1
 -2      1212      1218      1213      2784
 -1     11761    3    0    1
 -2      1933      2775      1943      2869
 -1     11762    3    0    1
 -2      1523        95        23      2927
 -1     11763    3    0    1
 -2       127       132       133      2818
 -1     11764    3    0    1
 -2       216       215       207      2767
 -1     11765    3    0    1
 -2      1079      1075      2799      2914
 -1     11766    3    0    1
 -2      1490      1492      1480      2921
 -1     11767    3    0    1
 -2      1984      1937      1884      2613
 -1     11768    3    0    1
 -2      2269      2791      2527      3048
 -1     11769    3    0    1
 -2      2030      2028      1818      2735
 -1     11770    3    0    1
 -2      1146      1143      1140      2623
 -1     11771    3    0    1
 -2        71        75      1340      2932
 -1     11772    3    0    1
 -2       604       607       606      2462
 -1     11773    3    0    1
 -2      1797      1801      2484      3003
 -1     11774    3    0    1
 -2       148       156       152      2756
 -1     11775    3    0    1
 -2      1642      2421      1639      2654
 -1     11776    3    0    1
 -2      2207      2203      2197      2405
 -1     11777    3    0    1
 -2        71      1340        66      2939
 -1     11778    3    0    1
 -2      1260      2482      1575      2878
 -1     11779    3    0    1
 -2      2265      2661      2603      3023
 -1     11780    3    0    1
 -2        97        93      1310        90
 -1     11781    3    0    1
 -2      1250      1251      1249      2886
 -1     11782    3    0    1
 -2       509       504        44      2916
 -1     11783    3    0    1
 -2      1208      1207      1214      3029
 -1     11784    3    0    1
 -2      2410      2946      2308      2975
 -1     11785    3    0    1
 -2      2313      2682      2508      2820
 -1     11786    3    0    1
 -2      2132      2592      1747      2905
 -1     11787    3    0    1
 -2      1994      2588       968      3006
 -1     11788    3    0    1
 -2       291       299       300      2531
 -1     11789    3    0    1
 -2      1010      2609      1011      2966
 -1     11790    3    0    1
 -2      1861      2587      1859      2724
 -1     11791    3    0    1
 -2      1181       626       629      2893
 -1     11792    3    0    1
 -2      1409      1412      1405      2540
 -1     11793    3    0    1
 -2      2619      2965      2278      3029
 -1     11794    3    0    1
 -2      2011      2500       999      2653
 -1     11795    3    0    1
 -2       443      2754       498      2855
 -1     11796    3    0    1
 -2      2418      2856      2994      3030
 -1     11797    3    0    1
 -2       716      1059       710      2880
 -1     11798    3    0    1
 -2      1161      1170      1171      2677
 -1     11799    3    0    1
 -2      2525      2830      2354      2837
 -1     11800    3    0    1
 -2       171       174       173      2564
 -1     11801    3    0    1
 -2      2299      2636      2921      2991
 -1     11802    3    0    1
 -2      2328      2573      2525      3012
 -1     11803    3    0    1
 -2      1801      2043      2676      3003
 -1     11804    3    0    1
 -2      2099      1117      2495      2979
 -1     11805    3    0    1
 -2      2242      2908      2702      3021
 -1     11806    3    0    1
 -2       301       295       300      2531
 -1     11807    3    0    1
 -2      2573      2805      2327      3012
 -1     11808    3    0    1
 -2       518       526       519      2684
 -1     11809    3    0    1
 -2      2573      2838      2303      2939
 -1     11810    3    0    1
 -2      1611      2546      1605      2773
 -1     11811    3    0    1
 -2      2490      2917      2364      3000
 -1     11812    3    0    1
 -2      1663      1661      1655      2466
 -1     11813    3    0    1
 -2      2175      2178      2686      2687
 -1     11814    3    0    1
 -2      2212      2221      2213      2848
 -1     11815    3    0    1
 -2      2418      2809      2333      2871
 -1     11816    3    0    1
 -2       599       605       609      2416
 -1     11817    3    0    1
 -2       278      1942       287      2864
 -1     11818    3    0    1
 -2      1757       506      1756      2612
 -1     11819    3    0    1
 -2      1108      1110      2722      3044
 -1     11820    3    0    1
 -2      2136      2134      2142      2685
 -1     11821    3    0    1
 -2       902       893       903      2726
 -1     11822    3    0    1
 -2       796      2454      1884      2957
 -1     11823    3    0    1
 -2      2275      2764      2609      2997
 -1     11824    3    0    1
 -2      2049      1792      2055      2711
 -1     11825    3    0    1
 -2      2235      2456      2718      2795
 -1     11826    3    0    1
 -2      2264      2670      2488      2930
 -1     11827    3    0    1
 -2      1156      2465      2130      2685
 -1     11828    3    0    1
 -2      1220      1686      1683      2826
 -1     11829    3    0    1
 -2      2726      2895      2315      2993
 -1     11830    3    0    1
 -2      1076      1075      1071      2526
 -1     11831    3    0    1
 -2      2311      2649      2639      2792
 -1     11832    3    0    1
 -2      2351      2797      2733      2938
 -1     11833    3    0    1
 -2      2199      2208      2207      2534
 -1     11834    3    0    1
 -2      2351      2733      2448      2938
 -1     11835    3    0    1
 -2      1343      2765      1339      2779
 -1     11836    3    0    1
 -2      1103      2555      2863      3044
 -1     11837    3    0    1
 -2      2141      2137      2146      2943
 -1     11838    3    0    1
 -2      2508      2820      2682      2874
 -1     11839    3    0    1
 -2      1081      2470       683      3016
 -1     11840    3    0    1
 -2       896      2726       902      2976
 -1     11841    3    0    1
 -2       269       264       254      2706
 -1     11842    3    0    1
 -2      1040      1044      1041      2782
 -1     11843    3    0    1
 -2      1916       355      1909      2776
 -1     11844    3    0    1
 -2      2046      2049      2711      3003
 -1     11845    3    0    1
 -2      1981      1978      1976      2602
 -1     11846    3    0    1
 -2      1006      1005      1002      2500
 -1     11847    3    0    1
 -2      1302      2477      1306      2956
 -1     11848    3    0    1
 -2       202       195       201      2535
 -1     11849    3    0    1
 -2      1737       537      1736      2687
 -1     11850    3    0    1
 -2      2490      2802      2271      3000
 -1     11851    3    0    1
 -2       856       860       861      2382
 -1     11852    3    0    1
 -2       445      1790       440      2926
 -1     11853    3    0    1
 -2       919       918       928      2763
 -1     11854    3    0    1
 -2       211       219       212      2445
 -1     11855    3    0    1
 -2      1701      1709      1710      2928
 -1     11856    3    0    1
 -2       913       902       911      2726
 -1     11857    3    0    1
 -2      1307      1304      1303      2697
 -1     11858    3    0    1
 -2      1660      1658      1657      2497
 -1     11859    3    0    1
 -2      1442      1449      1448      2550
 -1     11860    3    0    1
 -2      2465      2685      1156      3038
 -1     11861    3    0    1
 -2      1641      2361      1640      2873
 -1     11862    3    0    1
 -2      1438        16      1435      2797
 -1     11863    3    0    1
 -2      2027      2029      2026      1025
 -1     11864    3    0    1
 -2      2289      2478      2844      2879
 -1     11865    3    0    1
 -2      1615      1613      1620      2994
 -1     11866    3    0    1
 -2      1061      1059      1058      2785
 -1     11867    3    0    1
 -2       301       300       309      2531
 -1     11868    3    0    1
 -2       136       133       146      2915
 -1     11869    3    0    1
 -2      1010      1011      1008      2966
 -1     11870    3    0    1
 -2      1651       907       904      2895
 -1     11871    3    0    1
 -2      1964      2544      1969      2737
 -1     11872    3    0    1
 -2       457       461      1775      2695
 -1     11873    3    0    1
 -2      2135      2138      2133      2476
 -1     11874    3    0    1
 -2      2274      2414      2810      3042
 -1     11875    3    0    1
 -2      2182      2187      2127      2491
 -1     11876    3    0    1
 -2       278      2632      1942      2864
 -1     11877    3    0    1
 -2       966      2611      1993      3006
 -1     11878    3    0    1
 -2      1469      1461      1462      2631
 -1     11879    3    0    1
 -2      2512      2968      2348      3037
 -1     11880    3    0    1
 -2      1523        96        95      2927
 -1     11881    3    0    1
 -2       360       231       225      3039
 -1     11882    3    0    1
 -2      2388      2648      2583      2894
 -1     11883    3    0    1
 -2      2352      2893      2841      2936
 -1     11884    3    0    1
 -2       804       990       794      2541
 -1     11885    3    0    1
 -2       144      1281      1284      2915
 -1     11886    3    0    1
 -2      2354      2814      2646      2830
 -1     11887    3    0    1
 -2      1880      1888       364      2693
 -1     11888    3    0    1
 -2      2175      2174      2178      2687
 -1     11889    3    0    1
 -2      2580      2769      2353      2770
 -1     11890    3    0    1
 -2      2514      2721      2224      2950
 -1     11891    3    0    1
 -2      1753       512      1751      2963
 -1     11892    3    0    1
 -2      2062      2127      2087      2549
 -1     11893    3    0    1
 -2       244       246       243      2502
 -1     11894    3    0    1
 -2      2455      2237      2792      2940
 -1     11895    3    0    1
 -2      1373      1399      1434      2561
 -1     11896    3    0    1
 -2       951       954       949      2989
 -1     11897    3    0    1
 -2       760      1015      1017      2780
 -1     11898    3    0    1
 -2       263       270      2706      2959
 -1     11899    3    0    1
 -2      1726      1735      1730      2545
 -1     11900    3    0    1
 -2        85        91        89      2814
 -1     11901    3    0    1
 -2       303      2788       293      2789
 -1     11902    3    0    1
 -2      2328      2830      2525      2932
 -1     11903    3    0    1
 -2      1788      2215       668      1745
 -1     11904    3    0    1
 -2      2483      2913      1131      3018
 -1     11905    3    0    1
 -2      2003      2664      2004      2705
 -1     11906    3    0    1
 -2       744       741       739      2760
 -1     11907    3    0    1
 -2      1661      1656      1655      2466
 -1     11908    3    0    1
 -2       954       951       950      2460
 -1     11909    3    0    1
 -2      1143      1146      1150      2796
 -1     11910    3    0    1
 -2      1152      1160      2557      3038
 -1     11911    3    0    1
 -2      2111      2110      2627      2979
 -1     11912    3    0    1
 -2      2169      2166      2174      2740
 -1     11913    3    0    1
 -2       234       240       244      2502
 -1     11914    3    0    1
 -2      2011      2012      2500      2653
 -1     11915    3    0    1
 -2      1070      1071      1066      2487
 -1     11916    3    0    1
 -2       892       887       899      2851
 -1     11917    3    0    1
 -2      2668      2844      2824      2879
 -1     11918    3    0    1
 -2       892       901      1941      2568
 -1     11919    3    0    1
 -2       607      2462       604      2739
 -1     11920    3    0    1
 -2      1719      1702      1717      2449
 -1     11921    3    0    1
 -2      1243       219      1242      2445
 -1     11922    3    0    1
 -2      2273      2872      2785      3002
 -1     11923    3    0    1
 -2      2573      2805      2303      2838
 -1     11924    3    0    1
 -2        67        65        68      2838
 -1     11925    3    0    1
 -2       929      2659       936      3014
 -1     11926    3    0    1
 -2      2399      2938      2439      2999
 -1     11927    3    0    1
 -2      1645      2499      1652      2778
 -1     11928    3    0    1
 -2       305      2515       308      2832
 -1     11929    3    0    1
 -2      1962       298      1955      2696
 -1     11930    3    0    1
 -2       580      2407      1739      2839
 -1     11931    3    0    1
 -2      1159      2685      1164      3038
 -1     11932    3    0    1
 -2       884      2421       890      2993
 -1     11933    3    0    1
 -2      2325      2906      2539      2949
 -1     11934    3    0    1
 -2       922       929      2709      2942
 -1     11935    3    0    1
 -2       181       180      2886      2971
 -1     11936    3    0    1
 -2      2671      2819      2476      2958
 -1     11937    3    0    1
 -2        32        36        35      2574
 -1     11938    3    0    1
 -2      2866      2983      2226      2998
 -1     11939    3    0    1
 -2      1237      1240       228      2506
 -1     11940    3    0    1
 -2      1245      1247       202      2535
 -1     11941    3    0    1
 -2       352       354      1922      2776
 -1     11942    3    0    1
 -2      1000       999      1004      2653
 -1     11943    3    0    1
 -2      2075      2071      2070      2598
 -1     11944    3    0    1
 -2      1753      1755      1756      2963
 -1     11945    3    0    1
 -2      1163      2561       616      2965
 -1     11946    3    0    1
 -2      1624      1625      2650      3047
 -1     11947    3    0    1
 -2      1537       732      1536      2517
 -1     11948    3    0    1
 -2      1232      1229      1231      2586
 -1     11949    3    0    1
 -2      1721      1695      1701      2549
 -1     11950    3    0    1
 -2       993       794       990      2541
 -1     11951    3    0    1
 -2      1941      1992       892      2851
 -1     11952    3    0    1
 -2      1524       699      1520      2539
 -1     11953    3    0    1
 -2      2407      2839       580      3004
 -1     11954    3    0    1
 -2      1611      1607      1613      2505
 -1     11955    3    0    1
 -2      1802       423       430      2834
 -1     11956    3    0    1
 -2      1800      1797      1801      2484
 -1     11957    3    0    1
 -2      1375      2707      2576      2947
 -1     11958    3    0    1
 -2      1983      1820      1985      2848
 -1     11959    3    0    1
 -2      1602      1601      1605      2773
 -1     11960    3    0    1
 -2      1295      1294      1292      2703
 -1     11961    3    0    1
 -2       223       224       227      2642
 -1     11962    3    0    1
 -2      2363      2762      2658      2989
 -1     11963    3    0    1
 -2      2297      2699      2774      3015
 -1     11964    3    0    1
 -2       537      1737       601      2687
 -1     11965    3    0    1
 -2      1344        66      1340      2939
 -1     11966    3    0    1
 -2        82        78        83      2525
 -1     11967    3    0    1
 -2      2427      2306      2933      3020
 -1     11968    3    0    1
 -2       348      2002       402      2449
 -1     11969    3    0    1
 -2       518       519       512      2684
 -1     11970    3    0    1
 -2      2484      2676      2266      3003
 -1     11971    3    0    1
 -2      1450      1460      1459      2260
 -1     11972    3    0    1
 -2      1009      2015      2018      1006
 -1     11973    3    0    1
 -2      2329      2795      2469      2828
 -1     11974    3    0    1
 -2      1587      1593      1589      2681
 -1     11975    3    0    1
 -2       323       332      2572      2812
 -1     11976    3    0    1
 -2      1837      1842      1841      2618
 -1     11977    3    0    1
 -2      2259      2662      2562      2943
 -1     11978    3    0    1
 -2      1453      1454      1446      2757
 -1     11979    3    0    1
 -2       316       323       318      2515
 -1     11980    3    0    1
 -2      1634      1693      1691      2509
 -1     11981    3    0    1
 -2      1824      2563      1828      2930
 -1     11982    3    0    1
 -2      2287      2884      2672      2899
 -1     11983    3    0    1
 -2      1327      2582      2400      2906
 -1     11984    3    0    1
 -2      1487      1480      1481      2636
 -1     11985    3    0    1
 -2      1946      1953      1950      2962
 -1     11986    3    0    1
 -2      1771      1774      1772      2570
 -1     11987    3    0    1
 -2      1221      1683      1676      2572
 -1     11988    3    0    1
 -2      2573      2765      2303      2805
 -1     11989    3    0    1
 -2      1145      1147      1141      2617
 -1     11990    3    0    1
 -2      1220      1221       327      2826
 -1     11991    3    0    1
 -2      2147      2154      2662      2943
 -1     11992    3    0    1
 -2        75      2837      1335      2932
 -1     11993    3    0    1
 -2       542       546      2365      2746
 -1     11994    3    0    1
 -2      2267      2683      2507      2968
 -1     11995    3    0    1
 -2        51        50      2519      2732
 -1     11996    3    0    1
 -2      2281      2660      2530      2821
 -1     11997    3    0    1
 -2       310       313       306      2386
 -1     11998    3    0    1
 -2      2623      2796      1143      3018
 -1     11999    3    0    1
 -2      2205      2204      2206      2518
 -1     12000    3    0    1
 -2      1273      1276      1271      2665
 -1     12001    3    0    1
 -2      1838      2764      2618      2997
 -1     12002    3    0    1
 -2      2446      2781      2343      2916
 -1     12003    3    0    1
 -2      2290      2736      2669      3026
 -1     12004    3    0    1
 -2      2478      2376      2801      2824
 -1     12005    3    0    1
 -2       414       412      2883      2891
 -1     12006    3    0    1
 -2        77        79        75      2525
 -1     12007    3    0    1
 -2       102      2452       103      2697
 -1     12008    3    0    1
 -2      2269      2868      2532      3004
 -1     12009    3    0    1
 -2      2290      2589      2702      2908
 -1     12010    3    0    1
 -2      2433      2633      1547      2865
 -1     12011    3    0    1
 -2       112       109       114      2410
 -1     12012    3    0    1
 -2       303       298      2696      2789
 -1     12013    3    0    1
 -2      2406      2476      2819      2958
 -1     12014    3    0    1
 -2      2010      1702      1718      2449
 -1     12015    3    0    1
 -2       240       231       358      2577
 -1     12016    3    0    1
 -2       642       639       640      2672
 -1     12017    3    0    1
 -2      1614      1609      1241      2836
 -1     12018    3    0    1
 -2      2641      2856      2276      2994
 -1     12019    3    0    1
 -2      2220      2218      2656      2794
 -1     12020    3    0    1
 -2      2106      2100      2101      2512
 -1     12021    3    0    1
 -2      2207      2209      2534      2934
 -1     12022    3    0    1
 -2       601       536      1737       537
 -1     12023    3    0    1
 -2       471      1770       465      2597
 -1     12024    3    0    1
 -2      2523      2303      2765      2805
 -1     12025    3    0    1
 -2      1200      1195      1199      2850
 -1     12026    3    0    1
 -2      1375      1379      1381      2707
 -1     12027    3    0    1
 -2      1710      1715      1731      2928
 -1     12028    3    0    1
 -2       509       514       508      2876
 -1     12029    3    0    1
 -2      1531      2888      1306      3043
 -1     12030    3    0    1
 -2      1471      1477      1472      2859
 -1     12031    3    0    1
 -2      1756      2612       506      2963
 -1     12032    3    0    1
 -2      1625      1231      1630      3047
 -1     12033    3    0    1
 -2      1683      2572      1221      2826
 -1     12034    3    0    1
 -2      1373      2561       613      2911
 -1     12035    3    0    1
 -2       279       280       285      2508
 -1     12036    3    0    1
 -2       584       590       594      2730
 -1     12037    3    0    1
 -2      1915      2776      1916      3023
 -1     12038    3    0    1
 -2      2536      2630      2342      2896
 -1     12039    3    0    1
 -2       355      1916       354      2776
 -1     12040    3    0    1
 -2      2658      2762      2363      3000
 -1     12041    3    0    1
 -2      2111      2105      2110      2979
 -1     12042    3    0    1
 -2      1714      1731      1715      2503
 -1     12043    3    0    1
 -2      1250      1252      2886      2918
 -1     12044    3    0    1
 -2      1133      2116      1137      2627
 -1     12045    3    0    1
 -2       624      1194       622      2631
 -1     12046    3    0    1
 -2       943       945       853      2613
 -1     12047    3    0    1
 -2      1857      2478      1853      2844
 -1     12048    3    0    1
 -2      1209      1202      1203      2842
 -1     12049    3    0    1
 -2       325       335       336      2812
 -1     12050    3    0    1
 -2      1639      1642      1638      2421
 -1     12051    3    0    1
 -2      1978      1976      2602      2717
 -1     12052    3    0    1
 -2      2334      2803      2509      2940
 -1     12053    3    0    1
 -2      1146      1140      1144      2623
 -1     12054    3    0    1
 -2       922      2709      2497      2942
 -1     12055    3    0    1
 -2        77        73        74      2573
 -1     12056    3    0    1
 -2       972      1996       974      2829
 -1     12057    3    0    1
 -2      1350      1356      1355      2590
 -1     12058    3    0    1
 -2      2566      2657      2245      3049
 -1     12059    3    0    1
 -2      1528       709       705      2496
 -1     12060    3    0    1
 -2      2567      2805      2328      3012
 -1     12061    3    0    1
 -2       407      2488       405      2972
 -1     12062    3    0    1
 -2      1897      1896      2472      3013
 -1     12063    3    0    1
 -2       127       122       124      2554
 -1     12064    3    0    1
 -2      1064      2060      2487      2872
 -1     12065    3    0    1
 -2       159       150       155      2665
 -1     12066    3    0    1
 -2      1431      1440      1436      2870
 -1     12067    3    0    1
 -2      1700      1701      2549      2901
 -1     12068    3    0    1
 -2      2106      2101      2103      2512
 -1     12069    3    0    1
 -2      2289      2469      2795      3017
 -1     12070    3    0    1
 -2      1671      2659      1672      2942
 -1     12071    3    0    1
 -2      1232       250      1229      2586
 -1     12072    3    0    1
 -2      1809      1806      1810      2967
 -1     12073    3    0    1
 -2        32        35      1395      2574
 -1     12074    3    0    1
 -2      1864      1869      1863      2637
 -1     12075    3    0    1
 -2       539       571      2094       537
 -1     12076    3    0    1
 -2       421      1703       497      2754
 -1     12077    3    0    1
 -2      2226      2868      2857      2907
 -1     12078    3    0    1
 -2       406       407       410      2891
 -1     12079    3    0    1
 -2      1963      1960      1956      2552
 -1     12080    3    0    1
 -2       270       280       279      2959
 -1     12081    3    0    1
 -2       863      1623      1628      2800
 -1     12082    3    0    1
 -2      2293      2570      2648      2721
 -1     12083    3    0    1
 -2      1989      1988      1985      2594
 -1     12084    3    0    1
 -2      2306      3020      2427      3025
 -1     12085    3    0    1
 -2      1875      1870      1869      2637
 -1     12086    3    0    1
 -2       173       168       171      2564
 -1     12087    3    0    1
 -2      2264      2427      2933      3021
 -1     12088    3    0    1
 -2      1112      2495      1111      2815
 -1     12089    3    0    1
 -2      1853      1851      2012      2824
 -1     12090    3    0    1
 -2      1688      2522      1693      2803
 -1     12091    3    0    1
 -2      2090      2084      2085      2731
 -1     12092    3    0    1
 -2      1282      1284      1281      2915
 -1     12093    3    0    1
 -2      2000      1882      1876      2593
 -1     12094    3    0    1
 -2       759      2431       760      3007
 -1     12095    3    0    1
 -2      2129      2130      2465      2685
 -1     12096    3    0    1
 -2      1151      2088      1069      2652
 -1     12097    3    0    1
 -2      2144      2903      2527      3033
 -1     12098    3    0    1
 -2      1656      1650      1649      2778
 -1     12099    3    0    1
 -2       366       205       368      2693
 -1     12100    3    0    1
 -2      2154      2160      2161      2662
 -1     12101    3    0    1
 -2      1975       943       935       957
 -1     12102    3    0    1
 -2      1980      1975      1937      2613
 -1     12103    3    0    1
 -2      2676      2782      2266      3003
 -1     12104    3    0    1
 -2      2271      2658      2875      2920
 -1     12105    3    0    1
 -2      1025      1024      1022      2816
 -1     12106    3    0    1
 -2      1877      2692      1886      2693
 -1     12107    3    0    1
 -2      2309      2919      2855      2945
 -1     12108    3    0    1
 -2      2388      2731      2862      2863
 -1     12109    3    0    1
 -2      1661      1667      1665      2858
 -1     12110    3    0    1
 -2      1920      1994      1993      3006
 -1     12111    3    0    1
 -2       978      1999       980       981
 -1     12112    3    0    1
 -2      1593      1601      1594      2643
 -1     12113    3    0    1
 -2       586      2407       585      2730
 -1     12114    3    0    1
 -2       694       691       695      2501
 -1     12115    3    0    1
 -2      1915      1919      1921      2661
 -1     12116    3    0    1
 -2       742       736      2575      2755
 -1     12117    3    0    1
 -2      1739       580       586      2407
 -1     12118    3    0    1
 -2      1306      1302      1300      2477
 -1     12119    3    0    1
 -2       893       902       896      2726
 -1     12120    3    0    1
 -2      2269      2839      2407      3004
 -1     12121    3    0    1
 -2      2124      2128      2123      2592
 -1     12122    3    0    1
 -2       532      1746      1749      2704
 -1     12123    3    0    1
 -2      2762      2875      2658      2989
 -1     12124    3    0    1
 -2       406       405      2488      2904
 -1     12125    3    0    1
 -2      1912      1907      1995      2588
 -1     12126    3    0    1
 -2       451       454       453      2624
 -1     12127    3    0    1
 -2      1425      1433      1432      2870
 -1     12128    3    0    1
 -2      1926      2547      1927      2775
 -1     12129    3    0    1
 -2       299      2434       297      2832
 -1     12130    3    0    1
 -2      2381      2960      2833      2988
 -1     12131    3    0    1
 -2      1087       681       683      2470
 -1     12132    3    0    1
 -2        99       103       102      2452
 -1     12133    3    0    1
 -2      1407      2884      1410      2899
 -1     12134    3    0    1
 -2       909      1951       901      2889
 -1     12135    3    0    1
 -2      1820      1983      1874      2848
 -1     12136    3    0    1
 -2      1908      1915      1916      3023
 -1     12137    3    0    1
 -2      2308      2891      2883      2946
 -1     12138    3    0    1
 -2      2526      2799      1075      2914
 -1     12139    3    0    1
 -2       914      2763       918      2889
 -1     12140    3    0    1
 -2      1949      1944      1943      2869
 -1     12141    3    0    1
 -2      2199      2534      2209      2934
 -1     12142    3    0    1
 -2      1097      1098      1092      2583
 -1     12143    3    0    1
 -2       271       210       329      2823
 -1     12144    3    0    1
 -2       883       885       876      2542
 -1     12145    3    0    1
 -2      2857      2868      2372      2907
 -1     12146    3    0    1
 -2      2328      2765      2523      2779
 -1     12147    3    0    1
 -2      2572      2826      1683      2827
 -1     12148    3    0    1
 -2      2255      2706      2494      2959
 -1     12149    3    0    1
 -2      1868      1869      2637      2948
 -1     12150    3    0    1
 -2       217      2463       216      2767
 -1     12151    3    0    1
 -2       477       476       481      2981
 -1     12152    3    0    1
 -2        50      1367      1371      2947
 -1     12153    3    0    1
 -2       249       243       252      2929
 -1     12154    3    0    1
 -2      2087      2073      2044      2901
 -1     12155    3    0    1
 -2       839       811      1633      1591
 -1     12156    3    0    1
 -2       309       308       311      2515
 -1     12157    3    0    1
 -2      1384      1380      1377      2576
 -1     12158    3    0    1
 -2      2400      2822      2646      3010
 -1     12159    3    0    1
 -2      2271      2762      2613      2957
 -1     12160    3    0    1
 -2      2227      2620      2589      2783
 -1     12161    3    0    1
 -2      2302      3032      2566      3049
 -1     12162    3    0    1
 -2        35        36        38      2574
 -1     12163    3    0    1
 -2       934      2762       942      2990
 -1     12164    3    0    1
 -2       467       463        74      2838
 -1     12165    3    0    1
 -2       595       601      2687      2730
 -1     12166    3    0    1
 -2      1350      1354      1356      2530
 -1     12167    3    0    1
 -2      1616      1614      1619      2569
 -1     12168    3    0    1
 -2      2351      2797      2938      2999
 -1     12169    3    0    1
 -2      2293      2470      2914      2951
 -1     12170    3    0    1
 -2      2621      3028      2294      3039
 -1     12171    3    0    1
 -2       401       398       140      3042
 -1     12172    3    0    1
 -2      2118      2124      2123      2734
 -1     12173    3    0    1
 -2      1845      1849      1852      2925
 -1     12174    3    0    1
 -2      1270      1265      1571      2451
 -1     12175    3    0    1
 -2      1831       396       399      1835
 -1     12176    3    0    1
 -2      1691      1693      1690      2522
 -1     12177    3    0    1
 -2      2883      2891      2308      2967
 -1     12178    3    0    1
 -2      2000       983       982       981
 -1     12179    3    0    1
 -2      1476      1482      1475      2619
 -1     12180    3    0    1
 -2        73        67        68      2838
 -1     12181    3    0    1
 -2       269      2494      2706      2959
 -1     12182    3    0    1
 -2      1287      1283      1552      2669
 -1     12183    3    0    1
 -2      2586      2929      2333      2937
 -1     12184    3    0    1
 -2        78        74       459      2604
 -1     12185    3    0    1
 -2      2222      2701      2516      2714
 -1     12186    3    0    1
 -2      1376      1369      1500      2806
 -1     12187    3    0    1
 -2       528       542       540      2769
 -1     12188    3    0    1
 -2       300       308       309      2531
 -1     12189    3    0    1
 -2      1308      1313      2452      2786
 -1     12190    3    0    1
 -2      2020      2017      2021      2997
 -1     12191    3    0    1
 -2      1024       747      1017      2780
 -1     12192    3    0    1
 -2      2294      2846      2472      3013
 -1     12193    3    0    1
 -2       449      1785       445      2689
 -1     12194    3    0    1
 -2        65        67        62      2939
 -1     12195    3    0    1
 -2        47        51        50      2519
 -1     12196    3    0    1
 -2      2073      1707      1700      2901
 -1     12197    3    0    1
 -2      2733      2797      2302      2938
 -1     12198    3    0    1
 -2      2745      2953      2314      3040
 -1     12199    3    0    1
 -2      2015      2013      2014      2500
 -1     12200    3    0    1
 -2      1748      1747      2121      2592
 -1     12201    3    0    1
 -2      2038      2039      2041      2782
 -1     12202    3    0    1
 -2      1436      1429      1430      2566
 -1     12203    3    0    1
 -2      2509      2803      2522      2940
 -1     12204    3    0    1
 -2      2172      2151      1209      2842
 -1     12205    3    0    1
 -2       823       815       817      2790
 -1     12206    3    0    1
 -2       144       151      1281      1276
 -1     12207    3    0    1
 -2       220       211       215      2445
 -1     12208    3    0    1
 -2       933       926       929      3014
 -1     12209    3    0    1
 -2      2334      2658      2460      2989
 -1     12210    3    0    1
 -2       298       307       303      2696
 -1     12211    3    0    1
 -2       172       177       175      2729
 -1     12212    3    0    1
 -2      1485      1486      1489      2919
 -1     12213    3    0    1
 -2      1547      1543      1545      2633
 -1     12214    3    0    1
 -2      1367        50        53      2732
 -1     12215    3    0    1
 -2      1838      2618      1834      2997
 -1     12216    3    0    1
 -2      2348      2968      2960      3037
 -1     12217    3    0    1
 -2      1647      2778      1650      2895
 -1     12218    3    0    1
 -2       313      2386       310      2745
 -1     12219    3    0    1
 -2       287      1948       290      2864
 -1     12220    3    0    1
 -2      1002       999      2011      2500
 -1     12221    3    0    1
 -2       795      1830       796      2454
 -1     12222    3    0    1
 -2      2589      2908      2441      3021
 -1     12223    3    0    1
 -2      2145      1742      2903      3033
 -1     12224    3    0    1
 -2      2292      2651      2606      2886
 -1     12225    3    0    1
 -2       260       331       259      2826
 -1     12226    3    0    1
 -2      1693      2509      1687      2803
 -1     12227    3    0    1
 -2      2403      2854      2309      2855
 -1     12228    3    0    1
 -2        29        31        27      2540
 -1     12229    3    0    1
 -2      2099      2495      2102      2979
 -1     12230    3    0    1
 -2      1024      1016      1022      2816
 -1     12231    3    0    1
 -2       520       443       498      2855
 -1     12232    3    0    1
 -2       573      2532       582      3004
 -1     12233    3    0    1
 -2      2518      2640      2639      3046
 -1     12234    3    0    1
 -2       988      2001      2003      2664
 -1     12235    3    0    1
 -2       605       603       520      2854
 -1     12236    3    0    1
 -2      1928      1920      1993      2611
 -1     12237    3    0    1
 -2       892       899      2568      2851
 -1     12238    3    0    1
 -2       814      2643       817      2970
 -1     12239    3    0    1
 -2      1982       237       271      1924
 -1     12240    3    0    1
 -2       298      1948      1955      2696
 -1     12241    3    0    1
 -2      1994       968      1993      3006
 -1     12242    3    0    1
 -2      1997       974      1996      2829
 -1     12243    3    0    1
 -2      1380      1377      2576      2947
 -1     12244    3    0    1
 -2      1308      2786      2452      2956
 -1     12245    3    0    1
 -2      2252      2830      2525      3012
 -1     12246    3    0    1
 -2       151       144       150      1276
 -1     12247    3    0    1
 -2      2231      2960      2683      2968
 -1     12248    3    0    1
 -2      1307      1308      1313      2452
 -1     12249    3    0    1
 -2      2269      2839      2666      2903
 -1     12250    3    0    1
 -2      2084      2082      2080      2862
 -1     12251    3    0    1
 -2      2252      2624      2604      2814
 -1     12252    3    0    1
 -2      2580      2305      2629      2881
 -1     12253    3    0    1
 -2      2252      2604      2525      2814
 -1     12254    3    0    1
 -2      1087      1092       677      2894
 -1     12255    3    0    1
 -2      1367        53      1362      2732
 -1     12256    3    0    1
 -2      1566      1540      2197      1598
 -1     12257    3    0    1
 -2      2255      2820      2508      2874
 -1     12258    3    0    1
 -2       471       465       469      2597
 -1     12259    3    0    1
 -2      1217      1218      1214      2784
 -1     12260    3    0    1
 -2       179      2489       186      2725
 -1     12261    3    0    1
 -2      1055       997       986      2852
 -1     12262    3    0    1
 -2       613       611      1320      2911
 -1     12263    3    0    1
 -2       470       467       473      2981
 -1     12264    3    0    1
 -2        31        29        33      2540
 -1     12265    3    0    1
 -2       658       660       656      2806
 -1     12266    3    0    1
 -2       822       817       814      2643
 -1     12267    3    0    1
 -2      1757      1758      1760      3036
 -1     12268    3    0    1
 -2      2363      2628      2543      3014
 -1     12269    3    0    1
 -2       532      1749       526      2704
 -1     12270    3    0    1
 -2      1404      2574      1394      2813
 -1     12271    3    0    1
 -2      1549      2736      2633      3026
 -1     12272    3    0    1
 -2      1461      1462      2631      3011
 -1     12273    3    0    1
 -2      1533      1306      2477      3043
 -1     12274    3    0    1
 -2      1922      2585       352      2776
 -1     12275    3    0    1
 -2       530       525       527      2770
 -1     12276    3    0    1
 -2       817       815       813      2970
 -1     12277    3    0    1
 -2       161      1269      1271      2665
 -1     12278    3    0    1
 -2      1870      1867      2637      2752
 -1     12279    3    0    1
 -2      1094      1099      1093      2862
 -1     12280    3    0    1
 -2      1668      1667      1663      2558
 -1     12281    3    0    1
 -2      1959      1961      1955      2696
 -1     12282    3    0    1
 -2      1194      2748      2631      2840
 -1     12283    3    0    1
 -2      1443      1440      1441      2550
 -1     12284    3    0    1
 -2       528       530       542      2769
 -1     12285    3    0    1
 -2      1626      1629      1631      2504
 -1     12286    3    0    1
 -2      2117      2115      2118      2734
 -1     12287    3    0    1
 -2       451      2604       454      2624
 -1     12288    3    0    1
 -2      1922      1921      2585      2776
 -1     12289    3    0    1
 -2      1322        87        84      1329
 -1     12290    3    0    1
 -2      1482      1434      1487      2965
 -1     12291    3    0    1
 -2       457       458       461      2695
 -1     12292    3    0    1
 -2      1556      1560       757       756
 -1     12293    3    0    1
 -2      2225      2580      2629      2881
 -1     12294    3    0    1
 -2       970       968      1994      2588
 -1     12295    3    0    1
 -2       717       709      1528      2496
 -1     12296    3    0    1
 -2      2252      2567      2830      3012
 -1     12297    3    0    1
 -2      1427      1429      1437      2733
 -1     12298    3    0    1
 -2       761       758       756      2715
 -1     12299    3    0    1
 -2      1258       176       178      1261
 -1     12300    3    0    1
 -2       799       801       805      2681
 -1     12301    3    0    1
 -2      1809      2883      1806      2967
 -1     12302    3    0    1
 -2       539       538       402      2739
 -1     12303    3    0    1
 -2       885       886       877      2877
 -1     12304    3    0    1
 -2      1910      1984      1884      2454
 -1     12305    3    0    1
 -2      2702      2908      2589      3021
 -1     12306    3    0    1
 -2      1266      1264      1262      2729
 -1     12307    3    0    1
 -2       396       397       399      1835
 -1     12308    3    0    1
 -2      2189      2210      2194      2374
 -1     12309    3    0    1
 -2      1140      1139      2623      2988
 -1     12310    3    0    1
 -2       323       336       332      2812
 -1     12311    3    0    1
 -2      2025      1828      1824      2563
 -1     12312    3    0    1
 -2      1752      1751      1749      2684
 -1     12313    3    0    1
 -2      1068      1151      1069      2652
 -1     12314    3    0    1
 -2       224       216       217      2463
 -1     12315    3    0    1
 -2      1926      1923      1927      2547
 -1     12316    3    0    1
 -2      2252      2814      2525      2830
 -1     12317    3    0    1
 -2      1552      1557      1555      2736
 -1     12318    3    0    1
 -2      1476       620       621       622
 -1     12319    3    0    1
 -2       582       574       583      2532
 -1     12320    3    0    1
 -2      2314      2602      2490      2717
 -1     12321    3    0    1
 -2      1804      1801      2040      2676
 -1     12322    3    0    1
 -2       996      2006       995       994
 -1     12323    3    0    1
 -2      1304       102       108      2697
 -1     12324    3    0    1
 -2      2254      2909      2685      3038
 -1     12325    3    0    1
 -2      1808      1809      1814      2891
 -1     12326    3    0    1
 -2      1874      1983      1883      2848
 -1     12327    3    0    1
 -2      1161      1160      1170      2677
 -1     12328    3    0    1
 -2      1655      1652      1653      2954
 -1     12329    3    0    1
 -2       290      1948       298      2864
 -1     12330    3    0    1
 -2       972       974       841      2829
 -1     12331    3    0    1
 -2       718       720       721      2723
 -1     12332    3    0    1
 -2      1201      1200      1206      2748
 -1     12333    3    0    1
 -2       233      1233      1237      2937
 -1     12334    3    0    1
 -2      2328      2765      2573      2805
 -1     12335    3    0    1
 -2       690      1081       683      3016
 -1     12336    3    0    1
 -2      1661      1663      1667      2858
 -1     12337    3    0    1
 -2      1634      1691      1685      2811
 -1     12338    3    0    1
 -2      1310      1307      1313      2452
 -1     12339    3    0    1
 -2      1571      2451      1265      2878
 -1     12340    3    0    1
 -2      1605      1601      1603      2773
 -1     12341    3    0    1
 -2      1299      2697      1298      2749
 -1     12342    3    0    1
 -2      1998      1999       978      3031
 -1     12343    3    0    1
 -2      1726      2545      1724      2945
 -1     12344    3    0    1
 -2      1770       471       478      2597
 -1     12345    3    0    1
 -2      1071      1070      1072      2064
 -1     12346    3    0    1
 -2      1248      1590      1588      2918
 -1     12347    3    0    1
 -2       135       409       407      2972
 -1     12348    3    0    1
 -2       234       244       243      2502
 -1     12349    3    0    1
 -2      1299      1294      1297      2912
 -1     12350    3    0    1
 -2      1932       351       268       343
 -1     12351    3    0    1
 -2      1818      2031      2030      2735
 -1     12352    3    0    1
 -2      1840       210       143      1925
 -1     12353    3    0    1
 -2      2226      2983      2747      2998
 -1     12354    3    0    1
 -2      1275      1564      1559      2680
 -1     12355    3    0    1
 -2      2488      2904      2340      2930
 -1     12356    3    0    1
 -2      1717      1702      1705      2449
 -1     12357    3    0    1
 -2      1852      1849      1854      2925
 -1     12358    3    0    1
 -2      1311      1374      1726      1388
 -1     12359    3    0    1
 -2       281       276       277      2632
 -1     12360    3    0    1
 -2       592      2475       593      2859
 -1     12361    3    0    1
 -2       538       452       402      2449
 -1     12362    3    0    1
 -2      2193      2189      2194      2374
 -1     12363    3    0    1
 -2      1388      1330      1486      2945
 -1     12364    3    0    1
 -2      1300      2477      1302      2912
 -1     12365    3    0    1
 -2        66      1349        62      2939
 -1     12366    3    0    1
 -2       649      2861       650      2987
 -1     12367    3    0    1
 -2      1446      1445      1453      2757
 -1     12368    3    0    1
 -2      1438        16        13      1435
 -1     12369    3    0    1
 -2      2120      2125      2122      2617
 -1     12370    3    0    1
 -2      1298      1303      1304      2697
 -1     12371    3    0    1
 -2        46        43        44      2947
 -1     12372    3    0    1
 -2       903       911       902      2726
 -1     12373    3    0    1
 -2      1858      2480      1864      2724
 -1     12374    3    0    1
 -2      2147      2153      2154      2943
 -1     12375    3    0    1
 -2       716       709       718      2723
 -1     12376    3    0    1
 -2       278       281      2632      2864
 -1     12377    3    0    1
 -2       902       913       908      2976
 -1     12378    3    0    1
 -2       926      2709       929      3014
 -1     12379    3    0    1
 -2      1148      2126      1157      1156
 -1     12380    3    0    1
 -2      1908      1909      1902      3039
 -1     12381    3    0    1
 -2      1739      2167      2158      2407
 -1     12382    3    0    1
 -2      2236      2975      2860      3025
 -1     12383    3    0    1
 -2      2364      2802      2490      3000
 -1     12384    3    0    1
 -2      2026      2023      2027      2816
 -1     12385    3    0    1
 -2       869       878       875      2675
 -1     12386    3    0    1
 -2       228      1240       221      2506
 -1     12387    3    0    1
 -2       489       495       492      2510
 -1     12388    3    0    1
 -2      2036      2700      2033      3008
 -1     12389    3    0    1
 -2      1334      2582      1327      2906
 -1     12390    3    0    1
 -2      1546      1544      1292      2486
 -1     12391    3    0    1
 -2       269      2706       270      2959
 -1     12392    3    0    1
 -2      1292      1290      1289      2703
 -1     12393    3    0    1
 -2      1625      1630      2650      3047
 -1     12394    3    0    1
 -2      2321      2850      2750      2983
 -1     12395    3    0    1
 -2      2330      2418      2856      2994
 -1     12396    3    0    1
 -2       105       429       104      2969
 -1     12397    3    0    1
 -2      1816      2670      2488      2891
 -1     12398    3    0    1
 -2      1733      1734      1732      2852
 -1     12399    3    0    1
 -2      1185      1187      1190      2750
 -1     12400    3    0    1
 -2       680       684       681      2771
 -1     12401    3    0    1
 -2      1725       997      1734      2852
 -1     12402    3    0    1
 -2       250      1232       241      2586
 -1     12403    3    0    1
 -2      1114      1115      1119      2722
 -1     12404    3    0    1
 -2      1010      1006      2609      2966
 -1     12405    3    0    1
 -2       811       910       874      1633
 -1     12406    3    0    1
 -2      1403      2986      1393      2987
 -1     12407    3    0    1
 -2       418       420       425      2969
 -1     12408    3    0    1
 -2       988       983      2001      2664
 -1     12409    3    0    1
 -2      2328      2523      2765      2805
 -1     12410    3    0    1
 -2      2333      2418      2871      3047
 -1     12411    3    0    1
 -2       245      2586       241      2937
 -1     12412    3    0    1
 -2      2017      2016      1838      2997
 -1     12413    3    0    1
 -2       156       155      2756      2898
 -1     12414    3    0    1
 -2       900       896       902      2976
 -1     12415    3    0    1
 -2      1599      2927      1553      2934
 -1     12416    3    0    1
 -2      2513      2597      2263      2981
 -1     12417    3    0    1
 -2      2148      2143      2144      2527
 -1     12418    3    0    1
 -2        84        79        82      2837
 -1     12419    3    0    1
 -2      1894      1888      1887      2621
 -1     12420    3    0    1
 -2       723       727       725      2614
 -1     12421    3    0    1
 -2       792      1584       800       799
 -1     12422    3    0    1
 -2      1140      1136      1129      2988
 -1     12423    3    0    1
 -2      2477      1302      2912      2956
 -1     12424    3    0    1
 -2      1625      1630      1629      2650
 -1     12425    3    0    1
 -2      1896      1889      1890      2472
 -1     12426    3    0    1
 -2      1193      1199      1195      2850
 -1     12427    3    0    1
 -2      2490      2712      2314      2917
 -1     12428    3    0    1
 -2       318       327      1221      2572
 -1     12429    3    0    1
 -2       576      2839      2666      3004
 -1     12430    3    0    1
 -2      2046      2049      2048      2711
 -1     12431    3    0    1
 -2      2747      2983      2347      2998
 -1     12432    3    0    1
 -2       697       704       700      2634
 -1     12433    3    0    1
 -2       500       495       503      3036
 -1     12434    3    0    1
 -2      1904      1898      1901      2584
 -1     12435    3    0    1
 -2      1155      1159      1158      3038
 -1     12436    3    0    1
 -2       619      1483      1476       621
 -1     12437    3    0    1
 -2       898       886       897      2877
 -1     12438    3    0    1
 -2      1567      1568      2493      2955
 -1     12439    3    0    1
 -2      1825       408       406       404
 -1     12440    3    0    1
 -2      1256      1252      1586      2606
 -1     12441    3    0    1
 -2       259       331       258      2422
 -1     12442    3    0    1
 -2      2099      1117      1112      2495
 -1     12443    3    0    1
 -2      1510      1512       680      2771
 -1     12444    3    0    1
 -2      2297      2706      2674      2774
 -1     12445    3    0    1
 -2      2012      2824      2668      2844
 -1     12446    3    0    1
 -2      2603      2349      2719      2985
 -1     12447    3    0    1
 -2       780       774      1568      2955
 -1     12448    3    0    1
 -2      1990      1986      2594      2802
 -1     12449    3    0    1
 -2       851       821       946      2794
 -1     12450    3    0    1
 -2      2323      2818      2554      2915
 -1     12451    3    0    1
 -2      1920      1928      1927      2547
 -1     12452    3    0    1
 -2        67        73        71      2939
 -1     12453    3    0    1
 -2      1375      1381      1377      2576
 -1     12454    3    0    1
 -2       318      1222       312      1673
 -1     12455    3    0    1
 -2      1860      1862      1866      2587
 -1     12456    3    0    1
 -2       934       941       942      2762
 -1     12457    3    0    1
 -2      1201      1206      2619      2748
 -1     12458    3    0    1
 -2      2153      2146      2152      2943
 -1     12459    3    0    1
 -2      1652      1656      1649      2778
 -1     12460    3    0    1
 -2       423       426       430      2834
 -1     12461    3    0    1
 -2      2195        23        95      2199
 -1     12462    3    0    1
 -2      1425      1414      1494      2672
 -1     12463    3    0    1
 -2      1211      1729      1089      2742
 -1     12464    3    0    1
 -2      2743      2849      2591      2981
 -1     12465    3    0    1
 -2      1116      2495      1117      2979
 -1     12466    3    0    1
 -2      1472         8      1467      2798
 -1     12467    3    0    1
 -2      1613      1621      2994      3030
 -1     12468    3    0    1
 -2      1326      1327      1333      2582
 -1     12469    3    0    1
 -2       576       580      1740      2839
 -1     12470    3    0    1
 -2      2116      2122      1145      2617
 -1     12471    3    0    1
 -2       626      1181      1186      3011
 -1     12472    3    0    1
 -2      2437      2973      2312      2976
 -1     12473    3    0    1
 -2       812       981      2593      2766
 -1     12474    3    0    1
 -2      1152      1158      1160      3038
 -1     12475    3    0    1
 -2       676       675       672      2565
 -1     12476    3    0    1
 -2       716      1052      1059      2880
 -1     12477    3    0    1
 -2      1943      1933      1940      2775
 -1     12478    3    0    1
 -2       476       473      2849      2981
 -1     12479    3    0    1
 -2      1919      1915      1913      3023
 -1     12480    3    0    1
 -2       360      2621      1895      3039
 -1     12481    3    0    1
 -2      2551      2803      2334      2940
 -1     12482    3    0    1
 -2      1409      1416      1412      2540
 -1     12483    3    0    1
 -2      1529      1531      1530      2888
 -1     12484    3    0    1
 -2      1763      1764      1762      3001
 -1     12485    3    0    1
 -2      1728      1038      1211      1729
 -1     12486    3    0    1
 -2        67      2573        73      2939
 -1     12487    3    0    1
 -2      2014      2668      1843      2764
 -1     12488    3    0    1
 -2      1455      1459      2536      2605
 -1     12489    3    0    1
 -2       117       113       112      2520
 -1     12490    3    0    1
 -2      2623      2835      2288      3022
 -1     12491    3    0    1
 -2      1878       366       368      2693
 -1     12492    3    0    1
 -2      1756      1755      1758      2612
 -1     12493    3    0    1
 -2       364      1888       362      2621
 -1     12494    3    0    1
 -2      1798       430       431      2834
 -1     12495    3    0    1
 -2      1906      1904      1912      2719
 -1     12496    3    0    1
 -2      1155      1147      1156      2465
 -1     12497    3    0    1
 -2      2194      2202      2640      2848
 -1     12498    3    0    1
 -2      1248      1247      1246      2918
 -1     12499    3    0    1
 -2      2305      2580      2769      2881
 -1     12500    3    0    1
 -2      2095      1109      2089      2815
 -1     12501    3    0    1
 -2       228       221       226      2506
 -1     12502    3    0    1
 -2      2281      2591      2743      2849
 -1     12503    3    0    1
 -2      1546      2486      1289      3026
 -1     12504    3    0    1
 -2      2271      2875      2762      2957
 -1     12505    3    0    1
 -2       861      2961       864      3024
 -1     12506    3    0    1
 -2       851      2794       946      2977
 -1     12507    3    0    1
 -2       667      2220       668      2217
 -1     12508    3    0    1
 -2       855       844       850      2641
 -1     12509    3    0    1
 -2      1737       596       601      2687
 -1     12510    3    0    1
 -2      2293      2447      2721      2951
 -1     12511    3    0    1
 -2      2125      2123      2128      2387
 -1     12512    3    0    1
 -2      2236      2608      2843      2975
 -1     12513    3    0    1
 -2      2245      2841      2448      3049
 -1     12514    3    0    1
 -2      1327      2906      2400      2949
 -1     12515    3    0    1
 -2      2328      2805      2573      3012
 -1     12516    3    0    1
 -2      2273      2487      2872      3002
 -1     12517    3    0    1
 -2      1442       629      1449      2550
 -1     12518    3    0    1
 -2      2146      2147      2141      2943
 -1     12519    3    0    1
 -2      2205      2518      2206      2640
 -1     12520    3    0    1
 -2       153       149       398      3042
 -1     12521    3    0    1
 -2      1212      1089      1134      2742
 -1     12522    3    0    1
 -2      1009      2013      1006      1007
 -1     12523    3    0    1
 -2      1234      1233      2586      2937
 -1     12524    3    0    1
 -2      2026      1022      2023      2816
 -1     12525    3    0    1
 -2       188      1255       181      2886
 -1     12526    3    0    1
 -2      1460      1468      1465      2631
 -1     12527    3    0    1
 -2      2286      2628      2772      2952
 -1     12528    3    0    1
 -2       354      1916      1922      2776
 -1     12529    3    0    1
 -2        15        13        16      1435
 -1     12530    3    0    1
 -2      2360      2847      2835      3022
 -1     12531    3    0    1
 -2      1895       362      1888      2621
 -1     12532    3    0    1
 -2      2487      2768      1066      3002
 -1     12533    3    0    1
 -2       263       266       270      2959
 -1     12534    3    0    1
 -2      1796      1798       432       431
 -1     12535    3    0    1
 -2       165       160       390      2810
 -1     12536    3    0    1
 -2       617      2619      1206      2965
 -1     12537    3    0    1
 -2      1373       613      1320      2911
 -1     12538    3    0    1
 -2      1912      1917      1914      2719
 -1     12539    3    0    1
 -2      1147      1144      1141      2617
 -1     12540    3    0    1
 -2      1941       901      1951      2568
 -1     12541    3    0    1
 -2      2254      2819      2671      2958
 -1     12542    3    0    1
 -2      1527      1526      1525      2949
 -1     12543    3    0    1
 -2       322       321      2745      3040
 -1     12544    3    0    1
 -2       554       553       557      2663
 -1     12545    3    0    1
 -2       915      1660       916      2942
 -1     12546    3    0    1
 -2       191      2559       190      2725
 -1     12547    3    0    1
 -2       277       267       268      2632
 -1     12548    3    0    1
 -2       738      1537      1543       737
 -1     12549    3    0    1
 -2      1580      1574      1575      2482
 -1     12550    3    0    1
 -2        73        68        74      2838
 -1     12551    3    0    1
 -2       207       204       208      2767
 -1     12552    3    0    1
 -2      2386      2745       313      2953
 -1     12553    3    0    1
 -2       843      1612      1617       838
 -1     12554    3    0    1
 -2       143        86       210      1840
 -1     12555    3    0    1
 -2      2122      2125      2126      2617
 -1     12556    3    0    1
 -2      1661      1659      1656      2858
 -1     12557    3    0    1
 -2      1484      1451      1479      2859
 -1     12558    3    0    1
 -2      2666      2903      2338      3048
 -1     12559    3    0    1
 -2       276       286       285      2508
 -1     12560    3    0    1
 -2       913       921       923      2709
 -1     12561    3    0    1
 -2       922       929       921      2709
 -1     12562    3    0    1
 -2      1067      1074       698      2768
 -1     12563    3    0    1
 -2       467        68       473      2838
 -1     12564    3    0    1
 -2       136       144       137      2915
 -1     12565    3    0    1
 -2       447        85       451      2624
 -1     12566    3    0    1
 -2      1789      1783      2061      2468
 -1     12567    3    0    1
 -2      1446      1454        11      2757
 -1     12568    3    0    1
 -2      1416      1417      1412      2540
 -1     12569    3    0    1
 -2      1450      1443      1448      2550
 -1     12570    3    0    1
 -2      1505      1511      1510      2565
 -1     12571    3    0    1
 -2        80      1335        75      2837
 -1     12572    3    0    1
 -2      1672      1678       932      2659
 -1     12573    3    0    1
 -2      1532      1534       727      3043
 -1     12574    3    0    1
 -2      1712      1703      1713      2751
 -1     12575    3    0    1
 -2       722      1052       716      2723
 -1     12576    3    0    1
 -2      1459      1465      1464      2536
 -1     12577    3    0    1
 -2       780      1572      1573      2955
 -1     12578    3    0    1
 -2       943      1975      1937       957
 -1     12579    3    0    1
 -2      1411      2672      1414      2884
 -1     12580    3    0    1
 -2      1790      1796       440      2926
 -1     12581    3    0    1
 -2       938       942      2613      2990
 -1     12582    3    0    1
 -2      2121      1752      1750      2944
 -1     12583    3    0    1
 -2      2347      2750      2850      2983
 -1     12584    3    0    1
 -2      2330      2675      2504      2800
 -1     12585    3    0    1
 -2       637       636       639      2672
 -1     12586    3    0    1
 -2      1829      2454      1830      2656
 -1     12587    3    0    1
 -2      2263      2743      2591      2981
 -1     12588    3    0    1
 -2      1403      1393      1497      2987
 -1     12589    3    0    1
 -2       406       408      1819      1814
 -1     12590    3    0    1
 -2      2402      2870      2245      2984
 -1     12591    3    0    1
 -2      1980      2613      1984      2802
 -1     12592    3    0    1
 -2       953       949       954      2875
 -1     12593    3    0    1
 -2      1567      1568      1562      2493
 -1     12594    3    0    1
 -2      1990      1988      1989      2594
 -1     12595    3    0    1
 -2       134       139       133      2818
 -1     12596    3    0    1
 -2       825       822      1602      2643
 -1     12597    3    0    1
 -2      1354      1360      1356      2821
 -1     12598    3    0    1
 -2      2224      2950      2721      2951
 -1     12599    3    0    1
 -2      1133      1137      1132      2627
 -1     12600    3    0    1
 -2      1427      1428      1416      2600
 -1     12601    3    0    1
 -2       760       759       762      2431
 -1     12602    3    0    1
 -2      1753      1756       506      2963
 -1     12603    3    0    1
 -2       620      1476      1469       622
 -1     12604    3    0    1
 -2      1368      1372      1375      2707
 -1     12605    3    0    1
 -2       310       303       307      2459
 -1     12606    3    0    1
 -2      2000       982       983      2001
 -1     12607    3    0    1
 -2      1062      2785      1061      3002
 -1     12608    3    0    1
 -2      2191      2211      2647      2977
 -1     12609    3    0    1
 -2       179       185       184      2725
 -1     12610    3    0    1
 -2      1666      1670      1671      2942
 -1     12611    3    0    1
 -2      1733      1735      1734      2852
 -1     12612    3    0    1
 -2      1608      1610      1613      2505
 -1     12613    3    0    1
 -2       278       287       281      2864
 -1     12614    3    0    1
 -2      2133      2129      2128      2671
 -1     12615    3    0    1
 -2       301      1224       295      2531
 -1     12616    3    0    1
 -2      2613      2762       945      2957
 -1     12617    3    0    1
 -2      1505       672      1504      2565
 -1     12618    3    0    1
 -2       589         8       592      2475
 -1     12619    3    0    1
 -2      1857      2478      1850      2824
 -1     12620    3    0    1
 -2      1849      1850      1856      2801
 -1     12621    3    0    1
 -2      1191      1192      2161      2154
 -1     12622    3    0    1
 -2      1613      1610      1616      3030
 -1     12623    3    0    1
 -2      2075      2074      2071      2598
 -1     12624    3    0    1
 -2      1116      1112      1117      2495
 -1     12625    3    0    1
 -2      2209      2207      2197      2405
 -1     12626    3    0    1
 -2       933       934       926      2543
 -1     12627    3    0    1
 -2       812      2766      2593      3009
 -1     12628    3    0    1
 -2      1951      1954      1947      2962
 -1     12629    3    0    1
 -2       752       746      2578      2780
 -1     12630    3    0    1
 -2       188      1251      1253      2886
 -1     12631    3    0    1
 -2      1721      2549      1701      2928
 -1     12632    3    0    1
 -2        47      2519        46      2947
 -1     12633    3    0    1
 -2       170       166       169      1261
 -1     12634    3    0    1
 -2      1540      1685      1599      2934
 -1     12635    3    0    1
 -2      2470      2914      2385      3016
 -1     12636    3    0    1
 -2      1795        21        57      1794
 -1     12637    3    0    1
 -2      1864      1858      1865      2480
 -1     12638    3    0    1
 -2       550      2746       544      2853
 -1     12639    3    0    1
 -2      2295      2477      2912      2956
 -1     12640    3    0    1
 -2      1704      2754      1698      2945
 -1     12641    3    0    1
 -2      2186      2187      2182      2491
 -1     12642    3    0    1
 -2      1190      1193      2750      2850
 -1     12643    3    0    1
 -2       586       595       596      2730
 -1     12644    3    0    1
 -2      1554       259        96      2927
 -1     12645    3    0    1
 -2       440      1796       432       431
 -1     12646    3    0    1
 -2      2418      2569      2809      3030
 -1     12647    3    0    1
 -2       869       875       866      2675
 -1     12648    3    0    1
 -2       870       869       863      2800
 -1     12649    3    0    1
 -2      2308      2891      2670      2967
 -1     12650    3    0    1
 -2      2219      2220      2218      2656
 -1     12651    3    0    1
 -2      1897      1900      1896      3013
 -1     12652    3    0    1
 -2      2525      2573      2328      2932
 -1     12653    3    0    1
 -2      2143      2146      2137      2943
 -1     12654    3    0    1
 -2      1812      1788      2215      2656
 -1     12655    3    0    1
 -2      1232      1231      1234      2586
 -1     12656    3    0    1
 -2       942       945      2613      2762
 -1     12657    3    0    1
 -2        85       454       451      2604
 -1     12658    3    0    1
 -2       506       502      1757       507
 -1     12659    3    0    1
 -2       180      2651       187      2886
 -1     12660    3    0    1
 -2      2328      2830      2567      3012
 -1     12661    3    0    1
 -2      1437      1428      1427      2797
 -1     12662    3    0    1
 -2      2210      1820      1874      2848
 -1     12663    3    0    1
 -2      1342      1345      1344      2939
 -1     12664    3    0    1
 -2       521       517       514      2876
 -1     12665    3    0    1
 -2       860       855       862      2922
 -1     12666    3    0    1
 -2      2328      2525      2830      3012
 -1     12667    3    0    1
 -2      1873      2004      2003      2664
 -1     12668    3    0    1
 -2      1672       932       930      2659
 -1     12669    3    0    1
 -2      1486      1419      1491      2919
 -1     12670    3    0    1
 -2       195       194       201      2535
 -1     12671    3    0    1
 -2      1122      1151      1182      2150
 -1     12672    3    0    1
 -2      1524      1520      1521      2539
 -1     12673    3    0    1
 -2      1811      1807      2034      2967
 -1     12674    3    0    1
 -2      1250      1588      1252      2918
 -1     12675    3    0    1
 -2      1790       446      1785       445
 -1     12676    3    0    1
 -2       191       371       369      2752
 -1     12677    3    0    1
 -2       661       665       662      2806
 -1     12678    3    0    1
 -2      1513      2771      1512      2941
 -1     12679    3    0    1
 -2      1613      2505      1610      3030
 -1     12680    3    0    1
 -2      1623      1627      1628      2800
 -1     12681    3    0    1
 -2       833       825      1606      2773
 -1     12682    3    0    1
 -2      1272      1271      1269      2665
 -1     12683    3    0    1
 -2       778      2828       783      3017
 -1     12684    3    0    1
 -2      1067      1062      1061      3002
 -1     12685    3    0    1
 -2      1136      1140      1143      3018
 -1     12686    3    0    1
 -2      1665      1670      1666      2942
 -1     12687    3    0    1
 -2      1819      1825       406      2904
 -1     12688    3    0    1
 -2      1594       818       814       822
 -1     12689    3    0    1
 -2      1812      2215      2221      2656
 -1     12690    3    0    1
 -2      1724      1727      1704      2945
 -1     12691    3    0    1
 -2      1156      2126      1157      2130
 -1     12692    3    0    1
 -2      1082      2598      1084      2799
 -1     12693    3    0    1
 -2       642      1143      2796      3018
 -1     12694    3    0    1
 -2      2033      2036      2035      2700
 -1     12695    3    0    1
 -2      1286      2669      1287      3026
 -1     12696    3    0    1
 -2       736       741       742      2575
 -1     12697    3    0    1
 -2       398       149       140      3042
 -1     12698    3    0    1
 -2      1727      1724      2545      2945
 -1     12699    3    0    1
 -2      1365      1360      1361      2821
 -1     12700    3    0    1
 -2      1066      1073      1074      2768
 -1     12701    3    0    1
 -2      1161      2677      1171      2984
 -1     12702    3    0    1
 -2       949       953       947      2875
 -1     12703    3    0    1
 -2       774       767       770      2493
 -1     12704    3    0    1
 -2      1798      1802       430      2834
 -1     12705    3    0    1
 -2      2443      2841      2245      3049
 -1     12706    3    0    1
 -2      1235      1277       986      2852
 -1     12707    3    0    1
 -2      1063      2872      2487      3002
 -1     12708    3    0    1
 -2       930      1672      2659      2942
 -1     12709    3    0    1
 -2      1145      1137      2116      2617
 -1     12710    3    0    1
 -2      1100      1102      1099      2862
 -1     12711    3    0    1
 -2       919      1957       920      2889
 -1     12712    3    0    1
 -2       314      1967       315      1973
 -1     12713    3    0    1
 -2      1245      1246      1247      2535
 -1     12714    3    0    1
 -2      1064      2057      2060      2872
 -1     12715    3    0    1
 -2       531       541       532      2704
 -1     12716    3    0    1
 -2      1759      1760      1761      3036
 -1     12717    3    0    1
 -2      1925      1989      1839      2823
 -1     12718    3    0    1
 -2      2577      2776      2265      3023
 -1     12719    3    0    1
 -2      2071      2067      2070      2799
 -1     12720    3    0    1
 -2       784       780      1573      2955
 -1     12721    3    0    1
 -2       890      2895       894      2993
 -1     12722    3    0    1
 -2       446      1790       440       445
 -1     12723    3    0    1
 -2      1233       236       233      1237
 -1     12724    3    0    1
 -2      1797      2046      1801      3003
 -1     12725    3    0    1
 -2       477       478      2597      3001
 -1     12726    3    0    1
 -2       406       405       407      2488
 -1     12727    3    0    1
 -2      2111      2627      1125      2979
 -1     12728    3    0    1
 -2      2461      2518      2214      2794
 -1     12729    3    0    1
 -2      2286      2628      2952      3014
 -1     12730    3    0    1
 -2      2606      2651      2304      2971
 -1     12731    3    0    1
 -2       267      2632       277      2738
 -1     12732    3    0    1
 -2      1028      1024      1025      2996
 -1     12733    3    0    1
 -2      1271       154       159      1276
 -1     12734    3    0    1
 -2      1477       593      1472      2859
 -1     12735    3    0    1
 -2      2525      2814      2354      2830
 -1     12736    3    0    1
 -2       266       256       267      2738
 -1     12737    3    0    1
 -2      2129      2134      2130      2685
 -1     12738    3    0    1
 -2       861       864       857      3024
 -1     12739    3    0    1
 -2      1483       619       617       621
 -1     12740    3    0    1
 -2      1477      1471      1479      2859
 -1     12741    3    0    1
 -2       940       951       949      2989
 -1     12742    3    0    1
 -2      1610      1609      1614      2836
 -1     12743    3    0    1
 -2      1683      2826      1686      2827
 -1     12744    3    0    1
 -2       416       418      2883      2946
 -1     12745    3    0    1
 -2      1845      1847      1849      2801
 -1     12746    3    0    1
 -2       208       218       217      2767
 -1     12747    3    0    1
 -2      1552      2736      1549      3026
 -1     12748    3    0    1
 -2      1816      2488      1819      2891
 -1     12749    3    0    1
 -2      1900      1906      1903      3013
 -1     12750    3    0    1
 -2      1941      1947      1940      2568
 -1     12751    3    0    1
 -2       355       240       358      2577
 -1     12752    3    0    1
 -2       310       306       302      2788
 -1     12753    3    0    1
 -2       907       915       911      2497
 -1     12754    3    0    1
 -2      1739      2407      2158      2839
 -1     12755    3    0    1
 -2       646       647      1131      2913
 -1     12756    3    0    1
 -2       650       647       649      2987
 -1     12757    3    0    1
 -2      1957       924       958      1965
 -1     12758    3    0    1
 -2      2053      2054      2056      2872
 -1     12759    3    0    1
 -2      2033      2700      2032      2996
 -1     12760    3    0    1
 -2       686       821      2216      2794
 -1     12761    3    0    1
 -2       629       626      1449      2550
 -1     12762    3    0    1
 -2      1429      1436      1439      2733
 -1     12763    3    0    1
 -2      2478      2376      2824      2879
 -1     12764    3    0    1
 -2       662      2555       660      2806
 -1     12765    3    0    1
 -2      1638      1642      1643      2421
 -1     12766    3    0    1
 -2      1075      1078      1074      2914
 -1     12767    3    0    1
 -2      1071      1075      1073      2526
 -1     12768    3    0    1
 -2       414      1808      1814      2891
 -1     12769    3    0    1
 -2      2078      2077      2075      2598
 -1     12770    3    0    1
 -2      2231      2581      3005      3037
 -1     12771    3    0    1
 -2       141       119       330      2978
 -1     12772    3    0    1
 -2      2041      2039      2043      2782
 -1     12773    3    0    1
 -2      2077      2079      2076      2598
 -1     12774    3    0    1
 -2      2291      2603      2719      2985
 -1     12775    3    0    1
 -2      2296      2365      2615      2881
 -1     12776    3    0    1
 -2      1546      1292      1289      2486
 -1     12777    3    0    1
 -2       990       808       988      2664
 -1     12778    3    0    1
 -2      2084      2080      2731      2862
 -1     12779    3    0    1
 -2      1895      1888      1894      2621
 -1     12780    3    0    1
 -2      1275      1559      1280      2680
 -1     12781    3    0    1
 -2      1125      1133      1132      2627
 -1     12782    3    0    1
 -2       100        94       442      2599
 -1     12783    3    0    1
 -2      1632      1631      1638      2800
 -1     12784    3    0    1
 -2      2029      1027      1025      2996
 -1     12785    3    0    1
 -2      2114      2117      2119      2734
 -1     12786    3    0    1
 -2      2145      2903      2144      3033
 -1     12787    3    0    1
 -2       364       362       217      2621
 -1     12788    3    0    1
 -2      1724      1267      1388      2945
 -1     12789    3    0    1
 -2      1206      1208      1163      2965
 -1     12790    3    0    1
 -2       576      2666       575      3004
 -1     12791    3    0    1
 -2       892      2568      1941      2851
 -1     12792    3    0    1
 -2       398       391       153      3042
 -1     12793    3    0    1
 -2         9        11        10      1458
 -1     12794    3    0    1
 -2       352      2585       257      2776
 -1     12795    3    0    1
 -2      1964      1963      1956      2552
 -1     12796    3    0    1
 -2      1466      1464      1471      2896
 -1     12797    3    0    1
 -2      2040      1801      2043      2676
 -1     12798    3    0    1
 -2      1475      1481      1474      2636
 -1     12799    3    0    1
 -2       188      1253      1255      2886
 -1     12800    3    0    1
 -2       866      2457       867      2961
 -1     12801    3    0    1
 -2      1650      1647      1649      2778
 -1     12802    3    0    1
 -2       831      2458       824      2790
 -1     12803    3    0    1
 -2      1850      2801      1848      2824
 -1     12804    3    0    1
 -2      2685      2909      1164      3038
 -1     12805    3    0    1
 -2      1334      2906      1327      2949
 -1     12806    3    0    1
 -2      1920      1927      1923      2547
 -1     12807    3    0    1
 -2      1730      1727      1726      2545
 -1     12808    3    0    1
 -2      1339      1342      1338      2765
 -1     12809    3    0    1
 -2      1820      2210      1874      1821
 -1     12810    3    0    1
 -2       710       704       709      2880
 -1     12811    3    0    1
 -2       388       386       389      1835
 -1     12812    3    0    1
 -2      1971      1974      1976      2717
 -1     12813    3    0    1
 -2      2286      2659      2942      3014
 -1     12814    3    0    1
 -2       175      1261       169      2729
 -1     12815    3    0    1
 -2      2297      2871      2650      3047
 -1     12816    3    0    1
 -2      2309      2854      2754      2855
 -1     12817    3    0    1
 -2        47        50        46      2519
 -1     12818    3    0    1
 -2      2123      2119      2117      2734
 -1     12819    3    0    1
 -2      2012      2653      2009      2844
 -1     12820    3    0    1
 -2      2581      2968      2512      3037
 -1     12821    3    0    1
 -2       278       277       268      2632
 -1     12822    3    0    1
 -2      1458        11      1454      2757
 -1     12823    3    0    1
 -2      1504      1506      1505      2565
 -1     12824    3    0    1
 -2      1995       970      1994      2588
 -1     12825    3    0    1
 -2      1064      2060      1070      2487
 -1     12826    3    0    1
 -2      1816      1815      2670      2891
 -1     12827    3    0    1
 -2       242       250       251      1232
 -1     12828    3    0    1
 -2      1904      1900      1898      2584
 -1     12829    3    0    1
 -2       297       306       305      2832
 -1     12830    3    0    1
 -2       876       866       875      2457
 -1     12831    3    0    1
 -2       378       376       379      2925
 -1     12832    3    0    1
 -2       268       257       352      2585
 -1     12833    3    0    1
 -2      2397      2863      2555      3044
 -1     12834    3    0    1
 -2       676       672      1505      2565
 -1     12835    3    0    1
 -2      1747      2592      1748      2704
 -1     12836    3    0    1
 -2       416      2883       412      2946
 -1     12837    3    0    1
 -2       276       277      2632      2738
 -1     12838    3    0    1
 -2       753       686       668      3019
 -1     12839    3    0    1
 -2       228       226       232      2506
 -1     12840    3    0    1
 -2      1014      1012      1016      2816
 -1     12841    3    0    1
 -2      2216      2220      2217      2794
 -1     12842    3    0    1
 -2      1095      2079      2083      2862
 -1     12843    3    0    1
 -2      1931      1932       268      2632
 -1     12844    3    0    1
 -2      1125      2111      1133      2627
 -1     12845    3    0    1
 -2      1576      1685      1577      2811
 -1     12846    3    0    1
 -2      1159      1164      1158      3038
 -1     12847    3    0    1
 -2       130      2200      2208      2534
 -1     12848    3    0    1
 -2      1091      1086      1093      2894
 -1     12849    3    0    1
 -2      1674      1667      1675      3045
 -1     12850    3    0    1
 -2       421       422       497      1703
 -1     12851    3    0    1
 -2      2314      2717      2490      2917
 -1     12852    3    0    1
 -2       362       225       217      2621
 -1     12853    3    0    1
 -2      2150      2182      2127      2652
 -1     12854    3    0    1
 -2       212       203      1245       213
 -1     12855    3    0    1
 -2      2166      2169      2162      2740
 -1     12856    3    0    1
 -2      2385      2914      2470      2951
 -1     12857    3    0    1
 -2       371      2587      1866      2752
 -1     12858    3    0    1
 -2      1341      1343      1339      2779
 -1     12859    3    0    1
 -2      1316      1317      1322      2887
 -1     12860    3    0    1
 -2       391      2810       153      3042
 -1     12861    3    0    1
 -2      2128      2124      1747      2592
 -1     12862    3    0    1
 -2       542       546       540      2365
 -1     12863    3    0    1
 -2      1091      1092      1087      2894
 -1     12864    3    0    1
 -2       100      2599       442      2980
 -1     12865    3    0    1
 -2      1555      1557      1559      2679
 -1     12866    3    0    1
 -2      1737      1736      2178      2687
 -1     12867    3    0    1
 -2      2125      2120      2119      2617
 -1     12868    3    0    1
 -2       752       746       751      2578
 -1     12869    3    0    1
 -2      1050      1051      2511      2785
 -1     12870    3    0    1
 -2      1537      1536      1541      2517
 -1     12871    3    0    1
 -2       241      1233       233      2937
 -1     12872    3    0    1
 -2       986      1055      2852      2911
 -1     12873    3    0    1
 -2      1781      1786      1784      2689
 -1     12874    3    0    1
 -2      1982      2602      1987      2823
 -1     12875    3    0    1
 -2      2150      1122      1151      2088
 -1     12876    3    0    1
 -2      1937      1984      1980      2613
 -1     12877    3    0    1
 -2      2157      2149      2839      2903
 -1     12878    3    0    1
 -2       266      2738       275      2959
 -1     12879    3    0    1
 -2        13        16      1438      2797
 -1     12880    3    0    1
 -2       436      2713       437      2980
 -1     12881    3    0    1
 -2      1931      1930      1932      2632
 -1     12882    3    0    1
 -2       366       208       205      2693
 -1     12883    3    0    1
 -2      1458      2757      1463      2798
 -1     12884    3    0    1
 -2       940       936       944      2989
 -1     12885    3    0    1
 -2       398       401       397      3042
 -1     12886    3    0    1
 -2      2349      2846      2294      3013
 -1     12887    3    0    1
 -2      2076      2079      1094      2598
 -1     12888    3    0    1
 -2      1275      2680      1280      2992
 -1     12889    3    0    1
 -2       856       849       845      3024
 -1     12890    3    0    1
 -2      1180      1174      1176      2142
 -1     12891    3    0    1
 -2      1797      2049      2046      3003
 -1     12892    3    0    1
 -2       824       819       815      2790
 -1     12893    3    0    1
 -2      1505      1510       676      2565
 -1     12894    3    0    1
 -2      1780      2065      2595      2935
 -1     12895    3    0    1
 -2      1396      1406      1401      2813
 -1     12896    3    0    1
 -2      2258      2826      2572      2827
 -1     12897    3    0    1
 -2       569       570       577      2757
 -1     12898    3    0    1
 -2      1458      1453      1463      2757
 -1     12899    3    0    1
 -2      1954      1953      1946      2962
 -1     12900    3    0    1
 -2       103        99       100      2524
 -1     12901    3    0    1
 -2      1775       461       465      2695
 -1     12902    3    0    1
 -2        80      1329      1335      2837
 -1     12903    3    0    1
 -2       166       161      1269      1271
 -1     12904    3    0    1
 -2      2222      2822      2714      3010
 -1     12905    3    0    1
 -2       774       776      2493      2955
 -1     12906    3    0    1
 -2      1369      1363      1501      2806
 -1     12907    3    0    1
 -2      1536      1534      1535      2517
 -1     12908    3    0    1
 -2       615       613       614      1373
 -1     12909    3    0    1
 -2      2209      2197      1540      2934
 -1     12910    3    0    1
 -2      1591      1561      1509      2647
 -1     12911    3    0    1
 -2       250       245       254      2586
 -1     12912    3    0    1
 -2      1067      1066      2768      3002
 -1     12913    3    0    1
 -2      2115      2118      2734      2944
 -1     12914    3    0    1
 -2       402       452       348      2449
 -1     12915    3    0    1
 -2      1775       465      1773      2695
 -1     12916    3    0    1
 -2      1233      1232      1234      2586
 -1     12917    3    0    1
 -2      1287      1552      1549      3026
 -1     12918    3    0    1
 -2      1726      1311      1388      1724
 -1     12919    3    0    1
 -2       767       774       776      2493
 -1     12920    3    0    1
 -2       767       761       763      2715
 -1     12921    3    0    1
 -2      1538      1535      1539      2787
 -1     12922    3    0    1
 -2      1182      2151      1122      2150
 -1     12923    3    0    1
 -2      1524      1521      1525      2949
 -1     12924    3    0    1
 -2       996       999       995      2653
 -1     12925    3    0    1
 -2      2573      2765      2328      2932
 -1     12926    3    0    1
 -2      1793        70      1794      2189
 -1     12927    3    0    1
 -2      1403      1495      1411      2673
 -1     12928    3    0    1
 -2       697       699       703      2539
 -1     12929    3    0    1
 -2      1239      1240      1237      2506
 -1     12930    3    0    1
 -2      1884       796      1830      2454
 -1     12931    3    0    1
 -2      1196      1202      1199      2850
 -1     12932    3    0    1
 -2        66        62        67      2939
 -1     12933    3    0    1
 -2      1869      1867      1863      2637
 -1     12934    3    0    1
 -2       621      1206       617      2619
 -1     12935    3    0    1
 -2      2310      2901      2549      2928
 -1     12936    3    0    1
 -2      1781      1784      1782      2689
 -1     12937    3    0    1
 -2      2258      2812      2572      2826
 -1     12938    3    0    1
 -2      2284      2851      2568      2877
 -1     12939    3    0    1
 -2      2469      2828      2795      3017
 -1     12940    3    0    1
 -2       423      1805       419      2883
 -1     12941    3    0    1
 -2      1613      1618      1621      3030
 -1     12942    3    0    1
 -2      1621      1620      1613      2994
 -1     12943    3    0    1
 -2      1377      1375      2576      2947
 -1     12944    3    0    1
 -2      1298      1304       108      2697
 -1     12945    3    0    1
 -2      1835       388       386      1841
 -1     12946    3    0    1
 -2       245       250       241      2586
 -1     12947    3    0    1
 -2       866       869      2675      2922
 -1     12948    3    0    1
 -2       851      2216       821      2794
 -1     12949    3    0    1
 -2      1709      1701      1708      2901
 -1     12950    3    0    1
 -2      2658      2875      2460      2989
 -1     12951    3    0    1
 -2      2297      2871      2699      3015
 -1     12952    3    0    1
 -2       322      1978       271      3040
 -1     12953    3    0    1
 -2       496       499       504      2556
 -1     12954    3    0    1
 -2      1976      1979      1981      2717
 -1     12955    3    0    1
 -2       888       795      2454      3019
 -1     12956    3    0    1
 -2      1752      1754      1751      2684
 -1     12957    3    0    1
 -2      2111      1125      2105      2979
 -1     12958    3    0    1
 -2      2700      2306      2755      2996
 -1     12959    3    0    1
 -2       268       352      1931      2585
 -1     12960    3    0    1
 -2      1645      1647      1642      2654
 -1     12961    3    0    1
 -2       522       514        38      2781
 -1     12962    3    0    1
 -2      1500      1369      1501      2806
 -1     12963    3    0    1
 -2      1892      1882      1999      3031
 -1     12964    3    0    1
 -2       882      1992      1936      2851
 -1     12965    3    0    1
 -2       362      1895       360      2621
 -1     12966    3    0    1
 -2       389       390       391      2810
 -1     12967    3    0    1
 -2      2742      2784      2307      2911
 -1     12968    3    0    1
 -2      2824      2844      2478      2879
 -1     12969    3    0    1
 -2        67        71        66      2939
 -1     12970    3    0    1
 -2       574       582       573      2532
 -1     12971    3    0    1
 -2       663       664       661      1502
 -1     12972    3    0    1
 -2      1175       629       631      2677
 -1     12973    3    0    1
 -2       295       291       300      2531
 -1     12974    3    0    1
 -2       181       180       187      2886
 -1     12975    3    0    1
 -2      2136      1168      1165      2685
 -1     12976    3    0    1
 -2      1621      1624      1626      2994
 -1     12977    3    0    1
 -2      1190      1196      1193      2850
 -1     12978    3    0    1
 -2       127       136       137      2915
 -1     12979    3    0    1
 -2       327       323       332      2572
 -1     12980    3    0    1
 -2      1941      1940      1935      2851
 -1     12981    3    0    1
 -2      1642      1647      1643      2895
 -1     12982    3    0    1
 -2      2024      2027      2023      2816
 -1     12983    3    0    1
 -2      2245      2677      2557      2984
 -1     12984    3    0    1
 -2      2448      2938      2733      3049
 -1     12985    3    0    1
 -2      1010      1008      1006      2966
 -1     12986    3    0    1
 -2       254       255       250      1229
 -1     12987    3    0    1
 -2      1185      1190      1193      2750
 -1     12988    3    0    1
 -2       923       921       926      2709
 -1     12989    3    0    1
 -2      1288       128       129      1284
 -1     12990    3    0    1
 -2      1411      1414      1407      2884
 -1     12991    3    0    1
 -2       746       744       749      2578
 -1     12992    3    0    1
 -2      2586      2937      2333      3047
 -1     12993    3    0    1
 -2       927       926       934      2543
 -1     12994    3    0    1
 -2      2254      2685      2465      3038
 -1     12995    3    0    1
 -2      2001      2000      1876      2593
 -1     12996    3    0    1
 -2      1695      1019       964      2005
 -1     12997    3    0    1
 -2      1824      1828      1826      2930
 -1     12998    3    0    1
 -2       305       299       297      2832
 -1     12999    3    0    1
 -2       120       130      2200       131
 -1     13000    3    0    1
 -2       986      1725      1723      2852
 -1     13001    3    0    1
 -2       918      2763       919      2889
 -1     13002    3    0    1
 -2       986      1723      1235      2852
 -1     13003    3    0    1
 -2      1678      1671      1681      2659
 -1     13004    3    0    1
 -2      1033      1030      2035      2700
 -1     13005    3    0    1
 -2      1919      1923      1926      2661
 -1     13006    3    0    1
 -2       782       777       776      2828
 -1     13007    3    0    1
 -2       600         4       603      2859
 -1     13008    3    0    1
 -2       166       170      1264      1261
 -1     13009    3    0    1
 -2      2155      2152      2156      2562
 -1     13010    3    0    1
 -2      1502       661       663      1501
 -1     13011    3    0    1
 -2      1555      1558      1556      2679
 -1     13012    3    0    1
 -2      1625      1234      1231      3047
 -1     13013    3    0    1
 -2      1698       346      1254       395
 -1     13014    3    0    1
 -2      1921      1929      1930      2585
 -1     13015    3    0    1
 -2       264       273      1228      1227
 -1     13016    3    0    1
 -2      1288       123       122      1291
 -1     13017    3    0    1
 -2      1881      1886      1877      2692
 -1     13018    3    0    1
 -2      1064      1070      1066      2487
 -1     13019    3    0    1
 -2      1747      2131      2128      2592
 -1     13020    3    0    1
 -2      1764      1763      1765      3001
 -1     13021    3    0    1
 -2       573       582       579      3004
 -1     13022    3    0    1
 -2      2102      2099      2098      2495
 -1     13023    3    0    1
 -2      1088      1094      1093      2598
 -1     13024    3    0    1
 -2      1744       548      1743      2905
 -1     13025    3    0    1
 -2      1088      1093      1086      2598
 -1     13026    3    0    1
 -2      1723      1735      1301      2852
 -1     13027    3    0    1
 -2      2008      2705      2007      2844
 -1     13028    3    0    1
 -2      1127      2627      1132      2988
 -1     13029    3    0    1
 -2       411       406       410      1814
 -1     13030    3    0    1
 -2       866       867       861      2961
 -1     13031    3    0    1
 -2      1740       580      1739      2839
 -1     13032    3    0    1
 -2      1192      1191      1188      2154
 -1     13033    3    0    1
 -2      1869      1870      1867      2637
 -1     13034    3    0    1
 -2      1299      2749      1294      2912
 -1     13035    3    0    1
 -2      1747      1748      1746      2704
 -1     13036    3    0    1
 -2      2285      2664      2593      3009
 -1     13037    3    0    1
 -2        98        93        99      2452
 -1     13038    3    0    1
 -2       253       247       248      2817
 -1     13039    3    0    1
 -2        57        20        19      1794
 -1     13040    3    0    1
 -2       709       716       710      2880
 -1     13041    3    0    1
 -2      2125      2129      2130      2465
 -1     13042    3    0    1
 -2      2575      2933      2306      3020
 -1     13043    3    0    1
 -2      1063      2487      1066      3002
 -1     13044    3    0    1
 -2      1354      1350      1348      2530
 -1     13045    3    0    1
 -2       462       467       470      2513
 -1     13046    3    0    1
 -2       235       245       241      2937
 -1     13047    3    0    1
 -2      1156      2130      1165      2685
 -1     13048    3    0    1
 -2      1752      2115      2109      2944
 -1     13049    3    0    1
 -2       329       238       334      2823
 -1     13050    3    0    1
 -2      1811      1817      1816      2670
 -1     13051    3    0    1
 -2      2309      2855      2754      2945
 -1     13052    3    0    1
 -2      2545      2919      2309      2945
 -1     13053    3    0    1
 -2      2075      1771      2078      2570
 -1     13054    3    0    1
 -2      1548      1547      2633      2865
 -1     13055    3    0    1
 -2       371      1866       369      2752
 -1     13056    3    0    1
 -2       513       515       510      2963
 -1     13057    3    0    1
 -2      1512       680       682      1510
 -1     13058    3    0    1
 -2      1404      1394      1401      2813
 -1     13059    3    0    1
 -2      1885      1877      1886      2693
 -1     13060    3    0    1
 -2       843      1617       846       838
 -1     13061    3    0    1
 -2      1687      1634      1591      2509
 -1     13062    3    0    1
 -2      1127      1129      2833      2988
 -1     13063    3    0    1
 -2      1862      1867      1866      2752
 -1     13064    3    0    1
 -2      1964      1963      2552      2737
 -1     13065    3    0    1
 -2      1051      1049      1050      2511
 -1     13066    3    0    1
 -2      1850      2478      2801      2824
 -1     13067    3    0    1
 -2       780      1568      1572      2955
 -1     13068    3    0    1
 -2      2472      2846      2584      3013
 -1     13069    3    0    1
 -2       613      1163      1135      2561
 -1     13070    3    0    1
 -2      1203      1202      1197      2842
 -1     13071    3    0    1
 -2       866      2922      2457      2961
 -1     13072    3    0    1
 -2      1539      1535      1295      2787
 -1     13073    3    0    1
 -2      1079      1082      1084      2799
 -1     13074    3    0    1
 -2      1593      1594      1589      2970
 -1     13075    3    0    1
 -2      1798      1796      1799      2834
 -1     13076    3    0    1
 -2        13        15      1438      1435
 -1     13077    3    0    1
 -2       195      1251       188      2886
 -1     13078    3    0    1
 -2      1810      1811      1815      2670
 -1     13079    3    0    1
 -2       611      1320      1277       612
 -1     13080    3    0    1
 -2      2608      2831      2236      2843
 -1     13081    3    0    1
 -2       704       710       707      2880
 -1     13082    3    0    1
 -2       922       915       916      2942
 -1     13083    3    0    1
 -2      1936      1992      1941      2851
 -1     13084    3    0    1
 -2      1145      1141      1137      2617
 -1     13085    3    0    1
 -2       921       911       922      2497
 -1     13086    3    0    1
 -2      2195       130      2208      2534
 -1     13087    3    0    1
 -2        21        20        57      1794
 -1     13088    3    0    1
 -2      1690      1693      1692      2522
 -1     13089    3    0    1
 -2       694       697       693      2634
 -1     13090    3    0    1
 -2      1692      1693      1688      2522
 -1     13091    3    0    1
 -2       867       866       876      2457
 -1     13092    3    0    1
 -2      2650      2871      2297      3015
 -1     13093    3    0    1
 -2       333       141       330      2978
 -1     13094    3    0    1
 -2      2360      2835      2623      3022
 -1     13095    3    0    1
 -2      1952      2696      1948      2864
 -1     13096    3    0    1
 -2      1939      1938      1944      2869
 -1     13097    3    0    1
 -2      2340      2904      2488      2972
 -1     13098    3    0    1
 -2       317       320       325      2953
 -1     13099    3    0    1
 -2      2088      2150      2127      2652
 -1     13100    3    0    1
 -2       445       448       449      2689
 -1     13101    3    0    1
 -2         7      1458      1467      2798
 -1     13102    3    0    1
 -2       884       879       890      2421
 -1     13103    3    0    1
 -2       750       749       745      2865
 -1     13104    3    0    1
 -2      2674      2774      2361      2873
 -1     13105    3    0    1
 -2       428      2713       436      2834
 -1     13106    3    0    1
 -2      1639      1635      1636      2873
 -1     13107    3    0    1
 -2       678       682       676      1510
 -1     13108    3    0    1
 -2       275      2738       276      2959
 -1     13109    3    0    1
 -2      2381      2913      2483      3018
 -1     13110    3    0    1
 -2       754       757      1556       755
 -1     13111    3    0    1
 -2       639       642      1143      2796
 -1     13112    3    0    1
 -2      1061      1062      1059      2785
 -1     13113    3    0    1
 -2      1114      1108      1110      2722
 -1     13114    3    0    1
 -2       833       830       825      2773
 -1     13115    3    0    1
 -2       938       942       945      2613
 -1     13116    3    0    1
 -2      1962      1955      1961      2696
 -1     13117    3    0    1
 -2      1194      2631       624      3011
 -1     13118    3    0    1
 -2      2001      2003       984       988
 -1     13119    3    0    1
 -2      1030      1027      2029      2996
 -1     13120    3    0    1
 -2      1512      2771      1511      2941
 -1     13121    3    0    1
 -2       314       322       321      2745
 -1     13122    3    0    1
 -2      2211      2191      2198      2977
 -1     13123    3    0    1
 -2       504       503       496      2556
 -1     13124    3    0    1
 -2      1063      1064      2487      2872
 -1     13125    3    0    1
 -2      1311      1388      1724      1267
 -1     13126    3    0    1
 -2       267       257       268      2585
 -1     13127    3    0    1
 -2      1124      1123      1129      2833
 -1     13128    3    0    1
 -2      1332      1339      1338      2932
 -1     13129    3    0    1
 -2       908       914       906      2976
 -1     13130    3    0    1
 -2      2231      2960      2968      3037
 -1     13131    3    0    1
 -2       360       225       362      2621
 -1     13132    3    0    1
 -2      2006      2003      2004      2705
 -1     13133    3    0    1
 -2       522       527       525      2770
 -1     13134    3    0    1
 -2      1594       814       809      2970
 -1     13135    3    0    1
 -2       885       877       876      2877
 -1     13136    3    0    1
 -2       311       308       305      2515
 -1     13137    3    0    1
 -2      1455      1464      1457      2536
 -1     13138    3    0    1
 -2      1533      1531      1306      3043
 -1     13139    3    0    1
 -2       366       364       218      2693
 -1     13140    3    0    1
 -2      1973      1978       322      3040
 -1     13141    3    0    1
 -2      1194      2840      2631      3011
 -1     13142    3    0    1
 -2       723       725       720      2614
 -1     13143    3    0    1
 -2       955       954       950      2460
 -1     13144    3    0    1
 -2       937       939       874      1678
 -1     13145    3    0    1
 -2       458       459       462      2897
 -1     13146    3    0    1
 -2      1627      1623      1620      2994
 -1     13147    3    0    1
 -2       478       479      1770      1767
 -1     13148    3    0    1
 -2       646      1131       642      3018
 -1     13149    3    0    1
 -2      1602      1594      1601      2643
 -1     13150    3    0    1
 -2      2090      2096      2092      2759
 -1     13151    3    0    1
 -2      1548      2633      1549      2736
 -1     13152    3    0    1
 -2       819       820       816      2766
 -1     13153    3    0    1
 -2        86        57       142      1795
 -1     13154    3    0    1
 -2      1687      1693      1634      2509
 -1     13155    3    0    1
 -2      2079      2082      2083      2862
 -1     13156    3    0    1
 -2      1018      1721      1019      1695
 -1     13157    3    0    1
 -2       194       195       188      2886
 -1     13158    3    0    1
 -2       803      2964       807      3009
 -1     13159    3    0    1
 -2      1049      1044      1050      2511
 -1     13160    3    0    1
 -2      1027      2029      1029      1030
 -1     13161    3    0    1
 -2       352      1922      1931      2585
 -1     13162    3    0    1
 -2      1458       578      2757      2798
 -1     13163    3    0    1
 -2      1389      1385      1382      2645
 -1     13164    3    0    1
 -2       108       110       111      1296
 -1     13165    3    0    1
 -2       142       210        86      2823
 -1     13166    3    0    1
 -2      1805      1808       416      2883
 -1     13167    3    0    1
 -2       542       549       546      2746
 -1     13168    3    0    1
 -2         8       593       592      2475
 -1     13169    3    0    1
 -2       352       248       354      2776
 -1     13170    3    0    1
 -2       717      1528      1530      2496
 -1     13171    3    0    1
 -2       161      1271       159      2665
 -1     13172    3    0    1
 -2      1648       891       890       895
 -1     13173    3    0    1
 -2      1526      1529      1528      2496
 -1     13174    3    0    1
 -2       963      1019      2005       964
 -1     13175    3    0    1
 -2      2032      1030      2029      2996
 -1     13176    3    0    1
 -2      2032      2035      1030      2700
 -1     13177    3    0    1
 -2      1941      1935      1936      2851
 -1     13178    3    0    1
 -2       639      1154       637      2796
 -1     13179    3    0    1
 -2      2210      1874      2212      2848
 -1     13180    3    0    1
 -2       171       165       383      2924
 -1     13181    3    0    1
 -2      2090      2093      2097      2759
 -1     13182    3    0    1
 -2       411       406      1814       408
 -1     13183    3    0    1
 -2      1881      2691      1890      2692
 -1     13184    3    0    1
 -2       128       123       122      1288
 -1     13185    3    0    1
 -2       986       997      1725      2852
 -1     13186    3    0    1
 -2      1629      1624      1625      2650
 -1     13187    3    0    1
 -2       984       983      2001       988
 -1     13188    3    0    1
 -2       448       453       455      2689
 -1     13189    3    0    1
 -2      1688      2803      1682      2827
 -1     13190    3    0    1
 -2      1545      1544      1546      2633
 -1     13191    3    0    1
 -2      1392      1401      1394      2813
 -1     13192    3    0    1
 -2      2330      2856      2641      2994
 -1     13193    3    0    1
 -2       412       416       414      2883
 -1     13194    3    0    1
 -2      1868      1872      1869      2948
 -1     13195    3    0    1
 -2      1941      2568      1940      2851
 -1     13196    3    0    1
 -2       397       389       391      3042
 -1     13197    3    0    1
 -2      1609      1608      1604      2836
 -1     13198    3    0    1
 -2      1108      2555      1103      3044
 -1     13199    3    0    1
 -2      2068      1082      1076      2799
 -1     13200    3    0    1
 -2      2147      2146      2153      2943
 -1     13201    3    0    1
 -2      1770      1772      1773      2597
 -1     13202    3    0    1
 -2      1347      1349        66      2939
 -1     13203    3    0    1
 -2      1866      1871       369      2752
 -1     13204    3    0    1
 -2      1492      1489      1491      2919
 -1     13205    3    0    1
 -2      1783      1780      2065      2595
 -1     13206    3    0    1
 -2      1148      1156      1147      2465
 -1     13207    3    0    1
 -2      1194      1186      1181      2840
 -1     13208    3    0    1
 -2       218       208       366      2693
 -1     13209    3    0    1
 -2      2230      2772      2628      2952
 -1     13210    3    0    1
 -2      1753       506       512      2963
 -1     13211    3    0    1
 -2       944       910       950      2989
 -1     13212    3    0    1
 -2       991      2006       994       995
 -1     13213    3    0    1
 -2      1512      1511      1346      2941
 -1     13214    3    0    1
 -2       399       403      1825      2904
 -1     13215    3    0    1
 -2      2011      2012      2014      2500
 -1     13216    3    0    1
 -2       161       155       163      2898
 -1     13217    3    0    1
 -2      1181      2596      1185      2840
 -1     13218    3    0    1
 -2      2032      2700      1030      2996
 -1     13219    3    0    1
 -2       713      2647      2188      2977
 -1     13220    3    0    1
 -2      2591      2849       473      2981
 -1     13221    3    0    1
 -2       783       778       777      2828
 -1     13222    3    0    1
 -2      1257      1253      2606      2971
 -1     13223    3    0    1
 -2       853       945       889      2957
 -1     13224    3    0    1
 -2      1805      1803      1806      2883
 -1     13225    3    0    1
 -2      2207      2209      2199      2534
 -1     13226    3    0    1
 -2      1645      1653      1652      2499
 -1     13227    3    0    1
 -2       938       935       928      2990
 -1     13228    3    0    1
 -2       399      1825      1831      2904
 -1     13229    3    0    1
 -2        50        46      2519      2947
 -1     13230    3    0    1
 -2      1770      1768      1772      2597
 -1     13231    3    0    1
 -2       996      2011       999      2653
 -1     13232    3    0    1
 -2       326       334       335      2553
 -1     13233    3    0    1
 -2      1861      1859      1856      2724
 -1     13234    3    0    1
 -2      1996      1997       975       974
 -1     13235    3    0    1
 -2       804       803       807      3009
 -1     13236    3    0    1
 -2      1250      1247      1248      2918
 -1     13237    3    0    1
 -2      1437      1438      1428      2797
 -1     13238    3    0    1
 -2      1332      1335      2837      2932
 -1     13239    3    0    1
 -2      1079      1080      1075      2914
 -1     13240    3    0    1
 -2       809      2681      1589      2970
 -1     13241    3    0    1
 -2      1811      2670      1810      2967
 -1     13242    3    0    1
 -2      1189      1181      1185      2840
 -1     13243    3    0    1
 -2       248       355       354      2776
 -1     13244    3    0    1
 -2       495       496       503      2556
 -1     13245    3    0    1
 -2      2190      2191      2188      2647
 -1     13246    3    0    1
 -2      2029      2032      1029      1030
 -1     13247    3    0    1
 -2      1819      1816      1822      2488
 -1     13248    3    0    1
 -2      2639      2792      2237      3046
 -1     13249    3    0    1
 -2      2639      2640      2311      3046
 -1     13250    3    0    1
 -2      1672      1671      1678      2659
 -1     13251    3    0    1
 -2      2130      2126      2125      2465
 -1     13252    3    0    1
 -2      2349      2985      2603      3035
 -1     13253    3    0    1
 -2       161      2665       155      2898
 -1     13254    3    0    1
 -2      1572      1567      1570      2955
 -1     13255    3    0    1
 -2      2104      2105      2099      2979
 -1     13256    3    0    1
 -2      1495       636      1494      2672
 -1     13257    3    0    1
 -2       797       794       790      3027
 -1     13258    3    0    1
 -2      1830      1829      1910      2454
 -1     13259    3    0    1
 -2      1902       361       360       359
 -1     13260    3    0    1
 -2      1449      1456      1448      3011
 -1     13261    3    0    1
 -2       864      2961       868      3006
 -1     13262    3    0    1
 -2       256      2533       246      2817
 -1     13263    3    0    1
 -2      1389      1392      1385      2645
 -1     13264    3    0    1
 -2      1579      1581       791      2845
 -1     13265    3    0    1
 -2       227       234      2642      3028
 -1     13266    3    0    1
 -2       575       573       579      3004
 -1     13267    3    0    1
 -2       936       929       930      2659
 -1     13268    3    0    1
 -2      1460      1461      2631      3011
 -1     13269    3    0    1
 -2      1916      1915      1921      2776
 -1     13270    3    0    1
 -2      1801      2046      2043      3003
 -1     13271    3    0    1
 -2      2001      1873      2003      2664
 -1     13272    3    0    1
 -2      2198      2461      2214      2977
 -1     13273    3    0    1
 -2      1707      1708      1700      2901
 -1     13274    3    0    1
 -2      1434      1482      1400      2965
 -1     13275    3    0    1
 -2      1309      1302      1306      2956
 -1     13276    3    0    1
 -2      1737      2178      2174      2687
 -1     13277    3    0    1
 -2      2231      2968      2581      3037
 -1     13278    3    0    1
 -2       411      1808       414       415
 -1     13279    3    0    1
 -2      1819      1822      1825      2904
 -1     13280    3    0    1
 -2      1742      1741      2149      2903
 -1     13281    3    0    1
 -2      2296      2663      2365      2905
 -1     13282    3    0    1
 -2      1483       617      1400      2965
 -1     13283    3    0    1
 -2        43        41        44      2916
 -1     13284    3    0    1
 -2       640      2672      1495      2673
 -1     13285    3    0    1
 -2      1377      1381      1384      2576
 -1     13286    3    0    1
 -2      1255      2886      1253      2971
 -1     13287    3    0    1
 -2       381       384      1846      2925
 -1     13288    3    0    1
 -2       842       837       838      2546
 -1     13289    3    0    1
 -2      1437      1439      1444      2733
 -1     13290    3    0    1
 -2      1747      2704      1746      2905
 -1     13291    3    0    1
 -2      1870      1866      1867      2752
 -1     13292    3    0    1
 -2       612       611      1320       613
 -1     13293    3    0    1
 -2      1022      1012      2023      2816
 -1     13294    3    0    1
 -2       982       980      2000       981
 -1     13295    3    0    1
 -2      1878      1880       366      2693
 -1     13296    3    0    1
 -2         8         7      1472      1467
 -1     13297    3    0    1
 -2       366      1880       364      2693
 -1     13298    3    0    1
 -2       872      2611       966      3006
 -1     13299    3    0    1
 -2       721       716       718      2723
 -1     13300    3    0    1
 -2      1509       811       729      1591
 -1     13301    3    0    1
 -2         6         4      1477         5
 -1     13302    3    0    1
 -2       874       839       811      1633
 -1     13303    3    0    1
 -2      1458       578        11      2757
 -1     13304    3    0    1
 -2      1224       301      1664      2531
 -1     13305    3    0    1
 -2       358       231       360      3039
 -1     13306    3    0    1
 -2      1811      1816      1815      2670
 -1     13307    3    0    1
 -2      1727      1724      1726      2545
 -1     13308    3    0    1
 -2      2236      2831      2608      2974
 -1     13309    3    0    1
 -2      1346      1513      1512      2941
 -1     13310    3    0    1
 -2       805       798       799      2681
 -1     13311    3    0    1
 -2      1719      1718      1702      2449
 -1     13312    3    0    1
 -2      1704      1698      1724      2945
 -1     13313    3    0    1
 -2       988      2003       989       991
 -1     13314    3    0    1
 -2      1366      1365      1361      2821
 -1     13315    3    0    1
 -2      1882      1892      2691      3031
 -1     13316    3    0    1
 -2       686       753       821      3019
 -1     13317    3    0    1
 -2       233       241       236      1233
 -1     13318    3    0    1
 -2      1648       890       894       895
 -1     13319    3    0    1
 -2      2113      2187      2181      2923
 -1     13320    3    0    1
 -2       928       931      1970       935
 -1     13321    3    0    1
 -2       870       863      1628      2800
 -1     13322    3    0    1
 -2      1194      1186      2840      3011
 -1     13323    3    0    1
 -2       583       578         8      2798
 -1     13324    3    0    1
 -2       882       887       892      2851
 -1     13325    3    0    1
 -2      2303      2765      2573      2939
 -1     13326    3    0    1
 -2      1527      1525      1327      2949
 -1     13327    3    0    1
 -2      1178      1185      1177      2596
 -1     13328    3    0    1
 -2       384       381       383      2925
 -1     13329    3    0    1
 -2       490      1762       485       484
 -1     13330    3    0    1
 -2      2013      1009      1006      2015
 -1     13331    3    0    1
 -2      1396      1389      1390      2645
 -1     13332    3    0    1
 -2       929       936       933      3014
 -1     13333    3    0    1
 -2       784      1573      2845      2955
 -1     13334    3    0    1
 -2      1030      2700      2755      2996
 -1     13335    3    0    1
 -2      1331      1419      1330      2855
 -1     13336    3    0    1
 -2       809       817       813      2970
 -1     13337    3    0    1
 -2       576       580      2839      3004
 -1     13338    3    0    1
 -2      1631      1629      1635      2504
 -1     13339    3    0    1
 -2      1299      2912      1302      2956
 -1     13340    3    0    1
 -2      1227      1230      1228      2674
 -1     13341    3    0    1
 -2      1656      1657      1650      2778
 -1     13342    3    0    1
 -2      1404      1395      1394      2574
 -1     13343    3    0    1
 -2      1273      1271      1272      2665
 -1     13344    3    0    1
 -2      1892      1893      1891      3031
 -1     13345    3    0    1
 -2      1061      2872      1063      3002
 -1     13346    3    0    1
 -2      1324      1317      1321      2887
 -1     13347    3    0    1
 -2      2043      2046      2045      3003
 -1     13348    3    0    1
 -2      2220      2216      2218      2794
 -1     13349    3    0    1
 -2       930       925      1672      2942
 -1     13350    3    0    1
 -2      1749      1746       532       529
 -1     13351    3    0    1
 -2       973       972      1995      1996
 -1     13352    3    0    1
 -2       478       471       477      2597
 -1     13353    3    0    1
 -2       784      2845       779      2955
 -1     13354    3    0    1
 -2      1912      2588      1918      2719
 -1     13355    3    0    1
 -2      2006       989       991       992
 -1     13356    3    0    1
 -2       269       263       270      2706
 -1     13357    3    0    1
 -2      1912      1918      1917      2719
 -1     13358    3    0    1
 -2       269       279       272      2494
 -1     13359    3    0    1
 -2       381      1855       378      2925
 -1     13360    3    0    1
 -2      2051      2050      2113      2923
 -1     13361    3    0    1
 -2      2144      2148      2527      2903
 -1     13362    3    0    1
 -2       410       414      1814      2891
 -1     13363    3    0    1
 -2      1759      1757      1760      3036
 -1     13364    3    0    1
 -2      2336      2986      2483      2987
 -1     13365    3    0    1
 -2      1748      1749      1746      2704
 -1     13366    3    0    1
 -2      1429      1439      1437      2733
 -1     13367    3    0    1
 -2      2148      2152      2143      2527
 -1     13368    3    0    1
 -2       184      2651       183      2725
 -1     13369    3    0    1
 -2      1837      1834      1838      2618
 -1     13370    3    0    1
 -2       481       476       473      2849
 -1     13371    3    0    1
 -2       683       689       690      3016
 -1     13372    3    0    1
 -2      1181      1189      1194      2840
 -1     13373    3    0    1
 -2        79        78        82      2525
 -1     13374    3    0    1
 -2      1108      1103      1105      3044
 -1     13375    3    0    1
 -2       525       528       524      2769
 -1     13376    3    0    1
 -2      2184      2173      2175      2686
 -1     13377    3    0    1
 -2      1258       178       181      1255
 -1     13378    3    0    1
 -2      1830      1766      1788      2656
 -1     13379    3    0    1
 -2      2221      2220      2219      2656
 -1     13380    3    0    1
 -2       233       232       235      2937
 -1     13381    3    0    1
 -2        13       561        16      2797
 -1     13382    3    0    1
 -2       567      2666       576      2839
 -1     13383    3    0    1
 -2      1125      2627      1127      2979
 -1     13384    3    0    1
 -2      1751       519       512       516
 -1     13385    3    0    1
 -2       920       924      1957       919
 -1     13386    3    0    1
 -2       580       585       586      2407
 -1     13387    3    0    1
 -2       928       927       934      2990
 -1     13388    3    0    1
 -2      1749       532       526       529
 -1     13389    3    0    1
 -2      1195      2748      1194      2840
 -1     13390    3    0    1
 -2      1538      1541      1536      2517
 -1     13391    3    0    1
 -2      1947      1941      1951      2568
 -1     13392    3    0    1
 -2       246       256       252      2533
 -1     13393    3    0    1
 -2      2068      2071      1082      2799
 -1     13394    3    0    1
 -2      1102      1097      1099      2863
 -1     13395    3    0    1
 -2      2302      2566      2733      3049
 -1     13396    3    0    1
 -2      1892      1891      2691      3031
 -1     13397    3    0    1
 -2       187       194       188      2886
 -1     13398    3    0    1
 -2       148       152       146      2756
 -1     13399    3    0    1
 -2        96       258       157      2927
 -1     13400    3    0    1
 -2      1595      1592      1596      2616
 -1     13401    3    0    1
 -2       112       118       117      2520
 -1     13402    3    0    1
 -2      1286      1282      1283      2669
 -1     13403    3    0    1
 -2      1982       271      1978      3040
 -1     13404    3    0    1
 -2       891      1648       890      1643
 -1     13405    3    0    1
 -2      1550      1548      1555      2736
 -1     13406    3    0    1
 -2      1640      2654      1639      2873
 -1     13407    3    0    1
 -2      1438      1435      1428      2797
 -1     13408    3    0    1
 -2      1443      1441      1448      2550
 -1     13409    3    0    1
 -2      2130      2136      1165      2685
 -1     13410    3    0    1
 -2      2483      2913      2336      2987
 -1     13411    3    0    1
 -2       586       585       595      2730
 -1     13412    3    0    1
 -2      1666      1672       925      2942
 -1     13413    3    0    1
 -2      1061      1056      1063      2872
 -1     13414    3    0    1
 -2      1400       617       616      2965
 -1     13415    3    0    1
 -2       676      1510       680      2771
 -1     13416    3    0    1
 -2      2172      1209      1203      2842
 -1     13417    3    0    1
 -2      2363      2952      2628      3014
 -1     13418    3    0    1
 -2      1452      1455      1457      2605
 -1     13419    3    0    1
 -2      1823      1826      1822      2930
 -1     13420    3    0    1
 -2       643       642       640      2673
 -1     13421    3    0    1
 -2      2145      1742      2149      2903
 -1     13422    3    0    1
 -2      1852      1855       381      2925
 -1     13423    3    0    1
 -2        46      1378        43      2947
 -1     13424    3    0    1
 -2       318       324      1222      1221
 -1     13425    3    0    1
 -2      1729      1728      1732      2742
 -1     13426    3    0    1
 -2      1857      1853      1858      2844
 -1     13427    3    0    1
 -2      1256      1257      1253      2606
 -1     13428    3    0    1
 -2       926       921       929      2709
 -1     13429    3    0    1
 -2      2071      2598      1082      2799
 -1     13430    3    0    1
 -2       190      2559       193      2725
 -1     13431    3    0    1
 -2      1993      1936       882       962
 -1     13432    3    0    1
 -2      2194      2210      2213      2848
 -1     13433    3    0    1
 -2      1477      1479      1451      2859
 -1     13434    3    0    1
 -2      1882      1891      1890      2691
 -1     13435    3    0    1
 -2       838       837       833      2546
 -1     13436    3    0    1
 -2       909       920      1951      2889
 -1     13437    3    0    1
 -2      1854      1855      1852      2925
 -1     13438    3    0    1
 -2      2168      2172      1203      2842
 -1     13439    3    0    1
 -2       828       824       831      2458
 -1     13440    3    0    1
 -2       403       399       401      2904
 -1     13441    3    0    1
 -2      2352      2596      2893      2936
 -1     13442    3    0    1
 -2      1033      1030      1032      2035
 -1     13443    3    0    1
 -2       879      1632       880      1638
 -1     13444    3    0    1
 -2       305       316       311      2515
 -1     13445    3    0    1
 -2       710      1059       707      2880
 -1     13446    3    0    1
 -2      2370      2973      2726      2976
 -1     13447    3    0    1
 -2       605       606       609      2854
 -1     13448    3    0    1
 -2       613      2561      1135      2911
 -1     13449    3    0    1
 -2      1027      2026      2029      1025
 -1     13450    3    0    1
 -2       377      1860       375       374
 -1     13451    3    0    1
 -2      2111      2112      2116      2627
 -1     13452    3    0    1
 -2      2592      2704      1747      2905
 -1     13453    3    0    1
 -2      1414      1411      1495      2672
 -1     13454    3    0    1
 -2      1843      2014      2012      2668
 -1     13455    3    0    1
 -2       144       138       137      1284
 -1     13456    3    0    1
 -2      1895      2621      1899      3039
 -1     13457    3    0    1
 -2      1908      1911      1915      3023
 -1     13458    3    0    1
 -2       943       938       945      2613
 -1     13459    3    0    1
 -2      1067      1061      1066      3002
 -1     13460    3    0    1
 -2      2603      3023      2349      3035
 -1     13461    3    0    1
 -2       649       653       650      2861
 -1     13462    3    0    1
 -2      1536      1537       733       732
 -1     13463    3    0    1
 -2      1922      1916      1921      2776
 -1     13464    3    0    1
 -2      2795      2828      2392      3017
 -1     13465    3    0    1
 -2       312       311       318      1673
 -1     13466    3    0    1
 -2      1407      1402      1398      2899
 -1     13467    3    0    1
 -2      1050      1058      1051      2785
 -1     13468    3    0    1
 -2      1162      1171       631      2984
 -1     13469    3    0    1
 -2       652      1499       655      2861
 -1     13470    3    0    1
 -2       329      2553       326      3040
 -1     13471    3    0    1
 -2      1698      1720      1254      1219
 -1     13472    3    0    1
 -2      1545      1548      1547      2633
 -1     13473    3    0    1
 -2       872       881       882      2611
 -1     13474    3    0    1
 -2       464       461       458      2695
 -1     13475    3    0    1
 -2       449       448       455      2689
 -1     13476    3    0    1
 -2      1948       287      1942      2864
 -1     13477    3    0    1
 -2      1135      2561      2784      2911
 -1     13478    3    0    1
 -2      1972      1964      1969      2737
 -1     13479    3    0    1
 -2      2075      2072      1771      2570
 -1     13480    3    0    1
 -2       986       611      1055      2911
 -1     13481    3    0    1
 -2       136       127       133      2915
 -1     13482    3    0    1
 -2      2104      2110      2105      2979
 -1     13483    3    0    1
 -2      1683      1221      1220      2826
 -1     13484    3    0    1
 -2      1987      1989      1925      2823
 -1     13485    3    0    1
 -2      1995       970       972       971
 -1     13486    3    0    1
 -2      1894      1899      1895      2621
 -1     13487    3    0    1
 -2       772      1008       769      2966
 -1     13488    3    0    1
 -2      1395        34        32      1405
 -1     13489    3    0    1
 -2       640       639       636      2672
 -1     13490    3    0    1
 -2       111       110       115      1296
 -1     13491    3    0    1
 -2       315       322       314      1973
 -1     13492    3    0    1
 -2      1925       210      1924      2823
 -1     13493    3    0    1
 -2      2147      1184      1188      2154
 -1     13494    3    0    1
 -2      1845      1852      1846      2925
 -1     13495    3    0    1
 -2       809       801      1589      2681
 -1     13496    3    0    1
 -2      2307      2784      2561      2911
 -1     13497    3    0    1
 -2       732       733      1536       727
 -1     13498    3    0    1
 -2       602       468      1712       422
 -1     13499    3    0    1
 -2      1692      1686      1597      2826
 -1     13500    3    0    1
 -2       354       355       353      1916
 -1     13501    3    0    1
 -2      1102      1103      1097      2863
 -1     13502    3    0    1
 -2      1030      2755      1031      2996
 -1     13503    3    0    1
 -2       337       334       238      2978
 -1     13504    3    0    1
 -2       572       576      1740      1741
 -1     13505    3    0    1
 -2       287       340       290      1948
 -1     13506    3    0    1
 -2      2013      1002      2011      2500
 -1     13507    3    0    1
 -2       126       134       132      2818
 -1     13508    3    0    1
 -2       966       872       882      2611
 -1     13509    3    0    1
 -2      1700      1708      1701      2901
 -1     13510    3    0    1
 -2      1057      2057      1060      2872
 -1     13511    3    0    1
 -2       100       442       437      2980
 -1     13512    3    0    1
 -2       749       751       746      2578
 -1     13513    3    0    1
 -2      1252      1251      1250      2886
 -1     13514    3    0    1
 -2      1856      1857      1858      2724
 -1     13515    3    0    1
 -2      1873      1876      1872      2948
 -1     13516    3    0    1
 -2       672       666      1504      1502
 -1     13517    3    0    1
 -2      2633      2736      2290      3026
 -1     13518    3    0    1
 -2      1863      1861      1858      2724
 -1     13519    3    0    1
 -2      1826      1823      1824      2930
 -1     13520    3    0    1
 -2      1558      1555      1559      2679
 -1     13521    3    0    1
 -2       474       393       443      2855
 -1     13522    3    0    1
 -2      1503      1553      2927      2934
 -1     13523    3    0    1
 -2       426       428       431      2834
 -1     13524    3    0    1
 -2       818      1594      1602       822
 -1     13525    3    0    1
 -2      2177      2172      2171      2842
 -1     13526    3    0    1
 -2      1548      1550      1547      2865
 -1     13527    3    0    1
 -2      1483      1400      1482      2965
 -1     13528    3    0    1
 -2       418       114       420      2946
 -1     13529    3    0    1
 -2       429       420       109      2969
 -1     13530    3    0    1
 -2      1299      1302      1305      2956
 -1     13531    3    0    1
 -2       199        96       158      1554
 -1     13532    3    0    1
 -2       882      1936      1993      2611
 -1     13533    3    0    1
 -2      1235      1320      1277      2852
 -1     13534    3    0    1
 -2       187       188       181      2886
 -1     13535    3    0    1
 -2       578       577       570      2757
 -1     13536    3    0    1
 -2      1889      1881      1890      2692
 -1     13537    3    0    1
 -2       478       472      1770       479
 -1     13538    3    0    1
 -2      1548      2736      1550      2865
 -1     13539    3    0    1
 -2      1594       809      1589      2970
 -1     13540    3    0    1
 -2      1553      1600      1554      2927
 -1     13541    3    0    1
 -2      2265      3023      2603      3035
 -1     13542    3    0    1
 -2      1359      1358      1355      2732
 -1     13543    3    0    1
 -2       909       901      1951       959
 -1     13544    3    0    1
 -2      1337      1301      1726      1374
 -1     13545    3    0    1
 -2      1610      2505      1608      2836
 -1     13546    3    0    1
 -2       457      1778       456       455
 -1     13547    3    0    1
 -2      1821      2210      1874      2212
 -1     13548    3    0    1
 -2        16        18        15      1435
 -1     13549    3    0    1
 -2        60        59      1353        62
 -1     13550    3    0    1
 -2       438       444       439      2926
 -1     13551    3    0    1
 -2       186       376       373      2587
 -1     13552    3    0    1
 -2       436       437       438      2980
 -1     13553    3    0    1
 -2       756      1560       757       763
 -1     13554    3    0    1
 -2       371      1860      1866      2587
 -1     13555    3    0    1
 -2      2179      2066      2073      2901
 -1     13556    3    0    1
 -2      1689      1680      1682      2803
 -1     13557    3    0    1
 -2       119       120       330      2196
 -1     13558    3    0    1
 -2       888       852       795      3019
 -1     13559    3    0    1
 -2      1367      1362      1364      2732
 -1     13560    3    0    1
 -2      1643      1647      1648      2895
 -1     13561    3    0    1
 -2      1757      1756      1758      2612
 -1     13562    3    0    1
 -2      1012      1009      2018      1010
 -1     13563    3    0    1
 -2       658      1500      1501      2806
 -1     13564    3    0    1
 -2       754       757       756      1556
 -1     13565    3    0    1
 -2      1611      1605      1607      2773
 -1     13566    3    0    1
 -2      1019      1722      1721      1018
 -1     13567    3    0    1
 -2      1336      1341      1339      2779
 -1     13568    3    0    1
 -2      1812      1883      1829      2656
 -1     13569    3    0    1
 -2       292       297       299      2434
 -1     13570    3    0    1
 -2       698       693       697      2634
 -1     13571    3    0    1
 -2       783       777       782      2828
 -1     13572    3    0    1
 -2       640       636      1495      2672
 -1     13573    3    0    1
 -2       988       808       983      2664
 -1     13574    3    0    1
 -2      1685      1576      1634      2811
 -1     13575    3    0    1
 -2      2461      2647       766      2977
 -1     13576    3    0    1
 -2       938       934       942      2990
 -1     13577    3    0    1
 -2      2090      2097      2096      2759
 -1     13578    3    0    1
 -2       903       893       894      2895
 -1     13579    3    0    1
 -2      1982      1987      1925      2823
 -1     13580    3    0    1
 -2        76        75        80      1335
 -1     13581    3    0    1
 -2      1076      1082      1079      2799
 -1     13582    3    0    1
 -2       601       536       596      1737
 -1     13583    3    0    1
 -2       779       784       789      2845
 -1     13584    3    0    1
 -2       897       886       885      2877
 -1     13585    3    0    1
 -2       639      1150      1154      2796
 -1     13586    3    0    1
 -2       696       695       691      1520
 -1     13587    3    0    1
 -2      1279      1274      1275      2992
 -1     13588    3    0    1
 -2      1829      1788      1812      2656
 -1     13589    3    0    1
 -2      1289      1286      1287      3026
 -1     13590    3    0    1
 -2      1782       456      1778       455
 -1     13591    3    0    1
 -2       922       930       929      2942
 -1     13592    3    0    1
 -2      1739      2167       586       587
 -1     13593    3    0    1
 -2       904       894       895      2895
 -1     13594    3    0    1
 -2       509        38       514      2781
 -1     13595    3    0    1
 -2       932      1678       937      2659
 -1     13596    3    0    1
 -2      1921      1930      1931      2585
 -1     13597    3    0    1
 -2      2023      1012      2019      2816
 -1     13598    3    0    1
 -2       278       281       277      2632
 -1     13599    3    0    1
 -2      1022      1016      1012      2816
 -1     13600    3    0    1
 -2      1695       964      1694      2005
 -1     13601    3    0    1
 -2      1308      1305      1302      2956
 -1     13602    3    0    1
 -2       238       141       333      2978
 -1     13603    3    0    1
 -2      1884      1830      1910      2454
 -1     13604    3    0    1
 -2       323       325       336      2812
 -1     13605    3    0    1
 -2       812       820       981      2766
 -1     13606    3    0    1
 -2      1829      1830      1788      2656
 -1     13607    3    0    1
 -2       376       377      1855       378
 -1     13608    3    0    1
 -2       894       904       903      2895
 -1     13609    3    0    1
 -2      1637      2674      1641      2873
 -1     13610    3    0    1
 -2      2195      2208      2199      2534
 -1     13611    3    0    1
 -2      2010      2066      1718      1711
 -1     13612    3    0    1
 -2       916      1660       925      2942
 -1     13613    3    0    1
 -2       763       761       756      2715
 -1     13614    3    0    1
 -2      1734       997      1725      1729
 -1     13615    3    0    1
 -2      2011      2009      2012      2653
 -1     13616    3    0    1
 -2       330       337       333      2978
 -1     13617    3    0    1
 -2      2053      2057      1057      2872
 -1     13618    3    0    1
 -2        84        90        87      1323
 -1     13619    3    0    1
 -2       766       811      1509      2647
 -1     13620    3    0    1
 -2       474       443       520      2855
 -1     13621    3    0    1
 -2      1051      1059      1052      2785
 -1     13622    3    0    1
 -2      1805       416       419      2883
 -1     13623    3    0    1
 -2       482       488       487      2849
 -1     13624    3    0    1
 -2       313      2745       321      2953
 -1     13625    3    0    1
 -2       658       661       662      2806
 -1     13626    3    0    1
 -2      1047      1722      1721      1019
 -1     13627    3    0    1
 -2       320       313       321      2953
 -1     13628    3    0    1
 -2      2042      1040      1043      2038
 -1     13629    3    0    1
 -2        74        68       467      2838
 -1     13630    3    0    1
 -2      1933      1943      1938      2869
 -1     13631    3    0    1
 -2      1713      1714      1716      2751
 -1     13632    3    0    1
 -2       414       416      1808      2883
 -1     13633    3    0    1
 -2         7      1467         8      2798
 -1     13634    3    0    1
 -2        53        51        56      2732
 -1     13635    3    0    1
 -2       428       436       431      2834
 -1     13636    3    0    1
 -2       590       599       598      2622
 -1     13637    3    0    1
 -2      1498      1391      1499      2861
 -1     13638    3    0    1
 -2      1990      1979      1986      2802
 -1     13639    3    0    1
 -2      2147      1180      1176      2142
 -1     13640    3    0    1
 -2      2733      2938      2302      3049
 -1     13641    3    0    1
 -2      2157      2148      2149      2903
 -1     13642    3    0    1
 -2      1756       506       511      1753
 -1     13643    3    0    1
 -2       189      1253       188      1251
 -1     13644    3    0    1
 -2       239       249       245      2929
 -1     13645    3    0    1
 -2      1859      1862      1860      2587
 -1     13646    3    0    1
 -2      2033      2035      2032      2700
 -1     13647    3    0    1
 -2      1403      2899      1398      2986
 -1     13648    3    0    1
 -2         7         9      1458      2798
 -1     13649    3    0    1
 -2      2017      2018      2015      2609
 -1     13650    3    0    1
 -2      1988      1990      1986      2594
 -1     13651    3    0    1
 -2      1747      2124      2121      2592
 -1     13652    3    0    1
 -2      1253      2886      2606      2971
 -1     13653    3    0    1
 -2       607       604       538      2739
 -1     13654    3    0    1
 -2      2032      1032      1030      2035
 -1     13655    3    0    1
 -2      2311      2792      2639      3046
 -1     13656    3    0    1
 -2      1243      1242      1244      2445
 -1     13657    3    0    1
 -2      2606      2886      2651      2971
 -1     13658    3    0    1
 -2      1261      1259      1264      2729
 -1     13659    3    0    1
 -2      2099      2105      1117      2979
 -1     13660    3    0    1
 -2      1853      1857      1850      2824
 -1     13661    3    0    1
 -2      2122      2116      2120      2617
 -1     13662    3    0    1
 -2       449       456      1782       455
 -1     13663    3    0    1
 -2       870       879      1632       880
 -1     13664    3    0    1
 -2      2214      2518      2205      2794
 -1     13665    3    0    1
 -2       389       397       396      1835
 -1     13666    3    0    1
 -2       815       816       807      2964
 -1     13667    3    0    1
 -2       403       406      1825      2904
 -1     13668    3    0    1
 -2      1201      1206       621      2619
 -1     13669    3    0    1
 -2       379      2924       383      2925
 -1     13670    3    0    1
 -2       814       810      1594       809
 -1     13671    3    0    1
 -2        90        92      1323      1316
 -1     13672    3    0    1
 -2      1974      1979      1976      2717
 -1     13673    3    0    1
 -2      1125      1132      1127      2627
 -1     13674    3    0    1
 -2      2145      2140      1742      3033
 -1     13675    3    0    1
 -2      1036      1040      1033      2038
 -1     13676    3    0    1
 -2      1918      1912      1994      2588
 -1     13677    3    0    1
 -2       161       166       162      1271
 -1     13678    3    0    1
 -2      1287      1286      1283      2669
 -1     13679    3    0    1
 -2      2269      2666      2839      3004
 -1     13680    3    0    1
 -2      1548      2633      2736      2865
 -1     13681    3    0    1
 -2      1551       745      1547      2865
 -1     13682    3    0    1
 -2      2631      2840      2260      3011
 -1     13683    3    0    1
 -2      1665      1659      1661      2858
 -1     13684    3    0    1
 -2       799      1584       801      2681
 -1     13685    3    0    1
 -2       544       550       543      2746
 -1     13686    3    0    1
 -2      1329        76        80      1335
 -1     13687    3    0    1
 -2       191       186       373      2725
 -1     13688    3    0    1
 -2      1785      1782      1784      2689
 -1     13689    3    0    1
 -2       585       584       594      2730
 -1     13690    3    0    1
 -2       892      1941       901       960
 -1     13691    3    0    1
 -2       786       778       783      3017
 -1     13692    3    0    1
 -2      1125      1118      1126      2105
 -1     13693    3    0    1
 -2       960      1951       901       959
 -1     13694    3    0    1
 -2      1392      2645      1396      2813
 -1     13695    3    0    1
 -2      1063      1066      1061      3002
 -1     13696    3    0    1
 -2       745       743      1547       740
 -1     13697    3    0    1
 -2      1460      1450      1461      3011
 -1     13698    3    0    1
 -2      2168      1203      1197      2842
 -1     13699    3    0    1
 -2       485       493      1762       490
 -1     13700    3    0    1
 -2        51        53        50      2732
 -1     13701    3    0    1
 -2      1308      1314      1313      2786
 -1     13702    3    0    1
 -2      1341      1336      1516      2779
 -1     13703    3    0    1
 -2      2020      2023      2019      2816
 -1     13704    3    0    1
 -2      1832      1837      1836      2710
 -1     13705    3    0    1
 -2      1633       874       873      1684
 -1     13706    3    0    1
 -2       932       937       930      2659
 -1     13707    3    0    1
 -2      1165      1156      1157      2130
 -1     13708    3    0    1
 -2      1448      1456      1450      3011
 -1     13709    3    0    1
 -2      1343      1342      1339      2765
 -1     13710    3    0    1
 -2      1735      1301      1263      1723
 -1     13711    3    0    1
 -2      1498      1393      1391      2987
 -1     13712    3    0    1
 -2      1936      2611       882      2851
 -1     13713    3    0    1
 -2       155       161       159      2665
 -1     13714    3    0    1
 -2      1965      2552      1957      2889
 -1     13715    3    0    1
 -2      1637      1640      1636      2873
 -1     13716    3    0    1
 -2       658       662       660      2806
 -1     13717    3    0    1
 -2        96       260      1554       199
 -1     13718    3    0    1
 -2       697       700       698      2634
 -1     13719    3    0    1
 -2       600       599       591      2622
 -1     13720    3    0    1
 -2      2086      2082      2084      2862
 -1     13721    3    0    1
 -2      1224      2531      1662      2954
 -1     13722    3    0    1
 -2      1364      1358      1359      2732
 -1     13723    3    0    1
 -2      1962       298       339      1955
 -1     13724    3    0    1
 -2      2019      1009      2018      1012
 -1     13725    3    0    1
 -2       973       972      1996       974
 -1     13726    3    0    1
 -2      1328      1332      1335      2837
 -1     13727    3    0    1
 -2       996      2008      2011      2653
 -1     13728    3    0    1
 -2      1082      1085      1088      2598
 -1     13729    3    0    1
 -2        96       259       258      2927
 -1     13730    3    0    1
 -2      1567      1572      1568      2955
 -1     13731    3    0    1
 -2      1498      2861       649      2987
 -1     13732    3    0    1
 -2       916       907      1660       915
 -1     13733    3    0    1
 -2       705       702      1524       699
 -1     13734    3    0    1
 -2        75        76      1340      1335
 -1     13735    3    0    1
 -2      2650      2871      2418      3047
 -1     13736    3    0    1
 -2      1100      1104      2089      1101
 -1     13737    3    0    1
 -2       100       104       103      2524
 -1     13738    3    0    1
 -2       516       512      1751      1753
 -1     13739    3    0    1
 -2       667       668      2215      1745
 -1     13740    3    0    1
 -2      1112      1109      2095      2815
 -1     13741    3    0    1
 -2      1612      1611      1615      2546
 -1     13742    3    0    1
 -2      1720      1267      1724      2945
 -1     13743    3    0    1
 -2       796      1830       795       701
 -1     13744    3    0    1
 -2       318       327       324      1221
 -1     13745    3    0    1
 -2       695       699       697      2539
 -1     13746    3    0    1
 -2      2099      2102      2104      2979
 -1     13747    3    0    1
 -2      1213      1211      1212      2742
 -1     13748    3    0    1
 -2       963      1694       964      2005
 -1     13749    3    0    1
 -2       617      1206      1163      2965
 -1     13750    3    0    1
 -2      1074      1067      1066      2768
 -1     13751    3    0    1
 -2       851      2216      2794      2977
 -1     13752    3    0    1
 -2        28       550       544      2853
 -1     13753    3    0    1
 -2       919       920       909      2889
 -1     13754    3    0    1
 -2       303       293       298      2789
 -1     13755    3    0    1
 -2       120       119      2193      2196
 -1     13756    3    0    1
 -2      1576      1517      2190      1577
 -1     13757    3    0    1
 -2       181      1255       178      2971
 -1     13758    3    0    1
 -2       979      1998      1999       978
 -1     13759    3    0    1
 -2      1780      1783      1781      2595
 -1     13760    3    0    1
 -2      1258      1255      1259      2971
 -1     13761    3    0    1
 -2       666       672       664      1502
 -1     13762    3    0    1
 -2       798       797       793      3027
 -1     13763    3    0    1
 -2      1728      1038      1722      1211
 -1     13764    3    0    1
 -2       606       520       498      2854
 -1     13765    3    0    1
 -2       784       779       780      2955
 -1     13766    3    0    1
 -2      1669      1673      1676      2741
 -1     13767    3    0    1
 -2        45      1380        43      1378
 -1     13768    3    0    1
 -2      2668      2824      2376      2879
 -1     13769    3    0    1
 -2      1982      1978      2602      3040
 -1     13770    3    0    1
 -2      1891      1882      1892      2691
 -1     13771    3    0    1
 -2       266       275       270      2959
 -1     13772    3    0    1
 -2       461       464       465      2695
 -1     13773    3    0    1
 -2      1495      1494      1414      2672
 -1     13774    3    0    1
 -2      1996      1907      1901      2829
 -1     13775    3    0    1
 -2      1400      1483       618       617
 -1     13776    3    0    1
 -2       572       567      1741       568
 -1     13777    3    0    1
 -2      1945      1952      1948      2864
 -1     13778    3    0    1
 -2       501      1757      1759      3036
 -1     13779    3    0    1
 -2       229       228      1237      1240
 -1     13780    3    0    1
 -2       385      1846       386      1841
 -1     13781    3    0    1
 -2      2228      2708      2240      2973
 -1     13782    3    0    1
 -2       893       894      2895      2993
 -1     13783    3    0    1
 -2      1333      1327      1334      2582
 -1     13784    3    0    1
 -2      2134      2129      2133      2958
 -1     13785    3    0    1
 -2      2130      2134      2136      2685
 -1     13786    3    0    1
 -2      1072      1070      2060      2064
 -1     13787    3    0    1
 -2      1253       189       188      1255
 -1     13788    3    0    1
 -2      1297      1302      1299      2912
 -1     13789    3    0    1
 -2      2188      2191      2211      2647
 -1     13790    3    0    1
 -2       100        99        93      2599
 -1     13791    3    0    1
 -2       817       822       823      2643
 -1     13792    3    0    1
 -2       469       475       471      2597
 -1     13793    3    0    1
 -2      2085      2084      2081      2731
 -1     13794    3    0    1
 -2      2035      1036      1033      2038
 -1     13795    3    0    1
 -2        50      1371        46      2947
 -1     13796    3    0    1
 -2      1390      1389      1382      2645
 -1     13797    3    0    1
 -2      1182      1151      1216      2652
 -1     13798    3    0    1
 -2       401       405      2904      2972
 -1     13799    3    0    1
 -2      1689      1693      1687      2803
 -1     13800    3    0    1
 -2      1414      1425      1424      2884
 -1     13801    3    0    1
 -2       683       684       689      3016
 -1     13802    3    0    1
 -2      1269       162       166      1271
 -1     13803    3    0    1
 -2      2089      2083      1100      1101
 -1     13804    3    0    1
 -2      1458         9       578      2798
 -1     13805    3    0    1
 -2       795       852       753      3019
 -1     13806    3    0    1
 -2      1119      1120      1114      2722
 -1     13807    3    0    1
 -2      2211      2188      2647      2977
 -1     13808    3    0    1
 -2       352       257       248      2776
 -1     13809    3    0    1
 -2      1933      1927      1934      2775
 -1     13810    3    0    1
 -2       894      1648       895      2895
 -1     13811    3    0    1
 -2       652      1498      1499      2861
 -1     13812    3    0    1
 -2      1398      1397      1390      2986
 -1     13813    3    0    1
 -2      1767      1765      1768      3001
 -1     13814    3    0    1
 -2      1802      1799      1803      2834
 -1     13815    3    0    1
 -2       512       511       506      1753
 -1     13816    3    0    1
 -2       893       884       890      2993
 -1     13817    3    0    1
 -2       880       890       879      1638
 -1     13818    3    0    1
 -2      1689      1682      1693      2803
 -1     13819    3    0    1
 -2      1171      1170      1175      2677
 -1     13820    3    0    1
 -2      1478      1488      1479      2921
 -1     13821    3    0    1
 -2      2164      2171      2168      2842
 -1     13822    3    0    1
 -2       377       376      1855       374
 -1     13823    3    0    1
 -2       907       916      1660       912
 -1     13824    3    0    1
 -2       882       892       961      1992
 -1     13825    3    0    1
 -2       108       106       102      1304
 -1     13826    3    0    1
 -2       514       517       513      2876
 -1     13827    3    0    1
 -2       360      1895      1902      3039
 -1     13828    3    0    1
 -2      1320      1373       612       613
 -1     13829    3    0    1
 -2      1293      2703      1294      2749
 -1     13830    3    0    1
 -2       312       319      1222       318
 -1     13831    3    0    1
 -2      1851      2668      2012      2824
 -1     13832    3    0    1
 -2      1393      1403      1398      2986
 -1     13833    3    0    1
 -2      1104      1109      1106      2815
 -1     13834    3    0    1
 -2      2196      2194      2201      2640
 -1     13835    3    0    1
 -2      1030      1028      1027      2996
 -1     13836    3    0    1
 -2       526       528       531      2704
 -1     13837    3    0    1
 -2       717       718       709      2496
 -1     13838    3    0    1
 -2      1159      1156      1165      2685
 -1     13839    3    0    1
 -2       416       418       419      2883
 -1     13840    3    0    1
 -2      1640      1644      1639      2654
 -1     13841    3    0    1
 -2      1500       655       654      1499
 -1     13842    3    0    1
 -2      1110      1115      1114      2722
 -1     13843    3    0    1
 -2       775      1568       780       774
 -1     13844    3    0    1
 -2       737      1543       738       740
 -1     13845    3    0    1
 -2      1583      1587      1584      2681
 -1     13846    3    0    1
 -2      1931      1922      1921      2585
 -1     13847    3    0    1
 -2       816       815       819      2964
 -1     13848    3    0    1
 -2      1253      1252      2606      2886
 -1     13849    3    0    1
 -2       311       316       318      2515
 -1     13850    3    0    1
 -2       900       902       908      2976
 -1     13851    3    0    1
 -2      2029      2027      2030      2996
 -1     13852    3    0    1
 -2      1955       298       339      1948
 -1     13853    3    0    1
 -2      2012      2009      2824      2844
 -1     13854    3    0    1
 -2       922       916       925      2942
 -1     13855    3    0    1
 -2       558      1743       555      1742
 -1     13856    3    0    1
 -2      1579       791       784      2845
 -1     13857    3    0    1
 -2      2179      2087      2183      2901
 -1     13858    3    0    1
 -2      1589       801      1584      2681
 -1     13859    3    0    1
 -2      1432      1441      1440      2870
 -1     13860    3    0    1
 -2       661       658      1501      2806
 -1     13861    3    0    1
 -2      1127      1129      1123      2833
 -1     13862    3    0    1
 -2      1713      1704      1714      2751
 -1     13863    3    0    1
 -2      1878      1885      1880      2693
 -1     13864    3    0    1
 -2       330       120      2200      2196
 -1     13865    3    0    1
 -2      1858      1864      1863      2724
 -1     13866    3    0    1
 -2      1206      1205      1208      3029
 -1     13867    3    0    1
 -2      2133      2128      2131      2671
 -1     13868    3    0    1
 -2      1260      1265      1262      2878
 -1     13869    3    0    1
 -2      1256      1253      1252      2606
 -1     13870    3    0    1
 -2      1921      1926      1929      2661
 -1     13871    3    0    1
 -2      2461      2794      2214      2977
 -1     13872    3    0    1
 -2      1642      1639      1644      2654
 -1     13873    3    0    1
 -2        89        82        85      2814
 -1     13874    3    0    1
 -2      2034      2036      2033      3008
 -1     13875    3    0    1
 -2      1912      1914      1906      2719
 -1     13876    3    0    1
 -2      2030      2033      2032      2996
 -1     13877    3    0    1
 -2       922      2497       915      2942
 -1     13878    3    0    1
 -2      1619      1238      1625      3047
 -1     13879    3    0    1
 -2      1577      1517      2190      2192
 -1     13880    3    0    1
 -2      1957      1964      1956      2552
 -1     13881    3    0    1
 -2       590       591       599      2622
 -1     13882    3    0    1
 -2      2016      2014      1843      2764
 -1     13883    3    0    1
 -2       493       501      1759      3036
 -1     13884    3    0    1
 -2      2437      2726      2973      2976
 -1     13885    3    0    1
 -2      1777      1779      1776      2935
 -1     13886    3    0    1
 -2      1993       966       968       967
 -1     13887    3    0    1
 -2      2014      2013      2011      2500
 -1     13888    3    0    1
 -2      1622      1619      1625      3047
 -1     13889    3    0    1
 -2       815       823       824      2790
 -1     13890    3    0    1
 -2      1688      1693      1682      2803
 -1     13891    3    0    1
 -2      2080      2081      2084      2731
 -1     13892    3    0    1
 -2      1603      1607      1605      2773
 -1     13893    3    0    1
 -2       978       976      1998       977
 -1     13894    3    0    1
 -2      1335      1338      1340      2932
 -1     13895    3    0    1
 -2      1026      2026      2029      1027
 -1     13896    3    0    1
 -2      1410      1407      1414      2884
 -1     13897    3    0    1
 -2       293       286       290      2789
 -1     13898    3    0    1
 -2       116      1293       115      1291
 -1     13899    3    0    1
 -2        79        77        78      2525
 -1     13900    3    0    1
 -2      1881      1877      1875      2692
 -1     13901    3    0    1
 -2      1671      1672      1666      2942
 -1     13902    3    0    1
 -2       780      1573      1572       781
 -1     13903    3    0    1
 -2      1549      2633      1546      3026
 -1     13904    3    0    1
 -2       692      1520       696       691
 -1     13905    3    0    1
 -2      1551      1547      1550      2865
 -1     13906    3    0    1
 -2      1474      1473      1470      2896
 -1     13907    3    0    1
 -2      1704      2751      1703      2754
 -1     13908    3    0    1
 -2       909       906       914      2889
 -1     13909    3    0    1
 -2       969      1993       968       967
 -1     13910    3    0    1
 -2      1805       417       423       419
 -1     13911    3    0    1
 -2      1806      1807      1810      2967
 -1     13912    3    0    1
 -2       525       530       528      2769
 -1     13913    3    0    1
 -2       354       353      1922      1916
 -1     13914    3    0    1
 -2       360      1902       358      3039
 -1     13915    3    0    1
 -2      1937       853       943       956
 -1     13916    3    0    1
 -2      1528      1529      1530      2496
 -1     13917    3    0    1
 -2      1678       873       874      1684
 -1     13918    3    0    1
 -2       805      2681       809      2970
 -1     13919    3    0    1
 -2       976       978      1998       979
 -1     13920    3    0    1
 -2      1747      1746      1744      2905
 -1     13921    3    0    1
 -2       452       348      1705       434
 -1     13922    3    0    1
 -2      2143      2152      2146      2943
 -1     13923    3    0    1
 -2       465       466      1773      1770
 -1     13924    3    0    1
 -2       930       937       936      2659
 -1     13925    3    0    1
 -2      1498       652       649      2861
 -1     13926    3    0    1
 -2      1668      1669      1675      2741
 -1     13927    3    0    1
 -2       586       580      1739       581
 -1     13928    3    0    1
 -2       960       892      1941      1992
 -1     13929    3    0    1
 -2       432      1798       430       431
 -1     13930    3    0    1
 -2      1710      1721      1701      2928
 -1     13931    3    0    1
 -2      1234      1238      1233      2937
 -1     13932    3    0    1
 -2         1      1331       392       474
 -1     13933    3    0    1
 -2      1901      1997      1996      2829
 -1     13934    3    0    1
 -2       234       230       227      2642
 -1     13935    3    0    1
 -2      1998      1893      1892      3031
 -1     13936    3    0    1
 -2      1723      1301      1235      2852
 -1     13937    3    0    1
 -2      1468      1460      1469      2631
 -1     13938    3    0    1
 -2      1580      1581      1573      2845
 -1     13939    3    0    1
 -2       896       883       893      2993
 -1     13940    3    0    1
 -2       651       652      1498      1499
 -1     13941    3    0    1
 -2      2011      2008      2009      2653
 -1     13942    3    0    1
 -2       492       500       493      3036
 -1     13943    3    0    1
 -2       175       169       172      2729
 -1     13944    3    0    1
 -2      1996       975       973       974
 -1     13945    3    0    1
 -2      1628      1632       870      2800
 -1     13946    3    0    1
 -2      1603      1595      1596      2616
 -1     13947    3    0    1
 -2      2041      2043      2045      2782
 -1     13948    3    0    1
 -2       157       294       130      2534
 -1     13949    3    0    1
 -2      1510      1511      1512      2771
 -1     13950    3    0    1
 -2      2048      2055      2054      2711
 -1     13951    3    0    1
 -2      1860       371       374      2587
 -1     13952    3    0    1
 -2        10        11      1454      1458
 -1     13953    3    0    1
 -2       134       133       132      2818
 -1     13954    3    0    1
 -2       942       949       945      2762
 -1     13955    3    0    1
 -2       223       227       230      2642
 -1     13956    3    0    1
 -2      2042      1046      1045      2047
 -1     13957    3    0    1
 -2      1625      1238      1234      3047
 -1     13958    3    0    1
 -2      1870      1871      1866      2752
 -1     13959    3    0    1
 -2      2068      2067      2071      2799
 -1     13960    3    0    1
 -2      1788      1787      1812      2215
 -1     13961    3    0    1
 -2      1853      2012      2009      2824
 -1     13962    3    0    1
 -2      1853      2824      2009      2844
 -1     13963    3    0    1
 -2      1474      2636      1473      2896
 -1     13964    3    0    1
 -2       668       667       669      1745
 -1     13965    3    0    1
 -2       742      1028       736      2755
 -1     13966    3    0    1
 -2      1371      1378        46      2947
 -1     13967    3    0    1
 -2       195       202       198      1249
 -1     13968    3    0    1
 -2      1838      1834      2017      2997
 -1     13969    3    0    1
 -2      1432       630       632      1433
 -1     13970    3    0    1
 -2       327       331       260      2826
 -1     13971    3    0    1
 -2      1028      1030      1031      2996
 -1     13972    3    0    1
 -2       263       269       262      2706
 -1     13973    3    0    1
 -2      1620      1626      1627      2994
 -1     13974    3    0    1
 -2       238       210       142      2823
 -1     13975    3    0    1
 -2      1480      1478      2636      2921
 -1     13976    3    0    1
 -2       623      1469      1462       622
 -1     13977    3    0    1
 -2       180       181       178      2971
 -1     13978    3    0    1
 -2      1220       327       260      2826
 -1     13979    3    0    1
 -2      1926      1921      1919      2661
 -1     13980    3    0    1
 -2       809       814       817      2970
 -1     13981    3    0    1
 -2       379       381       378      2925
 -1     13982    3    0    1
 -2      1112      1111      1109      2815
 -1     13983    3    0    1
 -2      1925      1924      1982      2823
 -1     13984    3    0    1
 -2       708       709      1528       717
 -1     13985    3    0    1
 -2       680       676       682      1510
 -1     13986    3    0    1
 -2      2112      2111      2110      2627
 -1     13987    3    0    1
 -2      1135      1212      1134      2784
 -1     13988    3    0    1
 -2       406       403       405      2904
 -1     13989    3    0    1
 -2       519      1749       526       523
 -1     13990    3    0    1
 -2        93        94      2599      2744
 -1     13991    3    0    1
 -2      1912      1995      1994      2588
 -1     13992    3    0    1
 -2       866       860      2922      2961
 -1     13993    3    0    1
 -2      1028      1031      2755      2996
 -1     13994    3    0    1
 -2       470       476       475      2981
 -1     13995    3    0    1
 -2      1361      1360      1354      2821
 -1     13996    3    0    1
 -2       430       426       431      2834
 -1     13997    3    0    1
 -2      2006      2004      2007      2705
 -1     13998    3    0    1
 -2      1641      1230      1227      2674
 -1     13999    3    0    1
 -2      1293       116       115      1296
 -1     14000    3    0    1
 -2       920       909      1951       959
 -1     14001    3    0    1
 -2       276       275       266      2738
 -1     14002    3    0    1
 -2      1738       586      2167       587
 -1     14003    3    0    1
 -2      2095      2089      2092      2815
 -1     14004    3    0    1
 -2       421       395      1698      2754
 -1     14005    3    0    1
 -2       968       864       966      3006
 -1     14006    3    0    1
 -2      2218      2214      2205      2794
 -1     14007    3    0    1
 -2      1294      1293      1292      2703
 -1     14008    3    0    1
 -2       781       780      1573       784
 -1     14009    3    0    1
 -2      1954      1951      1957      2889
 -1     14010    3    0    1
 -2      1720      1311      1724      1267
 -1     14011    3    0    1
 -2      1814      1816      1819      2891
 -1     14012    3    0    1
 -2       509        44        41      2916
 -1     14013    3    0    1
 -2       734       730       732      2517
 -1     14014    3    0    1
 -2      1464      1455      1459      2536
 -1     14015    3    0    1
 -2      1243       219       214      1242
 -1     14016    3    0    1
 -2       278       268      1932      2632
 -1     14017    3    0    1
 -2      1785       449      1782      2689
 -1     14018    3    0    1
 -2      1064      1060      2057      2872
 -1     14019    3    0    1
 -2         8       578         9      2798
 -1     14020    3    0    1
 -2       928       931       924      1970
 -1     14021    3    0    1
 -2      1168      1164      1159      2685
 -1     14022    3    0    1
 -2        55        53        56      2732
 -1     14023    3    0    1
 -2      1135      2784      1134      2911
 -1     14024    3    0    1
 -2      1853      2478      2824      2844
 -1     14025    3    0    1
 -2      2083      1100      1095      2862
 -1     14026    3    0    1
 -2      1344      1345      1347      2939
 -1     14027    3    0    1
 -2      1933      1934      1940      2775
 -1     14028    3    0    1
 -2       753       852       821      3019
 -1     14029    3    0    1
 -2      1798      1802       427       430
 -1     14030    3    0    1
 -2      1264      1259      1262      2729
 -1     14031    3    0    1
 -2      1546      1548      1545      2633
 -1     14032    3    0    1
 -2      1161      1162       637      2984
 -1     14033    3    0    1
 -2       719       723       717      1530
 -1     14034    3    0    1
 -2      1477      1451         4      2859
 -1     14035    3    0    1
 -2      1660      1659      1666      2942
 -1     14036    3    0    1
 -2      1825       400       399      1831
 -1     14037    3    0    1
 -2       810      1589      1594       809
 -1     14038    3    0    1
 -2       670       795      1830       701
 -1     14039    3    0    1
 -2      1331       393       474      2855
 -1     14040    3    0    1
 -2      2072      1774      1771      2570
 -1     14041    3    0    1
 -2      1315      1314      1309      2786
 -1     14042    3    0    1
 -2       417      1805      1808       416
 -1     14043    3    0    1
 -2       304      1224       301      1664
 -1     14044    3    0    1
 -2      2057      2053      2056      2872
 -1     14045    3    0    1
 -2      1946      1947      1954      2962
 -1     14046    3    0    1
 -2      1627      1626      1631      2800
 -1     14047    3    0    1
 -2      1477         4       593      2859
 -1     14048    3    0    1
 -2       228       233       229      1237
 -1     14049    3    0    1
 -2       421      1698      1703      2754
 -1     14050    3    0    1
 -2      1543      1547       743       740
 -1     14051    3    0    1
 -2       556       565       559      2999
 -1     14052    3    0    1
 -2      1294      1299      1298      2749
 -1     14053    3    0    1
 -2      1155      1158      1152      3038
 -1     14054    3    0    1
 -2         7         8         9      2798
 -1     14055    3    0    1
 -2        95        25      1523        23
 -1     14056    3    0    1
 -2      1344        66        69      1340
 -1     14057    3    0    1
 -2      1762      1764       485       484
 -1     14058    3    0    1
 -2       214       221       222      1242
 -1     14059    3    0    1
 -2      1578      1577      1566      2192
 -1     14060    3    0    1
 -2      1698       346      1219      1254
 -1     14061    3    0    1
 -2       460       465      1775       461
 -1     14062    3    0    1
 -2       654       657       655      1500
 -1     14063    3    0    1
 -2      1517      1576      2190      2647
 -1     14064    3    0    1
 -2      1347        66      1344      2939
 -1     14065    3    0    1
 -2        25        95      1523        96
 -1     14066    3    0    1
 -2       278       341       287      1942
 -1     14067    3    0    1
 -2       754      1556      1551       755
 -1     14068    3    0    1
 -2      1082      1088      1086      2598
 -1     14069    3    0    1
 -2       884       893       883      2993
 -1     14070    3    0    1
 -2      1304       101       102      1310
 -1     14071    3    0    1
 -2       214       221      1242       219
 -1     14072    3    0    1
 -2       123       115       122      1291
 -1     14073    3    0    1
 -2      2144      2145      2148      2903
 -1     14074    3    0    1
 -2      1751      1749       519       523
 -1     14075    3    0    1
 -2       778       786      1000      3017
 -1     14076    3    0    1
 -2       890       880      1643      1638
 -1     14077    3    0    1
 -2      1773       466       465      1775
 -1     14078    3    0    1
 -2       827       824       823      2790
 -1     14079    3    0    1
 -2      1865      2007      2004      2705
 -1     14080    3    0    1
 -2       354      1922       353       352
 -1     14081    3    0    1
 -2       297       302       306      2788
 -1     14082    3    0    1
 -2      1554       199       260      1597
 -1     14083    3    0    1
 -2      1780      1777      2069      2935
 -1     14084    3    0    1
 -2       655       652       654      1499
 -1     14085    3    0    1
 -2      1161       637      1154      2984
 -1     14086    3    0    1
 -2      2002       402      2051      2052
 -1     14087    3    0    1
 -2       661       659       663      1501
 -1     14088    3    0    1
 -2        82        83        85      2814
 -1     14089    3    0    1
 -2      1528       706       705       708
 -1     14090    3    0    1
 -2       859       863      1628       865
 -1     14091    3    0    1
 -2      1165      1166      2136      2130
 -1     14092    3    0    1
 -2       414       410       412      2891
 -1     14093    3    0    1
 -2       775       770      1568       774
 -1     14094    3    0    1
 -2       429       437       436      2713
 -1     14095    3    0    1
 -2      2138      2137      2133      2958
 -1     14096    3    0    1
 -2      1529      1312      1531      2888
 -1     14097    3    0    1
 -2      1878      1877      1885      2693
 -1     14098    3    0    1
 -2       920       924       958      1957
 -1     14099    3    0    1
 -2      1185      1181      1177      2596
 -1     14100    3    0    1
 -2      1932      1942       278      2632
 -1     14101    3    0    1
 -2      1738      1737       596       597
 -1     14102    3    0    1
 -2      1636      1640      1639      2873
 -1     14103    3    0    1
 -2      1444      1447      1452      2605
 -1     14104    3    0    1
 -2      1852       382       381      1855
 -1     14105    3    0    1
 -2       606       605       520      2854
 -1     14106    3    0    1
 -2       727       723       724      1532
 -1     14107    3    0    1
 -2      1648      1647      1650      2895
 -1     14108    3    0    1
 -2       163       156       164      2898
 -1     14109    3    0    1
 -2       732       737       734      2517
 -1     14110    3    0    1
 -2      1057      1063      1056      2872
 -1     14111    3    0    1
 -2       638      1494      1495       636
 -1     14112    3    0    1
 -2      1209      1122      2151      1210
 -1     14113    3    0    1
 -2      1851      1843      2668      2824
 -1     14114    3    0    1
 -2       709       708      1528       705
 -1     14115    3    0    1
 -2       548       552      1743       555
 -1     14116    3    0    1
 -2       676       680       679      2771
 -1     14117    3    0    1
 -2      1194       624      1186      3011
 -1     14118    3    0    1
 -2       874       939       873      1678
 -1     14119    3    0    1
 -2      1421      1416      1415      2600
 -1     14120    3    0    1
 -2      1637      1230      1641      2674
 -1     14121    3    0    1
 -2      1247       198       202      1249
 -1     14122    3    0    1
 -2      2098      2095      2092      2815
 -1     14123    3    0    1
 -2      2132      1747      1744      2905
 -1     14124    3    0    1
 -2       686       773       685      2216
 -1     14125    3    0    1
 -2      1412        31        30      1405
 -1     14126    3    0    1
 -2       477       475       476      2981
 -1     14127    3    0    1
 -2      1191      1192      1197      2161
 -1     14128    3    0    1
 -2      1196      1199      1193      2850
 -1     14129    3    0    1
 -2      1279      1278      1273      2992
 -1     14130    3    0    1
 -2      1688      1683      1686      2827
 -1     14131    3    0    1
 -2       655       656       653      2861
 -1     14132    3    0    1
 -2       930       922       925      2942
 -1     14133    3    0    1
 -2       692      1520       691      1518
 -1     14134    3    0    1
 -2      1106      1109      1111      2815
 -1     14135    3    0    1
 -2      1424      1425      1432      2870
 -1     14136    3    0    1
 -2       797       790       793      3027
 -1     14137    3    0    1
 -2       716       721       722      2723
 -1     14138    3    0    1
 -2      1805      1809      1808      2883
 -1     14139    3    0    1
 -2      1850      1851      1853      2824
 -1     14140    3    0    1
 -2       298       290       340      1948
 -1     14141    3    0    1
 -2       576       575       579      3004
 -1     14142    3    0    1
 -2      1040      1036      1043      2038
 -1     14143    3    0    1
 -2      1112      1107      2095      1109
 -1     14144    3    0    1
 -2      1756       507       506      1757
 -1     14145    3    0    1
 -2      1815      1816      1814      2891
 -1     14146    3    0    1
 -2      1364      1362      1358      2732
 -1     14147    3    0    1
 -2       657       658       655      1500
 -1     14148    3    0    1
 -2      2053      1060      1057      2057
 -1     14149    3    0    1
 -2       689       693       690      3016
 -1     14150    3    0    1
 -2      1832      1836      1835      2710
 -1     14151    3    0    1
 -2      1837      1838      1842      2618
 -1     14152    3    0    1
 -2       174       171       383      2924
 -1     14153    3    0    1
 -2       295       301       296      1224
 -1     14154    3    0    1
 -2      1467      1463      1466      2798
 -1     14155    3    0    1
 -2      1108       662      1103      2555
 -1     14156    3    0    1
 -2       585       594       595      2730
 -1     14157    3    0    1
 -2       980       979      1999       978
 -1     14158    3    0    1
 -2      1329        80        84      2837
 -1     14159    3    0    1
 -2       493       485      1762       494
 -1     14160    3    0    1
 -2      1930      1939      1932      2632
 -1     14161    3    0    1
 -2       727       733      1536       728
 -1     14162    3    0    1
 -2       849       856       857      3024
 -1     14163    3    0    1
 -2      1986      1980      1984      2802
 -1     14164    3    0    1
 -2       150       159       154      1276
 -1     14165    3    0    1
 -2      1331       474       393       392
 -1     14166    3    0    1
 -2       346      1698       380       395
 -1     14167    3    0    1
 -2      1064      1057      1060      2872
 -1     14168    3    0    1
 -2       851       946       787      2977
 -1     14169    3    0    1
 -2      2168      2171      2172      2842
 -1     14170    3    0    1
 -2      1392      1396      1401      2813
 -1     14171    3    0    1
 -2      1846      1852       381      2925
 -1     14172    3    0    1
 -2      1608      1613      1607      2505
 -1     14173    3    0    1
 -2      1548      1549      1552      2736
 -1     14174    3    0    1
 -2       809       805       801      2681
 -1     14175    3    0    1
 -2        55      1362        53      2732
 -1     14176    3    0    1
 -2      2032      2029      2030      2996
 -1     14177    3    0    1
 -2      1226       274       273      1227
 -1     14178    3    0    1
 -2      1618      1613      1616      3030
 -1     14179    3    0    1
 -2      2221      1812      1813      2215
 -1     14180    3    0    1
 -2       373       374       371      2587
 -1     14181    3    0    1
 -2       651       652       649      1498
 -1     14182    3    0    1
 -2       553       554       546      2663
 -1     14183    3    0    1
 -2      1343      1345      1342      2765
 -1     14184    3    0    1
 -2       356      1916       355      1909
 -1     14185    3    0    1
 -2        60        59        55      1353
 -1     14186    3    0    1
 -2       928       934       938      2990
 -1     14187    3    0    1
 -2       102       107       108      2697
 -1     14188    3    0    1
 -2      1587      1589      1584      2681
 -1     14189    3    0    1
 -2       581      1739       586       587
 -1     14190    3    0    1
 -2      2204      2205      2214      2518
 -1     14191    3    0    1
 -2      1461      1469      1460      2631
 -1     14192    3    0    1
 -2       410       414       411      1814
 -1     14193    3    0    1
 -2        15        14        13      1438
 -1     14194    3    0    1
 -2      1038      1047      1048      1722
 -1     14195    3    0    1
 -2       739       741       735      2760
 -1     14196    3    0    1
 -2      1503      1540      1553      2934
 -1     14197    3    0    1
 -2       176       175       178      1261
 -1     14198    3    0    1
 -2      1432      1431      1424      2870
 -1     14199    3    0    1
 -2       592       593       600      2859
 -1     14200    3    0    1
 -2       299       305       308      2832
 -1     14201    3    0    1
 -2      1083      2074      2076      2598
 -1     14202    3    0    1
 -2      1351      1348      1346      2941
 -1     14203    3    0    1
 -2       473      2591        61      2849
 -1     14204    3    0    1
 -2       630      1442       632       631
 -1     14205    3    0    1
 -2       974      1997       976       977
 -1     14206    3    0    1
 -2      1489      1486      1491      2919
 -1     14207    3    0    1
 -2       425       429       428      2969
 -1     14208    3    0    1
 -2       379       383       381      2925
 -1     14209    3    0    1
 -2      1547      1551       748       745
 -1     14210    3    0    1
 -2      1706      1708      2066      1718
 -1     14211    3    0    1
 -2      1554      1523      1553      2927
 -1     14212    3    0    1
 -2        31        32        30      1405
 -1     14213    3    0    1
 -2       334       326       329      2553
 -1     14214    3    0    1
 -2       537      1736      2094       486
 -1     14215    3    0    1
 -2       470       473       476      2981
 -1     14216    3    0    1
 -2       188       182      1255       189
 -1     14217    3    0    1
 -2      1560      1562       764       763
 -1     14218    3    0    1
 -2      1131      1136       642      3018
 -1     14219    3    0    1
 -2        63        61       473      2591
 -1     14220    3    0    1
 -2       642      1136      1143      3018
 -1     14221    3    0    1
 -2       630      1432       632      1442
 -1     14222    3    0    1
 -2       401       405       403      2904
 -1     14223    3    0    1
 -2      1998       976      1997       977
 -1     14224    3    0    1
 -2      2140      2144      2139      3033
 -1     14225    3    0    1
 -2      1407      1403      1411      2899
 -1     14226    3    0    1
 -2      1724      1698      1720      2945
 -1     14227    3    0    1
 -2      1787      1813      1812      2215
 -1     14228    3    0    1
 -2      1247       198       203       202
 -1     14229    3    0    1
 -2      1554        96      1523      2927
 -1     14230    3    0    1
 -2      1233      1238      1237      2937
 -1     14231    3    0    1
 -2       157       130        95      2534
 -1     14232    3    0    1
 -2      1263      1723      1235      1236
 -1     14233    3    0    1
 -2       915       922       911      2497
 -1     14234    3    0    1
 -2       580      1740      1739       581
 -1     14235    3    0    1
 -2      1597      1220       260      2826
 -1     14236    3    0    1
 -2       736      1031      1034      2755
 -1     14237    3    0    1
 -2       413       418       412      2946
 -1     14238    3    0    1
 -2       893       890       894      2993
 -1     14239    3    0    1
 -2       888       889       947      2957
 -1     14240    3    0    1
 -2         6         8         7      1472
 -1     14241    3    0    1
 -2      2195        95       130      2534
 -1     14242    3    0    1
 -2      2206      2201      2202      2640
 -1     14243    3    0    1
 -2      1579      1573      1581      2845
 -1     14244    3    0    1
 -2       537      2094       539       486
 -1     14245    3    0    1
 -2      1162      1161      1171      2984
 -1     14246    3    0    1
 -2       135       407       405      2972
 -1     14247    3    0    1
 -2       253       256       246      2817
 -1     14248    3    0    1
 -2       766      2647       713      2977
 -1     14249    3    0    1
 -2       657       659       658      1500
 -1     14250    3    0    1
 -2      1933      1926      1927      2775
 -1     14251    3    0    1
 -2       861       868       864      2961
 -1     14252    3    0    1
 -2       391       390       160      2810
 -1     14253    3    0    1
 -2      1978      1981      1982      2602
 -1     14254    3    0    1
 -2       429      2713       428      2969
 -1     14255    3    0    1
 -2       660       662      1108      2555
 -1     14256    3    0    1
 -2       864       872       966      3006
 -1     14257    3    0    1
 -2      1450      1456      1461      3011
 -1     14258    3    0    1
 -2      1377      1378      1371      2947
 -1     14259    3    0    1
 -2       827       831       824      2790
 -1     14260    3    0    1
 -2       745       754       750      2865
 -1     14261    3    0    1
 -2      1972      1968      1963      2737
 -1     14262    3    0    1
 -2      1312      1306      1531      2888
 -1     14263    3    0    1
 -2      1723      1235       985       986
 -1     14264    3    0    1
 -2      1296       111       108      1298
 -1     14265    3    0    1
 -2      2073      2087      2179      2901
 -1     14266    3    0    1
 -2       925      1660      1666      2942
 -1     14267    3    0    1
 -2      1127      1132      1129      2988
 -1     14268    3    0    1
 -2       989      2006       991      2003
 -1     14269    3    0    1
 -2       225       227       224      3028
 -1     14270    3    0    1
 -2      1362        52        53      1367
 -1     14271    3    0    1
 -2      1844      1883      2212      1874
 -1     14272    3    0    1
 -2       539       571       607      2739
 -1     14273    3    0    1
 -2       301      1223       304      1664
 -1     14274    3    0    1
 -2       219       214       212      1243
 -1     14275    3    0    1
 -2      2149      1740      2157      2839
 -1     14276    3    0    1
 -2      1195      1194      1189      2840
 -1     14277    3    0    1
 -2      1676      1675      1669      2741
 -1     14278    3    0    1
 -2       203       212      1245       202
 -1     14279    3    0    1
 -2      1033      1031      1030      2700
 -1     14280    3    0    1
 -2      1831      1832      1835      2710
 -1     14281    3    0    1
 -2       580       576      1740       572
 -1     14282    3    0    1
 -2      2009      2008      1858      2844
 -1     14283    3    0    1
 -2        71        69        66      1340
 -1     14284    3    0    1
 -2       399       403       400      1825
 -1     14285    3    0    1
 -2       752       751       759      3007
 -1     14286    3    0    1
 -2       596       595       601      2687
 -1     14287    3    0    1
 -2       274       283      1226       273
 -1     14288    3    0    1
 -2      1534       724       727       728
 -1     14289    3    0    1
 -2       445       440       439      2926
 -1     14290    3    0    1
 -2       995       786       993      3017
 -1     14291    3    0    1
 -2      1254      1720      1267      1219
 -1     14292    3    0    1
 -2      2198      2214      2211      2977
 -1     14293    3    0    1
 -2      2083      2082      2086      2862
 -1     14294    3    0    1
 -2       264       273       265      1228
 -1     14295    3    0    1
 -2      1142      2126      1149      1148
 -1     14296    3    0    1
 -2       241       233       235      2937
 -1     14297    3    0    1
 -2       237      1982       271       328
 -1     14298    3    0    1
 -2        35        34        32      1395
 -1     14299    3    0    1
 -2      1458      1454      1453      2757
 -1     14300    3    0    1
 -2      2049      2055      2048      2711
 -1     14301    3    0    1
 -2       686      2217      2216       685
 -1     14302    3    0    1
 -2       537       601       571      2687
 -1     14303    3    0    1
 -2      2023      2020      2024      2816
 -1     14304    3    0    1
 -2      1164      1172      1167      2909
 -1     14305    3    0    1
 -2      1140      1129      1139      2988
 -1     14306    3    0    1
 -2       759       760       752      3007
 -1     14307    3    0    1
 -2      1298      1296      1294      2749
 -1     14308    3    0    1
 -2      1480      1474      1481      2636
 -1     14309    3    0    1
 -2       322       271       329      3040
 -1     14310    3    0    1
 -2       918       923       927      2763
 -1     14311    3    0    1
 -2      1137      1128      2116      1133
 -1     14312    3    0    1
 -2      1520       702       699      1524
 -1     14313    3    0    1
 -2      1739      2158      2157      2839
 -1     14314    3    0    1
 -2      1995      1994       970       971
 -1     14315    3    0    1
 -2      1572      1568       780       781
 -1     14316    3    0    1
 -2      1143      1150       639      2796
 -1     14317    3    0    1
 -2       625      1462      1456      3011
 -1     14318    3    0    1
 -2      1793        19        20      1794
 -1     14319    3    0    1
 -2      1937      1884       853       956
 -1     14320    3    0    1
 -2       494       501       502      1759
 -1     14321    3    0    1
 -2       788      2211      2214      2977
 -1     14322    3    0    1
 -2         6         8      1472       593
 -1     14323    3    0    1
 -2       622      1462       623       624
 -1     14324    3    0    1
 -2      1951       960       901      1941
 -1     14325    3    0    1
 -2      1473      1480      1478      2636
 -1     14326    3    0    1
 -2      1331       474      1420      2855
 -1     14327    3    0    1
 -2       652       651       654      1499
 -1     14328    3    0    1
 -2       706       705      1524      1526
 -1     14329    3    0    1
 -2      1094      1088      2076      2598
 -1     14330    3    0    1
 -2       625      1456       626      3011
 -1     14331    3    0    1
 -2        28       551       550      2853
 -1     14332    3    0    1
 -2      1135      1134      1055      2911
 -1     14333    3    0    1
 -2      1207      1208      1205      3029
 -1     14334    3    0    1
 -2      1398      1390      1393      2986
 -1     14335    3    0    1
 -2      2034      2037      2036      3008
 -1     14336    3    0    1
 -2       774       779       776      2955
 -1     14337    3    0    1
 -2      1725      1723       985       986
 -1     14338    3    0    1
 -2       643       640       641      2673
 -1     14339    3    0    1
 -2       183       184       180      2651
 -1     14340    3    0    1
 -2      1367        49        50      1371
 -1     14341    3    0    1
 -2        11       578       570      2757
 -1     14342    3    0    1
 -2        55      1358      1362      2732
 -1     14343    3    0    1
 -2       769      1008      1011      2966
 -1     14344    3    0    1
 -2      1309      2786      1308      2956
 -1     14345    3    0    1
 -2       101        98       102      1310
 -1     14346    3    0    1
 -2      2212      2221      1812      1813
 -1     14347    3    0    1
 -2       144       145       138      1284
 -1     14348    3    0    1
 -2      1805       417       419       416
 -1     14349    3    0    1
 -2       290       281       287      2864
 -1     14350    3    0    1
 -2      1494       634       635       636
 -1     14351    3    0    1
 -2      1372      1379      1375      2707
 -1     14352    3    0    1
 -2      1928      1993      1936      2611
 -1     14353    3    0    1
 -2       702       705      1524       706
 -1     14354    3    0    1
 -2      1856      1858      1861      2724
 -1     14355    3    0    1
 -2      1480      1488      1478      2921
 -1     14356    3    0    1
 -2       508       514       513      2876
 -1     14357    3    0    1
 -2      1260      1575      1265      2878
 -1     14358    3    0    1
 -2      1069      1020      2022      2088
 -1     14359    3    0    1
 -2       283       274      1226       284
 -1     14360    3    0    1
 -2      1500       659       658      1501
 -1     14361    3    0    1
 -2       821       773       686      2216
 -1     14362    3    0    1
 -2      1275      1280      1279      2992
 -1     14363    3    0    1
 -2      1326      1322      1324      2887
 -1     14364    3    0    1
 -2      1180      1176      1184      2147
 -1     14365    3    0    1
 -2      1195      1200      1201      2748
 -1     14366    3    0    1
 -2       625      1449       626      1456
 -1     14367    3    0    1
 -2      1699      1695      1696      2044
 -1     14368    3    0    1
 -2        80        75        79      2837
 -1     14369    3    0    1
 -2       416       412       418      2946
 -1     14370    3    0    1
 -2       341      1948       287      1942
 -1     14371    3    0    1
 -2       549       543       550      2746
 -1     14372    3    0    1
 -2       161       154      1271       162
 -1     14373    3    0    1
 -2      1888       365       364       363
 -1     14374    3    0    1
 -2      1890      1881      1882      2691
 -1     14375    3    0    1
 -2      1878       368       366       367
 -1     14376    3    0    1
 -2      1981      1987      1982      2602
 -1     14377    3    0    1
 -2      1609      1610      1608      2836
 -1     14378    3    0    1
 -2       542       543       549      2746
 -1     14379    3    0    1
 -2       562       566       567      2666
 -1     14380    3    0    1
 -2       799       792      1581       791
 -1     14381    3    0    1
 -2        50        52      1367        53
 -1     14382    3    0    1
 -2       752       747       746      2780
 -1     14383    3    0    1
 -2      1000       995      2653      3017
 -1     14384    3    0    1
 -2      1705      1712       434       435
 -1     14385    3    0    1
 -2       526       531       532      2704
 -1     14386    3    0    1
 -2       779       774       780      2955
 -1     14387    3    0    1
 -2      1169      1168      2136      1174
 -1     14388    3    0    1
 -2      1534      1533      1535      3043
 -1     14389    3    0    1
 -2       625       624      1462      3011
 -1     14390    3    0    1
 -2      1951       920      1957      2889
 -1     14391    3    0    1
 -2      1332      1338      1335      2932
 -1     14392    3    0    1
 -2        78       454        83      2604
 -1     14393    3    0    1
 -2      1027      1028      1025      2996
 -1     14394    3    0    1
 -2       442       438       437      2980
 -1     14395    3    0    1
 -2       161       154       159      1271
 -1     14396    3    0    1
 -2      1172      1164      1173      2909
 -1     14397    3    0    1
 -2      1878      1871       368       367
 -1     14398    3    0    1
 -2        94       100        93      2599
 -1     14399    3    0    1
 -2       297       293       302      2788
 -1     14400    3    0    1
 -2      1351      1346      1511      2941
 -1     14401    3    0    1
 -2       280       270       275      2959
 -1     14402    3    0    1
 -2      1757       502       501      1759
 -1     14403    3    0    1
 -2      1523       158        96      1554
 -1     14404    3    0    1
 -2      1403      1407      1398      2899
 -1     14405    3    0    1
 -2      1650      1651      1648      2895
 -1     14406    3    0    1
 -2      1809      1815      1814      2891
 -1     14407    3    0    1
 -2       699       695       696      1520
 -1     14408    3    0    1
 -2      1088      1085      2076      2598
 -1     14409    3    0    1
 -2       298       340       339      1948
 -1     14410    3    0    1
 -2      1473      1464      1470      2896
 -1     14411    3    0    1
 -2       405       401       140      2972
 -1     14412    3    0    1
 -2      1168      1164      2685      2909
 -1     14413    3    0    1
 -2       328       271       322      1978
 -1     14414    3    0    1
 -2       157        95        96      2927
 -1     14415    3    0    1
 -2       227       231       234      3028
 -1     14416    3    0    1
 -2      1109      2095      2089      1107
 -1     14417    3    0    1
 -2      1902      1909       357       358
 -1     14418    3    0    1
 -2       691       687       688      1515
 -1     14419    3    0    1
 -2       758       759       751      3007
 -1     14420    3    0    1
 -2       388       385       386      1841
 -1     14421    3    0    1
 -2      1790       441       446       440
 -1     14422    3    0    1
 -2       941       949       942      2762
 -1     14423    3    0    1
 -2      1896      1900      1903      3013
 -1     14424    3    0    1
 -2      2202      2205      2206      2640
 -1     14425    3    0    1
 -2      2185      2113      2050      2923
 -1     14426    3    0    1
 -2      1957      1965      1964      2552
 -1     14427    3    0    1
 -2       661       658       659      1501
 -1     14428    3    0    1
 -2       754       745      1551      2865
 -1     14429    3    0    1
 -2       734       739       735      2760
 -1     14430    3    0    1
 -2      1802      1798      1799      2834
 -1     14431    3    0    1
 -2      1752      2121      2118      2944
 -1     14432    3    0    1
 -2       816      2766       807      2964
 -1     14433    3    0    1
 -2       473       482       481      2849
 -1     14434    3    0    1
 -2       249       239       243      2929
 -1     14435    3    0    1
 -2       363      1895       361       362
 -1     14436    3    0    1
 -2       567       572      1741       576
 -1     14437    3    0    1
 -2      1552      1555      1548      2736
 -1     14438    3    0    1
 -2      1290      1292      1293      2703
 -1     14439    3    0    1
 -2       791       789       784      2845
 -1     14440    3    0    1
 -2      1214      1218      1135      2784
 -1     14441    3    0    1
 -2      1884       796       854       701
 -1     14442    3    0    1
 -2      1420         3         1      1451
 -1     14443    3    0    1
 -2      1370      1371      1367      2947
 -1     14444    3    0    1
 -2      1709      1715      1710      2928
 -1     14445    3    0    1
 -2      1109      2089      1104      1107
 -1     14446    3    0    1
 -2      1752      2118      2115      2944
 -1     14447    3    0    1
 -2       388       389       396      1835
 -1     14448    3    0    1
 -2       228       229       222      1240
 -1     14449    3    0    1
 -2      1447      1455      1452      2605
 -1     14450    3    0    1
 -2       274       265       273      1228
 -1     14451    3    0    1
 -2      1330      1388      1267      2945
 -1     14452    3    0    1
 -2       787       946       948      2977
 -1     14453    3    0    1
 -2       914       918       919      2889
 -1     14454    3    0    1
 -2       866       861       860      2961
 -1     14455    3    0    1
 -2       301       304      1223       309
 -1     14456    3    0    1
 -2       371       369      1866       370
 -1     14457    3    0    1
 -2       634      1433      1494       635
 -1     14458    3    0    1
 -2        42      1387        39        40
 -1     14459    3    0    1
 -2      1449       626      1456      3011
 -1     14460    3    0    1
 -2      2172      1198      2168      1203
 -1     14461    3    0    1
 -2       486      2094       539      2052
 -1     14462    3    0    1
 -2       961      1936       882      1992
 -1     14463    3    0    1
 -2       192       195      1249      1251
 -1     14464    3    0    1
 -2      1224       289       296       295
 -1     14465    3    0    1
 -2       640       638      1495       636
 -1     14466    3    0    1
 -2       711       713      2188      2977
 -1     14467    3    0    1
 -2       866       862       869      2922
 -1     14468    3    0    1
 -2      1573      1579       784      2845
 -1     14469    3    0    1
 -2       494       501      1759       493
 -1     14470    3    0    1
 -2       367      1880       366      1878
 -1     14471    3    0    1
 -2      1128      2116      1133      2111
 -1     14472    3    0    1
 -2      1426        26        18        17
 -1     14473    3    0    1
 -2      1573      1574      1580      2845
 -1     14474    3    0    1
 -2      2133      2137      2134      2958
 -1     14475    3    0    1
 -2      1780      2069      2065      2935
 -1     14476    3    0    1
 -2      1002      2013      1007      1006
 -1     14477    3    0    1
 -2      2168      1197      1198      2161
 -1     14478    3    0    1
 -2      2140      2145      2144      3033
 -1     14479    3    0    1
 -2       498       443       421      2754
 -1     14480    3    0    1
 -2      2141      2134      2137      2958
 -1     14481    3    0    1
 -2      1712      1705       434      1717
 -1     14482    3    0    1
 -2      1121      1125      1127      2979
 -1     14483    3    0    1
 -2      1420         1         3       474
 -1     14484    3    0    1
 -2      1759       494       493      1762
 -1     14485    3    0    1
 -2      2008      2009      2653      2844
 -1     14486    3    0    1
 -2       502       506      1757       501
 -1     14487    3    0    1
 -2       625       626       624      3011
 -1     14488    3    0    1
 -2       796      1884      1830       701
 -1     14489    3    0    1
 -2      1380        45        43        42
 -1     14490    3    0    1
 -2       632       634      1433       633
 -1     14491    3    0    1
 -2      1228       273       274      1227
 -1     14492    3    0    1
 -2      1503      1514      1540      2934
 -1     14493    3    0    1
 -2      1916       356       355       353
 -1     14494    3    0    1
 -2        52        50      1367        49
 -1     14495    3    0    1
 -2       563      1742       558       555
 -1     14496    3    0    1
 -2       846       847      1617       843
 -1     14497    3    0    1
 -2       764       757      1560       763
 -1     14498    3    0    1
 -2      2220       667       668      2215
 -1     14499    3    0    1
 -2       566       575       567      2666
 -1     14500    3    0    1
 -2       403       406       404      1825
 -1     14501    3    0    1
 -2      1038      1047      1722      1211
 -1     14502    3    0    1
 -2       169       175       170      1261
 -1     14503    3    0    1
 -2        46        45      1378      1371
 -1     14504    3    0    1
 -2       890       880       891      1643
 -1     14505    3    0    1
 -2        43        46        45      1378
 -1     14506    3    0    1
 -2      1473      1471      1464      2896
 -1     14507    3    0    1
 -2       216       207       208      2767
 -1     14508    3    0    1
 -2      1597       261       260      1220
 -1     14509    3    0    1
 -2      1723      1734      1735      2852
 -1     14510    3    0    1
 -2       293       290       298      2789
 -1     14511    3    0    1
 -2      1530       724       723      1532
 -1     14512    3    0    1
 -2      1099      1095      1100      2862
 -1     14513    3    0    1
 -2       764      1562       770       763
 -1     14514    3    0    1
 -2      2172      1198      1203      1204
 -1     14515    3    0    1
 -2       423       427      1802       430
 -1     14516    3    0    1
 -2       154       151       150      1276
 -1     14517    3    0    1
 -2      1725      1734      1723      2852
 -1     14518    3    0    1
 -2       185       190       193      2725
 -1     14519    3    0    1
 -2      1843      1838      2016      2764
 -1     14520    3    0    1
 -2       408      1825       406      1819
 -1     14521    3    0    1
 -2      1993       969       968      1994
 -1     14522    3    0    1
 -2       865       870       863      1628
 -1     14523    3    0    1
 -2       182       188      1255       181
 -1     14524    3    0    1
 -2      2190      2188      1507      2647
 -1     14525    3    0    1
 -2        79        84        80      2837
 -1     14526    3    0    1
 -2       367      1880       365       366
 -1     14527    3    0    1
 -2      1620      1621      1626      2994
 -1     14528    3    0    1
 -2      1790      1796       441       440
 -1     14529    3    0    1
 -2       184       183       179      2725
 -1     14530    3    0    1
 -2       807      2964      2766      3009
 -1     14531    3    0    1
 -2       484       478       483      3001
 -1     14532    3    0    1
 -2       145       144      1281      1284
 -1     14533    3    0    1
 -2      1105      1110      1108      3044
 -1     14534    3    0    1
 -2      1902       359       360       358
 -1     14535    3    0    1
 -2       421       497       498      2754
 -1     14536    3    0    1
 -2       728      1536       727      1534
 -1     14537    3    0    1
 -2       355       357      1909       358
 -1     14538    3    0    1
 -2       581       580      1740       572
 -1     14539    3    0    1
 -2       318       323       327      2572
 -1     14540    3    0    1
 -2      1392      1389      1396      2645
 -1     14541    3    0    1
 -2      1031       736      1028      2755
 -1     14542    3    0    1
 -2      1377      1370      1375      2947
 -1     14543    3    0    1
 -2        78       459       454      2604
 -1     14544    3    0    1
 -2      1414      1424      1418      2884
 -1     14545    3    0    1
 -2       538       539       607      2739
 -1     14546    3    0    1
 -2        30        27        31      1412
 -1     14547    3    0    1
 -2       706      1528       705      1526
 -1     14548    3    0    1
 -2       424      1802      1805       423
 -1     14549    3    0    1
 -2      2132      1744      1743      2905
 -1     14550    3    0    1
 -2       241       242       236      1233
 -1     14551    3    0    1
 -2       864       868       872      3006
 -1     14552    3    0    1
 -2      1174      2136      1176      2142
 -1     14553    3    0    1
 -2       600       593         4      2859
 -1     14554    3    0    1
 -2      1805      1806      1809      2883
 -1     14555    3    0    1
 -2       313       310       314      2745
 -1     14556    3    0    1
 -2       633       630      1433       632
 -1     14557    3    0    1
 -2       813       805       809      2970
 -1     14558    3    0    1
 -2      1825      1822      1827      2904
 -1     14559    3    0    1
 -2      1259      1255      1257      2971
 -1     14560    3    0    1
 -2       506       510       512      2963
 -1     14561    3    0    1
 -2      2022       963      1021      2005
 -1     14562    3    0    1
 -2      1297      1300      1302      2912
 -1     14563    3    0    1
 -2       976       975      1997       974
 -1     14564    3    0    1
 -2      1317      1324      1322      2887
 -1     14565    3    0    1
 -2      1211      1089      1212      2742
 -1     14566    3    0    1
 -2       487       481       482      2849
 -1     14567    3    0    1
 -2       138       129       137      1284
 -1     14568    3    0    1
 -2       208       217       216      2767
 -1     14569    3    0    1
 -2       918       917       923      2763
 -1     14570    3    0    1
 -2       108       106      1304      1298
 -1     14571    3    0    1
 -2       298       338      1962       339
 -1     14572    3    0    1
 -2       551        28        18      2853
 -1     14573    3    0    1
 -2      1157      1166      1165      2130
 -1     14574    3    0    1
 -2      1725      1038       997       998
 -1     14575    3    0    1
 -2       391       398       397      3042
 -1     14576    3    0    1
 -2       338       298      1962       307
 -1     14577    3    0    1
 -2       576       579       580      3004
 -1     14578    3    0    1
 -2      1287      1546      1289      3026
 -1     14579    3    0    1
 -2      1515       688       691      1518
 -1     14580    3    0    1
 -2      1531      1533      1532      3043
 -1     14581    3    0    1
 -2      1194      1195      1201      2748
 -1     14582    3    0    1
 -2       493       500       501      3036
 -1     14583    3    0    1
 -2      1058      1059      1051      2785
 -1     14584    3    0    1
 -2      2007      2008      2006      2705
 -1     14585    3    0    1
 -2      1334      1327      1522      2949
 -1     14586    3    0    1
 -2       349       348       347      1991
 -1     14587    3    0    1
 -2      1871      1866       369       370
 -1     14588    3    0    1
 -2       567       575       576      2666
 -1     14589    3    0    1
 -2      1827      1831      1825      2904
 -1     14590    3    0    1
 -2       769      1011       762      2966
 -1     14591    3    0    1
 -2       649       652       653      2861
 -1     14592    3    0    1
 -2       996      2011      1001       999
 -1     14593    3    0    1
 -2      1212      1135      1218      2784
 -1     14594    3    0    1
 -2      1743       558       555       552
 -1     14595    3    0    1
 -2      1834      2021      2017      2997
 -1     14596    3    0    1
 -2      1418      1410      1414      2884
 -1     14597    3    0    1
 -2      1224      1662      1655      2954
 -1     14598    3    0    1
 -2      1027      1026      2026      1025
 -1     14599    3    0    1
 -2      1480      1492      1488      2921
 -1     14600    3    0    1
 -2       271       328      1982      1978
 -1     14601    3    0    1
 -2       563       567       568      1741
 -1     14602    3    0    1
 -2      1086      1091      1087      2894
 -1     14603    3    0    1
 -2       737       733      1537       732
 -1     14604    3    0    1
 -2      1309      1314      1308      2786
 -1     14605    3    0    1
 -2      1796       432       441       440
 -1     14606    3    0    1
 -2      1679      1674      1675      3045
 -1     14607    3    0    1
 -2       833       826      1606       825
 -1     14608    3    0    1
 -2       645       649       647      2987
 -1     14609    3    0    1
 -2      1033      1034      1031      2700
 -1     14610    3    0    1
 -2       374       373       376      2587
 -1     14611    3    0    1
 -2      1932      1939      1942      2632
 -1     14612    3    0    1
 -2      1224       289       295      1225
 -1     14613    3    0    1
 -2       314       321       313      2745
 -1     14614    3    0    1
 -2      2105      1125      1117      2979
 -1     14615    3    0    1
 -2       724      1534       727      1532
 -1     14616    3    0    1
 -2        18        17        15      1435
 -1     14617    3    0    1
 -2      1808       411       414      1814
 -1     14618    3    0    1
 -2      1210      1204      2151      1209
 -1     14619    3    0    1
 -2      1149      1148      2126      1157
 -1     14620    3    0    1
 -2       613      1055       611      2911
 -1     14621    3    0    1
 -2      1830       670       701      1766
 -1     14622    3    0    1
 -2       644      1496      1497       645
 -1     14623    3    0    1
 -2      1477         5         4      1451
 -1     14624    3    0    1
 -2      1030      2700      1031      2755
 -1     14625    3    0    1
 -2      1329      1328      1335      2837
 -1     14626    3    0    1
 -2      1723      1301      1263      1235
 -1     14627    3    0    1
 -2       688       692       691      1518
 -1     14628    3    0    1
 -2       184       187       180      2651
 -1     14629    3    0    1
 -2       973      1995       972       971
 -1     14630    3    0    1
 -2      1911      1913      1915      3023
 -1     14631    3    0    1
 -2       381      1846       382      1852
 -1     14632    3    0    1
 -2      2195       130      2200      2208
 -1     14633    3    0    1
 -2      1575      1571      1265      2878
 -1     14634    3    0    1
 -2      1873      1872      1868      2948
 -1     14635    3    0    1
 -2      1248      1588      1250      2918
 -1     14636    3    0    1
 -2       908       906       900      2976
 -1     14637    3    0    1
 -2      1627      1631      1628      2800
 -1     14638    3    0    1
 -2      1704      1703      1698      2754
 -1     14639    3    0    1
 -2      1811      1810      1807      2967
 -1     14640    3    0    1
 -2      1301      1263      1726      1735
 -1     14641    3    0    1
 -2      1655      1653      1654      2954
 -1     14642    3    0    1
 -2      1082      1077      2068      1076
 -1     14643    3    0    1
 -2       332       336       331      2812
 -1     14644    3    0    1
 -2       246       247       253      2817
 -1     14645    3    0    1
 -2      1224      1664      1662      2531
 -1     14646    3    0    1
 -2      1975       935      1970       931
 -1     14647    3    0    1
 -2       652       655       653      2861
 -1     14648    3    0    1
 -2       565       556       560      2999
 -1     14649    3    0    1
 -2      1503      2199      1514      2934
 -1     14650    3    0    1
 -2      1581       792      1579       791
 -1     14651    3    0    1
 -2       221       228       222      1240
 -1     14652    3    0    1
 -2       812       816       820      2766
 -1     14653    3    0    1
 -2      1682      1680      1674      3045
 -1     14654    3    0    1
 -2       195       192       188      1251
 -1     14655    3    0    1
 -2      1320      1235      1319      2852
 -1     14656    3    0    1
 -2      1081      1078      1080      2914
 -1     14657    3    0    1
 -2      1480      1473      1474      2636
 -1     14658    3    0    1
 -2      2221      2215      2220      2656
 -1     14659    3    0    1
 -2       428       429       436      2713
 -1     14660    3    0    1
 -2      1069      1122      1020      2088
 -1     14661    3    0    1
 -2      1440      1431      1432      2870
 -1     14662    3    0    1
 -2      1078      1075      1080      2914
 -1     14663    3    0    1
 -2      1718      2066      1706      1711
 -1     14664    3    0    1
 -2      1273      1274      1279      2992
 -1     14665    3    0    1
 -2      1994       968       970       969
 -1     14666    3    0    1
 -2       620      1469       623       622
 -1     14667    3    0    1
 -2       225       231       227      3028
 -1     14668    3    0    1
 -2       363      1895       362      1888
 -1     14669    3    0    1
 -2      1082      2071      2068      1083
 -1     14670    3    0    1
 -2      1302      1309      1308      2956
 -1     14671    3    0    1
 -2       766       729      1509       811
 -1     14672    3    0    1
 -2      1192      1198      1197      2161
 -1     14673    3    0    1
 -2       615       613      1373       616
 -1     14674    3    0    1
 -2       443       395       421      2754
 -1     14675    3    0    1
 -2      1268      1311      1720      1267
 -1     14676    3    0    1
 -2      1400      1373       616       615
 -1     14677    3    0    1
 -2      1168      1169      2136      1165
 -1     14678    3    0    1
 -2       156       163       155      2898
 -1     14679    3    0    1
 -2       907      1651       912      1658
 -1     14680    3    0    1
 -2      2074      2075      2077      2598
 -1     14681    3    0    1
 -2      2216       788      2214      2977
 -1     14682    3    0    1
 -2      1623       863       859       858
 -1     14683    3    0    1
 -2      1116      1117      1121      2979
 -1     14684    3    0    1
 -2       109       104       429      2969
 -1     14685    3    0    1
 -2      2211       711      2188      2977
 -1     14686    3    0    1
 -2      1374      1726      1337      1311
 -1     14687    3    0    1
 -2       319       324      1222       318
 -1     14688    3    0    1
 -2       341      1932       278       342
 -1     14689    3    0    1
 -2      1924       143       210      1925
 -1     14690    3    0    1
 -2      1848      1850      1847      2801
 -1     14691    3    0    1
 -2      1844      1883      1812      2212
 -1     14692    3    0    1
 -2      1718      2010      1711      1702
 -1     14693    3    0    1
 -2       999      1000       995      2653
 -1     14694    3    0    1
 -2        81        76        80      1329
 -1     14695    3    0    1
 -2       937       932       939      1678
 -1     14696    3    0    1
 -2      1637      1641      1640      2873
 -1     14697    3    0    1
 -2       236       229       233      1237
 -1     14698    3    0    1
 -2      1899      1902      1895      3039
 -1     14699    3    0    1
 -2      1018      1019       964      1695
 -1     14700    3    0    1
 -2       267       276       266      2738
 -1     14701    3    0    1
 -2      2199      2209      1514      2934
 -1     14702    3    0    1
 -2      1568      1562       770       771
 -1     14703    3    0    1
 -2      1124       647       650      2913
 -1     14704    3    0    1
 -2      1970       924      1965       958
 -1     14705    3    0    1
 -2      1038      1729      1089      1211
 -1     14706    3    0    1
 -2       807       806       815      2964
 -1     14707    3    0    1
 -2       541       532      1746       533
 -1     14708    3    0    1
 -2       439       444       445      2926
 -1     14709    3    0    1
 -2      2153      2160      2154      2662
 -1     14710    3    0    1
 -2      1980      1986      1979      2802
 -1     14711    3    0    1
 -2       529       526      1749       523
 -1     14712    3    0    1
 -2       357       355      1909       356
 -1     14713    3    0    1
 -2       904      1651       895       905
 -1     14714    3    0    1
 -2       619       618      1483       617
 -1     14715    3    0    1
 -2      1503      1553      1523      2927
 -1     14716    3    0    1
 -2       486       402      2052       539
 -1     14717    3    0    1
 -2      1337      1301      1263      1726
 -1     14718    3    0    1
 -2      1858      1853      2009      2844
 -1     14719    3    0    1
 -2       203       202      1245      1247
 -1     14720    3    0    1
 -2      1163       616       617      2965
 -1     14721    3    0    1
 -2      1458      1463      1467      2798
 -1     14722    3    0    1
 -2       365      1888       364      1880
 -1     14723    3    0    1
 -2      1651       904       907       905
 -1     14724    3    0    1
 -2       242       250      1232       241
 -1     14725    3    0    1
 -2      1702      2010      1697      1991
 -1     14726    3    0    1
 -2      1623       847       858       859
 -1     14727    3    0    1
 -2       771       770      1568       775
 -1     14728    3    0    1
 -2       174       383       379      2924
 -1     14729    3    0    1
 -2       361      1902       360      1895
 -1     14730    3    0    1
 -2      2215      1788      1787      1745
 -1     14731    3    0    1
 -2       969       970      1994       971
 -1     14732    3    0    1
 -2         9        11      1458       578
 -1     14733    3    0    1
 -2      1964      1972      1963      2737
 -1     14734    3    0    1
 -2        84        87        81      1329
 -1     14735    3    0    1
 -2      1069      1122      2088      1151
 -1     14736    3    0    1
 -2       417      1808       414       416
 -1     14737    3    0    1
 -2      1319      1235      1301      2852
 -1     14738    3    0    1
 -2       863      1623       859      1628
 -1     14739    3    0    1
 -2      1122      1209      2151      1182
 -1     14740    3    0    1
 -2       140       135       405      2972
 -1     14741    3    0    1
 -2       391       160       153      2810
 -1     14742    3    0    1
 -2       547       546       554      2663
 -1     14743    3    0    1
 -2       175       176       170      1261
 -1     14744    3    0    1
 -2      1943      1944      1938      2869
 -1     14745    3    0    1
 -2        93        89        94      2744
 -1     14746    3    0    1
 -2       833       826       834      1606
 -1     14747    3    0    1
 -2       478       477       483      3001
 -1     14748    3    0    1
 -2        75        72      1340        76
 -1     14749    3    0    1
 -2        72        75      1340        71
 -1     14750    3    0    1
 -2      1948      1952      1955      2696
 -1     14751    3    0    1
 -2      1225      1224      1654      2954
 -1     14752    3    0    1
 -2       944       951       940      2989
 -1     14753    3    0    1
 -2        53        55        54      1362
 -1     14754    3    0    1
 -2      1628      1631      1632      2800
 -1     14755    3    0    1
 -2      1696      1695      2005      2044
 -1     14756    3    0    1
 -2      1220       324       327      1221
 -1     14757    3    0    1
 -2      1063      1057      1064      2872
 -1     14758    3    0    1
 -2      1203      1197      1198      2168
 -1     14759    3    0    1
 -2       558      1742       563      1741
 -1     14760    3    0    1
 -2      1514      2209      1540      2934
 -1     14761    3    0    1
 -2        30      1417        27      1412
 -1     14762    3    0    1
 -2       617       615       618      1400
 -1     14763    3    0    1
 -2      1000       786       995      3017
 -1     14764    3    0    1
 -2       614       612      1373       613
 -1     14765    3    0    1
 -2      1110      1105      1106      3044
 -1     14766    3    0    1
 -2      1472      1477         6       593
 -1     14767    3    0    1
 -2      1100      1096      1101      2083
 -1     14768    3    0    1
 -2      1012      2023      1023      1022
 -1     14769    3    0    1
 -2      1462      1461      1456      3011
 -1     14770    3    0    1
 -2      1561      1576      1517      2647
 -1     14771    3    0    1
 -2      1599      1553      1540      2934
 -1     14772    3    0    1
 -2      1955      1952      1959      2696
 -1     14773    3    0    1
 -2      1224       304       301       296
 -1     14774    3    0    1
 -2      1713      1703      1704      2751
 -1     14775    3    0    1
 -2       597      1737       596       536
 -1     14776    3    0    1
 -2       747       752      1017      2780
 -1     14777    3    0    1
 -2       114       418       413      2946
 -1     14778    3    0    1
 -2      1034      1031      2700      2755
 -1     14779    3    0    1
 -2        42      1387        40      1380
 -1     14780    3    0    1
 -2      1528       719       717      1530
 -1     14781    3    0    1
 -2       985      1235       987       986
 -1     14782    3    0    1
 -2      1072      2060      1070      1065
 -1     14783    3    0    1
 -2      1013      1009      2019      1012
 -1     14784    3    0    1
 -2       889       945       947      2957
 -1     14785    3    0    1
 -2      1043      1045      1040      2042
 -1     14786    3    0    1
 -2      1242       221       222      1240
 -1     14787    3    0    1
 -2      1948      1942      1945      2864
 -1     14788    3    0    1
 -2        12        11        13      1446
 -1     14789    3    0    1
 -2        30      1417        26        27
 -1     14790    3    0    1
 -2      1036      1033      1032      2035
 -1     14791    3    0    1
 -2       369       368      1871       367
 -1     14792    3    0    1
 -2       648       651       649      1498
 -1     14793    3    0    1
 -2        49        46        50      1371
 -1     14794    3    0    1
 -2       472       478      1770       471
 -1     14795    3    0    1
 -2       400       396       399      1831
 -1     14796    3    0    1
 -2        17        18      1426      1435
 -1     14797    3    0    1
 -2      1682      1674      1679      3045
 -1     14798    3    0    1
 -2       322       315       328      1973
 -1     14799    3    0    1
 -2      1184      1192      1188      2154
 -1     14800    3    0    1
 -2       748       743      1547       745
 -1     14801    3    0    1
 -2       111       115       116      1296
 -1     14802    3    0    1
 -2        26        18        27      1417
 -1     14803    3    0    1
 -2      2003       989       984       988
 -1     14804    3    0    1
 -2       796       853      1884       854
 -1     14805    3    0    1
 -2       674       676       672      1505
 -1     14806    3    0    1
 -2       743       738      1543       740
 -1     14807    3    0    1
 -2      1993       966       967       962
 -1     14808    3    0    1
 -2      2210      2212      2213      2848
 -1     14809    3    0    1
 -2       807       816       812      2766
 -1     14810    3    0    1
 -2       630       629      1442       631
 -1     14811    3    0    1
 -2       329       326       322      3040
 -1     14812    3    0    1
 -2      1576      1561      1634      2811
 -1     14813    3    0    1
 -2      1764      1765      1767      3001
 -1     14814    3    0    1
 -2       473        61       482      2849
 -1     14815    3    0    1
 -2      1293      1291      1290      2703
 -1     14816    3    0    1
 -2      1387        35      1395        39
 -1     14817    3    0    1
 -2      2083      2079      1095      1096
 -1     14818    3    0    1
 -2      1977      1980      1979      2802
 -1     14819    3    0    1
 -2      1165      1168      1159      2685
 -1     14820    3    0    1
 -2      1866      1860       371       372
 -1     14821    3    0    1
 -2       802       809      1589       810
 -1     14822    3    0    1
 -2       278       343       342      1932
 -1     14823    3    0    1
 -2      1948       341       287       340
 -1     14824    3    0    1
 -2      1738       596       586       587
 -1     14825    3    0    1
 -2      1224      1655      1654      2954
 -1     14826    3    0    1
 -2       450       456      1782       449
 -1     14827    3    0    1
 -2      1347        66        69      1344
 -1     14828    3    0    1
 -2       628      1449      1442       629
 -1     14829    3    0    1
 -2       322       326       321      3040
 -1     14830    3    0    1
 -2      2023      2026      1023      1022
 -1     14831    3    0    1
 -2       847      1623       858      1617
 -1     14832    3    0    1
 -2       723       719       724      1530
 -1     14833    3    0    1
 -2        34        30        32      1405
 -1     14834    3    0    1
 -2      1579       781      1573       784
 -1     14835    3    0    1
 -2      1805       417       424       423
 -1     14836    3    0    1
 -2      2157      1740      1739      2839
 -1     14837    3    0    1
 -2       512       516       511      1753
 -1     14838    3    0    1
 -2      1022      2026      1023      1025
 -1     14839    3    0    1
 -2      1358        54        55      1362
 -1     14840    3    0    1
 -2       186       191       190      2725
 -1     14841    3    0    1
 -2       999      2011      1001      1002
 -1     14842    3    0    1
 -2       130       120      2200       330
 -1     14843    3    0    1
 -2      1703       380       421       422
 -1     14844    3    0    1
 -2      1632       865       870       871
 -1     14845    3    0    1
 -2       851       788      2216      2977
 -1     14846    3    0    1
 -2         4         6      1477       593
 -1     14847    3    0    1
 -2       807      2766       812      3009
 -1     14848    3    0    1
 -2       987      1235       610       986
 -1     14849    3    0    1
 -2      1775      1773      1776      2695
 -1     14850    3    0    1
 -2         1      1331       474      1420
 -1     14851    3    0    1
 -2      1076      2068      1072      1077
 -1     14852    3    0    1
 -2      1148      1142      2122      1145
 -1     14853    3    0    1
 -2       519      1751       523       516
 -1     14854    3    0    1
 -2       151       145       144      1281
 -1     14855    3    0    1
 -2      1331      1420      1419      2855
 -1     14856    3    0    1
 -2       276       267       277      2738
 -1     14857    3    0    1
 -2      2079      2076      1094      1090
 -1     14858    3    0    1
 -2      2002       348       350      1991
 -1     14859    3    0    1
 -2       714      1509       712      2647
 -1     14860    3    0    1
 -2      1851      1843      2012      2668
 -1     14861    3    0    1
 -2       909       914       919      2889
 -1     14862    3    0    1
 -2       328       322      1973      1978
 -1     14863    3    0    1
 -2       425       420       429      2969
 -1     14864    3    0    1
 -2      1632       871       870       880
 -1     14865    3    0    1
 -2       210       237       209      1924
 -1     14866    3    0    1
 -2       634      1494       638       636
 -1     14867    3    0    1
 -2       512       510       515      2963
 -1     14868    3    0    1
 -2       811       839       729      1591
 -1     14869    3    0    1
 -2      1794      1793      2189      2210
 -1     14870    3    0    1
 -2        57        58        21      1795
 -1     14871    3    0    1
 -2       596      1738       597       587
 -1     14872    3    0    1
 -2       854       853      1884       956
 -1     14873    3    0    1
 -2        26      1426        18      1417
 -1     14874    3    0    1
 -2      1054      1060      1057      2053
 -1     14875    3    0    1
 -2      1597       261       199       260
 -1     14876    3    0    1
 -2      1233       241       242      1232
 -1     14877    3    0    1
 -2       806       807       803      2964
 -1     14878    3    0    1
 -2      1082      1077      1083      2068
 -1     14879    3    0    1
 -2       847       858       846      1617
 -1     14880    3    0    1
 -2      1777      1780      1779      2935
 -1     14881    3    0    1
 -2       115       123       116      1291
 -1     14882    3    0    1
 -2      1026      1023      2026      1025
 -1     14883    3    0    1
 -2      1387        35        39        40
 -1     14884    3    0    1
 -2      1358        59        55        54
 -1     14885    3    0    1
 -2      1125      2105      1126      2111
 -1     14886    3    0    1
 -2      1700      2044      1699      2073
 -1     14887    3    0    1
 -2      1293      1294      1296      2749
 -1     14888    3    0    1
 -2      1507      2188       712      2647
 -1     14889    3    0    1
 -2       784      1579       792       791
 -1     14890    3    0    1
 -2        40        43        42      1380
 -1     14891    3    0    1
 -2        69      1349        66      1347
 -1     14892    3    0    1
 -2      1497      1393      1498      2987
 -1     14893    3    0    1
 -2       181       176       178      1258
 -1     14894    3    0    1
 -2      1764      1767       478      3001
 -1     14895    3    0    1
 -2      1880       366       364       365
 -1     14896    3    0    1
 -2      1523        23        25      1503
 -1     14897    3    0    1
 -2       324      1220       327       261
 -1     14898    3    0    1
 -2       861       867       868      2961
 -1     14899    3    0    1
 -2      1101      1104      2089      1107
 -1     14900    3    0    1
 -2       629       630      1442       628
 -1     14901    3    0    1
 -2      1090      1095      2079      1096
 -1     14902    3    0    1
 -2       687       682       688      1515
 -1     14903    3    0    1
 -2      1047      1722      1019      1018
 -1     14904    3    0    1
 -2       377      1860       374      1855
 -1     14905    3    0    1
 -2      1219       380       346      1698
 -1     14906    3    0    1
 -2       284       283      1225      1226
 -1     14907    3    0    1
 -2        89        93        88      2744
 -1     14908    3    0    1
 -2      1683      1688      1682      2827
 -1     14909    3    0    1
 -2      1446        13        14      1438
 -1     14910    3    0    1
 -2      2023      1013      2019      1012
 -1     14911    3    0    1
 -2       610      1235      1277       986
 -1     14912    3    0    1
 -2       329       210       238      2823
 -1     14913    3    0    1
 -2       666       664       663      1502
 -1     14914    3    0    1
 -2      1257      1255      1253      2971
 -1     14915    3    0    1
 -2       792      1584       799      1581
 -1     14916    3    0    1
 -2        81        80        84      1329
 -1     14917    3    0    1
 -2       307      1967       315       314
 -1     14918    3    0    1
 -2       186       190       185      2725
 -1     14919    3    0    1
 -2      1168      1173      1164      2909
 -1     14920    3    0    1
 -2       511       507       506      1756
 -1     14921    3    0    1
 -2        57        86        58      1795
 -1     14922    3    0    1
 -2       809       802      1589       801
 -1     14923    3    0    1
 -2      1449       628       627       626
 -1     14924    3    0    1
 -2      2216      2214      2794      2977
 -1     14925    3    0    1
 -2        66        64        62      1349
 -1     14926    3    0    1
 -2       106       101       102      1304
 -1     14927    3    0    1
 -2      1597      1686      1220      2826
 -1     14928    3    0    1
 -2      1095      1090      2079      1094
 -1     14929    3    0    1
 -2       131        48       130      2195
 -1     14930    3    0    1
 -2      1999      1998      1892      3031
 -1     14931    3    0    1
 -2       818       810      1594       814
 -1     14932    3    0    1
 -2      1576      2647      1561      2811
 -1     14933    3    0    1
 -2      2066      2073      1707      1706
 -1     14934    3    0    1
 -2       386       384      1846       385
 -1     14935    3    0    1
 -2      1855       381       378       377
 -1     14936    3    0    1
 -2       861       857       856      3024
 -1     14937    3    0    1
 -2      1507       712      1508      2647
 -1     14938    3    0    1
 -2       617       615      1400       616
 -1     14939    3    0    1
 -2      1145      2116      1142      2122
 -1     14940    3    0    1
 -2       393       395      1254       346
 -1     14941    3    0    1
 -2      1107      1112      2095      1113
 -1     14942    3    0    1
 -2      2149      2148      2145      2903
 -1     14943    3    0    1
 -2       620       619      1476       621
 -1     14944    3    0    1
 -2      2013      1007      1003      1002
 -1     14945    3    0    1
 -2       449      1785       446       445
 -1     14946    3    0    1
 -2      1121      1117      1125      2979
 -1     14947    3    0    1
 -2       185       179       186      2725
 -1     14948    3    0    1
 -2      1235      1723       985       987
 -1     14949    3    0    1
 -2      1699      1695      2044      1700
 -1     14950    3    0    1
 -2       484      1764       478      3001
 -1     14951    3    0    1
 -2       465       460      1775       466
 -1     14952    3    0    1
 -2      2188       713       712      2647
 -1     14953    3    0    1
 -2       541      1744       545       533
 -1     14954    3    0    1
 -2      1798       427       432       430
 -1     14955    3    0    1
 -2       935      1975       957       931
 -1     14956    3    0    1
 -2      1746      1744       541       533
 -1     14957    3    0    1
 -2      1764       480       478      1767
 -1     14958    3    0    1
 -2      1505       666      1504       672
 -1     14959    3    0    1
 -2       712      1509      1508      2647
 -1     14960    3    0    1
 -2      1253      1251      1252      2886
 -1     14961    3    0    1
 -2      1132      1139      1129      2988
 -1     14962    3    0    1
 -2       613      1135      1055      2911
 -1     14963    3    0    1
 -2      1612       843       834       838
 -1     14964    3    0    1
 -2       345      1219       344       346
 -1     14965    3    0    1
 -2      1707      1700      1699      2073
 -1     14966    3    0    1
 -2        21        20        19        57
 -1     14967    3    0    1
 -2       676       674       678      1510
 -1     14968    3    0    1
 -2      1589       802      1584       801
 -1     14969    3    0    1
 -2      1229       251       250      1232
 -1     14970    3    0    1
 -2        59      1358        55      1353
 -1     14971    3    0    1
 -2      1003      1001      2011      1002
 -1     14972    3    0    1
 -2       645       644      1496      2673
 -1     14973    3    0    1
 -2      2116      1142      1137      1145
 -1     14974    3    0    1
 -2       986       985      1725       997
 -1     14975    3    0    1
 -2      1778       460       457       456
 -1     14976    3    0    1
 -2      1124      1130      1131      2913
 -1     14977    3    0    1
 -2       862       866       860      2922
 -1     14978    3    0    1
 -2      2195       130       131      2200
 -1     14979    3    0    1
 -2      1812      1844      2212      1813
 -1     14980    3    0    1
 -2      1142      2126      1148      2122
 -1     14981    3    0    1
 -2       374      1860       375       372
 -1     14982    3    0    1
 -2      1855       382       381       377
 -1     14983    3    0    1
 -2       460      1778       457      1775
 -1     14984    3    0    1
 -2       714       715      1509      2647
 -1     14985    3    0    1
 -2      1860       374       371       372
 -1     14986    3    0    1
 -2      1245       212       213      1243
 -1     14987    3    0    1
 -2      1124      1131       647      2913
 -1     14988    3    0    1
 -2      2023      1023      1013      1012
 -1     14989    3    0    1
 -2       362       360      1895       361
 -1     14990    3    0    1
 -2      1849      1847      1850      2801
 -1     14991    3    0    1
 -2      1003      2011      2013      1002
 -1     14992    3    0    1
 -2       533       532      1746       529
 -1     14993    3    0    1
 -2       338      1967       307      1962
 -1     14994    3    0    1
 -2      1566      1540      1514      2197
 -1     14995    3    0    1
 -2        45        46        49      1371
 -1     14996    3    0    1
 -2       825       818      1602       822
 -1     14997    3    0    1
 -2      1060      2060      1064      2057
 -1     14998    3    0    1
 -2      1899      1905      1902      3039
 -1     14999    3    0    1
 -2       781      1568       780       775
 -1     15000    3    0    1
 -2      1522      1327      1525      2949
 -1     15001    3    0    1
 -2      2194      2202      2201      2640
 -1     15002    3    0    1
 -2      1125      1118      2105      1117
 -1     15003    3    0    1
 -2       265       255       264      1228
 -1     15004    3    0    1
 -2      1888       364       362       363
 -1     15005    3    0    1
 -2       348       349       350      1991
 -1     15006    3    0    1
 -2      1100      1096      2083      1095
 -1     15007    3    0    1
 -2      1770       465       466       471
 -1     15008    3    0    1
 -2      1371      1370      1377      2947
 -1     15009    3    0    1
 -2       185       193       184      2725
 -1     15010    3    0    1
 -2        35        37        34      1395
 -1     15011    3    0    1
 -2       181       176      1258       182
 -1     15012    3    0    1
 -2         3         2         1      1451
 -1     15013    3    0    1
 -2      1505       666       672       674
 -1     15014    3    0    1
 -2       748      1551       754       745
 -1     15015    3    0    1
 -2       982       984       983      2001
 -1     15016    3    0    1
 -2       107       102       103      2697
 -1     15017    3    0    1
 -2       468      1712       434       602
 -1     15018    3    0    1
 -2      1537       738       733       737
 -1     15019    3    0    1
 -2      2099      2095      1112      1113
 -1     15020    3    0    1
 -2        90        88        93      2744
 -1     15021    3    0    1
 -2      1088      1094      2076      1090
 -1     15022    3    0    1
 -2      1117      1113      1118      2099
 -1     15023    3    0    1
 -2       414       415      1808       417
 -1     15024    3    0    1
 -2      2216      2214      2218      2794
 -1     15025    3    0    1
 -2       380      1703       421      1698
 -1     15026    3    0    1
 -2      1514      1540      2209      2197
 -1     15027    3    0    1
 -2      1764       478       480       484
 -1     15028    3    0    1
 -2      1723      1235      1236       987
 -1     15029    3    0    1
 -2      2105      2099      1117      1118
 -1     15030    3    0    1
 -2       930       925       932      1672
 -1     15031    3    0    1
 -2      1802       424       427       423
 -1     15032    3    0    1
 -2        22      2199        23      2195
 -1     15033    3    0    1
 -2       851       787       788      2977
 -1     15034    3    0    1
 -2       804       807       808      3009
 -1     15035    3    0    1
 -2      1697      1711      2010      1702
 -1     15036    3    0    1
 -2        72        69        71      1340
 -1     15037    3    0    1
 -2       195       198       192      1249
 -1     15038    3    0    1
 -2      1793      1794      1820      2210
 -1     15039    3    0    1
 -2       699       696       702      1520
 -1     15040    3    0    1
 -2       997      1729      1089      1038
 -1     15041    3    0    1
 -2       327       260       261      1220
 -1     15042    3    0    1
 -2        53        54        52      1362
 -1     15043    3    0    1
 -2      1046      1054      1053      2047
 -1     15044    3    0    1
 -2      1932       341       278      1942
 -1     15045    3    0    1
 -2       461      1775       460       457
 -1     15046    3    0    1
 -2       552      1743      1744       548
 -1     15047    3    0    1
 -2      1287      1549      1546      3026
 -1     15048    3    0    1
 -2       907      1651       905       912
 -1     15049    3    0    1
 -2       626      1186       624      3011
 -1     15050    3    0    1
 -2       210       237      1924       271
 -1     15051    3    0    1
 -2       825       818       826      1602
 -1     15052    3    0    1
 -2       865      1632       870      1628
 -1     15053    3    0    1
 -2       351       353      1922       352
 -1     15054    3    0    1
 -2      1128      1133      1125      2111
 -1     15055    3    0    1
 -2       998      1725       985       997
 -1     15056    3    0    1
 -2        12        13        14      1446
 -1     15057    3    0    1
 -2      1725      1038      1729       997
 -1     15058    3    0    1
 -2         2         3         4      1451
 -1     15059    3    0    1
 -2      1117      1113      2099      1112
 -1     15060    3    0    1
 -2       212       214       213      1243
 -1     15061    3    0    1
 -2      1517      1577      1578      2192
 -1     15062    3    0    1
 -2      1720      1268      1267      1219
 -1     15063    3    0    1
 -2      1258       181       182      1255
 -1     15064    3    0    1
 -2       644       643       641      2673
 -1     15065    3    0    1
 -2       715       713       766      2647
 -1     15066    3    0    1
 -2       348       347      1705       434
 -1     15067    3    0    1
 -2      1032      1029      2032      1030
 -1     15068    3    0    1
 -2      1579       792       785       784
 -1     15069    3    0    1
 -2      2216       851       773       788
 -1     15070    3    0    1
 -2      1902       357       359       358
 -1     15071    3    0    1
 -2      1521      1522      1525      2949
 -1     15072    3    0    1
 -2       313       320       317      2953
 -1     15073    3    0    1
 -2      1277       611       610       986
 -1     15074    3    0    1
 -2      1840        58        86      1795
 -1     15075    3    0    1
 -2      1176      1169      2136      1174
 -1     15076    3    0    1
 -2       801       800       802      1584
 -1     15077    3    0    1
 -2       628      1449       629       626
 -1     15078    3    0    1
 -2      2210      1820      1793      1821
 -1     15079    3    0    1
 -2       166       170       162      1269
 -1     15080    3    0    1
 -2       289       284       283      1225
 -1     15081    3    0    1
 -2       352       351       268      1931
 -1     15082    3    0    1
 -2      1353        62        59      1349
 -1     15083    3    0    1
 -2      1602      1606       826       825
 -1     15084    3    0    1
 -2      1712       434       435       468
 -1     15085    3    0    1
 -2       352      1922       351      1931
 -1     15086    3    0    1
 -2        11        12        10      1454
 -1     15087    3    0    1
 -2       434       347      1705       435
 -1     15088    3    0    1
 -2       956       943      1937       957
 -1     15089    3    0    1
 -2      1126      1128      1125      2111
 -1     15090    3    0    1
 -2       166       170      1269      1264
 -1     15091    3    0    1
 -2         2         4         5      1451
 -1     15092    3    0    1
 -2       312      1223       304       309
 -1     15093    3    0    1
 -2       392       393      1331       394
 -1     15094    3    0    1
 -2      1846       384       381       382
 -1     15095    3    0    1
 -2      2136      1169      1166      1165
 -1     15096    3    0    1
 -2      1698       421       380       395
 -1     15097    3    0    1
 -2        11        12      1454      1446
 -1     15098    3    0    1
 -2       372       371      1866       370
 -1     15099    3    0    1
 -2       404       400       403      1825
 -1     15100    3    0    1
 -2       808       807       812      3009
 -1     15101    3    0    1
 -2       610       611      1277       612
 -1     15102    3    0    1
 -2       676       674      1510      1505
 -1     15103    3    0    1
 -2       548      1744       545       541
 -1     15104    3    0    1
 -2       801       800      1584       799
 -1     15105    3    0    1
 -2      1770       466       472       471
 -1     15106    3    0    1
 -2      1722      1047      1048      1018
 -1     15107    3    0    1
 -2      1495       641       638       640
 -1     15108    3    0    1
 -2      1069      2022      1020      1021
 -1     15109    3    0    1
 -2      1254      1331       393       394
 -1     15110    3    0    1
 -2       634       632      1433       635
 -1     15111    3    0    1
 -2       882      1936       961       962
 -1     15112    3    0    1
 -2       129       123       128      1288
 -1     15113    3    0    1
 -2      2029      1029      1026      1027
 -1     15114    3    0    1
 -2       552      1744       545       548
 -1     15115    3    0    1
 -2       315       338      1967       307
 -1     15116    3    0    1
 -2       278       343      1932       268
 -1     15117    3    0    1
 -2        23        48      2195        95
 -1     15118    3    0    1
 -2      2022       963      1020      1021
 -1     15119    3    0    1
 -2       537      1737      1736       536
 -1     15120    3    0    1
 -2      1696      1695      1694      2005
 -1     15121    3    0    1
 -2      1065      2060      1064      1060
 -1     15122    3    0    1
 -2       370       369      1871       367
 -1     15123    3    0    1
 -2       189       188       192      1251
 -1     15124    3    0    1
 -2      2073      1699      1707      1706
 -1     15125    3    0    1
 -2      1254       393       346       394
 -1     15126    3    0    1
 -2       645       643       644      2673
 -1     15127    3    0    1
 -2      2193       119        70      2189
 -1     15128    3    0    1
 -2      1534      1532      1533      3043
 -1     15129    3    0    1
 -2       717       708       719      1528
 -1     15130    3    0    1
 -2      1844      1821      1874      2212
 -1     15131    3    0    1
 -2      2006       994       992       991
 -1     15132    3    0    1
 -2      2188       713       711       712
 -1     15133    3    0    1
 -2       764       770      1562       771
 -1     15134    3    0    1
 -2       350       402       348      2002
 -1     15135    3    0    1
 -2      2002       433       402      2052
 -1     15136    3    0    1
 -2       480       479       478      1767
 -1     15137    3    0    1
 -2       111       106       108      1298
 -1     15138    3    0    1
 -2       480       485      1764       484
 -1     15139    3    0    1
 -2       644       641      1496      2673
 -1     15140    3    0    1
 -2       120       119        70      2193
 -1     15141    3    0    1
 -2       450      1782      1785       449
 -1     15142    3    0    1
 -2       446       450      1785       449
 -1     15143    3    0    1
 -2       384      1846       385       382
 -1     15144    3    0    1
 -2       488       482        56      2849
 -1     15145    3    0    1
 -2       255       251       250      1229
 -1     15146    3    0    1
 -2      1138      1142      1137      2116
 -1     15147    3    0    1
 -2      2217       668       667       686
 -1     15148    3    0    1
 -2      2060      1064      1070      1065
 -1     15149    3    0    1
 -2        95       130        48      2195
 -1     15150    3    0    1
 -2      1043      1046      1045      2042
 -1     15151    3    0    1
 -2      1085      1088      2076      1090
 -1     15152    3    0    1
 -2        98       101        97      1310
 -1     15153    3    0    1
 -2       958      1970       924       931
 -1     15154    3    0    1
 -2        24        23        22      1493
 -1     15155    3    0    1
 -2       686       667      2217       685
 -1     15156    3    0    1
 -2      1495       641       640      2673
 -1     15157    3    0    1
 -2       960       961       892      1992
 -1     15158    3    0    1
 -2       748       754      1551       755
 -1     15159    3    0    1
 -2       350       433       402      2002
 -1     15160    3    0    1
 -2       563       568       558      1741
 -1     15161    3    0    1
 -2        86       143        58      1840
 -1     15162    3    0    1
 -2        23        48        22      2195
 -1     15163    3    0    1
 -2      1495      1496       641      2673
 -1     15164    3    0    1
 -2      2074      2077      2076      2598
 -1     15165    3    0    1
 -2        92        87        90      1323
 -1     15166    3    0    1
 -2        64        59        62      1349
 -1     15167    3    0    1
 -2        25       158        96      1523
 -1     15168    3    0    1
 -2       625       623      1462       624
 -1     15169    3    0    1
 -2       729       714       715      1509
 -1     15170    3    0    1
 -2       873       839       874      1633
 -1     15171    3    0    1
 -2       671       701       670      1766
 -1     15172    3    0    1
 -2       486       537      1736       536
 -1     15173    3    0    1
 -2       482        61        56      2849
 -1     15174    3    0    1
 -2      1508      1509      1561      2647
 -1     15175    3    0    1
 -2       380      1219       346       344
 -1     15176    3    0    1
 -2      2612      2109      2963      1755
 -1     15177    3    0    1
 -2      2612      2963      2109      2267
 -1     15178    3    0    1
 -2      2199      1514        23      1503
 -1     15179    3    0    1
 -2      2199        23      1514        22
 -1     15180    3    0    1
 -2      1493        23      1514      1503
 -1     15181    3    0    1
 -2      1493      1514        23        22
 -1     15182    3    0    1
 -2      2547      2457      2611      2284
 -1     15183    3    0    1
 -2      2547      2611      2457      2291
 -1     15184    3    0    1
 -2      2236      2912      2369      2295
 -1     15185    3    0    1
 -2      2369      2912      2236      2804
 -1     15186    3    0    1
 -2        70      1794       119        57
 -1     15187    3    0    1
 -2        70       119      1794      2189
 -1     15188    3    0    1
 -2      2374       119      1794        57
 -1     15189    3    0    1
 -2      2374      1794       119      2189
 -1     15190    3    0    1
 -2      2767      2344       208      2693
 -1     15191    3    0    1
 -2      2767       208      2344      2474
 -1     15192    3    0    1
 -2      2597      1769      3001      1768
 -1     15193    3    0    1
 -2      2597      3001      1769      2426
 -1     15194    3    0    1
 -2      3029      2332      2435      2393
 -1     15195    3    0    1
 -2      3029      2435      2332      2521
 -1     15196    3    0    1
 -2      2739      2180      2687      2359
 -1     15197    3    0    1
 -2      2739      2687      2180      2094
 -1     15198    3    0    1
 -2      2820      2450      2228      2371
 -1     15199    3    0    1
 -2      2820      2228      2450      2682
 -1     15200    3    0    1
 -2      2669      1289      2554      2486
 -1     15201    3    0    1
 -2      2669      2554      1289      1286
 -1     15202    3    0    1
 -2      2979      2722      2348      2833
 -1     15203    3    0    1
 -2      2979      2348      2722      2495
 -1     15204    3    0    1
 -2      2498      1391      2861      1383
 -1     15205    3    0    1
 -2      2498      2861      1391      2336
 -1     15206    3    0    1
 -2      2625      2641      2467      2276
 -1     15207    3    0    1
 -2      2467      2641      2625       844
 -1     15208    3    0    1
 -2      2719      1920      3006      1918
 -1     15209    3    0    1
 -2      2719      3006      1920      2291
 -1     15210    3    0    1
 -2      1214      3029      1217      2521
 -1     15211    3    0    1
 -2      1214      1217      3029      1207
 -1     15212    3    0    1
 -2      1215      1217      3029      2521
 -1     15213    3    0    1
 -2      1215      3029      1217      1207
 -1     15214    3    0    1
 -2      2590      2765      2530      2303
 -1     15215    3    0    1
 -2      2530      2765      2590      1345
 -1     15216    3    0    1
 -2      2918      1586      1590      1588
 -1     15217    3    0    1
 -2      2918      1590      1586      2479
 -1     15218    3    0    1
 -2      2109      2512      2108      2103
 -1     15219    3    0    1
 -2      2108      2512      2109      2507
 -1     15220    3    0    1
 -2      2902       574      2757       569
 -1     15221    3    0    1
 -2      2902      2757       574      2532
 -1     15222    3    0    1
 -2      2639      2594      2374      2300
 -1     15223    3    0    1
 -2      2639      2374      2594      2257
 -1     15224    3    0    1
 -2      2581      2808      2968      2231
 -1     15225    3    0    1
 -2      2968      2808      2581      2446
 -1     15226    3    0    1
 -2      2821      2262      2565      2378
 -1     15227    3    0    1
 -2      2821      2565      2262      2530
 -1     15228    3    0    1
 -2      3045      1683      1675      1679
 -1     15229    3    0    1
 -2      3045      1675      1683      2326
 -1     15230    3    0    1
 -2      2748      2998      2619      2342
 -1     15231    3    0    1
 -2      2748      2619      2998      2393
 -1     15232    3    0    1
 -2      2278      2619      2998      2342
 -1     15233    3    0    1
 -2      2278      2998      2619      2393
 -1     15234    3    0    1
 -2      1920      2719      1917      1918
 -1     15235    3    0    1
 -2      1917      2719      1920      2547
 -1     15236    3    0    1
 -2      2798      1471      2896      1466
 -1     15237    3    0    1
 -2      2798      2896      1471      2475
 -1     15238    3    0    1
 -2      2972       139      2414       140
 -1     15239    3    0    1
 -2      2818      2972      2414      2441
 -1     15240    3    0    1
 -2      2414      2972      2818       139
 -1     15241    3    0    1
 -2      2854      2751       606      2462
 -1     15242    3    0    1
 -2      2854       606      2751      2754
 -1     15243    3    0    1
 -2      2556        47       491       499
 -1     15244    3    0    1
 -2      2556       491        47      2519
 -1     15245    3    0    1
 -2      2582      2837      2932      1332
 -1     15246    3    0    1
 -2      2932      2837      2582      2830
 -1     15247    3    0    1
 -2      2751      1717      1719      1713
 -1     15248    3    0    1
 -2      2751      1719      1717      2449
 -1     15249    3    0    1
 -2      2050      2901      2066      2179
 -1     15250    3    0    1
 -2      2066      2901      2050      2449
 -1     15251    3    0    1
 -2      2080      2570      2388      2078
 -1     15252    3    0    1
 -2      2388      2570      2080      2731
 -1     15253    3    0    1
 -2       846      2994      2546      1617
 -1     15254    3    0    1
 -2      2546      2994       846      2641
 -1     15255    3    0    1
 -2      2620      2433      2736      2290
 -1     15256    3    0    1
 -2      2620      2736      2433      2578
 -1     15257    3    0    1
 -2      2745      1966      1971      2459
 -1     15258    3    0    1
 -2      2745      1971      1966      1973
 -1     15259    3    0    1
 -2      2456      2716      2879      2235
 -1     15260    3    0    1
 -2      2879      2716      2456      2318
 -1     15261    3    0    1
 -2      2810       387       165      2396
 -1     15262    3    0    1
 -2      2810       165       387       390
 -1     15263    3    0    1
 -2      2704      2944      2684      2305
 -1     15264    3    0    1
 -2      2684      2944      2704      1750
 -1     15265    3    0    1
 -2      2878      1266      2451      1265
 -1     15266    3    0    1
 -2      2878      2451      1266      2362
 -1     15267    3    0    1
 -2      2751       606       604       497
 -1     15268    3    0    1
 -2      2751       604       606      2462
 -1     15269    3    0    1
 -2      2320       283      2494      1226
 -1     15270    3    0    1
 -2      2320      2494       283       282
 -1     15271    3    0    1
 -2       273      2494       283      1226
 -1     15272    3    0    1
 -2       273       283      2494       282
 -1     15273    3    0    1
 -2      2794       948       821       946
 -1     15274    3    0    1
 -2      2794       821       948      2425
 -1     15275    3    0    1
 -2      2843      2477      2537      2831
 -1     15276    3    0    1
 -2      2843      2537      2477      2295
 -1     15277    3    0    1
 -2      2795      2238      2289      2456
 -1     15278    3    0    1
 -2      2795      2289      2238      2469
 -1     15279    3    0    1
 -2      2343      3005      2645      2231
 -1     15280    3    0    1
 -2      2645      3005      2343      2498
 -1     15281    3    0    1
 -2      2905      2476      2671      2296
 -1     15282    3    0    1
 -2      2735      3008      2033      2306
 -1     15283    3    0    1
 -2      2033      3008      2735      2031
 -1     15284    3    0    1
 -2      2033      2996      2735      2306
 -1     15285    3    0    1
 -2      2735      2996      2033      2031
 -1     15286    3    0    1
 -2      2605      2747      2270      2389
 -1     15287    3    0    1
 -2      2270      2747      2605      2536
 -1     15288    3    0    1
 -2       412      2946       409       413
 -1     15289    3    0    1
 -2       121       409      2946       413
 -1     15290    3    0    1
 -2       121      2946       409      2579
 -1     15291    3    0    1
 -2      2846      3035      2294      2473
 -1     15292    3    0    1
 -2      2294      3035      2846      2349
 -1     15293    3    0    1
 -2      2880      2539       703      2325
 -1     15294    3    0    1
 -2      2880       703      2539       704
 -1     15295    3    0    1
 -2      2894      2262       677      2470
 -1     15296    3    0    1
 -2      2894       677      2262      2583
 -1     15297    3    0    1
 -2      2315      2973      2982      2228
 -1     15298    3    0    1
 -2      2315      2982      2973      2370
 -1     15299    3    0    1
 -2      2485      2982      2973      2228
 -1     15300    3    0    1
 -2      2485      2973      2982      2370
 -1     15301    3    0    1
 -2      2744      2599        89        94
 -1     15302    3    0    1
 -2      2744        89      2599      2398
 -1     15303    3    0    1
 -2        91        89      2599        94
 -1     15304    3    0    1
 -2        91      2599        89      2398
 -1     15305    3    0    1
 -2      2752       368       197      2344
 -1     15306    3    0    1
 -2      2752       197       368       369
 -1     15307    3    0    1
 -2      2935      2272      2528      2447
 -1     15308    3    0    1
 -2      2935      2528      2272      2595
 -1     15309    3    0    1
 -2      2866      2842      2393      2332
 -1     15310    3    0    1
 -2      2866      2393      2842      2321
 -1     15311    3    0    1
 -2      2708      2793      2244      2492
 -1     15312    3    0    1
 -2      2244      2793      2708      2437
 -1     15313    3    0    1
 -2      2536      1468      2896      2342
 -1     15314    3    0    1
 -2      2536      2896      1468      1465
 -1     15315    3    0    1
 -2      2904      1832      2930      1827
 -1     15316    3    0    1
 -2      2904      2930      1832      2340
 -1     15317    3    0    1
 -2      2509       950       766       811
 -1     15318    3    0    1
 -2      2509       766       950      2460
 -1     15319    3    0    1
 -2      2817       248       240       247
 -1     15320    3    0    1
 -2      2817       240       248      2776
 -1     15321    3    0    1
 -2      2693      1871      1877      2344
 -1     15322    3    0    1
 -2      2693      1877      1871      1878
 -1     15323    3    0    1
 -2      2896      1468      1474      2342
 -1     15324    3    0    1
 -2      2896      1474      1468      1470
 -1     15325    3    0    1
 -2      2982      2874      2315      2228
 -1     15326    3    0    1
 -2      2982      2315      2874      2499
 -1     15327    3    0    1
 -2      2240      2315      2874      2228
 -1     15328    3    0    1
 -2      2240      2874      2315      2499
 -1     15329    3    0    1
 -2      2320       283       291       282
 -1     15330    3    0    1
 -2      2534       330       258       294
 -1     15331    3    0    1
 -2      2534       258       330      2311
 -1     15332    3    0    1
 -2      2350      2986      3005      2645
 -1     15333    3    0    1
 -2      2350      3005      2986      2336
 -1     15334    3    0    1
 -2      2498      3005      2986      2645
 -1     15335    3    0    1
 -2      2498      2986      3005      2336
 -1     15336    3    0    1
 -2      1792      2468      1791      1789
 -1     15337    3    0    1
 -2      1791      2468      1792      2366
 -1     15338    3    0    1
 -2      2505      1608      1596      1607
 -1     15339    3    0    1
 -2      1596      1608      2505      2384
 -1     15340    3    0    1
 -2      1596      1603      2505      1607
 -1     15341    3    0    1
 -2      2374      1840      1795      1839
 -1     15342    3    0    1
 -2      2374      1795      1840       142
 -1     15343    3    0    1
 -2      2806      1366      1363      2378
 -1     15344    3    0    1
 -2      2806      1363      1366      1369
 -1     15345    3    0    1
 -2      2549      2022      2005      2062
 -1     15346    3    0    1
 -2      2549      2005      2022      1021
 -1     15347    3    0    1
 -2      2684      2683      2432      2305
 -1     15348    3    0    1
 -2      2684      2432      2683      2267
 -1     15349    3    0    1
 -2      2886      2559       193      2292
 -1     15350    3    0    1
 -2      2563      1833      2997      1828
 -1     15351    3    0    1
 -2      2563      2997      1833      2438
 -1     15352    3    0    1
 -2      2724      2289      2844      2480
 -1     15353    3    0    1
 -2      2724      2844      2289      2478
 -1     15354    3    0    1
 -2      2979      2106      2107      2348
 -1     15355    3    0    1
 -2      2979      2107      2106      2104
 -1     15356    3    0    1
 -2      2633      2253      2702      2433
 -1     15357    3    0    1
 -2      2633      2702      2253      2486
 -1     15358    3    0    1
 -2      1569      2493      1570      1567
 -1     15359    3    0    1
 -2      1570      2493      1569      2451
 -1     15360    3    0    1
 -2      2577      3039      1903      3013
 -1     15361    3    0    1
 -2      2591      2530      2590      2281
 -1     15362    3    0    1
 -2      2591      2590      2530      2303
 -1     15363    3    0    1
 -2       283      2320       289      1225
 -1     15364    3    0    1
 -2       283       289      2320       291
 -1     15365    3    0    1
 -2       295       289      2320      1225
 -1     15366    3    0    1
 -2       295      2320       289       291
 -1     15367    3    0    1
 -2      2759      2098      2100      2096
 -1     15368    3    0    1
 -2      2759      2100      2098      2495
 -1     15369    3    0    1
 -2       806      2681       798       805
 -1     15370    3    0    1
 -2       798      2681       806      2453
 -1     15371    3    0    1
 -2      2759      2610      2335      2249
 -1     15372    3    0    1
 -2      2759      2335      2610      2404
 -1     15373    3    0    1
 -2      2768      2728      2548      2380
 -1     15374    3    0    1
 -2      2768      2548      2728      2272
 -1     15375    3    0    1
 -2      2534      2196       330      2200
 -1     15376    3    0    1
 -2      2534       330      2196      2311
 -1     15377    3    0    1
 -2       832      2458       829       828
 -1     15378    3    0    1
 -2       829      2458       832      2408
 -1     15379    3    0    1
 -2      2704      2944      2592      2121
 -1     15380    3    0    1
 -2      2592      2944      2704      2305
 -1     15381    3    0    1
 -2      2987      1496      1403      2483
 -1     15382    3    0    1
 -2      2987      1403      1496      1497
 -1     15383    3    0    1
 -2      2924       179      2564      2489
 -1     15384    3    0    1
 -2      2924      2564       179       174
 -1     15385    3    0    1
 -2       173       179      2564       174
 -1     15386    3    0    1
 -2      2816      1014      1015      1016
 -1     15387    3    0    1
 -2      1015      1014      2816      2324
 -1     15388    3    0    1
 -2      1015      1017      2816      1016
 -1     15389    3    0    1
 -2      2816      1017      1015      2324
 -1     15390    3    0    1
 -2       890      1648      2895      1643
 -1     15391    3    0    1
 -2       890      2895      1648       894
 -1     15392    3    0    1
 -2       483      3001       489       484
 -1     15393    3    0    1
 -2       483       489      3001      2510
 -1     15394    3    0    1
 -2       490       489      3001       484
 -1     15395    3    0    1
 -2       490      3001       489      2510
 -1     15396    3    0    1
 -2      2403      1451      1420      1484
 -1     15397    3    0    1
 -2      2403      1420      1451         3
 -1     15398    3    0    1
 -2       139      2972       135       140
 -1     15399    3    0    1
 -2       135      2972       139      2818
 -1     15400    3    0    1
 -2      2751      1719      2310      1716
 -1     15401    3    0    1
 -2      2751      2310      1719      2449
 -1     15402    3    0    1
 -2      2661      1923      2603      1919
 -1     15403    3    0    1
 -2      2661      2603      1923      2547
 -1     15404    3    0    1
 -2      1917      2603      1923      1919
 -1     15405    3    0    1
 -2      1917      1923      2603      2547
 -1     15406    3    0    1
 -2      1832      2904      1831      1827
 -1     15407    3    0    1
 -2      1831      2904      1832      2710
 -1     15408    3    0    1
 -2      2746       534       544      2353
 -1     15409    3    0    1
 -2      2746       544       534       543
 -1     15410    3    0    1
 -2      2681      1592      2479      1587
 -1     15411    3    0    1
 -2      2681      2479      1592      2301
 -1     15412    3    0    1
 -2      2522      2934      1692      1599
 -1     15413    3    0    1
 -2      2522      1692      2934      2422
 -1     15414    3    0    1
 -2      1600      1692      2934      1599
 -1     15415    3    0    1
 -2      1600      2934      1692      2422
 -1     15416    3    0    1
 -2      3005      2246      2343      2498
 -1     15417    3    0    1
 -2      3005      2343      2246      2581
 -1     15418    3    0    1
 -2      2717      1968      2737      2367
 -1     15419    3    0    1
 -2      2717      2737      1968      1974
 -1     15420    3    0    1
 -2       562      2903       567       563
 -1     15421    3    0    1
 -2       567      2903       562      2666
 -1     15422    3    0    1
 -2      3045      1683      1682      2827
 -1     15423    3    0    1
 -2      3045      1682      1683      1679
 -1     15424    3    0    1
 -2      2642      2569      2809      2333
 -1     15425    3    0    1
 -2      2642      2809      2569      2247
 -1     15426    3    0    1
 -2      1327      1527      2400      1325
 -1     15427    3    0    1
 -2      2400      1527      1327      2949
 -1     15428    3    0    1
 -2      2863      2378      1098      2583
 -1     15429    3    0    1
 -2      2863      1098      2378      2555
 -1     15430    3    0    1
 -2      2740      2175      2173      2686
 -1     15431    3    0    1
 -2      2740      2173      2175      2169
 -1     15432    3    0    1
 -2      2757       561       569       570
 -1     15433    3    0    1
 -2      2757       569       561      2351
 -1     15434    3    0    1
 -2       714       713      2647       712
 -1     15435    3    0    1
 -2       714      2647       713       715
 -1     15436    3    0    1
 -2      2522      2811      2237      2405
 -1     15437    3    0    1
 -2      2237      2811      2522      2509
 -1     15438    3    0    1
 -2      2896      1465      1464      1470
 -1     15439    3    0    1
 -2      2896      1464      1465      2536
 -1     15440    3    0    1
 -2      3005      2861      2498      2336
 -1     15441    3    0    1
 -2      3005      2498      2861      2341
 -1     15442    3    0    1
 -2      2735      3025      2967      2306
 -1     15443    3    0    1
 -2      2967      3025      2735      2670
 -1     15444    3    0    1
 -2      2652      1209      1215      1182
 -1     15445    3    0    1
 -2      2652      1215      1209      2332
 -1     15446    3    0    1
 -2      2657      2884      2566      2402
 -1     15447    3    0    1
 -2      2566      2884      2657      2375
 -1     15448    3    0    1
 -2      2997      1833      2618      1834
 -1     15449    3    0    1
 -2      2997      2618      1833      2438
 -1     15450    3    0    1
 -2      2611      2775      1928      2547
 -1     15451    3    0    1
 -2      2611      1928      2775      1934
 -1     15452    3    0    1
 -2      1927      1928      2775      2547
 -1     15453    3    0    1
 -2      1927      2775      1928      1934
 -1     15454    3    0    1
 -2      2671      2135      2905      2131
 -1     15455    3    0    1
 -2      2671      2905      2135      2476
 -1     15456    3    0    1
 -2      1497       645      1498       644
 -1     15457    3    0    1
 -2      1497      1498       645      2987
 -1     15458    3    0    1
 -2       648      1498       645       644
 -1     15459    3    0    1
 -2      2969      2251      2346      2843
 -1     15460    3    0    1
 -2      2969      2346      2251      2713
 -1     15461    3    0    1
 -2      2740      2173      2165      2529
 -1     15462    3    0    1
 -2      2740      2165      2173      2169
 -1     15463    3    0    1
 -2      2605      1450      2550      1447
 -1     15464    3    0    1
 -2      2605      2550      1450      2260
 -1     15465    3    0    1
 -2      1197      2850      2842      1196
 -1     15466    3    0    1
 -2      2842      2850      1197      2321
 -1     15467    3    0    1
 -2      2900      2908      2892      2323
 -1     15468    3    0    1
 -2      2892      2908      2900      2589
 -1     15469    3    0    1
 -2      2948      1879      1875      2401
 -1     15470    3    0    1
 -2      2948      1875      1879      1872
 -1     15471    3    0    1
 -2      2929       230       234      2642
 -1     15472    3    0    1
 -2      2929       234       230       239
 -1     15473    3    0    1
 -2      2775      2611      2284      2547
 -1     15474    3    0    1
 -2      2775      2284      2611      2851
 -1     15475    3    0    1
 -2      2535       200       206      2474
 -1     15476    3    0    1
 -2      2535       206       200       201
 -1     15477    3    0    1
 -2      2994      1615      1617      1620
 -1     15478    3    0    1
 -2      2994      1617      1615      2546
 -1     15479    3    0    1
 -2      2655      3024      2467      2319
 -1     15480    3    0    1
 -2      2467      3024      2655      2382
 -1     15481    3    0    1
 -2      1911      3023      1906      1913
 -1     15482    3    0    1
 -2      1911      1906      3023      2349
 -1     15483    3    0    1
 -2      1914      1906      3023      1913
 -1     15484    3    0    1
 -2      1914      3023      1906      2349
 -1     15485    3    0    1
 -2      2912      1535      3043      2787
 -1     15486    3    0    1
 -2      2912      3043      1535      1300
 -1     15487    3    0    1
 -2      2982      2993      2370      2315
 -1     15488    3    0    1
 -2      2370      2993      2982      2542
 -1     15489    3    0    1
 -2      2897       464      2513       462
 -1     15490    3    0    1
 -2      2897      2513       464      2695
 -1     15491    3    0    1
 -2       232      2642       226       230
 -1     15492    3    0    1
 -2       226      2642       232      2506
 -1     15493    3    0    1
 -2      2934      1690      1685      1599
 -1     15494    3    0    1
 -2      2934      1685      1690      2405
 -1     15495    3    0    1
 -2      2848      2202      2205      2213
 -1     15496    3    0    1
 -2      2205      2219      2848      2213
 -1     15497    3    0    1
 -2      2848      2219      2205      2300
 -1     15498    3    0    1
 -2      3035      2377      2985      2603
 -1     15499    3    0    1
 -2      3035      2985      2377      2699
 -1     15500    3    0    1
 -2      1914      3023      2603      1913
 -1     15501    3    0    1
 -2      2603      3023      1914      2719
 -1     15502    3    0    1
 -2      2603      1917      1914      1913
 -1     15503    3    0    1
 -2      1914      1917      2603      2719
 -1     15504    3    0    1
 -2      3043      2256      2355      2614
 -1     15505    3    0    1
 -2      3043      2355      2256      2477
 -1     15506    3    0    1
 -2      2887      1323      2354      1322
 -1     15507    3    0    1
 -2      2887      2354      1323      2744
 -1     15508    3    0    1
 -2        84      2354      1323      1322
 -1     15509    3    0    1
 -2        84      1323      2354      2744
 -1     15510    3    0    1
 -2      1100      2397      2089      1104
 -1     15511    3    0    1
 -2      1100      2089      2397      2862
 -1     15512    3    0    1
 -2      2651       193      2886      2559
 -1     15513    3    0    1
 -2      2651      2886       193       187
 -1     15514    3    0    1
 -2      2976       897       898       900
 -1     15515    3    0    1
 -2      2976       898       897      2370
 -1     15516    3    0    1
 -2       783      2469       782       790
 -1     15517    3    0    1
 -2       783       782      2469      2828
 -1     15518    3    0    1
 -2      1684      2659       910       937
 -1     15519    3    0    1
 -2      1684       910      2659      2334
 -1     15520    3    0    1
 -2      2969       419       428       425
 -1     15521    3    0    1
 -2      2969       428       419      2346
 -1     15522    3    0    1
 -2      2811      2197      1577      2192
 -1     15523    3    0    1
 -2      2811      1577      2197      2405
 -1     15524    3    0    1
 -2      2614       718       717      2496
 -1     15525    3    0    1
 -2      2614       717       718       720
 -1     15526    3    0    1
 -2      2924       376      2925       379
 -1     15527    3    0    1
 -2      2924      2925       376      2318
 -1     15528    3    0    1
 -2      2879      2500      2653      2392
 -1     15529    3    0    1
 -2      2879      2653      2500      2668
 -1     15530    3    0    1
 -2      1416      2853      1428      1426
 -1     15531    3    0    1
 -2      1428      2853      1416      2600
 -1     15532    3    0    1
 -2       376      2924       179       379
 -1     15533    3    0    1
 -2       179      2924       376      2489
 -1     15534    3    0    1
 -2      2752      1861      2724      2587
 -1     15535    3    0    1
 -2      2752      2724      1861      1863
 -1     15536    3    0    1
 -2      1999      2593      1882      2000
 -1     15537    3    0    1
 -2      1999      1882      2593      3031
 -1     15538    3    0    1
 -2      3048      3033      2903      2338
 -1     15539    3    0    1
 -2      3048      2903      3033      2527
 -1     15540    3    0    1
 -2      3033      1743      1742      2338
 -1     15541    3    0    1
 -2      3033      1742      1743      2140
 -1     15542    3    0    1
 -2      2811      1591      1634      2509
 -1     15543    3    0    1
 -2      2811      1634      1591      1561
 -1     15544    3    0    1
 -2      1732      2742      2928      2503
 -1     15545    3    0    1
 -2      1732      1731      2928      1710
 -1     15546    3    0    1
 -2      2928      1731      1732      2503
 -1     15547    3    0    1
 -2      2045      2711      2046      2048
 -1     15548    3    0    1
 -2      2046      2711      2045      3003
 -1     15549    3    0    1
 -2      2777      2665      2898      2277
 -1     15550    3    0    1
 -2      2777      2898      2665      2362
 -1     15551    3    0    1
 -2      2999       561       569      2351
 -1     15552    3    0    1
 -2      2999       569       561       560
 -1     15553    3    0    1
 -2      1974      2802      2364      1977
 -1     15554    3    0    1
 -2      2364      2802      1974      2717
 -1     15555    3    0    1
 -2      2995      2777      2753      2235
 -1     15556    3    0    1
 -2      2995      2753      2777      2440
 -1     15557    3    0    1
 -2      1334      2949      1336      2906
 -1     15558    3    0    1
 -2      1334      1336      2949      1522
 -1     15559    3    0    1
 -2      1519      1336      2949      2906
 -1     15560    3    0    1
 -2      1519      2949      1336      1522
 -1     15561    3    0    1
 -2      2816      1017      1024      1016
 -1     15562    3    0    1
 -2      2816      1024      1017      2780
 -1     15563    3    0    1
 -2      2851       881       882       887
 -1     15564    3    0    1
 -2      2851       882       881      2611
 -1     15565    3    0    1
 -2      2834       419       428      2346
 -1     15566    3    0    1
 -2      2834       428       419       426
 -1     15567    3    0    1
 -2      3044      1111      1106      1110
 -1     15568    3    0    1
 -2      3044      1106      1111      2815
 -1     15569    3    0    1
 -2      2989       937      2334      2659
 -1     15570    3    0    1
 -2      2989      2334       937       944
 -1     15571    3    0    1
 -2       910      2334       937      2659
 -1     15572    3    0    1
 -2       910       937      2334       944
 -1     15573    3    0    1
 -2       585      3004       580       579
 -1     15574    3    0    1
 -2       580      3004       585      2407
 -1     15575    3    0    1
 -2       924      1957      2889      1965
 -1     15576    3    0    1
 -2       924      2889      1957       919
 -1     15577    3    0    1
 -2      2818      2972       126       135
 -1     15578    3    0    1
 -2       126      2972      2818      2441
 -1     15579    3    0    1
 -2      2873      1630      1629      1636
 -1     15580    3    0    1
 -2      2873      1629      1630      2650
 -1     15581    3    0    1
 -2      2995      2764      2618      2376
 -1     15582    3    0    1
 -2      2995      2618      2764      2275
 -1     15583    3    0    1
 -2      2874      2774      2494      2255
 -1     15584    3    0    1
 -2      2874      2494      2774      2361
 -1     15585    3    0    1
 -2      2863      1093      1091      1097
 -1     15586    3    0    1
 -2      2863      1091      1093      2388
 -1     15587    3    0    1
 -2      2987      1496       645      1497
 -1     15588    3    0    1
 -2      2987       645      1496      2673
 -1     15589    3    0    1
 -2      2205      2794      2219      2218
 -1     15590    3    0    1
 -2      2219      2794      2205      2518
 -1     15591    3    0    1
 -2      2927        23      2199        95
 -1     15592    3    0    1
 -2      2927      2199        23      1503
 -1     15593    3    0    1
 -2      2916        38       509      2781
 -1     15594    3    0    1
 -2      2916       509        38        41
 -1     15595    3    0    1
 -2      1249      2918      1247      1250
 -1     15596    3    0    1
 -2      1247      2918      1249      2535
 -1     15597    3    0    1
 -2      2722      1116      1111      1115
 -1     15598    3    0    1
 -2      2722      1111      1116      2495
 -1     15599    3    0    1
 -2       240      3028       234       231
 -1     15600    3    0    1
 -2       234      3028       240      2502
 -1     15601    3    0    1
 -2      3044      1102      1106      2397
 -1     15602    3    0    1
 -2      3044      1106      1102      1105
 -1     15603    3    0    1
 -2      2842      2170      2176      2529
 -1     15604    3    0    1
 -2      2842      2176      2170      2171
 -1     15605    3    0    1
 -2      2640      2978      2639      2311
 -1     15606    3    0    1
 -2      2639      2978      2640      2374
 -1     15607    3    0    1
 -2      1815      2967      1809      1810
 -1     15608    3    0    1
 -2      1809      2967      1815      2891
 -1     15609    3    0    1
 -2      1228       254       255       264
 -1     15610    3    0    1
 -2      1228       255       254      1229
 -1     15611    3    0    1
 -2       399      1835      2710      1831
 -1     15612    3    0    1
 -2      2710      1835       399       397
 -1     15613    3    0    1
 -2      2735      1817      1811      2670
 -1     15614    3    0    1
 -2      2735      1811      1817      1818
 -1     15615    3    0    1
 -2      2928      1728      1732      1710
 -1     15616    3    0    1
 -2      2928      1732      1728      2742
 -1     15617    3    0    1
 -2      3027       791       798      2411
 -1     15618    3    0    1
 -2      3027       798       791       793
 -1     15619    3    0    1
 -2      2813      1406      1408      2626
 -1     15620    3    0    1
 -2      2813      1408      1406      1401
 -1     15621    3    0    1
 -2      2737      1960      1958      1963
 -1     15622    3    0    1
 -2      2737      1958      1960      2688
 -1     15623    3    0    1
 -2      2939      1338      1340      1344
 -1     15624    3    0    1
 -2      2939      1340      1338      2932
 -1     15625    3    0    1
 -2      2616      2384      1246      1596
 -1     15626    3    0    1
 -2      1246      2384      2616      2428
 -1     15627    3    0    1
 -2      1246      1248      2616      1596
 -1     15628    3    0    1
 -2      2616      1248      1246      2428
 -1     15629    3    0    1
 -2      1520       691      2501       695
 -1     15630    3    0    1
 -2      2501       691      1520      1518
 -1     15631    3    0    1
 -2      2707      1382      1376      1379
 -1     15632    3    0    1
 -2      2707      1376      1382      2498
 -1     15633    3    0    1
 -2      2869      1945      1952      1944
 -1     15634    3    0    1
 -2      2869      1952      1945      2864
 -1     15635    3    0    1
 -2      1673       309       312       311
 -1     15636    3    0    1
 -2      1673       312       309      1223
 -1     15637    3    0    1
 -2      2732      1353      1355      2590
 -1     15638    3    0    1
 -2      2732      1355      1353      1358
 -1     15639    3    0    1
 -2      2990       927      2544       928
 -1     15640    3    0    1
 -2      2990      2544       927      2543
 -1     15641    3    0    1
 -2       914      2976       918      2763
 -1     15642    3    0    1
 -2       914       918      2976       908
 -1     15643    3    0    1
 -2       917       918      2976      2763
 -1     15644    3    0    1
 -2       917      2976       918       908
 -1     15645    3    0    1
 -2      2848      2221      2219      2656
 -1     15646    3    0    1
 -2      2848      2219      2221      2213
 -1     15647    3    0    1
 -2      3036      1762      1761      1759
 -1     15648    3    0    1
 -2      3036      1761      1762      2510
 -1     15649    3    0    1
 -2       298      2864      2789       290
 -1     15650    3    0    1
 -2      2789      2864       298      2696
 -1     15651    3    0    1
 -2      3039      1896      1903      3013
 -1     15652    3    0    1
 -2      3039      1903      1896      1899
 -1     15653    3    0    1
 -2      2704       540      2905      2365
 -1     15654    3    0    1
 -2      2704      2905       540       531
 -1     15655    3    0    1
 -2      3038      1160      1167      1158
 -1     15656    3    0    1
 -2      3038      1167      1160      2557
 -1     15657    3    0    1
 -2      2840      2596      2936      2260
 -1     15658    3    0    1
 -2      2936      2596      2840      2347
 -1     15659    3    0    1
 -2      2936      2747      2840      2260
 -1     15660    3    0    1
 -2      2840      2747      2936      2347
 -1     15661    3    0    1
 -2      2992      1275      1270      1274
 -1     15662    3    0    1
 -2      2992      1270      1275      2680
 -1     15663    3    0    1
 -2       537      2094      2687       571
 -1     15664    3    0    1
 -2       537      2687      2094      1736
 -1     15665    3    0    1
 -2      3045      1667      2436      1674
 -1     15666    3    0    1
 -2      3045      2436      1667      2558
 -1     15667    3    0    1
 -2      1670      2436      1667      1674
 -1     15668    3    0    1
 -2      1670      1667      2436      2558
 -1     15669    3    0    1
 -2      2930      1816      1822      1823
 -1     15670    3    0    1
 -2      2930      1822      1816      2488
 -1     15671    3    0    1
 -2      2838        63       473      2591
 -1     15672    3    0    1
 -2      2838       473        63        68
 -1     15673    3    0    1
 -2      2969      2975      2946      2410
 -1     15674    3    0    1
 -2      2946      2975      2969      2346
 -1     15675    3    0    1
 -2      2902      2999      2938      2399
 -1     15676    3    0    1
 -2      2938      2999      2902      2351
 -1     15677    3    0    1
 -2      2716      2925      2801      2396
 -1     15678    3    0    1
 -2      2801      2925      2716      2318
 -1     15679    3    0    1
 -2      2776      1908      1909      1916
 -1     15680    3    0    1
 -2      2776      1909      1908      2577
 -1     15681    3    0    1
 -2      1928      2851      1936      1935
 -1     15682    3    0    1
 -2      1936      2851      1928      2611
 -1     15683    3    0    1
 -2      2937      1239      2569      1238
 -1     15684    3    0    1
 -2      2937      2569      1239      2506
 -1     15685    3    0    1
 -2       316      2953       305       317
 -1     15686    3    0    1
 -2       305      2953       316      2515
 -1     15687    3    0    1
 -2      2749       107       108       110
 -1     15688    3    0    1
 -2      2749       108       107      2697
 -1     15689    3    0    1
 -2      3049      2234      2448      2938
 -1     15690    3    0    1
 -2      3049      2448      2234      2841
 -1     15691    3    0    1
 -2      2197      1577      1566      1598
 -1     15692    3    0    1
 -2      2197      1566      1577      2192
 -1     15693    3    0    1
 -2      2929       235       245       239
 -1     15694    3    0    1
 -2      2929       245       235      2937
 -1     15695    3    0    1
 -2       259      2826      1597       260
 -1     15696    3    0    1
 -2      1597      2826       259      2422
 -1     15697    3    0    1
 -2      2502      3035      2533      2409
 -1     15698    3    0    1
 -2      2533      3035      2502      2265
 -1     15699    3    0    1
 -2       556      2999        16       560
 -1     15700    3    0    1
 -2       561        16      2999       560
 -1     15701    3    0    1
 -2       561      2999        16      2797
 -1     15702    3    0    1
 -2      2975      2967      3025      2430
 -1     15703    3    0    1
 -2      2975      3025      2967      2308
 -1     15704    3    0    1
 -2      2974      3025      2357      2430
 -1     15705    3    0    1
 -2      2974      2357      3025      2306
 -1     15706    3    0    1
 -2      3008      2357      3025      2430
 -1     15707    3    0    1
 -2      3008      3025      2357      2306
 -1     15708    3    0    1
 -2      3040       320      2553       326
 -1     15709    3    0    1
 -2      3040      2553       320      2953
 -1     15710    3    0    1
 -2       314      2459       310       307
 -1     15711    3    0    1
 -2       310      2459       314      2745
 -1     15712    3    0    1
 -2      2784      1217      2390      2521
 -1     15713    3    0    1
 -2      2784      2390      1217      1218
 -1     15714    3    0    1
 -2      2997      2016      2609      2017
 -1     15715    3    0    1
 -2      2997      2609      2016      2764
 -1     15716    3    0    1
 -2       505      3036       501       500
 -1     15717    3    0    1
 -2       501      3036       505      2612
 -1     15718    3    0    1
 -2      3042       153      2414      2810
 -1     15719    3    0    1
 -2      3042      2414       153       149
 -1     15720    3    0    1
 -2      2977       948      2794       946
 -1     15721    3    0    1
 -2      2977      2794       948      2461
 -1     15722    3    0    1
 -2       645      2673      2483       643
 -1     15723    3    0    1
 -2      2483      2673       645      2987
 -1     15724    3    0    1
 -2      2749       108      1296       110
 -1     15725    3    0    1
 -2      2749      1296       108      1298
 -1     15726    3    0    1
 -2      2741      1664      1662      1669
 -1     15727    3    0    1
 -2      2741      1662      1664      2531
 -1     15728    3    0    1
 -2      2976       913       917      2437
 -1     15729    3    0    1
 -2      2976       917       913       908
 -1     15730    3    0    1
 -2      2006      2653       996       995
 -1     15731    3    0    1
 -2       996      2653      2006      2008
 -1     15732    3    0    1
 -2      3030      1621      2418      1618
 -1     15733    3    0    1
 -2      3030      2418      1621      2994
 -1     15734    3    0    1
 -2      3039      1908      1903      1905
 -1     15735    3    0    1
 -2      3039      1903      1908      2577
 -1     15736    3    0    1
 -2      2963       505       506       510
 -1     15737    3    0    1
 -2      2963       506       505      2612
 -1     15738    3    0    1
 -2      1766       668      2656       670
 -1     15739    3    0    1
 -2      1766      2656       668      1788
 -1     15740    3    0    1
 -2      2959       269       279       270
 -1     15741    3    0    1
 -2      2959       279       269      2494
 -1     15742    3    0    1
 -2       833      1612       834       838
 -1     15743    3    0    1
 -2       833       834      1612      1606
 -1     15744    3    0    1
 -2      1502       672      2565      1504
 -1     15745    3    0    1
 -2      1502      2565       672       664
 -1     15746    3    0    1
 -2      1249       202      2535       195
 -1     15747    3    0    1
 -2      1249      2535       202      1247
 -1     15748    3    0    1
 -2      1745      1766       668      1788
 -1     15749    3    0    1
 -2      2785      1061      2872      1058
 -1     15750    3    0    1
 -2      2785      2872      1061      3002
 -1     15751    3    0    1
 -2       178      1261      2729      1258
 -1     15752    3    0    1
 -2      2729      1261       178       175
 -1     15753    3    0    1
 -2      2729      2971       178      1258
 -1     15754    3    0    1
 -2       178      2971      2729       175
 -1     15755    3    0    1
 -2      2984      1160      2677      2557
 -1     15756    3    0    1
 -2      2984      2677      1160      1161
 -1     15757    3    0    1
 -2       602      1703       422      1712
 -1     15758    3    0    1
 -2       422      1703       602       497
 -1     15759    3    0    1
 -2      1982       271      2823      1924
 -1     15760    3    0    1
 -2      1982      2823       271      3040
 -1     15761    3    0    1
 -2      2903      2157      2527      2839
 -1     15762    3    0    1
 -2      2903      2527      2157      2148
 -1     15763    3    0    1
 -2       548      2905       541       547
 -1     15764    3    0    1
 -2       541      2905       548      1744
 -1     15765    3    0    1
 -2      2053      1053      1054      2047
 -1     15766    3    0    1
 -2      2053      1054      1053      1057
 -1     15767    3    0    1
 -2      2942      1665      1659      1666
 -1     15768    3    0    1
 -2      2942      1659      1665      2858
 -1     15769    3    0    1
 -2       895      2895      1651       904
 -1     15770    3    0    1
 -2      1651      2895       895      1648
 -1     15771    3    0    1
 -2      2942      2356      1659      2858
 -1     15772    3    0    1
 -2      2942      1659      2356      2497
 -1     15773    3    0    1
 -2      2172      1209      1204      1203
 -1     15774    3    0    1
 -2      2172      1204      1209      2151
 -1     15775    3    0    1
 -2      2977       711       788      2211
 -1     15776    3    0    1
 -2      2977       788       711       787
 -1     15777    3    0    1
 -2      2977       766       948       787
 -1     15778    3    0    1
 -2      2977       948       766      2461
 -1     15779    3    0    1
 -2       330       130      2534      2200
 -1     15780    3    0    1
 -2       330      2534       130       294
 -1     15781    3    0    1
 -2       347      1702       348      1705
 -1     15782    3    0    1
 -2       348      1702       347      1991
 -1     15783    3    0    1
 -2       347      1697      1991      1702
 -1     15784    3    0    1
 -2      1991      1697       347       349
 -1     15785    3    0    1
 -2       668      1745       670      1766
 -1     15786    3    0    1
 -2       668       670      1745       669
 -1     15787    3    0    1
 -2       671       670      1745      1766
 -1     15788    3    0    1
 -2       671      1745       670       669
 -1     15789    3    0    1
 -2        25      1493        23        24
 -1     15790    3    0    1
 -2        25        23      1493      1503
 -1     15791    3    0    1
 -2      2598      1083      2071      1082
 -1     15792    3    0    1
 -2      2598      2071      1083      2074
 -1     15793    3    0    1
 -2      2647      1517      1507      2190
 -1     15794    3    0    1
 -2      2647      1507      1517      1508
 -1     15795    3    0    1
 -2      2966       768       772      2601
 -1     15796    3    0    1
 -2      2966       772       768       769
 -1     15797    3    0    1
 -2      2743      3001      2510       483
 -1     15798    3    0    1
 -2      2510      3001      2743      2426
 -1     15799    3    0    1
 -2      1763      3001      2085      1765
 -1     15800    3    0    1
 -2      1763      2085      3001      2426
 -1     15801    3    0    1
 -2      1769      2085      3001      1765
 -1     15802    3    0    1
 -2      1769      3001      2085      2426
 -1     15803    3    0    1
 -2      2946       409      2891       412
 -1     15804    3    0    1
 -2      2946      2891       409      2579
 -1     15805    3    0    1
 -2      2505      1596      2616      1603
 -1     15806    3    0    1
 -2      2616      1596      2505      2384
 -1     15807    3    0    1
 -2       179      2564       177       173
 -1     15808    3    0    1
 -2       179       177      2564      2489
 -1     15809    3    0    1
 -2      1498       645       649       648
 -1     15810    3    0    1
 -2      1498       649       645      2987
 -1     15811    3    0    1
 -2      2205      2848      2640      2202
 -1     15812    3    0    1
 -2      2640      2848      2205      2300
 -1     15813    3    0    1
 -2       550      2999       551       556
 -1     15814    3    0    1
 -2       550       551      2999      2797
 -1     15815    3    0    1
 -2        16       551      2999       556
 -1     15816    3    0    1
 -2        16      2999       551      2797
 -3
    1PSTEP                         1           1           1          
  100CL  101 1.000000000        3049                     0    1           1
 -4  DISP        4    1
 -5  D1          1    2    1    0
 -5  D2          1    2    2    0
 -5  D3          1    2    3    0
 -5  ALL         1    2    0    0    1ALL
 -1         1 0.00000E+00 0.00000E+00 0.00000E+00
 -1         2 0.00000E+00 0.00000E+00 0.00000E+00
 -1         3 0.00000E+00 0.00000E+00 0.00000E+00
 -1         4 0.00000E+00 0.00000E+00 0.00000E+00
 -1         5 0.00000E+00 0.00000E+00 0.00000E+00
 -1         6 0.00000E+00 0.00000E+00 0.00000E+00
 -1         7-5.63006E-02 4.26313E-02 2.29439E-02
 -1         8-3.75897E-02 1.73236E-02 2.97432E-02
 -1         9-9.39056E-02 5.79335E-02 3.91192E-02
 -1        10-1.42208E-01 7.11182E-02 6.36932E-02
 -1        11-1.62909E-01 6.26259E-02 9.35043E-02
 -1        12-1.99445E-01 7.78052E-02 1.12395E-01
 -1        13-2.32679E-01 6.13153E-02 1.58722E-01
 -1        14-2.48110E-01 7.85220E-02 1.59687E-01
 -1        15-2.95708E-01 7.90098E-02 2.32386E-01
 -1        16-2.81206E-01 5.02893E-02 2.43528E-01
 -1        17-3.62228E-01 8.17513E-02 3.29058E-01
 -1        18-3.61836E-01 6.43794E-02 3.47179E-01
 -1        19-1.96825E+00-2.24868E-02 2.43295E+01
 -1        20-1.78443E+00-2.17950E-02 2.43280E+01
 -1        21-1.96875E+00-2.18559E-02 2.38665E+01
 -1        22-1.96472E+00-2.33841E-02 2.43390E+01
 -1        23-1.96439E+00-2.28193E-02 2.39550E+01
 -1        24-1.90272E+00-2.32585E-02 2.42641E+01
 -1        25-1.96357E+00-2.21778E-02 2.35718E+01
 -1        26-4.21573E-01 7.94348E-02 4.56978E-01
 -1        27-4.29816E-01 6.05652E-02 4.85972E-01
 -1        28-3.93450E-01 4.11401E-02 4.22557E-01
 -1        29-4.48861E-01 4.46153E-02 5.33138E-01
 -1        30-4.85352E-01 8.20857E-02 6.03911E-01
 -1        31-4.78626E-01 6.29379E-02 5.98354E-01
 -1        32-5.26095E-01 5.71769E-02 7.14723E-01
 -1        33-5.15015E-01 4.39036E-02 6.89112E-01
 -1        34-5.49967E-01 7.79472E-02 7.70342E-01
 -1        35-5.91432E-01 5.65296E-02 9.00800E-01
 -1        36-5.60214E-01 3.29053E-02 8.19284E-01
 -1        37-5.96235E-01 7.70133E-02 9.12035E-01
 -1        38-6.01366E-01 3.17449E-02 9.58844E-01
 -1        39-6.39194E-01 7.23472E-02 1.05808E+00
 -1        40-6.50419E-01 5.21128E-02 1.08697E+00
 -1        41-6.63334E-01 3.93290E-02 1.16400E+00
 -1        42-6.96046E-01 7.01692E-02 1.27033E+00
 -1        43-7.02177E-01 4.96991E-02 1.30712E+00
 -1        44-7.25887E-01 2.61763E-02 1.37751E+00
 -1        45-7.51756E-01 7.07233E-02 1.50211E+00
 -1        46-7.64705E-01 4.20521E-02 1.54182E+00
 -1        47-7.72851E-01 2.85690E-02 1.62243E+00
 -1        48-1.96579E+00-2.32049E-02 2.43370E+01
 -1        49-8.13326E-01 6.62402E-02 1.74837E+00
 -1        50-8.17908E-01 4.38138E-02 1.78673E+00
 -1        51-8.40667E-01 2.87878E-02 1.90769E+00
 -1        52-8.54000E-01 6.81095E-02 1.95232E+00
 -1        53-8.60989E-01 4.96117E-02 2.00085E+00
 -1        54-8.92627E-01 6.55860E-02 2.15680E+00
 -1        55-9.03199E-01 4.58329E-02 2.20557E+00
 -1        56-8.77910E-01 2.23958E-02 2.11979E+00
 -1        57-1.96799E+00-2.17930E-02 2.36565E+01
 -1        58-1.96829E+00-2.15011E-02 2.32512E+01
 -1        59-9.41694E-01 6.16529E-02 2.44572E+00
 -1        60-9.42232E-01 3.82506E-02 2.46933E+00
 -1        61-9.25801E-01 2.05081E-02 2.34690E+00
 -1        62-9.64959E-01 4.88798E-02 2.61592E+00
 -1        63-9.62088E-01 2.35868E-02 2.57962E+00
 -1        64-9.94635E-01 6.66621E-02 2.75632E+00
 -1        65-9.84083E-01 3.01520E-02 2.72990E+00
 -1        66-1.01258E+00 5.84880E-02 2.90026E+00
 -1        67-1.01746E+00 3.32223E-02 2.94190E+00
 -1        68-1.01223E+00 1.71202E-02 2.91561E+00
 -1        69-1.02536E+00 6.62343E-02 2.99287E+00
 -1        70-1.96771E+00-2.26229E-02 2.43307E+01
 -1        71-1.06837E+00 4.71042E-02 3.26303E+00
 -1        72-1.06451E+00 6.28297E-02 3.24173E+00
 -1        73-1.05582E+00 2.88911E-02 3.22681E+00
 -1        74-1.06475E+00 1.07248E-02 3.23865E+00
 -1        75-1.11330E+00 4.73775E-02 3.58369E+00
 -1        76-1.11527E+00 6.31845E-02 3.58187E+00
 -1        77-1.09551E+00 2.72631E-02 3.47917E+00
 -1        78-1.11303E+00 1.74474E-02 3.61494E+00
 -1        79-1.14274E+00 3.62069E-02 3.81101E+00
 -1        80-1.14614E+00 5.18494E-02 3.83872E+00
 -1        81-1.15795E+00 6.07866E-02 3.94652E+00
 -1        82-1.16574E+00 2.55283E-02 3.98161E+00
 -1        83-1.14372E+00 1.18703E-02 3.84989E+00
 -1        84-1.18026E+00 4.13231E-02 4.08164E+00
 -1        85-1.17906E+00 8.50094E-03 4.12523E+00
 -1        86-1.96772E+00-2.14240E-02 2.30789E+01
 -1        87-1.20288E+00 5.39824E-02 4.31864E+00
 -1        88-1.20921E+00 3.14149E-02 4.37663E+00
 -1        89-1.20783E+00 1.94060E-02 4.35638E+00
 -1        90-1.22548E+00 4.35198E-02 4.48991E+00
 -1        91-1.21023E+00 8.23889E-03 4.40406E+00
 -1        92-1.23692E+00 5.51754E-02 4.60893E+00
 -1        93-1.26076E+00 3.01374E-02 4.80150E+00
 -1        94-1.24531E+00 1.73696E-02 4.71809E+00
 -1        95-1.96505E+00-2.24306E-02 2.37802E+01
 -1        96-1.96435E+00-2.16219E-02 2.33077E+01
 -1        97-1.26789E+00 5.36950E-02 4.90920E+00
 -1        98-1.29033E+00 3.66743E-02 5.08529E+00
 -1        99-1.29973E+00 2.42377E-02 5.16957E+00
 -1       100-1.29082E+00 1.07831E-02 5.08758E+00
 -1       101-1.31584E+00 5.28086E-02 5.31253E+00
 -1       102-1.33218E+00 3.83214E-02 5.50044E+00
 -1       103-1.33012E+00 2.85467E-02 5.48143E+00
 -1       104-1.34264E+00 1.07743E-02 5.61096E+00
 -1       105-1.31393E+00 6.51046E-03 5.33397E+00
 -1       106-1.35737E+00 5.01962E-02 5.73497E+00
 -1       107-1.36040E+00 2.83426E-02 5.80613E+00
 -1       108-1.37326E+00 4.13278E-02 5.93614E+00
 -1       109-1.37421E+00 1.06945E-02 5.95770E+00
 -1       110-1.39422E+00 3.10303E-02 6.16924E+00
 -1       111-1.39307E+00 4.83845E-02 6.17159E+00
 -1       112-1.39409E+00 1.59239E-02 6.21387E+00
 -1       113-1.40852E+00 2.44038E-02 6.34530E+00
 -1       114-1.41036E+00 1.26610E-03 6.34693E+00
 -1       115-1.43363E+00 3.42331E-02 6.64911E+00
 -1       116-1.42947E+00 4.55298E-02 6.61351E+00
 -1       117-1.43865E+00 2.17695E-02 6.68257E+00
 -1       118-1.43337E+00 7.91919E-03 6.65652E+00
 -1       119-1.96720E+00-2.20581E-02 2.37680E+01
 -1       120-1.96697E+00-2.27929E-02 2.43327E+01
 -1       121-1.45516E+00-3.38327E-03 6.90878E+00
 -1       122-1.46247E+00 2.85745E-02 7.04305E+00
 -1       123-1.46549E+00 4.13159E-02 7.07181E+00
 -1       124-1.47045E+00 1.84701E-02 7.13579E+00
 -1       125-1.46759E+00 9.51891E-03 7.10843E+00
 -1       126-1.49336E+00-4.91809E-04 7.38675E+00
 -1       127-1.50180E+00 2.64986E-02 7.54002E+00
 -1       128-1.49043E+00 3.54911E-02 7.40752E+00
 -1       129-1.49912E+00 4.19348E-02 7.54319E+00
 -1       130-1.96580E+00-2.24164E-02 2.38143E+01
 -1       131-1.96632E+00-2.30047E-02 2.43349E+01
 -1       132-1.49477E+00 1.27853E-02 7.47831E+00
 -1       133-1.52514E+00 1.55582E-02 7.84901E+00
 -1       134-1.51514E+00 4.09639E-03 7.70055E+00
 -1       135-1.50907E+00-5.76668E-03 7.60655E+00
 -1       136-1.53350E+00 2.22156E-02 7.98986E+00
 -1       137-1.52389E+00 3.04705E-02 7.88465E+00
 -1       138-1.52654E+00 4.01346E-02 7.90217E+00
 -1       139-1.54039E+00 3.84125E-03 8.05898E+00
 -1       140-1.54145E+00-6.98635E-03 8.02231E+00
 -1       141-1.96709E+00-2.13797E-02 2.32601E+01
 -1       142-1.96748E+00-2.13827E-02 2.31762E+01
 -1       143-1.96744E+00-2.13514E-02 2.26354E+01
 -1       144-1.55082E+00 3.10519E-02 8.24583E+00
 -1       145-1.55135E+00 3.84381E-02 8.26250E+00
 -1       146-1.55702E+00 1.21503E-02 8.33054E+00
 -1       147-1.56013E+00 2.11473E-02 8.34940E+00
 -1       148-1.57172E+00 2.39439E-03 8.55771E+00
 -1       149-1.56661E+00-3.59248E-03 8.44254E+00
 -1       150-1.58520E+00 2.06195E-02 8.72594E+00
 -1       151-1.57416E+00 3.65505E-02 8.63575E+00
 -1       152-1.58152E+00 1.12369E-02 8.70270E+00
 -1       153-1.58923E+00-5.32416E-03 8.81169E+00
 -1       154-1.60099E+00 3.51279E-02 9.01177E+00
 -1       155-1.60851E+00 1.21291E-02 9.08563E+00
 -1       156-1.60644E+00 4.84426E-03 9.06153E+00
 -1       157-1.96520E+00-2.17817E-02 2.34185E+01
 -1       158-1.96317E+00-2.11732E-02 2.31102E+01
 -1       159-1.60902E+00 2.19542E-02 9.10870E+00
 -1       160-1.61605E+00-6.31102E-03 9.19078E+00
 -1       161-1.63259E+00 1.90230E-02 9.48985E+00
 -1       162-1.63254E+00 3.13332E-02 9.52192E+00
 -1       163-1.63193E+00 8.41732E-03 9.46365E+00
 -1       164-1.62971E+00 3.68220E-04 9.43992E+00
 -1       165-1.63488E+00-1.01723E-02 9.52416E+00
 -1       166-1.64688E+00 2.44964E-02 9.76663E+00
 -1       167-1.65540E+00 9.79631E-03 9.85601E+00
 -1       168-1.65095E+00 3.52103E-03 9.83310E+00
 -1       169-1.65864E+00 1.62311E-02 1.00083E+01
 -1       170-1.66057E+00 2.83439E-02 1.00427E+01
 -1       171-1.65756E+00-5.96182E-03 9.96023E+00
 -1       172-1.67301E+00 8.61550E-03 1.02476E+01
 -1       173-1.67850E+00 2.27852E-04 1.03532E+01
 -1       174-1.67839E+00-7.45305E-03 1.03560E+01
 -1       175-1.68370E+00 1.43038E-02 1.04692E+01
 -1       176-1.68848E+00 2.55906E-02 1.05703E+01
 -1       177-1.69284E+00 4.85472E-03 1.06352E+01
 -1       178-1.69896E+00 1.53336E-02 1.08089E+01
 -1       179-1.70254E+00-6.67611E-03 1.08601E+01
 -1       180-1.71530E+00 8.31098E-03 1.11212E+01
 -1       181-1.71532E+00 1.63626E-02 1.11516E+01
 -1       182-1.71579E+00 2.42633E-02 1.11054E+01
 -1       183-1.71072E+00 6.28479E-04 1.10295E+01
 -1       184-1.73144E+00-5.85264E-04 1.14371E+01
 -1       185-1.72803E+00-6.12818E-03 1.13784E+01
 -1       186-1.71767E+00-1.22446E-02 1.11798E+01
 -1       187-1.73902E+00 5.21084E-03 1.16671E+01
 -1       188-1.74169E+00 1.79976E-02 1.17131E+01
 -1       189-1.73396E+00 2.44069E-02 1.15127E+01
 -1       190-1.74570E+00-8.26064E-03 1.17309E+01
 -1       191-1.74866E+00-1.42746E-02 1.18173E+01
 -1       192-1.75140E+00 2.28419E-02 1.19239E+01
 -1       193-1.75428E+00-9.20002E-04 1.19819E+01
 -1       194-1.76438E+00 5.77757E-03 1.22149E+01
 -1       195-1.76552E+00 1.40842E-02 1.22616E+01
 -1       196-1.76742E+00-7.59260E-03 1.22593E+01
 -1       197-1.76514E+00-1.83346E-02 1.22133E+01
 -1       198-1.77008E+00 2.13001E-02 1.23392E+01
 -1       199-1.96251E+00-1.99986E-02 2.26480E+01
 -1       200-1.77726E+00-2.04764E-04 1.25422E+01
 -1       201-1.78293E+00 5.21342E-03 1.27067E+01
 -1       202-1.78750E+00 1.54213E-02 1.28225E+01
 -1       203-1.78488E+00 2.09658E-02 1.27587E+01
 -1       204-1.78547E+00-8.84623E-03 1.26867E+01
 -1       205-1.78100E+00-1.45363E-02 1.25901E+01
 -1       206-1.79828E+00 1.30375E-03 1.31193E+01
 -1       207-1.80329E+00-5.90456E-03 1.31768E+01
 -1       208-1.79640E+00-1.26345E-02 1.30551E+01
 -1       209-1.96633E+00-2.14690E-02 2.21733E+01
 -1       210-1.96614E+00-2.10486E-02 2.22979E+01
 -1       211-1.80756E+00 6.84650E-03 1.33520E+01
 -1       212-1.80627E+00 1.12962E-02 1.33710E+01
 -1       213-1.79895E+00 1.74631E-02 1.31810E+01
 -1       214-1.81434E+00 1.64329E-02 1.36101E+01
 -1       215-1.81947E+00-1.02945E-03 1.36880E+01
 -1       216-1.82374E+00-6.77851E-03 1.37458E+01
 -1       217-1.82366E+00-1.38655E-02 1.37667E+01
 -1       218-1.81046E+00-1.59845E-02 1.33988E+01
 -1       219-1.82048E+00 9.37045E-03 1.37946E+01
 -1       220-1.83178E+00 3.89290E-03 1.41037E+01
 -1       221-1.83362E+00 8.32303E-03 1.42320E+01
 -1       222-1.83251E+00 1.34461E-02 1.41839E+01
 -1       223-1.83645E+00-1.48103E-03 1.42632E+01
 -1       224-1.83568E+00-6.82403E-03 1.41266E+01
 -1       225-1.83918E+00-1.49715E-02 1.42686E+01
 -1       226-1.84279E+00 3.86664E-03 1.44870E+01
 -1       227-1.84983E+00-7.96842E-03 1.46000E+01
 -1       228-1.84755E+00 8.63155E-03 1.46683E+01
 -1       229-1.84966E+00 1.26088E-02 1.47653E+01
 -1       230-1.85596E+00-1.70784E-03 1.48435E+01
 -1       231-1.85692E+00-1.65100E-02 1.48504E+01
 -1       232-1.85453E+00 2.21197E-03 1.49018E+01
 -1       233-1.85986E+00 5.63109E-03 1.51050E+01
 -1       234-1.86692E+00-8.16429E-03 1.51812E+01
 -1       235-1.86642E+00-8.21455E-04 1.53416E+01
 -1       236-1.86233E+00 9.91577E-03 1.52038E+01
 -1       237-1.96485E+00-2.16262E-02 2.17113E+01
 -1       238-1.96635E+00-2.09482E-02 2.25797E+01
 -1       239-1.87557E+00-4.77328E-03 1.56172E+01
 -1       240-1.87277E+00-1.62453E-02 1.54349E+01
 -1       241-1.87690E+00 3.60990E-03 1.56946E+01
 -1       242-1.87447E+00 8.18272E-03 1.56456E+01
 -1       243-1.88173E+00-9.11566E-03 1.57794E+01
 -1       244-1.87821E+00-1.17698E-02 1.56138E+01
 -1       245-1.88413E+00-4.20767E-04 1.59734E+01
 -1       246-1.88913E+00-1.22751E-02 1.60563E+01
 -1       247-1.88395E+00-1.51875E-02 1.58883E+01
 -1       248-1.88835E+00-1.93488E-02 1.60167E+01
 -1       249-1.89252E+00-5.90039E-03 1.62476E+01
 -1       250-1.89178E+00 2.29173E-03 1.62880E+01
 -1       251-1.88586E+00 7.33766E-03 1.60899E+01
 -1       252-1.89508E+00-8.62836E-03 1.63726E+01
 -1       253-1.89585E+00-1.62228E-02 1.63338E+01
 -1       254-1.90069E+00-2.56861E-03 1.66042E+01
 -1       255-1.89585E+00 3.93634E-03 1.65376E+01
 -1       256-1.90205E+00-1.35705E-02 1.66267E+01
 -1       257-1.90238E+00-1.84027E-02 1.65797E+01
 -1       258-1.96485E+00-2.08150E-02 2.28727E+01
 -1       259-1.96389E+00-2.03103E-02 2.26980E+01
 -1       260-1.96283E+00-1.93901E-02 2.23215E+01
 -1       261-1.96107E+00-1.79401E-02 2.20315E+01
 -1       262-1.90393E+00-6.27781E-03 1.67776E+01
 -1       263-1.90594E+00-1.08247E-02 1.69268E+01
 -1       264-1.90904E+00-2.56605E-03 1.71110E+01
 -1       265-1.90884E+00 1.73243E-03 1.71383E+01
 -1       266-1.91192E+00-1.34033E-02 1.71889E+01
 -1       267-1.91307E+00-1.90715E-02 1.71520E+01
 -1       268-1.91264E+00-2.26451E-02 1.71084E+01
 -1       269-1.91686E+00-7.46332E-03 1.73815E+01
 -1       270-1.91751E+00-1.05330E-02 1.75117E+01
 -1       271-1.96408E+00-2.11116E-02 2.16406E+01
 -1       272-1.92096E+00-5.64784E-03 1.77012E+01
 -1       273-1.92004E+00-3.03693E-03 1.77204E+01
 -1       274-1.91945E+00-3.99199E-04 1.77412E+01
 -1       275-1.92078E+00-1.42684E-02 1.76428E+01
 -1       276-1.92472E+00-1.68364E-02 1.77738E+01
 -1       277-1.92109E+00-1.91114E-02 1.76015E+01
 -1       278-1.92390E+00-2.24857E-02 1.76964E+01
 -1       279-1.92736E+00-9.22505E-03 1.79835E+01
 -1       280-1.92701E+00-1.30157E-02 1.79563E+01
 -1       281-1.92932E+00-1.99149E-02 1.80537E+01
 -1       282-1.93062E+00-8.28610E-03 1.83069E+01
 -1       283-1.92940E+00-5.95628E-03 1.83289E+01
 -1       284-1.92611E+00-3.20268E-03 1.81950E+01
 -1       285-1.93448E+00-1.35092E-02 1.84168E+01
 -1       286-1.93330E+00-1.69328E-02 1.83863E+01
 -1       287-1.93367E+00-2.31730E-02 1.83026E+01
 -1       288-1.93560E+00-1.17314E-02 1.85907E+01
 -1       289-1.93268E+00-5.49174E-03 1.86523E+01
 -1       290-1.93917E+00-2.06040E-02 1.86608E+01
 -1       291-1.93975E+00-1.04106E-02 1.89505E+01
 -1       292-1.94115E+00-1.37221E-02 1.89951E+01
 -1       293-1.94262E+00-1.70061E-02 1.89965E+01
 -1       294-1.96590E+00-2.18827E-02 2.34913E+01
 -1       295-1.93965E+00-9.01063E-03 1.90860E+01
 -1       296-1.94068E+00-6.86712E-03 1.92633E+01
 -1       297-1.94549E+00-1.60276E-02 1.93231E+01
 -1       298-1.94638E+00-2.11821E-02 1.92278E+01
 -1       299-1.94673E+00-1.47371E-02 1.94986E+01
 -1       300-1.94589E+00-1.15395E-02 1.95336E+01
 -1       301-1.94482E+00-9.24738E-03 1.95549E+01
 -1       302-1.94949E+00-1.84468E-02 1.96087E+01
 -1       303-1.95006E+00-1.97916E-02 1.95869E+01
 -1       304-1.94688E+00-9.70052E-03 1.98763E+01
 -1       305-1.95287E+00-1.60047E-02 2.00719E+01
 -1       306-1.95193E+00-1.75457E-02 1.99354E+01
 -1       307-1.95319E+00-2.07351E-02 1.99158E+01
 -1       308-1.95101E+00-1.42550E-02 1.99754E+01
 -1       309-1.95228E+00-1.34296E-02 2.01487E+01
 -1       310-1.95382E+00-1.88344E-02 2.00651E+01
 -1       311-1.95514E+00-1.46625E-02 2.05260E+01
 -1       312-1.95355E+00-1.25535E-02 2.04911E+01
 -1       313-1.95713E+00-1.82585E-02 2.05377E+01
 -1       314-1.95776E+00-2.06091E-02 2.04995E+01
 -1       315-1.95914E+00-2.22554E-02 2.04796E+01
 -1       316-1.95750E+00-1.65158E-02 2.07338E+01
 -1       317-1.95904E+00-1.76847E-02 2.08673E+01
 -1       318-1.95792E+00-1.58663E-02 2.09919E+01
 -1       319-1.95643E+00-1.44348E-02 2.09533E+01
 -1       320-1.96123E+00-1.89169E-02 2.11590E+01
 -1       321-1.96060E+00-1.99305E-02 2.09766E+01
 -1       322-1.96170E+00-2.08739E-02 2.11067E+01
 -1       323-1.96017E+00-1.73961E-02 2.12652E+01
 -1       324-1.95900E+00-1.59392E-02 2.14152E+01
 -1       325-1.96160E+00-1.83327E-02 2.14274E+01
 -1       326-1.96307E+00-1.98862E-02 2.14866E+01
 -1       327-1.96135E+00-1.78083E-02 2.17448E+01
 -1       328-1.96244E+00-2.16827E-02 2.10947E+01
 -1       329-1.96482E+00-2.05195E-02 2.19055E+01
 -1       330-1.96644E+00-2.18336E-02 2.35119E+01
 -1       331-1.96358E+00-1.96348E-02 2.22485E+01
 -1       332-1.96199E+00-1.83381E-02 2.17610E+01
 -1       333-1.96635E+00-2.10851E-02 2.29933E+01
 -1       334-1.96489E+00-2.01733E-02 2.21215E+01
 -1       335-1.96311E+00-1.92581E-02 2.16645E+01
 -1       336-1.96362E+00-1.94964E-02 2.19860E+01
 -1       337-1.96558E+00-2.07392E-02 2.27432E+01
 -1       338-1.95348E+00-2.27807E-02 1.98648E+01
 -1       339-1.94678E+00-2.40889E-02 1.92515E+01
 -1       340-1.93901E+00-2.49808E-02 1.86423E+01
 -1       341-1.93040E+00-2.54971E-02 1.80331E+01
 -1       342-1.92226E+00-2.58826E-02 1.75797E+01
 -1       343-1.91322E+00-2.58916E-02 1.71284E+01
 -1       344 0.00000E+00 0.00000E+00 0.00000E+00
 -1       345 0.00000E+00 0.00000E+00 0.00000E+00
 -1       346 0.00000E+00 0.00000E+00 0.00000E+00
 -1       347 0.00000E+00 0.00000E+00 0.00000E+00
 -1       348 0.00000E+00 0.00000E+00 0.00000E+00
 -1       349 0.00000E+00 0.00000E+00 0.00000E+00
 -1       350 0.00000E+00 0.00000E+00 0.00000E+00
 -1       351-1.90168E+00-2.57705E-02 1.65284E+01
 -1       352-1.89986E+00-2.18810E-02 1.64675E+01
 -1       353-1.88733E+00-2.76717E-02 1.59339E+01
 -1       354-1.88886E+00-2.33659E-02 1.60312E+01
 -1       355-1.87728E+00-2.19773E-02 1.55868E+01
 -1       356-1.87608E+00-2.71867E-02 1.54891E+01
 -1       357-1.86406E+00-2.78959E-02 1.50495E+01
 -1       358-1.86206E+00-2.26402E-02 1.50003E+01
 -1       359-1.85094E+00-2.84786E-02 1.46133E+01
 -1       360-1.84422E+00-2.18032E-02 1.44184E+01
 -1       361-1.83736E+00-2.81461E-02 1.41774E+01
 -1       362-1.83060E+00-2.22666E-02 1.39873E+01
 -1       363-1.81921E+00-2.91053E-02 1.36032E+01
 -1       364-1.81606E+00-2.14114E-02 1.35555E+01
 -1       365-1.79922E+00-3.08187E-02 1.30344E+01
 -1       366-1.79514E+00-2.17538E-02 1.29903E+01
 -1       367-1.77769E+00-3.10589E-02 1.24699E+01
 -1       368-1.77833E+00-2.16023E-02 1.25655E+01
 -1       369-1.76154E+00-2.44421E-02 1.21324E+01
 -1       370-1.75460E+00-3.33443E-02 1.19154E+01
 -1       371-1.73488E+00-2.65198E-02 1.14931E+01
 -1       372-1.72964E+00-3.38566E-02 1.13676E+01
 -1       373-1.72930E+00-1.90875E-02 1.13796E+01
 -1       374-1.71673E+00-2.77862E-02 1.10891E+01
 -1       375-1.71117E+00-3.50402E-02 1.09645E+01
 -1       376-1.70168E+00-1.84784E-02 1.08294E+01
 -1       377-1.69241E+00-3.33272E-02 1.05620E+01
 -1       378-1.68242E+00-2.21259E-02 1.03694E+01
 -1       379-1.68064E+00-1.53505E-02 1.03695E+01
 -1       380 0.00000E+00 0.00000E+00 0.00000E+00
 -1       381-1.66178E+00-2.86725E-02 1.00243E+01
 -1       382-1.66300E+00-3.66623E-02 1.00328E+01
 -1       383-1.65142E+00-1.59227E-02 9.84310E+00
 -1       384-1.63906E+00-2.55555E-02 9.63432E+00
 -1       385-1.63018E+00-3.63681E-02 9.51506E+00
 -1       386-1.62046E+00-2.90389E-02 9.30992E+00
 -1       387-1.62445E+00-1.92449E-02 9.37651E+00
 -1       388-1.60521E+00-3.74144E-02 9.00622E+00
 -1       389-1.60068E+00-2.31222E-02 8.95401E+00
 -1       390-1.61196E+00-1.58453E-02 9.12619E+00
 -1       391-1.58885E+00-1.49303E-02 8.74701E+00
 -1       392 0.00000E+00 0.00000E+00 0.00000E+00
 -1       393 0.00000E+00 0.00000E+00 0.00000E+00
 -1       394 0.00000E+00 0.00000E+00 0.00000E+00
 -1       395 0.00000E+00 0.00000E+00 0.00000E+00
 -1       396-1.57325E+00-3.87915E-02 8.50571E+00
 -1       397-1.57315E+00-2.49774E-02 8.48767E+00
 -1       398-1.56368E+00-1.29642E-02 8.37381E+00
 -1       399-1.55428E+00-3.02910E-02 8.18105E+00
 -1       400-1.54269E+00-4.16151E-02 8.01190E+00
 -1       401-1.53491E+00-1.94224E-02 7.97403E+00
 -1       402 0.00000E+00 0.00000E+00 0.00000E+00
 -1       403-1.52612E+00-2.98567E-02 7.82151E+00
 -1       404-1.50461E+00-4.21066E-02 7.53344E+00
 -1       405-1.50828E+00-2.13775E-02 7.61674E+00
 -1       406-1.48929E+00-2.97212E-02 7.34348E+00
 -1       407-1.48349E+00-1.98386E-02 7.26343E+00
 -1       408-1.47862E+00-4.17364E-02 7.17897E+00
 -1       409-1.46721E+00-1.18628E-02 7.05553E+00
 -1       410-1.45134E+00-2.58646E-02 6.87233E+00
 -1       411-1.45254E+00-4.34765E-02 6.83662E+00
 -1       412-1.42677E+00-2.02500E-02 6.57904E+00
 -1       413-1.43207E+00-7.03081E-03 6.61315E+00
 -1       414-1.42520E+00-2.90099E-02 6.54314E+00
 -1       415-1.42432E+00-4.20563E-02 6.50019E+00
 -1       416-1.40255E+00-2.29035E-02 6.28777E+00
 -1       417-1.39391E+00-4.25210E-02 6.16821E+00
 -1       418-1.38977E+00-9.88548E-03 6.15265E+00
 -1       419-1.37055E+00-2.19629E-02 5.95717E+00
 -1       420-1.37841E+00-1.98700E-03 5.95752E+00
 -1       421 0.00000E+00 0.00000E+00 0.00000E+00
 -1       422 0.00000E+00 0.00000E+00 0.00000E+00
 -1       423-1.35626E+00-3.10101E-02 5.75887E+00
 -1       424-1.36323E+00-4.07811E-02 5.83915E+00
 -1       425-1.36230E+00-1.20362E-02 5.82877E+00
 -1       426-1.33917E+00-2.53491E-02 5.57555E+00
 -1       427-1.33272E+00-4.51270E-02 5.51956E+00
 -1       428-1.33193E+00-1.65071E-02 5.49466E+00
 -1       429-1.33299E+00-3.40576E-03 5.52487E+00
 -1       430-1.32657E+00-3.68240E-02 5.44233E+00
 -1       431-1.29532E+00-2.93092E-02 5.14643E+00
 -1       432-1.29258E+00-4.52969E-02 5.10243E+00
 -1       433 0.00000E+00 0.00000E+00 0.00000E+00
 -1       434 0.00000E+00 0.00000E+00 0.00000E+00
 -1       435 0.00000E+00 0.00000E+00 0.00000E+00
 -1       436-1.30120E+00-1.72918E-02 5.18164E+00
 -1       437-1.29307E+00-4.02063E-03 5.10677E+00
 -1       438-1.27044E+00-1.87858E-02 4.88019E+00
 -1       439-1.26079E+00-2.62722E-02 4.75883E+00
 -1       440-1.25341E+00-3.76894E-02 4.73024E+00
 -1       441-1.25180E+00-4.78349E-02 4.69986E+00
 -1       442-1.24425E+00-9.88209E-04 4.70957E+00
 -1       443 0.00000E+00 0.00000E+00 0.00000E+00
 -1       444-1.22670E+00-1.37013E-02 4.48402E+00
 -1       445-1.20996E+00-3.14719E-02 4.35999E+00
 -1       446-1.20871E+00-4.98453E-02 4.31317E+00
 -1       447-1.20461E+00-5.20582E-03 4.30684E+00
 -1       448-1.17045E+00-2.40588E-02 4.04815E+00
 -1       449-1.16168E+00-4.20160E-02 3.97015E+00
 -1       450-1.15997E+00-5.40295E-02 3.94035E+00
 -1       451-1.16589E+00-6.12438E-03 4.03147E+00
 -1       452 0.00000E+00 0.00000E+00 0.00000E+00
 -1       453-1.13188E+00-1.98290E-02 3.73586E+00
 -1       454-1.13038E+00-7.30305E-03 3.75925E+00
 -1       455-1.11372E+00-3.10582E-02 3.62556E+00
 -1       456-1.11432E+00-4.98539E-02 3.58013E+00
 -1       457-1.09432E+00-3.76130E-02 3.43404E+00
 -1       458-1.07634E+00-2.12777E-02 3.33849E+00
 -1       459-1.08406E+00-4.63476E-03 3.40784E+00
 -1       460-1.06659E+00-5.25942E-02 3.23614E+00
 -1       461-1.05704E+00-3.82019E-02 3.18461E+00
 -1       462-1.03777E+00-1.26794E-02 3.06179E+00
 -1       463-1.05191E+00-7.83935E-04 3.16100E+00
 -1       464-1.03568E+00-2.36871E-02 3.03944E+00
 -1       465-1.01755E+00-4.16952E-02 2.93289E+00
 -1       466-1.01714E+00-5.45301E-02 2.90336E+00
 -1       467-1.01544E+00 1.98060E-03 2.91885E+00
 -1       468 0.00000E+00 0.00000E+00 0.00000E+00
 -1       469-1.00142E+00-2.87958E-02 2.79709E+00
 -1       470-9.86177E-01-1.11876E-02 2.74156E+00
 -1       471-9.68288E-01-4.35836E-02 2.62462E+00
 -1       472-9.66113E-01-5.81164E-02 2.59343E+00
 -1       473-9.58827E-01 1.23061E-02 2.56771E+00
 -1       474 0.00000E+00 0.00000E+00 0.00000E+00
 -1       475-9.49974E-01-2.00127E-02 2.54295E+00
 -1       476-9.30216E-01-3.10143E-03 2.44468E+00
 -1       477-9.07570E-01-1.97701E-02 2.31265E+00
 -1       478-9.08966E-01-3.98941E-02 2.27602E+00
 -1       479-9.27240E-01-5.52523E-02 2.36693E+00
 -1       480-8.88648E-01-5.74102E-02 2.15202E+00
 -1       481-8.79032E-01-7.17277E-03 2.15245E+00
 -1       482-8.87582E-01 5.82277E-03 2.18689E+00
 -1       483-8.61270E-01-1.68923E-02 2.03321E+00
 -1       484-8.52682E-01-4.39966E-02 2.00350E+00
 -1       485-8.34845E-01-5.73005E-02 1.88233E+00
 -1       486 0.00000E+00 0.00000E+00 0.00000E+00
 -1       487-8.30974E-01-7.35086E-04 1.88832E+00
 -1       488-8.30603E-01 1.30643E-02 1.91525E+00
 -1       489-8.23560E-01-1.97106E-02 1.83650E+00
 -1       490-8.12587E-01-3.84022E-02 1.79516E+00
 -1       491-8.02559E-01 1.38104E-02 1.73672E+00
 -1       492-7.77952E-01-2.83239E-02 1.61672E+00
 -1       493-7.77689E-01-4.17552E-02 1.61451E+00
 -1       494-7.80868E-01-5.54536E-02 1.62263E+00
 -1       495-7.72083E-01-1.25731E-02 1.61721E+00
 -1       496-7.86487E-01 3.79045E-03 1.64818E+00
 -1       497 0.00000E+00 0.00000E+00 0.00000E+00
 -1       498 0.00000E+00 0.00000E+00 0.00000E+00
 -1       499-7.62389E-01 1.63611E-02 1.55329E+00
 -1       500-7.23815E-01-2.91392E-02 1.39217E+00
 -1       501-7.19934E-01-4.40079E-02 1.37884E+00
 -1       502-7.24249E-01-5.81386E-02 1.38476E+00
 -1       503-7.17077E-01-1.31675E-02 1.38109E+00
 -1       504-7.12759E-01 2.39896E-03 1.36438E+00
 -1       505-6.81163E-01-2.98493E-02 1.21409E+00
 -1       506-6.66555E-01-4.88327E-02 1.15939E+00
 -1       507-6.83339E-01-6.27921E-02 1.21685E+00
 -1       508-6.57525E-01-7.65282E-03 1.13187E+00
 -1       509-6.59991E-01 1.56655E-02 1.15547E+00
 -1       510-6.38779E-01-3.22088E-02 1.08359E+00
 -1       511-6.42337E-01-6.52527E-02 1.05954E+00
 -1       512-6.04545E-01-4.68320E-02 9.56477E-01
 -1       513-6.18254E-01-1.58060E-02 1.01900E+00
 -1       514-5.96389E-01 4.00579E-03 9.52771E-01
 -1       515-5.93318E-01-2.78397E-02 9.40771E-01
 -1       516-5.80496E-01-6.29195E-02 8.64454E-01
 -1       517-5.69561E-01-1.39128E-02 8.70599E-01
 -1       518-5.49858E-01-2.89787E-02 8.05688E-01
 -1       519-5.46603E-01-4.89492E-02 7.77486E-01
 -1       520 0.00000E+00 0.00000E+00 0.00000E+00
 -1       521-5.55354E-01 3.99239E-04 8.11713E-01
 -1       522-5.46479E-01 1.78357E-02 7.77410E-01
 -1       523-5.20490E-01-6.49995E-02 6.89711E-01
 -1       524-5.15831E-01-1.88138E-02 7.02156E-01
 -1       525-5.10936E-01-7.35119E-03 6.82374E-01
 -1       526-4.87760E-01-3.83004E-02 6.14794E-01
 -1       527-4.76938E-01 2.26216E-02 6.16222E-01
 -1       528-4.55901E-01-1.59722E-02 5.63241E-01
 -1       529-4.66356E-01-6.92868E-02 5.70904E-01
 -1       530-4.45052E-01 1.65492E-03 5.32733E-01
 -1       531-4.13743E-01-3.73025E-02 4.64830E-01
 -1       532-4.32880E-01-5.41392E-02 4.99125E-01
 -1       533-4.18703E-01-7.06082E-02 4.58253E-01
 -1       534-4.26620E-01 1.51101E-02 4.99815E-01
 -1       535-4.33968E-01 3.17198E-02 5.00686E-01
 -1       536 0.00000E+00 0.00000E+00 0.00000E+00
 -1       537 0.00000E+00 0.00000E+00 0.00000E+00
 -1       538 0.00000E+00 0.00000E+00 0.00000E+00
 -1       539 0.00000E+00 0.00000E+00 0.00000E+00
 -1       540-3.96991E-01-2.38735E-02 4.35422E-01
 -1       541-3.82038E-01-5.74229E-02 3.91411E-01
 -1       542-3.78708E-01-9.67843E-03 4.06659E-01
 -1       543-3.87259E-01 6.64917E-03 4.15286E-01
 -1       544-3.92157E-01 2.35780E-02 4.18935E-01
 -1       545-3.52999E-01-7.56632E-02 3.31521E-01
 -1       546-3.40068E-01-2.17200E-02 3.27976E-01
 -1       547-3.27063E-01-4.62772E-02 3.02902E-01
 -1       548-3.19535E-01-6.34909E-02 2.89028E-01
 -1       549-3.15794E-01 4.98905E-03 3.01733E-01
 -1       550-3.27047E-01 2.43542E-02 3.00273E-01
 -1       551-3.25074E-01 4.20666E-02 2.96921E-01
 -1       552-2.90569E-01-7.29908E-02 2.29247E-01
 -1       553-2.77138E-01-5.91392E-03 2.49561E-01
 -1       554-2.58754E-01-3.90068E-02 2.13641E-01
 -1       555-2.59886E-01-5.83721E-02 1.95219E-01
 -1       556-2.68724E-01 2.01693E-02 2.20644E-01
 -1       557-2.31826E-01-2.03845E-02 1.78559E-01
 -1       558-2.33776E-01-6.78669E-02 1.42630E-01
 -1       559-2.35975E-01-7.09082E-03 1.82868E-01
 -1       560-2.21150E-01 3.24238E-02 1.68046E-01
 -1       561-2.22470E-01 4.88900E-02 1.62127E-01
 -1       562-2.10682E-01-3.33859E-02 1.54541E-01
 -1       563-2.15610E-01-4.92629E-02 1.44205E-01
 -1       564-1.85927E-01-2.67596E-03 1.39348E-01
 -1       565-1.80460E-01 1.31003E-02 1.37385E-01
 -1       566-1.67263E-01-1.73600E-02 1.19002E-01
 -1       567-1.63548E-01-3.44562E-02 1.07755E-01
 -1       568-1.62242E-01-6.50793E-02 8.89767E-02
 -1       569-1.51289E-01 2.71783E-02 1.04837E-01
 -1       570-1.58757E-01 4.50003E-02 1.07488E-01
 -1       571 0.00000E+00 0.00000E+00 0.00000E+00
 -1       572-1.10461E-01-5.74101E-02 5.65295E-02
 -1       573-1.17244E-01 1.72183E-05 7.88861E-02
 -1       574-1.18852E-01 1.21117E-02 7.99399E-02
 -1       575-1.18164E-01-1.15376E-02 7.63803E-02
 -1       576-1.12682E-01-2.92655E-02 7.29471E-02
 -1       577-9.65342E-02 2.98290E-02 6.94771E-02
 -1       578-9.55992E-02 3.90347E-02 5.85481E-02
 -1       579-7.06213E-02-9.44798E-03 5.32883E-02
 -1       580-6.05895E-02-2.42346E-02 3.83427E-02
 -1       581-6.29408E-02-4.31804E-02 3.66056E-02
 -1       582-5.02931E-02-2.45983E-03 3.80178E-02
 -1       583-5.09255E-02 1.47694E-02 3.71717E-02
 -1       584-2.55801E-02 6.12106E-04 1.93136E-02
 -1       585 0.00000E+00 0.00000E+00 0.00000E+00
 -1       586 0.00000E+00 0.00000E+00 0.00000E+00
 -1       587 0.00000E+00 0.00000E+00 0.00000E+00
 -1       588 0.00000E+00 0.00000E+00 0.00000E+00
 -1       589-2.50732E-02 1.42727E-03 2.17721E-02
 -1       590 0.00000E+00 0.00000E+00 0.00000E+00
 -1       591 0.00000E+00 0.00000E+00 0.00000E+00
 -1       592 0.00000E+00 0.00000E+00 0.00000E+00
 -1       593 0.00000E+00 0.00000E+00 0.00000E+00
 -1       594 0.00000E+00 0.00000E+00 0.00000E+00
 -1       595 0.00000E+00 0.00000E+00 0.00000E+00
 -1       596 0.00000E+00 0.00000E+00 0.00000E+00
 -1       597 0.00000E+00 0.00000E+00 0.00000E+00
 -1       598 0.00000E+00 0.00000E+00 0.00000E+00
 -1       599 0.00000E+00 0.00000E+00 0.00000E+00
 -1       600 0.00000E+00 0.00000E+00 0.00000E+00
 -1       601 0.00000E+00 0.00000E+00 0.00000E+00
 -1       602 0.00000E+00 0.00000E+00 0.00000E+00
 -1       603 0.00000E+00 0.00000E+00 0.00000E+00
 -1       604 0.00000E+00 0.00000E+00 0.00000E+00
 -1       605 0.00000E+00 0.00000E+00 0.00000E+00
 -1       606 0.00000E+00 0.00000E+00 0.00000E+00
 -1       607 0.00000E+00 0.00000E+00 0.00000E+00
 -1       608 0.00000E+00 0.00000E+00 0.00000E+00
 -1       609 0.00000E+00 0.00000E+00 0.00000E+00
 -1       610 0.00000E+00 0.00000E+00 0.00000E+00
 -1       611 0.00000E+00 0.00000E+00 0.00000E+00
 -1       612 0.00000E+00 0.00000E+00 0.00000E+00
 -1       613 0.00000E+00 0.00000E+00 0.00000E+00
 -1       614 0.00000E+00 0.00000E+00 0.00000E+00
 -1       615 0.00000E+00 0.00000E+00 0.00000E+00
 -1       616 0.00000E+00 0.00000E+00 0.00000E+00
 -1       617 0.00000E+00 0.00000E+00 0.00000E+00
 -1       618 0.00000E+00 0.00000E+00 0.00000E+00
 -1       619 0.00000E+00 0.00000E+00 0.00000E+00
 -1       620 0.00000E+00 0.00000E+00 0.00000E+00
 -1       621 0.00000E+00 0.00000E+00 0.00000E+00
 -1       622 2.95804E-02-1.79431E-02 9.34777E-03
 -1       623 6.10195E-02-5.05358E-02 2.37144E-02
 -1       624 8.67326E-02-3.95076E-02 4.86723E-02
 -1       625 1.14963E-01-7.09245E-02 4.81722E-02
 -1       626 1.71048E-01-4.37886E-02 1.00729E-01
 -1       627 1.62624E-01-7.02684E-02 8.57691E-02
 -1       628 2.30183E-01-6.98470E-02 1.42466E-01
 -1       629 2.21950E-01-4.10484E-02 1.60274E-01
 -1       630 2.96182E-01-7.25408E-02 2.27406E-01
 -1       631 2.84299E-01-4.32553E-02 2.38708E-01
 -1       632 3.23744E-01-6.22487E-02 2.97008E-01
 -1       633 3.38166E-01-7.67889E-02 3.04532E-01
 -1       634 3.87133E-01-7.27563E-02 3.90223E-01
 -1       635 3.73538E-01-5.37015E-02 3.77657E-01
 -1       636 4.25597E-01-5.69260E-02 4.89733E-01
 -1       637 3.91108E-01-3.27901E-02 4.12382E-01
 -1       638 4.48391E-01-7.48284E-02 5.27520E-01
 -1       639 4.49254E-01-3.28308E-02 5.40503E-01
 -1       640 4.89796E-01-5.23071E-02 6.34312E-01
 -1       641 5.16975E-01-7.13746E-02 6.80132E-01
 -1       642 5.13973E-01-3.07927E-02 6.85697E-01
 -1       643 5.40135E-01-4.89024E-02 7.56865E-01
 -1       644 5.77081E-01-6.48258E-02 8.62400E-01
 -1       645 5.81410E-01-4.53791E-02 8.96706E-01
 -1       646 5.60703E-01-3.13383E-02 8.18821E-01
 -1       647 6.02323E-01-2.87837E-02 9.58388E-01
 -1       648 6.34973E-01-6.37885E-02 1.06175E+00
 -1       649 6.43563E-01-3.91177E-02 1.09375E+00
 -1       650 6.48146E-01-2.66653E-02 1.10489E+00
 -1       651 6.82211E-01-6.17739E-02 1.21558E+00
 -1       652 6.88200E-01-4.05363E-02 1.25423E+00
 -1       653 6.94202E-01-1.56227E-02 1.26211E+00
 -1       654 7.24259E-01-5.61251E-02 1.38426E+00
 -1       655 7.31054E-01-3.37034E-02 1.42482E+00
 -1       656 7.39784E-01-1.79542E-02 1.46727E+00
 -1       657 7.65781E-01-5.67201E-02 1.57131E+00
 -1       658 7.84136E-01-3.57874E-02 1.67107E+00
 -1       659 8.05201E-01-5.66971E-02 1.75350E+00
 -1       660 7.81278E-01-1.02282E-02 1.64582E+00
 -1       661 8.25911E-01-3.27032E-02 1.86097E+00
 -1       662 8.31333E-01-3.26461E-03 1.87371E+00
 -1       663 8.44594E-01-5.34237E-02 1.94938E+00
 -1       664 8.65458E-01-3.02030E-02 2.06153E+00
 -1       665 8.63355E-01-2.11902E-02 2.02878E+00
 -1       666 8.89554E-01-5.34260E-02 2.15605E+00
 -1       667 1.96373E+00-1.07869E-02 2.43300E+01
 -1       668 1.96371E+00-9.93211E-03 2.37919E+01
 -1       669 1.96294E+00-1.07960E-02 2.41749E+01
 -1       670 1.96295E+00-9.32803E-03 2.34449E+01
 -1       671 1.96241E+00-9.64010E-03 2.35593E+01
 -1       672 9.12892E-01-4.18897E-02 2.32072E+00
 -1       673 9.04210E-01-1.56279E-02 2.29315E+00
 -1       674 9.39494E-01-5.53995E-02 2.44527E+00
 -1       675 9.37529E-01-1.97592E-02 2.46874E+00
 -1       676 9.81391E-01-3.49493E-02 2.69417E+00
 -1       677 9.62454E-01-1.65660E-03 2.61110E+00
 -1       678 9.90263E-01-4.96837E-02 2.75498E+00
 -1       679 9.83119E-01-1.52087E-02 2.72955E+00
 -1       680 1.01148E+00-2.85401E-02 2.90569E+00
 -1       681 9.95867E-01-3.85113E-03 2.83368E+00
 -1       682 1.03751E+00-4.87667E-02 3.07594E+00
 -1       683 1.03268E+00-2.84638E-03 3.07030E+00
 -1       684 1.03334E+00-1.62091E-02 3.05603E+00
 -1       685 1.96488E+00-1.05642E-02 2.43322E+01
 -1       686 1.96445E+00-1.01207E-02 2.39661E+01
 -1       687 1.06620E+00-2.77680E-02 3.29203E+00
 -1       688 1.07806E+00-4.84742E-02 3.32515E+00
 -1       689 1.08385E+00-1.37296E-02 3.39363E+00
 -1       690 1.07281E+00 1.53092E-03 3.32466E+00
 -1       691 1.10862E+00-3.74929E-02 3.58687E+00
 -1       692 1.11007E+00-5.04850E-02 3.58487E+00
 -1       693 1.11404E+00-7.29037E-04 3.61312E+00
 -1       694 1.13055E+00-1.71868E-02 3.71069E+00
 -1       695 1.15004E+00-2.49605E-02 3.87087E+00
 -1       696 1.14559E+00-4.64087E-02 3.85608E+00
 -1       697 1.16668E+00-1.57760E-02 4.01384E+00
 -1       698 1.14342E+00 9.59860E-04 3.85126E+00
 -1       699 1.18178E+00-3.33035E-02 4.11338E+00
 -1       700 1.17728E+00 6.72688E-03 4.12272E+00
 -1       701 1.96177E+00-8.23025E-03 2.29434E+01
 -1       702 1.18367E+00-4.62923E-02 4.13143E+00
 -1       703 1.21444E+00-1.73162E-02 4.37739E+00
 -1       704 1.20642E+00-5.98889E-03 4.35705E+00
 -1       705 1.22626E+00-2.64242E-02 4.48833E+00
 -1       706 1.21675E+00-4.04943E-02 4.41120E+00
 -1       707 1.21269E+00 6.64830E-03 4.40734E+00
 -1       708 1.25113E+00-4.08041E-02 4.71076E+00
 -1       709 1.25164E+00-1.59226E-02 4.75376E+00
 -1       710 1.23849E+00-1.21864E-03 4.64136E+00
 -1       711 1.96665E+00-1.00276E-02 2.43367E+01
 -1       712 1.90603E+00-1.00622E-02 2.43013E+01
 -1       713 1.96662E+00-9.50237E-03 2.37223E+01
 -1       714 1.96728E+00-9.36933E-03 2.35714E+01
 -1       715 1.96683E+00-9.24177E-03 2.34546E+01
 -1       716 1.26882E+00-1.76348E-03 4.91036E+00
 -1       717 1.29038E+00-2.79096E-02 5.08640E+00
 -1       718 1.28346E+00-1.72499E-02 5.06468E+00
 -1       719 1.29551E+00-4.16047E-02 5.10896E+00
 -1       720 1.31550E+00-1.46731E-02 5.37990E+00
 -1       721 1.32053E+00-2.49512E-03 5.35405E+00
 -1       722 1.30589E+00 9.65093E-03 5.27395E+00
 -1       723 1.33203E+00-2.87404E-02 5.50368E+00
 -1       724 1.33634E+00-4.20861E-02 5.52376E+00
 -1       725 1.35637E+00-1.06914E-02 5.73930E+00
 -1       726 1.35944E+00 8.10156E-04 5.79441E+00
 -1       727 1.37012E+00-2.33993E-02 5.92687E+00
 -1       728 1.37161E+00-3.67715E-02 5.95118E+00
 -1       729 1.96679E+00-8.99565E-03 2.29557E+01
 -1       730 1.39768E+00-1.28543E-02 6.23390E+00
 -1       731 1.39108E+00-1.69545E-03 6.20038E+00
 -1       732 1.40705E+00-2.13805E-02 6.36596E+00
 -1       733 1.41039E+00-3.74077E-02 6.39438E+00
 -1       734 1.42557E+00-1.20415E-02 6.57203E+00
 -1       735 1.42660E+00 1.10846E-03 6.65652E+00
 -1       736 1.43318E+00 1.19097E-02 6.62269E+00
 -1       737 1.43798E+00-2.46062E-02 6.70627E+00
 -1       738 1.45018E+00-3.66128E-02 6.84445E+00
 -1       739 1.45530E+00-1.40586E-02 6.90540E+00
 -1       740 1.46364E+00-2.14766E-02 7.04582E+00
 -1       741 1.46942E+00 2.74897E-03 7.11076E+00
 -1       742 1.46966E+00 1.51865E-02 7.10025E+00
 -1       743 1.48582E+00-3.46811E-02 7.30668E+00
 -1       744 1.49136E+00-8.41574E-03 7.37226E+00
 -1       745 1.51390E+00-2.09123E-02 7.72405E+00
 -1       746 1.50153E+00 4.13408E-03 7.58176E+00
 -1       747 1.49686E+00 1.44401E-02 7.54614E+00
 -1       748 1.51993E+00-3.37929E-02 7.77968E+00
 -1       749 1.51560E+00-9.49315E-03 7.72755E+00
 -1       750 1.54349E+00-1.31131E-02 8.09991E+00
 -1       751 1.54006E+00-4.30906E-03 8.07391E+00
 -1       752 1.53498E+00 7.07146E-03 8.04529E+00
 -1       753 1.96369E+00-9.26501E-03 2.33596E+01
 -1       754 1.54344E+00-2.61054E-02 8.12620E+00
 -1       755 1.55366E+00-3.35603E-02 8.26515E+00
 -1       756 1.56760E+00-1.83691E-02 8.47926E+00
 -1       757 1.57686E+00-3.13016E-02 8.63668E+00
 -1       758 1.56398E+00-8.50843E-03 8.45375E+00
 -1       759 1.57533E+00 1.38245E-03 8.55754E+00
 -1       760 1.56484E+00 1.05000E-02 8.43921E+00
 -1       761 1.58980E+00-5.38744E-03 8.82998E+00
 -1       762 1.58668E+00 7.78019E-03 8.81102E+00
 -1       763 1.60052E+00-1.74381E-02 8.97906E+00
 -1       764 1.60154E+00-3.05605E-02 9.01078E+00
 -1       765 1.59708E+00 1.64011E-03 8.92885E+00
 -1       766 1.96598E+00-9.05222E-03 2.31885E+01
 -1       767 1.62211E+00-1.12336E-02 9.34687E+00
 -1       768 1.61960E+00-1.27075E-03 9.31849E+00
 -1       769 1.61234E+00 8.78093E-03 9.19021E+00
 -1       770 1.62354E+00-2.33133E-02 9.37496E+00
 -1       771 1.62461E+00-3.11443E-02 9.39177E+00
 -1       772 1.63288E+00 1.17046E-02 9.52334E+00
 -1       773 1.96556E+00-1.04082E-02 2.43335E+01
 -1       774 1.64508E+00-1.54262E-02 9.74613E+00
 -1       775 1.64764E+00-2.91233E-02 9.78104E+00
 -1       776 1.65278E+00-7.33636E-03 9.85330E+00
 -1       777 1.64764E+00 1.82752E-04 9.83079E+00
 -1       778 1.66329E+00 9.51302E-03 1.00912E+01
 -1       779 1.67461E+00-1.27456E-02 1.02614E+01
 -1       780 1.66877E+00-2.25052E-02 1.01526E+01
 -1       781 1.66869E+00-2.92489E-02 1.01705E+01
 -1       782 1.67907E+00-5.83336E-03 1.03705E+01
 -1       783 1.67682E+00 1.22427E-03 1.03464E+01
 -1       784 1.68882E+00-1.96885E-02 1.05491E+01
 -1       785 1.68935E+00-2.78501E-02 1.05693E+01
 -1       786 1.69228E+00 9.61297E-03 1.06201E+01
 -1       787 1.96601E+00-9.47136E-03 2.36481E+01
 -1       788 1.96587E+00-1.02360E-02 2.43348E+01
 -1       789 1.69609E+00-8.51261E-03 1.07212E+01
 -1       790 1.70346E+00 7.90126E-05 1.08898E+01
 -1       791 1.71583E+00-1.49499E-02 1.10700E+01
 -1       792 1.71825E+00-2.64112E-02 1.11031E+01
 -1       793 1.71669E+00-7.96632E-03 1.11836E+01
 -1       794 1.71967E+00 5.45531E-03 1.12515E+01
 -1       795 1.96279E+00-8.23851E-03 2.28589E+01
 -1       796 1.96173E+00-7.39416E-03 2.25308E+01
 -1       797 1.72915E+00-1.79230E-03 1.14383E+01
 -1       798 1.74191E+00-9.16339E-03 1.16650E+01
 -1       799 1.73775E+00-1.79508E-02 1.15888E+01
 -1       800 1.73535E+00-2.53345E-02 1.15125E+01
 -1       801 1.75402E+00-1.97394E-02 1.19528E+01
 -1       802 1.75291E+00-2.59444E-02 1.19243E+01
 -1       803 1.74546E+00 4.23500E-05 1.18362E+01
 -1       804 1.74285E+00 7.43771E-03 1.17570E+01
 -1       805 1.76145E+00-1.08806E-02 1.21553E+01
 -1       806 1.76410E+00-5.19344E-03 1.22690E+01
 -1       807 1.76559E+00 6.88255E-03 1.22606E+01
 -1       808 1.74953E+00 1.56602E-02 1.19391E+01
 -1       809 1.77334E+00-1.68207E-02 1.24179E+01
 -1       810 1.77532E+00-2.39622E-02 1.24791E+01
 -1       811 1.96560E+00-8.79069E-03 2.26742E+01
 -1       812 1.77431E+00 1.23691E-02 1.24697E+01
 -1       813 1.77752E+00-1.02271E-02 1.25750E+01
 -1       814 1.78820E+00-1.60003E-02 1.27870E+01
 -1       815 1.78775E+00-4.18398E-03 1.28283E+01
 -1       816 1.78244E+00 4.49301E-03 1.26892E+01
 -1       817 1.79538E+00-9.57482E-03 1.29950E+01
 -1       818 1.79872E+00-2.35518E-02 1.30419E+01
 -1       819 1.79537E+00 1.21513E-03 1.30134E+01
 -1       820 1.79788E+00 8.41787E-03 1.30549E+01
 -1       821 1.96482E+00-9.45721E-03 2.35186E+01
 -1       822 1.80681E+00-1.62089E-02 1.32955E+01
 -1       823 1.80707E+00-8.64105E-03 1.33428E+01
 -1       824 1.81085E+00 2.15095E-03 1.34612E+01
 -1       825 1.81951E+00-1.67123E-02 1.36570E+01
 -1       826 1.81812E+00-2.16110E-02 1.36092E+01
 -1       827 1.81998E+00-5.93664E-03 1.36877E+01
 -1       828 1.81877E+00 6.37858E-03 1.37060E+01
 -1       829 1.80840E+00 1.02438E-02 1.33988E+01
 -1       830 1.82430E+00-1.11578E-02 1.38163E+01
 -1       831 1.82632E+00-6.66667E-04 1.39115E+01
 -1       832 1.82632E+00 9.10205E-03 1.39726E+01
 -1       833 1.83295E+00-1.50062E-02 1.40793E+01
 -1       834 1.83737E+00-2.19548E-02 1.41841E+01
 -1       835 1.83805E+00-6.91815E-03 1.42645E+01
 -1       836 1.83750E+00 2.52047E-03 1.42892E+01
 -1       837 1.84123E+00-1.23388E-02 1.43932E+01
 -1       838 1.84711E+00-1.78834E-02 1.45232E+01
 -1       839 1.96574E+00-8.99328E-03 2.23395E+01
 -1       840 1.84738E+00-4.27498E-03 1.46092E+01
 -1       841 1.84638E+00 8.85995E-03 1.45467E+01
 -1       842 1.85423E+00-1.14678E-02 1.47768E+01
 -1       843 1.85043E+00-2.22894E-02 1.46203E+01
 -1       844 1.85437E+00-6.93709E-03 1.48444E+01
 -1       845 1.85573E+00 3.52841E-03 1.48699E+01
 -1       846 1.86462E+00-1.53280E-02 1.51062E+01
 -1       847 1.86300E+00-1.98926E-02 1.50573E+01
 -1       848 1.86499E+00-1.54087E-03 1.51908E+01
 -1       849 1.85734E+00 8.83124E-03 1.49844E+01
 -1       850 1.86971E+00-1.07065E-02 1.53423E+01
 -1       851 1.96531E+00-9.89233E-03 2.39038E+01
 -1       852 1.96395E+00-8.80807E-03 2.30761E+01
 -1       853 1.96040E+00-6.17254E-03 2.19894E+01
 -1       854 1.96057E+00-6.74841E-03 2.23274E+01
 -1       855 1.87169E+00-5.40976E-03 1.54298E+01
 -1       856 1.86708E+00 3.59905E-03 1.53106E+01
 -1       857 1.86934E+00 8.45093E-03 1.54267E+01
 -1       858 1.87504E+00-1.41525E-02 1.55472E+01
 -1       859 1.87833E+00-1.80768E-02 1.56468E+01
 -1       860 1.88091E+00-2.46968E-03 1.57800E+01
 -1       861 1.87812E+00 2.77769E-03 1.57505E+01
 -1       862 1.88563E+00-7.70547E-03 1.59515E+01
 -1       863 1.88386E+00-1.32060E-02 1.59827E+01
 -1       864 1.88456E+00 7.74975E-03 1.60148E+01
 -1       865 1.88900E+00-1.88038E-02 1.60915E+01
 -1       866 1.89555E+00-3.64946E-03 1.63738E+01
 -1       867 1.89491E+00-8.88104E-05 1.63538E+01
 -1       868 1.89290E+00 3.66681E-03 1.63335E+01
 -1       869 1.89703E+00-7.67254E-03 1.64609E+01
 -1       870 1.89849E+00-1.46327E-02 1.65544E+01
 -1       871 1.89898E+00-1.82004E-02 1.65386E+01
 -1       872 1.89852E+00 5.64455E-03 1.65795E+01
 -1       873 1.96356E+00-9.40449E-03 2.17234E+01
 -1       874 1.96430E+00-8.88444E-03 2.19148E+01
 -1       875 1.90585E+00-3.96196E-03 1.69263E+01
 -1       876 1.90663E+00-9.76204E-04 1.69018E+01
 -1       877 1.90482E+00 1.65597E-03 1.68760E+01
 -1       878 1.90753E+00-7.56580E-03 1.69311E+01
 -1       879 1.91084E+00-1.12089E-02 1.71059E+01
 -1       880 1.91250E+00-1.62634E-02 1.71367E+01
 -1       881 1.90773E+00 4.57097E-03 1.69981E+01
 -1       882 1.90846E+00 8.12533E-03 1.71078E+01
 -1       883 1.91834E+00-5.10087E-03 1.75154E+01
 -1       884 1.91521E+00-8.63697E-03 1.73891E+01
 -1       885 1.91707E+00-1.89970E-03 1.74922E+01
 -1       886 1.91654E+00 9.13469E-04 1.74713E+01
 -1       887 1.91555E+00 3.08946E-03 1.74505E+01
 -1       888 1.96310E+00-8.00432E-03 2.26728E+01
 -1       889 1.96193E+00-7.20942E-03 2.23251E+01
 -1       890 1.91894E+00-1.17569E-02 1.75599E+01
 -1       891 1.92261E+00-1.55620E-02 1.77407E+01
 -1       892 1.91923E+00 5.06879E-03 1.76976E+01
 -1       893 1.92774E+00-7.37204E-03 1.79890E+01
 -1       894 1.92656E+00-1.05078E-02 1.80127E+01
 -1       895 1.93028E+00-1.49708E-02 1.81956E+01
 -1       896 1.92807E+00-4.69317E-03 1.81149E+01
 -1       897 1.92474E+00-2.40370E-03 1.79436E+01
 -1       898 1.92628E+00-4.47163E-04 1.80750E+01
 -1       899 1.92448E+00 1.93755E-03 1.80546E+01
 -1       900 1.93238E+00-1.77442E-03 1.84681E+01
 -1       901 1.93042E+00 2.91804E-03 1.84224E+01
 -1       902 1.93537E+00-6.23538E-03 1.85628E+01
 -1       903 1.93650E+00-8.13345E-03 1.85998E+01
 -1       904 1.93477E+00-1.09445E-02 1.84701E+01
 -1       905 1.93744E+00-1.40862E-02 1.86524E+01
 -1       906 1.93453E+00 7.39633E-04 1.86716E+01
 -1       907 1.94151E+00-1.10374E-02 1.89320E+01
 -1       908 1.94043E+00-3.08497E-03 1.90065E+01
 -1       909 1.93698E+00 1.95399E-03 1.89203E+01
 -1       910 1.96408E+00-8.54383E-03 2.20128E+01
 -1       911 1.94404E+00-6.58214E-03 1.92053E+01
 -1       912 1.94376E+00-1.32326E-02 1.91097E+01
 -1       913 1.94484E+00-4.97645E-03 1.93328E+01
 -1       914 1.94062E+00-6.45288E-04 1.91288E+01
 -1       915 1.94665E+00-9.25388E-03 1.93824E+01
 -1       916 1.94931E+00-1.21400E-02 1.95696E+01
 -1       917 1.94524E+00-3.51331E-03 1.94655E+01
 -1       918 1.94582E+00-1.78260E-03 1.95979E+01
 -1       919 1.94576E+00-1.84556E-04 1.95767E+01
 -1       920 1.94086E+00 3.97099E-03 1.92517E+01
 -1       921 1.94908E+00-6.86323E-03 1.97697E+01
 -1       922 1.95121E+00-8.67730E-03 1.98340E+01
 -1       923 1.94975E+00-4.31900E-03 1.98535E+01
 -1       924 1.94863E+00-4.41847E-04 1.99488E+01
 -1       925 1.95450E+00-1.17927E-02 2.01836E+01
 -1       926 1.95422E+00-5.84916E-03 2.03253E+01
 -1       927 1.95255E+00-3.85011E-03 2.02213E+01
 -1       928 1.95269E+00-3.00190E-03 2.03525E+01
 -1       929 1.95545E+00-7.36816E-03 2.04262E+01
 -1       930 1.95680E+00-8.83943E-03 2.04551E+01
 -1       931 1.95223E+00-9.66507E-04 2.04792E+01
 -1       932 1.95921E+00-1.02927E-02 2.07993E+01
 -1       933 1.95774E+00-6.30136E-03 2.08669E+01
 -1       934 1.95712E+00-5.47391E-03 2.08436E+01
 -1       935 1.95475E+00-2.93360E-03 2.07549E+01
 -1       936 1.95917E+00-7.28267E-03 2.10410E+01
 -1       937 1.96067E+00-8.20636E-03 2.11001E+01
 -1       938 1.95770E+00-4.49104E-03 2.11227E+01
 -1       939 1.96175E+00-9.56190E-03 2.12612E+01
 -1       940 1.96090E+00-7.16595E-03 2.14274E+01
 -1       941 1.95969E+00-6.38224E-03 2.13183E+01
 -1       942 1.95980E+00-5.68497E-03 2.14282E+01
 -1       943 1.95813E+00-4.38755E-03 2.14038E+01
 -1       944 1.96215E+00-8.01987E-03 2.16107E+01
 -1       945 1.96094E+00-6.40106E-03 2.18401E+01
 -1       946 1.96542E+00-9.37021E-03 2.35135E+01
 -1       947 1.96240E+00-7.38244E-03 2.22890E+01
 -1       948 1.96523E+00-8.86464E-03 2.30940E+01
 -1       949 1.96174E+00-6.81714E-03 2.17795E+01
 -1       950 1.96456E+00-8.48010E-03 2.24621E+01
 -1       951 1.96278E+00-7.71496E-03 2.18570E+01
 -1       952 1.96433E+00-8.53776E-03 2.28675E+01
 -1       953 1.96315E+00-7.70124E-03 2.22823E+01
 -1       954 1.96361E+00-7.93922E-03 2.22500E+01
 -1       955 1.96448E+00-8.45955E-03 2.26507E+01
 -1       956 1.95863E+00-4.92724E-03 2.17112E+01
 -1       957 1.95609E+00-2.96393E-03 2.10950E+01
 -1       958 1.94666E+00 1.66782E-03 1.98640E+01
 -1       959 1.93285E+00 5.76501E-03 1.86423E+01
 -1       960 1.92396E+00 7.36134E-03 1.80339E+01
 -1       961 1.91295E+00 9.78593E-03 1.74298E+01
 -1       962 1.90211E+00 1.23505E-02 1.68278E+01
 -1       963 0.00000E+00 0.00000E+00 0.00000E+00
 -1       964 0.00000E+00 0.00000E+00 0.00000E+00
 -1       965 0.00000E+00 0.00000E+00 0.00000E+00
 -1       966 1.89472E+00 9.27009E-03 1.64669E+01
 -1       967 1.89169E+00 1.36194E-02 1.63801E+01
 -1       968 1.88443E+00 1.08462E-02 1.60295E+01
 -1       969 1.88117E+00 1.52704E-02 1.59332E+01
 -1       970 1.87342E+00 1.26627E-02 1.55881E+01
 -1       971 1.86713E+00 1.79765E-02 1.53431E+01
 -1       972 1.85723E+00 1.25540E-02 1.49995E+01
 -1       973 1.85439E+00 1.89533E-02 1.49027E+01
 -1       974 1.83974E+00 1.44329E-02 1.44171E+01
 -1       975 1.84121E+00 2.09105E-02 1.44650E+01
 -1       976 1.82272E+00 2.16140E-02 1.38886E+01
 -1       977 1.82122E+00 1.49825E-02 1.38408E+01
 -1       978 1.80227E+00 1.62821E-02 1.32711E+01
 -1       979 1.80243E+00 2.43904E-02 1.33165E+01
 -1       980 1.78719E+00 2.59594E-02 1.28927E+01
 -1       981 1.78304E+00 1.81478E-02 1.27086E+01
 -1       982 1.77086E+00 2.81482E-02 1.24717E+01
 -1       983 1.76076E+00 2.31709E-02 1.21808E+01
 -1       984 1.74674E+00 3.18282E-02 1.19164E+01
 -1       985 0.00000E+00 0.00000E+00 0.00000E+00
 -1       986 0.00000E+00 0.00000E+00 0.00000E+00
 -1       987 0.00000E+00 0.00000E+00 0.00000E+00
 -1       988 1.73628E+00 2.61241E-02 1.16329E+01
 -1       989 1.73058E+00 3.21504E-02 1.15041E+01
 -1       990 1.72409E+00 1.76790E-02 1.13806E+01
 -1       991 1.71215E+00 2.49066E-02 1.10861E+01
 -1       992 1.71157E+00 3.30741E-02 1.10974E+01
 -1       993 1.70410E+00 1.46913E-02 1.09101E+01
 -1       994 1.69048E+00 3.46170E-02 1.06955E+01
 -1       995 1.68774E+00 2.03493E-02 1.05565E+01
 -1       996 1.67052E+00 3.77828E-02 1.02953E+01
 -1       997 0.00000E+00 0.00000E+00 0.00000E+00
 -1       998 0.00000E+00 0.00000E+00 0.00000E+00
 -1       999 1.65448E+00 2.63474E-02 9.97548E+00
 -1      1000 1.66285E+00 1.64059E-02 1.01055E+01
 -1      1001 1.65048E+00 3.75687E-02 9.90240E+00
 -1      1002 1.63070E+00 3.20921E-02 9.53996E+00
 -1      1003 1.62927E+00 4.07457E-02 9.51284E+00
 -1      1004 1.64405E+00 1.97994E-02 9.71411E+00
 -1      1005 1.62276E+00 2.27714E-02 9.37527E+00
 -1      1006 1.60452E+00 2.89572E-02 9.07446E+00
 -1      1007 1.60683E+00 4.04566E-02 9.13234E+00
 -1      1008 1.60760E+00 1.91440E-02 9.12407E+00
 -1      1009 1.58469E+00 4.31514E-02 8.75275E+00
 -1      1010 1.58147E+00 2.79894E-02 8.70181E+00
 -1      1011 1.58094E+00 1.77670E-02 8.74894E+00
 -1      1012 1.55244E+00 3.48557E-02 8.23624E+00
 -1      1013 1.55344E+00 4.34561E-02 8.25793E+00
 -1      1014 1.55645E+00 2.51677E-02 8.34022E+00
 -1      1015 1.55877E+00 1.81945E-02 8.37606E+00
 -1      1016 1.53284E+00 2.65982E-02 7.97817E+00
 -1      1017 1.53692E+00 1.88696E-02 8.01223E+00
 -1      1018 0.00000E+00 0.00000E+00 0.00000E+00
 -1      1019 0.00000E+00 0.00000E+00 0.00000E+00
 -1      1020 0.00000E+00 0.00000E+00 0.00000E+00
 -1      1021 0.00000E+00 0.00000E+00 0.00000E+00
 -1      1022 1.52249E+00 3.55448E-02 7.82756E+00
 -1      1023 1.52027E+00 4.76724E-02 7.77305E+00
 -1      1024 1.49795E+00 2.83529E-02 7.49778E+00
 -1      1025 1.48819E+00 3.46077E-02 7.34976E+00
 -1      1026 1.48118E+00 4.70139E-02 7.30153E+00
 -1      1027 1.46709E+00 4.12678E-02 7.09566E+00
 -1      1028 1.46218E+00 2.32255E-02 6.99231E+00
 -1      1029 1.44489E+00 5.19739E-02 6.83637E+00
 -1      1030 1.42596E+00 4.18897E-02 6.59137E+00
 -1      1031 1.42649E+00 3.05168E-02 6.57603E+00
 -1      1032 1.41000E+00 5.37661E-02 6.38574E+00
 -1      1033 1.38259E+00 4.00794E-02 6.09906E+00
 -1      1034 1.38672E+00 2.78173E-02 6.13321E+00
 -1      1035 1.40235E+00 1.61781E-02 6.27804E+00
 -1      1036 1.37278E+00 5.20663E-02 5.94598E+00
 -1      1037 1.36948E+00 1.41622E-02 5.94635E+00
 -1      1038 0.00000E+00 0.00000E+00 0.00000E+00
 -1      1039 1.35430E+00 2.81315E-02 5.81061E+00
 -1      1040 1.33772E+00 3.72390E-02 5.56434E+00
 -1      1041 1.33012E+00 2.80238E-02 5.48972E+00
 -1      1042 1.33013E+00 1.70675E-02 5.52536E+00
 -1      1043 1.33256E+00 5.38633E-02 5.51970E+00
 -1      1044 1.29560E+00 3.96701E-02 5.13232E+00
 -1      1045 1.30404E+00 4.65994E-02 5.23317E+00
 -1      1046 1.29120E+00 5.58335E-02 5.10480E+00
 -1      1047 0.00000E+00 0.00000E+00 0.00000E+00
 -1      1048 0.00000E+00 0.00000E+00 0.00000E+00
 -1      1049 1.30017E+00 1.83443E-02 5.19566E+00
 -1      1050 1.26457E+00 3.49667E-02 4.86250E+00
 -1      1051 1.27330E+00 2.00624E-02 4.89622E+00
 -1      1052 1.27146E+00 8.47214E-03 4.91541E+00
 -1      1053 1.26454E+00 4.76299E-02 4.82736E+00
 -1      1054 1.24766E+00 6.04001E-02 4.70044E+00
 -1      1055 0.00000E+00 0.00000E+00 0.00000E+00
 -1      1056 1.23324E+00 3.85550E-02 4.56341E+00
 -1      1057 1.22871E+00 5.24709E-02 4.53642E+00
 -1      1058 1.23279E+00 2.96493E-02 4.58805E+00
 -1      1059 1.23695E+00 1.21673E-02 4.61765E+00
 -1      1060 1.20642E+00 6.18277E-02 4.31708E+00
 -1      1061 1.19908E+00 2.70726E-02 4.29670E+00
 -1      1062 1.20041E+00 1.74706E-02 4.31739E+00
 -1      1063 1.18290E+00 4.06442E-02 4.17666E+00
 -1      1064 1.18120E+00 5.08860E-02 4.15179E+00
 -1      1065 1.15911E+00 6.13002E-02 3.94085E+00
 -1      1066 1.14766E+00 3.22406E-02 3.89486E+00
 -1      1067 1.16060E+00 1.63664E-02 3.94021E+00
 -1      1068 0.00000E+00 0.00000E+00 0.00000E+00
 -1      1069 0.00000E+00 0.00000E+00 0.00000E+00
 -1      1070 1.14706E+00 5.00425E-02 3.87625E+00
 -1      1071 1.11921E+00 4.38079E-02 3.62650E+00
 -1      1072 1.11388E+00 6.23591E-02 3.58148E+00
 -1      1073 1.10695E+00 2.67141E-02 3.56005E+00
 -1      1074 1.10805E+00 1.69828E-02 3.58307E+00
 -1      1075 1.07654E+00 3.44794E-02 3.33816E+00
 -1      1076 1.07202E+00 4.89021E-02 3.26236E+00
 -1      1077 1.06332E+00 6.28822E-02 3.23831E+00
 -1      1078 1.07661E+00 1.61537E-02 3.32225E+00
 -1      1079 1.04768E+00 3.64451E-02 3.12511E+00
 -1      1080 1.03463E+00 2.40433E-02 3.05837E+00
 -1      1081 1.03997E+00 1.01772E-02 3.07441E+00
 -1      1082 1.02174E+00 5.30792E-02 2.93148E+00
 -1      1083 1.02344E+00 6.54578E-02 2.98452E+00
 -1      1084 1.00692E+00 3.86198E-02 2.87629E+00
 -1      1085 9.90503E-01 6.86297E-02 2.75137E+00
 -1      1086 9.75559E-01 3.43957E-02 2.69268E+00
 -1      1087 9.89068E-01 1.16692E-02 2.75182E+00
 -1      1088 9.67150E-01 5.38293E-02 2.62544E+00
 -1      1089 0.00000E+00 0.00000E+00 0.00000E+00
 -1      1090 9.40028E-01 6.55843E-02 2.44254E+00
 -1      1091 9.28433E-01 2.49938E-02 2.43900E+00
 -1      1092 9.29076E-01 4.71036E-03 2.41651E+00
 -1      1093 9.17093E-01 3.72392E-02 2.34181E+00
 -1      1094 9.18572E-01 4.83893E-02 2.34073E+00
 -1      1095 8.83062E-01 5.42286E-02 2.15654E+00
 -1      1096 8.87423E-01 6.94319E-02 2.15582E+00
 -1      1097 8.84207E-01 2.13076E-02 2.15500E+00
 -1      1098 8.76195E-01-9.45909E-04 2.14903E+00
 -1      1099 8.67429E-01 3.67671E-02 2.06963E+00
 -1      1100 8.37380E-01 5.18941E-02 1.92487E+00
 -1      1101 8.34525E-01 6.86699E-02 1.87960E+00
 -1      1102 8.37584E-01 3.25606E-02 1.90216E+00
 -1      1103 8.27607E-01 1.60402E-02 1.88460E+00
 -1      1104 8.04987E-01 5.42601E-02 1.75484E+00
 -1      1105 8.03400E-01 2.62760E-02 1.74793E+00
 -1      1106 7.77822E-01 4.34232E-02 1.62413E+00
 -1      1107 7.79061E-01 7.45496E-02 1.62569E+00
 -1      1108 7.63845E-01 7.80465E-03 1.59833E+00
 -1      1109 7.61692E-01 6.09466E-02 1.55918E+00
 -1      1110 7.45765E-01 2.47050E-02 1.49720E+00
 -1      1111 7.21535E-01 4.27782E-02 1.38626E+00
 -1      1112 7.19187E-01 5.68348E-02 1.37756E+00
 -1      1113 7.24459E-01 7.11931E-02 1.38209E+00
 -1      1114 7.15598E-01 4.17729E-03 1.36317E+00
 -1      1115 7.04819E-01 2.40196E-02 1.32950E+00
 -1      1116 6.79419E-01 3.90745E-02 1.21584E+00
 -1      1117 6.65598E-01 5.59330E-02 1.15649E+00
 -1      1118 6.67279E-01 7.23250E-02 1.15992E+00
 -1      1119 6.64828E-01 2.32431E-02 1.16474E+00
 -1      1120 6.79427E-01 1.06475E-02 1.21645E+00
 -1      1121 6.37511E-01 3.98679E-02 1.08098E+00
 -1      1122 0.00000E+00 0.00000E+00 0.00000E+00
 -1      1123 6.24828E-01 2.00870E-02 1.03426E+00
 -1      1124 6.34315E-01-4.75863E-03 1.05435E+00
 -1      1125 6.02850E-01 5.78546E-02 9.54261E-01
 -1      1126 6.22156E-01 7.46972E-02 1.00456E+00
 -1      1127 5.96148E-01 4.04098E-02 9.33987E-01
 -1      1128 5.79123E-01 7.66088E-02 8.64439E-01
 -1      1129 5.68154E-01 1.78284E-02 8.57952E-01
 -1      1130 5.85395E-01-2.92322E-03 9.03676E-01
 -1      1131 5.72097E-01-1.81481E-02 8.63789E-01
 -1      1132 5.50582E-01 4.25647E-02 8.00302E-01
 -1      1133 5.58518E-01 6.09373E-02 8.19274E-01
 -1      1134 0.00000E+00 0.00000E+00 0.00000E+00
 -1      1135 0.00000E+00 0.00000E+00 0.00000E+00
 -1      1136 5.37662E-01-4.89479E-04 7.70469E-01
 -1      1137 5.13986E-01 5.57580E-02 6.88081E-01
 -1      1138 5.34804E-01 7.46102E-02 7.32430E-01
 -1      1139 5.06648E-01 2.37239E-02 7.09995E-01
 -1      1140 5.06876E-01 9.31185E-03 6.88726E-01
 -1      1141 4.88432E-01 3.99478E-02 6.27176E-01
 -1      1142 4.84751E-01 7.67439E-02 6.07643E-01
 -1      1143 4.73728E-01-1.21036E-02 6.10208E-01
 -1      1144 4.52978E-01 2.30922E-02 5.55412E-01
 -1      1145 4.66544E-01 5.89534E-02 5.75118E-01
 -1      1146 4.37094E-01 6.07286E-03 5.32122E-01
 -1      1147 4.26385E-01 3.62030E-02 4.90018E-01
 -1      1148 4.22293E-01 5.69938E-02 4.69441E-01
 -1      1149 4.22602E-01 7.45742E-02 4.62981E-01
 -1      1150 4.22003E-01-6.42636E-03 5.02176E-01
 -1      1151 0.00000E+00 0.00000E+00 0.00000E+00
 -1      1152 3.85769E-01 9.66421E-03 4.07029E-01
 -1      1153 3.85423E-01-4.94993E-03 4.12323E-01
 -1      1154 3.87401E-01-1.74061E-02 4.16427E-01
 -1      1155 3.86144E-01 3.48999E-02 4.03314E-01
 -1      1156 3.64700E-01 5.23592E-02 3.58346E-01
 -1      1157 3.56703E-01 7.84720E-02 3.33438E-01
 -1      1158 3.40607E-01 1.93168E-02 3.39934E-01
 -1      1159 3.30135E-01 3.87976E-02 3.14692E-01
 -1      1160 3.32846E-01-2.78388E-03 3.17654E-01
 -1      1161 3.21882E-01-1.87160E-02 3.03961E-01
 -1      1162 3.23345E-01-3.52861E-02 3.03851E-01
 -1      1163 0.00000E+00 0.00000E+00 0.00000E+00
 -1      1164 2.96977E-01 2.45745E-02 2.68895E-01
 -1      1165 3.13459E-01 6.20576E-02 2.76590E-01
 -1      1166 3.11590E-01 8.19090E-02 2.51314E-01
 -1      1167 2.82412E-01 1.12778E-02 2.48172E-01
 -1      1168 2.72732E-01 4.29690E-02 2.42661E-01
 -1      1169 2.60768E-01 7.76630E-02 1.85742E-01
 -1      1170 2.49773E-01-5.24359E-04 2.11637E-01
 -1      1171 2.74365E-01-2.58516E-02 2.29125E-01
 -1      1172 2.25283E-01 1.76583E-02 1.80312E-01
 -1      1173 2.23985E-01 3.67508E-02 1.74318E-01
 -1      1174 2.21976E-01 5.09508E-02 1.61705E-01
 -1      1175 2.22079E-01-2.42748E-02 1.70317E-01
 -1      1176 1.84234E-01 7.31292E-02 1.09743E-01
 -1      1177 1.84047E-01-2.12480E-03 1.33664E-01
 -1      1178 1.57264E-01 1.78838E-02 1.12665E-01
 -1      1179 1.71109E-01 3.68641E-02 1.26288E-01
 -1      1180 1.70341E-01 5.46784E-02 1.13149E-01
 -1      1181 1.53540E-01-1.95561E-02 1.00142E-01
 -1      1182 0.00000E+00 0.00000E+00 0.00000E+00
 -1      1183 1.23472E-01 3.21996E-02 8.37392E-02
 -1      1184 1.24965E-01 6.01471E-02 6.50140E-02
 -1      1185 1.12916E-01 2.29285E-03 7.93607E-02
 -1      1186 1.25292E-01-2.65572E-02 8.23293E-02
 -1      1187 1.14040E-01 1.60440E-02 7.53610E-02
 -1      1188 1.00918E-01 3.93472E-02 6.11092E-02
 -1      1189 8.73335E-02-3.72857E-03 6.69464E-02
 -1      1190 4.81484E-02 1.00331E-02 4.69527E-02
 -1      1191 5.11125E-02 1.60073E-02 3.98439E-02
 -1      1192 6.14402E-02 3.34506E-02 4.11531E-02
 -1      1193 5.50771E-02 2.59987E-03 4.39392E-02
 -1      1194 5.85362E-02-1.51113E-02 4.15815E-02
 -1      1195 3.84408E-02-4.89942E-03 3.57829E-02
 -1      1196 0.00000E+00 0.00000E+00 0.00000E+00
 -1      1197 0.00000E+00 0.00000E+00 0.00000E+00
 -1      1198 0.00000E+00 0.00000E+00 0.00000E+00
 -1      1199 0.00000E+00 0.00000E+00 0.00000E+00
 -1      1200 0.00000E+00 0.00000E+00 0.00000E+00
 -1      1201 0.00000E+00 0.00000E+00 0.00000E+00
 -1      1202 0.00000E+00 0.00000E+00 0.00000E+00
 -1      1203 0.00000E+00 0.00000E+00 0.00000E+00
 -1      1204 0.00000E+00 0.00000E+00 0.00000E+00
 -1      1205 0.00000E+00 0.00000E+00 0.00000E+00
 -1      1206 0.00000E+00 0.00000E+00 0.00000E+00
 -1      1207 0.00000E+00 0.00000E+00 0.00000E+00
 -1      1208 0.00000E+00 0.00000E+00 0.00000E+00
 -1      1209 0.00000E+00 0.00000E+00 0.00000E+00
 -1      1210 0.00000E+00 0.00000E+00 0.00000E+00
 -1      1211 0.00000E+00 0.00000E+00 0.00000E+00
 -1      1212 0.00000E+00 0.00000E+00 0.00000E+00
 -1      1213 0.00000E+00 0.00000E+00 0.00000E+00
 -1      1214 0.00000E+00 0.00000E+00 0.00000E+00
 -1      1215 0.00000E+00 0.00000E+00 0.00000E+00
 -1      1216 0.00000E+00 0.00000E+00 0.00000E+00
 -1      1217 0.00000E+00 0.00000E+00 0.00000E+00
 -1      1218 0.00000E+00 0.00000E+00 0.00000E+00
 -1      1219 0.00000E+00 0.00000E+00 0.00000E+00
 -1      1220-1.48130E+00-1.64779E-02 2.19994E+01
 -1      1221-1.43342E+00-1.50630E-02 2.14995E+01
 -1      1222-1.51445E+00-1.41069E-02 2.10337E+01
 -1      1223-1.64499E+00-1.14073E-02 2.02205E+01
 -1      1224-1.06308E+00-8.04164E-03 1.92186E+01
 -1      1225-1.16909E+00-6.08879E-03 1.86961E+01
 -1      1226-1.10708E+00-4.79582E-03 1.80871E+01
 -1      1227-1.11282E+00-2.55630E-03 1.74508E+01
 -1      1228-1.44028E+00 2.87092E-04 1.70310E+01
 -1      1229-1.42076E+00 1.52419E-03 1.64686E+01
 -1      1230-8.34125E-01-1.81941E-03 1.68476E+01
 -1      1231-8.29647E-01-1.42093E-03 1.63165E+01
 -1      1232-1.38564E+00 4.10309E-03 1.60299E+01
 -1      1233-1.34977E+00 5.35108E-03 1.55856E+01
 -1      1234-9.53342E-01 2.21788E-03 1.57126E+01
 -1      1235 0.00000E+00 0.00000E+00 0.00000E+00
 -1      1236 0.00000E+00 0.00000E+00 0.00000E+00
 -1      1237-1.30238E+00 6.32339E-03 1.49973E+01
 -1      1238-9.05789E-01 1.18043E-03 1.52698E+01
 -1      1239-8.58590E-01 3.69037E-03 1.48295E+01
 -1      1240-1.25416E+00 8.51208E-03 1.44129E+01
 -1      1241-7.95071E-01 3.76858E-03 1.42467E+01
 -1      1242-1.21829E+00 9.14366E-03 1.39794E+01
 -1      1243-1.18141E+00 1.06765E-02 1.35484E+01
 -1      1244-7.31423E-01 3.44006E-03 1.36702E+01
 -1      1245-1.14579E+00 1.07768E-02 1.31214E+01
 -1      1246-5.09445E-01 3.93017E-03 1.31069E+01
 -1      1247-1.10917E+00 1.17200E-02 1.26973E+01
 -1      1248-3.10048E-01 9.84626E-04 1.25427E+01
 -1      1249-1.21191E+00 1.47222E-02 1.22618E+01
 -1      1250-8.22464E-01 1.06670E-02 1.21971E+01
 -1      1251-1.17973E+00 1.68197E-02 1.18464E+01
 -1      1252-6.58668E-01 9.09973E-03 1.16864E+01
 -1      1253-8.80143E-01 1.44709E-02 1.13558E+01
 -1      1254 0.00000E+00 0.00000E+00 0.00000E+00
 -1      1255-1.26646E+00 1.91910E-02 1.10803E+01
 -1      1256-1.93534E-01 1.67978E-03 1.11545E+01
 -1      1257-6.86758E-01 1.02456E-02 1.08890E+01
 -1      1258-1.39286E+00 2.01182E-02 1.07313E+01
 -1      1259-9.64348E-01 1.55427E-02 1.05999E+01
 -1      1260-2.96019E-01 5.88692E-03 1.05937E+01
 -1      1261-1.36772E+00 2.44146E-02 1.03323E+01
 -1      1262-7.09012E-01 1.17188E-02 1.03487E+01
 -1      1263 0.00000E+00 0.00000E+00 0.00000E+00
 -1      1264-1.10625E+00 1.99579E-02 9.96651E+00
 -1      1265-2.41147E-01 4.82357E-03 1.00625E+01
 -1      1266-6.56811E-01 1.17002E-02 9.81981E+00
 -1      1267 0.00000E+00 0.00000E+00 0.00000E+00
 -1      1268 0.00000E+00 0.00000E+00 0.00000E+00
 -1      1269-1.15845E+00 2.24623E-02 9.62500E+00
 -1      1270-3.18057E-01 7.34939E-03 9.49409E+00
 -1      1271-1.21489E+00 2.68390E-02 9.29976E+00
 -1      1272-8.14435E-01 1.62530E-02 9.35479E+00
 -1      1273-8.37049E-01 2.01990E-02 8.94182E+00
 -1      1274-4.88460E-01 1.25668E-02 8.97282E+00
 -1      1275-1.41975E-01 4.67984E-03 9.02987E+00
 -1      1276-1.17435E+00 2.87041E-02 8.78817E+00
 -1      1277 0.00000E+00 0.00000E+00 0.00000E+00
 -1      1278-8.25270E-01 1.96582E-02 8.56542E+00
 -1      1279-5.02938E-01 1.31552E-02 8.46629E+00
 -1      1280-9.33529E-02 4.11218E-03 8.52777E+00
 -1      1281-1.05573E+00 2.65248E-02 8.32965E+00
 -1      1282-6.84998E-01 2.17591E-02 7.95756E+00
 -1      1283-3.51610E-01 1.12925E-02 8.01446E+00
 -1      1284-1.01580E+00 2.99807E-02 7.84195E+00
 -1      1285-7.27327E-01 2.12923E-02 7.47241E+00
 -1      1286-3.84438E-01 1.37522E-02 7.49781E+00
 -1      1287-3.59487E-02 5.51390E-03 7.64473E+00
 -1      1288-1.10009E+00 3.38816E-02 7.32867E+00
 -1      1289-2.26006E-01 1.19188E-02 7.21398E+00
 -1      1290-6.82419E-01 2.30661E-02 7.00361E+00
 -1      1291-9.75173E-01 3.13556E-02 6.86855E+00
 -1      1292-1.84898E-01 7.08976E-03 6.80736E+00
 -1      1293-7.31838E-01 2.59138E-02 6.56942E+00
 -1      1294-5.34784E-01 2.00953E-02 6.32747E+00
 -1      1295-1.00027E-01 8.52402E-03 6.41409E+00
 -1      1296-9.67567E-01 3.66480E-02 6.30194E+00
 -1      1297-2.49726E-01 1.23242E-02 6.12381E+00
 -1      1298-9.81220E-01 3.66981E-02 5.96995E+00
 -1      1299-5.78362E-01 2.52530E-02 5.88369E+00
 -1      1300 3.42175E-02 2.52457E-03 5.92560E+00
 -1      1301 0.00000E+00 0.00000E+00 0.00000E+00
 -1      1302-2.07716E-01 1.23800E-02 5.68926E+00
 -1      1303-8.19982E-01 3.46443E-02 5.65327E+00
 -1      1304-1.07491E+00 4.41254E-02 5.53212E+00
 -1      1305-5.46100E-01 2.70686E-02 5.56242E+00
 -1      1306 1.56197E-01 1.65851E-04 5.44992E+00
 -1      1307-7.90551E-01 3.47385E-02 5.33465E+00
 -1      1308-5.16913E-01 2.47915E-02 5.24416E+00
 -1      1309-1.69237E-01 1.08246E-02 5.26764E+00
 -1      1310-1.03271E+00 4.47068E-02 5.11506E+00
 -1      1311 0.00000E+00 0.00000E+00 0.00000E+00
 -1      1312 2.60818E-01-2.75443E-03 5.07100E+00
 -1      1313-6.66566E-01 3.11302E-02 4.97821E+00
 -1      1314-3.06271E-01 1.87348E-02 4.84711E+00
 -1      1315-4.68237E-02 5.47600E-03 4.86507E+00
 -1      1316-8.15054E-01 3.94307E-02 4.72203E+00
 -1      1317-5.04281E-01 2.62055E-02 4.63614E+00
 -1      1318 2.11325E-01-3.30090E-03 4.73317E+00
 -1      1319 0.00000E+00 0.00000E+00 0.00000E+00
 -1      1320 0.00000E+00 0.00000E+00 0.00000E+00
 -1      1321-1.05066E-01 8.88786E-03 4.56215E+00
 -1      1322-6.89619E-01 3.73433E-02 4.30936E+00
 -1      1323-9.56956E-01 4.53800E-02 4.42022E+00
 -1      1324-2.61148E-01 1.51908E-02 4.35664E+00
 -1      1325 6.57076E-02 2.26992E-03 4.35710E+00
 -1      1326-4.07308E-01 2.42163E-02 4.06120E+00
 -1      1327-2.95842E-02 9.15047E-03 4.07011E+00
 -1      1328-6.50621E-01 3.40009E-02 3.96022E+00
 -1      1329-9.05041E-01 4.85873E-02 3.95008E+00
 -1      1330 0.00000E+00 0.00000E+00 0.00000E+00
 -1      1331 0.00000E+00 0.00000E+00 0.00000E+00
 -1      1332-4.10425E-01 2.59200E-02 3.69411E+00
 -1      1333-1.56633E-01 1.63970E-02 3.70609E+00
 -1      1334 1.07123E-01 1.22915E-03 3.79491E+00
 -1      1335-6.94282E-01 4.09918E-02 3.59189E+00
 -1      1336 2.14303E-01-4.03877E-03 3.55992E+00
 -1      1337 0.00000E+00 0.00000E+00 0.00000E+00
 -1      1338-4.97766E-01 3.47348E-02 3.29188E+00
 -1      1339-1.68203E-01 1.72425E-02 3.35190E+00
 -1      1340-8.17535E-01 5.17963E-02 3.24189E+00
 -1      1341 1.54875E-01-3.87464E-03 3.18183E+00
 -1      1342-3.94153E-01 2.96385E-02 3.08654E+00
 -1      1343-1.39781E-01 1.26528E-02 3.01537E+00
 -1      1344-6.24128E-01 4.30626E-02 2.99649E+00
 -1      1345-2.82213E-01 2.44675E-02 2.80850E+00
 -1      1346 1.77315E-01-6.42987E-03 2.85210E+00
 -1      1347-5.92744E-01 4.29683E-02 2.75581E+00
 -1      1348 3.05326E-02 5.50677E-03 2.64442E+00
 -1      1349-8.12031E-01 5.76158E-02 2.59841E+00
 -1      1350-2.52945E-01 2.43332E-02 2.53284E+00
 -1      1351 2.56632E-01-9.73200E-03 2.52726E+00
 -1      1352-4.87934E-01 3.87321E-02 2.52774E+00
 -1      1353-6.83737E-01 5.08932E-02 2.39117E+00
 -1      1354 8.21721E-02 6.43111E-04 2.35608E+00
 -1      1355-4.62220E-01 3.80379E-02 2.30205E+00
 -1      1356-2.32212E-01 1.99055E-02 2.31103E+00
 -1      1357 3.45577E-01-1.97904E-02 2.24303E+00
 -1      1358-6.50886E-01 5.11031E-02 2.17340E+00
 -1      1359-3.60356E-01 3.24740E-02 2.08965E+00
 -1      1360-1.36292E-01 1.71188E-02 2.09401E+00
 -1      1361 1.41812E-01-6.81760E-03 2.09118E+00
 -1      1362-6.49923E-01 5.50441E-02 1.99174E+00
 -1      1363 3.99922E-01-2.48022E-02 1.98300E+00
 -1      1364-3.35189E-01 2.92015E-02 1.87722E+00
 -1      1365-1.14291E-01 1.31819E-02 1.81735E+00
 -1      1366 8.28086E-02-1.24531E-03 1.84638E+00
 -1      1367-5.82946E-01 4.81138E-02 1.76196E+00
 -1      1368-2.43931E-01 2.40237E-02 1.68445E+00
 -1      1369 2.38990E-01-6.79813E-03 1.72134E+00
 -1      1370-4.13614E-01 4.04482E-02 1.57257E+00
 -1      1371-6.05147E-01 5.77565E-02 1.58962E+00
 -1      1372-1.09849E-02 6.23003E-03 1.53108E+00
 -1      1373 0.00000E+00 0.00000E+00 0.00000E+00
 -1      1374 0.00000E+00 0.00000E+00 0.00000E+00
 -1      1375-2.14805E-01 2.76912E-02 1.43702E+00
 -1      1376 2.21906E-01-1.71005E-02 1.43506E+00
 -1      1377-4.01989E-01 4.64479E-02 1.34000E+00
 -1      1378-5.68184E-01 6.15226E-02 1.41142E+00
 -1      1379-2.59906E-02 5.99744E-03 1.37278E+00
 -1      1380-5.31778E-01 5.90088E-02 1.23807E+00
 -1      1381-1.95949E-01 2.22557E-02 1.26446E+00
 -1      1382 9.85838E-03 4.66588E-03 1.18083E+00
 -1      1383 2.20387E-01-1.97631E-02 1.23757E+00
 -1      1384-3.50933E-01 4.51091E-02 1.16836E+00
 -1      1385-1.78805E-01 2.35457E-02 1.10418E+00
 -1      1386-3.46965E-01 4.32135E-02 1.03281E+00
 -1      1387-4.85906E-01 5.93876E-02 1.02601E+00
 -1      1388 0.00000E+00 0.00000E+00 0.00000E+00
 -1      1389-7.16010E-02 1.07114E-02 9.75541E-01
 -1      1390 1.01536E-01-9.24731E-03 9.85853E-01
 -1      1391 2.83335E-01-2.43123E-02 1.10452E+00
 -1      1392-1.76250E-01 2.74424E-02 8.99981E-01
 -1      1393 2.75868E-01-2.85645E-02 9.01335E-01
 -1      1394-2.89453E-01 4.21944E-02 8.37034E-01
 -1      1395-4.37601E-01 6.33090E-02 8.30070E-01
 -1      1396-5.55935E-02 1.10248E-02 7.81790E-01
 -1      1397 5.23834E-02 6.66483E-05 8.36438E-01
 -1      1398 1.60890E-01-1.56609E-02 7.93360E-01
 -1      1399 0.00000E+00 0.00000E+00 0.00000E+00
 -1      1400 0.00000E+00 0.00000E+00 0.00000E+00
 -1      1401-1.50802E-01 2.84695E-02 7.09576E-01
 -1      1402 5.70272E-02-2.14467E-03 6.95900E-01
 -1      1403 2.61334E-01-3.40920E-02 7.16888E-01
 -1      1404-2.63514E-01 4.54312E-02 7.00289E-01
 -1      1405-3.89754E-01 6.18002E-02 6.54361E-01
 -1      1406-5.01654E-02 1.20768E-02 6.06593E-01
 -1      1407 1.55833E-01-2.14830E-02 6.19762E-01
 -1      1408-1.52028E-01 2.86824E-02 5.65507E-01
 -1      1409-2.71069E-01 4.68824E-02 5.66037E-01
 -1      1410 6.23445E-02-9.85184E-03 5.33420E-01
 -1      1411 2.47360E-01-3.91737E-02 5.93370E-01
 -1      1412-3.51513E-01 6.64878E-02 5.35429E-01
 -1      1413-3.46785E-02 9.45688E-03 4.56527E-01
 -1      1414 1.89561E-01-3.44125E-02 4.72024E-01
 -1      1415-1.33170E-01 2.56023E-02 4.53903E-01
 -1      1416-2.25976E-01 4.81470E-02 4.12271E-01
 -1      1417-3.28073E-01 6.33453E-02 4.37396E-01
 -1      1418 5.23352E-02-4.62291E-03 4.27468E-01
 -1      1419 0.00000E+00 0.00000E+00 0.00000E+00
 -1      1420 0.00000E+00 0.00000E+00 0.00000E+00
 -1      1421-1.39222E-01 2.93267E-02 3.71176E-01
 -1      1422-5.21366E-02 1.17409E-02 3.34955E-01
 -1      1423 2.42978E-02-2.22088E-03 3.38522E-01
 -1      1424 1.04797E-01-2.20488E-02 3.45579E-01
 -1      1425 1.90560E-01-3.97173E-02 3.56945E-01
 -1      1426-2.73819E-01 6.12137E-02 3.17231E-01
 -1      1427-1.11943E-01 3.19125E-02 2.49447E-01
 -1      1428-1.83190E-01 4.54723E-02 2.52812E-01
 -1      1429-4.03808E-02 1.29880E-02 2.20662E-01
 -1      1430 2.89152E-02-6.24273E-03 2.53031E-01
 -1      1431 9.09875E-02-1.99796E-02 2.32616E-01
 -1      1432 1.62111E-01-4.18022E-02 2.41420E-01
 -1      1433 2.66488E-01-5.73200E-02 3.16115E-01
 -1      1434 0.00000E+00 0.00000E+00 0.00000E+00
 -1      1435-2.47664E-01 6.49464E-02 2.38874E-01
 -1      1436 2.67288E-02-9.48711E-03 1.75586E-01
 -1      1437-9.23842E-02 2.70588E-02 1.52216E-01
 -1      1438-1.70111E-01 5.70516E-02 1.50178E-01
 -1      1439-2.33263E-02 7.85322E-03 1.26302E-01
 -1      1440 8.04648E-02-2.50743E-02 1.62322E-01
 -1      1441 1.32207E-01-3.96626E-02 1.50538E-01
 -1      1442 1.95884E-01-5.66117E-02 1.57848E-01
 -1      1443 6.53590E-02-1.66964E-02 9.95244E-02
 -1      1444-6.28916E-02 2.87407E-02 7.39578E-02
 -1      1445-1.05768E-01 4.38343E-02 8.39827E-02
 -1      1446-1.51687E-01 5.83466E-02 9.54615E-02
 -1      1447-2.00899E-03 3.00060E-03 5.96740E-02
 -1      1448 1.07313E-01-4.45338E-02 7.67049E-02
 -1      1449 1.51670E-01-5.63141E-02 8.92413E-02
 -1      1450 5.97566E-02-2.94123E-02 3.61192E-02
 -1      1451 0.00000E+00 0.00000E+00 0.00000E+00
 -1      1452-4.57086E-02 2.30868E-02 3.41711E-02
 -1      1453-6.94968E-02 3.70090E-02 2.89522E-02
 -1      1454-1.19131E-01 5.45548E-02 5.79428E-02
 -1      1455-1.09020E-02 4.47655E-03 9.18108E-03
 -1      1456 9.69239E-02-5.18419E-02 4.49441E-02
 -1      1457-2.86923E-02 2.06949E-02 6.76420E-03
 -1      1458-7.97552E-02 5.05167E-02 2.39906E-02
 -1      1459 1.43783E-02-7.46038E-03 1.73141E-03
 -1      1460 3.27380E-02-2.37443E-02 3.46926E-03
 -1      1461 5.76678E-02-3.86917E-02 1.34274E-02
 -1      1462 7.67345E-02-5.47986E-02 2.45025E-02
 -1      1463-4.45230E-02 3.44529E-02 6.61773E-03
 -1      1464-1.02836E-02 9.72371E-03-6.54846E-03
 -1      1465 7.21337E-03-5.99321E-03-4.70703E-03
 -1      1466-1.89129E-02 1.42872E-02-2.61245E-03
 -1      1467-2.83684E-02 2.71863E-02 1.36684E-03
 -1      1468 1.06843E-02-9.88298E-03-7.43641E-03
 -1      1469 2.70171E-02-2.58438E-02-6.35784E-03
 -1      1470 0.00000E+00 0.00000E+00 0.00000E+00
 -1      1471 0.00000E+00 0.00000E+00 0.00000E+00
 -1      1472 0.00000E+00 0.00000E+00 0.00000E+00
 -1      1473 0.00000E+00 0.00000E+00 0.00000E+00
 -1      1474 0.00000E+00 0.00000E+00 0.00000E+00
 -1      1475 0.00000E+00 0.00000E+00 0.00000E+00
 -1      1476 0.00000E+00 0.00000E+00 0.00000E+00
 -1      1477 0.00000E+00 0.00000E+00 0.00000E+00
 -1      1478 0.00000E+00 0.00000E+00 0.00000E+00
 -1      1479 0.00000E+00 0.00000E+00 0.00000E+00
 -1      1480 0.00000E+00 0.00000E+00 0.00000E+00
 -1      1481 0.00000E+00 0.00000E+00 0.00000E+00
 -1      1482 0.00000E+00 0.00000E+00 0.00000E+00
 -1      1483 0.00000E+00 0.00000E+00 0.00000E+00
 -1      1484 0.00000E+00 0.00000E+00 0.00000E+00
 -1      1485 0.00000E+00 0.00000E+00 0.00000E+00
 -1      1486 0.00000E+00 0.00000E+00 0.00000E+00
 -1      1487 0.00000E+00 0.00000E+00 0.00000E+00
 -1      1488 0.00000E+00 0.00000E+00 0.00000E+00
 -1      1489 0.00000E+00 0.00000E+00 0.00000E+00
 -1      1490 0.00000E+00 0.00000E+00 0.00000E+00
 -1      1491 0.00000E+00 0.00000E+00 0.00000E+00
 -1      1492 0.00000E+00 0.00000E+00 0.00000E+00
 -1      1493-1.34935E+00-2.13341E-02 2.43407E+01
 -1      1494 3.19248E-01-5.87700E-02 4.53940E-01
 -1      1495 3.93850E-01-6.03612E-02 5.87620E-01
 -1      1496 4.28122E-01-5.48647E-02 7.37631E-01
 -1      1497 4.01630E-01-4.70743E-02 8.62199E-01
 -1      1498 4.33905E-01-4.45745E-02 1.05488E+00
 -1      1499 4.59909E-01-3.79801E-02 1.27051E+00
 -1      1500 4.81248E-01-3.29863E-02 1.50803E+00
 -1      1501 5.03282E-01-3.39279E-02 1.75371E+00
 -1      1502 5.93248E-01-3.40954E-02 2.03192E+00
 -1      1503-1.24721E+00-1.99192E-02 2.37443E+01
 -1      1504 6.08777E-01-3.52010E-02 2.24637E+00
 -1      1505 7.00797E-01-4.32932E-02 2.43814E+00
 -1      1506 4.39932E-01-2.25013E-02 2.41878E+00
 -1      1507 1.35292E+00-1.19993E-02 2.43404E+01
 -1      1508 1.23365E+00-1.19037E-02 2.38018E+01
 -1      1509 1.56763E+00-1.05667E-02 2.34462E+01
 -1      1510 7.23713E-01-3.60583E-02 2.70850E+00
 -1      1511 3.97709E-01-2.25342E-02 2.68512E+00
 -1      1512 5.77601E-01-2.81850E-02 2.86522E+00
 -1      1513 4.38696E-01-2.02668E-02 3.01069E+00
 -1      1514-6.73314E-01-1.88406E-02 2.43401E+01
 -1      1515 7.92623E-01-3.50665E-02 3.27732E+00
 -1      1516 4.30136E-01-1.95533E-02 3.34737E+00
 -1      1517 8.61387E-01-1.36146E-02 2.43402E+01
 -1      1518 8.09739E-01-3.45124E-02 3.56124E+00
 -1      1519 5.67014E-01-2.06065E-02 3.66642E+00
 -1      1520 8.73312E-01-3.42525E-02 3.90323E+00
 -1      1521 6.24860E-01-2.42306E-02 3.96293E+00
 -1      1522 3.85438E-01-1.24915E-02 3.93356E+00
 -1      1523-1.58293E+00-2.04373E-02 2.33407E+01
 -1      1524 8.16910E-01-2.96650E-02 4.24401E+00
 -1      1525 4.05120E-01-1.38602E-02 4.21683E+00
 -1      1526 7.29772E-01-2.30769E-02 4.54619E+00
 -1      1527 3.59430E-01-1.10012E-02 4.50501E+00
 -1      1528 9.31185E-01-3.27054E-02 4.87721E+00
 -1      1529 5.58721E-01-1.39958E-02 4.92223E+00
 -1      1530 8.33975E-01-2.57044E-02 5.24454E+00
 -1      1531 4.72763E-01-1.27375E-02 5.32303E+00
 -1      1532 7.43444E-01-2.42268E-02 5.61719E+00
 -1      1533 2.97631E-01-3.23805E-03 5.73132E+00
 -1      1534 7.46083E-01-1.68569E-02 5.93826E+00
 -1      1535 3.31023E-01-7.43397E-03 6.22791E+00
 -1      1536 8.79533E-01-2.27390E-02 6.30647E+00
 -1      1537 1.15795E+00-2.96621E-02 6.58661E+00
 -1      1538 6.11248E-01-1.19571E-02 6.53352E+00
 -1      1539 2.40847E-01-2.67080E-03 6.61163E+00
 -1      1540-5.21081E-01-1.75800E-02 2.37764E+01
 -1      1541 8.85487E-01-2.11821E-02 6.67229E+00
 -1      1542 6.03832E-01-1.19907E-02 6.87508E+00
 -1      1543 1.03510E+00-2.20983E-02 7.02950E+00
 -1      1544 2.17724E-01-3.39492E-03 6.95676E+00
 -1      1545 5.92242E-01-1.16724E-02 7.33704E+00
 -1      1546 1.94311E-01-4.71561E-05 7.30467E+00
 -1      1547 1.06923E+00-2.59758E-02 7.44015E+00
 -1      1548 5.79304E-01-1.30092E-02 7.81238E+00
 -1      1549 2.73240E-01-5.21762E-03 7.66917E+00
 -1      1550 8.94980E-01-1.97003E-02 7.96063E+00
 -1      1551 1.21566E+00-2.77776E-02 7.99032E+00
 -1      1552 1.43597E-01-3.40487E-04 8.02114E+00
 -1      1553-1.03294E+00-1.85586E-02 2.33691E+01
 -1      1554-1.46526E+00-1.90438E-02 2.29362E+01
 -1      1555 5.64649E-01-1.20089E-02 8.29985E+00
 -1      1556 1.00759E+00-2.02420E-02 8.46166E+00
 -1      1557 2.27558E-01-4.76859E-03 8.39719E+00
 -1      1558 7.79577E-01-1.67250E-02 8.87731E+00
 -1      1559 3.18931E-01-4.10558E-03 8.77816E+00
 -1      1560 1.24418E+00-2.65504E-02 8.85395E+00
 -1      1561 1.13341E+00-1.19992E-02 2.33448E+01
 -1      1562 1.25499E+00-2.36120E-02 9.23304E+00
 -1      1563 5.30842E-01-8.27542E-03 9.30363E+00
 -1      1564 1.70679E-01-2.33692E-03 9.27729E+00
 -1      1565 8.92415E-01-1.60021E-02 9.33210E+00
 -1      1566-1.21013E-01-1.69659E-02 2.43399E+01
 -1      1567 7.65215E-01-1.37788E-02 9.70696E+00
 -1      1568 1.26758E+00-2.26868E-02 9.74748E+00
 -1      1569 2.66741E-01-5.45049E-03 9.67325E+00
 -1      1570 5.64288E-01-9.27189E-03 1.00849E+01
 -1      1571 1.79173E-01-1.89142E-03 1.00583E+01
 -1      1572 1.01686E+00-1.72330E-02 1.01189E+01
 -1      1573 1.01882E+00-1.70162E-02 1.05139E+01
 -1      1574 6.15007E-01-9.64938E-03 1.06181E+01
 -1      1575 2.11642E-01-4.09177E-03 1.05909E+01
 -1      1576 7.07428E-01-1.32780E-02 2.35179E+01
 -1      1577 3.54676E-01-1.49354E-02 2.39385E+01
 -1      1578 3.70090E-01-1.52544E-02 2.43401E+01
 -1      1579 1.42965E+00-2.34502E-02 1.08130E+01
 -1      1580 7.40421E-01-1.26041E-02 1.10311E+01
 -1      1581 1.29888E+00-2.12308E-02 1.11390E+01
 -1      1582 3.17610E-01-4.79676E-03 1.11390E+01
 -1      1583 7.30486E-01-1.22106E-02 1.15065E+01
 -1      1584 1.32441E+00-1.93507E-02 1.16998E+01
 -1      1585 2.87510E-01-5.74102E-03 1.16836E+01
 -1      1586-1.07180E-01 1.49311E-03 1.16241E+01
 -1      1587 7.14899E-01-1.04603E-02 1.20582E+01
 -1      1588-3.64577E-01 4.06611E-03 1.20209E+01
 -1      1589 1.33189E+00-1.94958E-02 1.22531E+01
 -1      1590 1.16062E-01-4.04854E-03 1.20900E+01
 -1      1591 1.32074E+00-1.08627E-02 2.26759E+01
 -1      1592 3.95555E-01-7.63057E-03 1.25261E+01
 -1      1593 8.52223E-01-1.30454E-02 1.26950E+01
 -1      1594 1.33909E+00-1.92068E-02 1.28121E+01
 -1      1595 5.26165E-01-9.56813E-03 1.30987E+01
 -1      1596 8.66669E-02-3.05224E-03 1.31400E+01
 -1      1597-1.17280E+00-1.70867E-02 2.24376E+01
 -1      1598-9.85528E-02-1.63855E-02 2.39248E+01
 -1      1599-6.32215E-01-1.70233E-02 2.32671E+01
 -1      1600-9.83867E-01-1.74266E-02 2.28442E+01
 -1      1601 1.02124E+00-1.46603E-02 1.33579E+01
 -1      1602 1.40553E+00-1.84294E-02 1.33641E+01
 -1      1603 5.11226E-01-8.70016E-03 1.35264E+01
 -1      1604-2.26456E-01-4.10077E-04 1.35515E+01
 -1      1605 1.01466E+00-1.40050E-02 1.39299E+01
 -1      1606 1.41052E+00-1.75442E-02 1.39358E+01
 -1      1607 4.93584E-01-9.47283E-03 1.39569E+01
 -1      1608 3.80128E-02-3.43810E-03 1.38927E+01
 -1      1609-4.28973E-01 6.01656E-04 1.39739E+01
 -1      1610-1.15799E-01-3.07334E-03 1.42815E+01
 -1      1611 9.44709E-01-1.30486E-02 1.43791E+01
 -1      1612 1.41550E+00-1.84943E-02 1.45151E+01
 -1      1613 4.08141E-01-8.63092E-03 1.47019E+01
 -1      1614-4.81084E-01 1.31865E-03 1.45543E+01
 -1      1615 1.00370E+00-1.29551E-02 1.47645E+01
 -1      1616-1.57974E-01-2.68023E-03 1.48645E+01
 -1      1617 1.41984E+00-1.70375E-02 1.50990E+01
 -1      1618 1.75408E-01-6.07167E-03 1.51760E+01
 -1      1619-5.34757E-01-4.85925E-04 1.51402E+01
 -1      1620 9.27793E-01-1.29189E-02 1.53289E+01
 -1      1621 5.21272E-01-8.79923E-03 1.54155E+01
 -1      1622-1.90373E-01-3.33008E-03 1.53046E+01
 -1      1623 1.42202E+00-1.51677E-02 1.56890E+01
 -1      1624 1.87554E-01-6.95296E-03 1.57661E+01
 -1      1625-4.05792E-01-2.93113E-03 1.57378E+01
 -1      1626 5.92963E-01-1.05847E-02 1.59388E+01
 -1      1627 1.05377E+00-1.32863E-02 1.59643E+01
 -1      1628 1.42378E+00-1.65784E-02 1.61334E+01
 -1      1629 1.54524E-01-7.31806E-03 1.63603E+01
 -1      1630-2.43999E-01-4.77483E-03 1.63423E+01
 -1      1631 7.96956E-01-1.17064E-02 1.65463E+01
 -1      1632 1.47200E+00-1.53119E-02 1.65486E+01
 -1      1633 1.49172E+00-1.03414E-02 2.20100E+01
 -1      1634 7.06441E-01-1.27266E-02 2.28761E+01
 -1      1635 3.67935E-01-8.91752E-03 1.68837E+01
 -1      1636-1.84665E-02-7.35079E-03 1.68972E+01
 -1      1637-4.02347E-01-4.46568E-03 1.68737E+01
 -1      1638 1.20584E+00-1.34015E-02 1.70988E+01
 -1      1639 5.42059E-01-1.03328E-02 1.73283E+01
 -1      1640 4.26617E-02-8.00128E-03 1.74932E+01
 -1      1641-4.00811E-01-6.42014E-03 1.74720E+01
 -1      1642 8.27331E-01-1.16707E-02 1.76830E+01
 -1      1643 1.22453E+00-1.24359E-02 1.77037E+01
 -1      1644 4.26714E-01-9.78561E-03 1.77391E+01
 -1      1645 2.19338E-01-9.23615E-03 1.81469E+01
 -1      1646-5.73236E-01-6.11633E-03 1.80722E+01
 -1      1647 8.14959E-01-1.09295E-02 1.81379E+01
 -1      1648 1.27054E+00-1.33145E-02 1.81606E+01
 -1      1649 5.96253E-01-1.06417E-02 1.85848E+01
 -1      1650 1.00840E+00-1.21141E-02 1.86049E+01
 -1      1651 1.47213E+00-1.29702E-02 1.86280E+01
 -1      1652 1.77627E-01-9.57759E-03 1.87181E+01
 -1      1653-2.76521E-01-7.88145E-03 1.85439E+01
 -1      1654-7.51556E-01-7.06613E-03 1.86757E+01
 -1      1655-2.66105E-01-9.68213E-03 1.91574E+01
 -1      1656 4.70400E-01-1.10433E-02 1.91532E+01
 -1      1657 9.98299E-01-1.16688E-02 1.90634E+01
 -1      1658 1.41613E+00-1.23342E-02 1.92371E+01
 -1      1659 7.75454E-01-1.16301E-02 1.95127E+01
 -1      1660 1.25365E+00-1.19312E-02 1.96121E+01
 -1      1661 2.38838E-01-1.07041E-02 1.96032E+01
 -1      1662-7.23429E-01-9.86584E-03 1.95988E+01
 -1      1663-2.04150E-01-1.05384E-02 1.98529E+01
 -1      1664-1.23463E+00-1.00342E-02 1.98854E+01
 -1      1665 5.45542E-01-1.12912E-02 1.99637E+01
 -1      1666 1.03149E+00-1.15395E-02 1.99859E+01
 -1      1667 1.24379E-02-1.15451E-02 2.03252E+01
 -1      1668-5.55283E-01-1.12916E-02 2.02234E+01
 -1      1669-9.91215E-01-1.08134E-02 2.02045E+01
 -1      1670 5.28395E-01-1.13470E-02 2.04256E+01
 -1      1671 1.01862E+00-1.13725E-02 2.06020E+01
 -1      1672 1.51699E+00-1.12074E-02 2.04708E+01
 -1      1673-1.34929E+00-1.16753E-02 2.04990E+01
 -1      1674 6.62533E-02-1.20177E-02 2.08683E+01
 -1      1675-5.39497E-01-1.23022E-02 2.07649E+01
 -1      1676-1.04522E+00-1.27656E-02 2.08211E+01
 -1      1677 5.66429E-01-1.16235E-02 2.08904E+01
 -1      1678 1.39974E+00-1.09121E-02 2.10819E+01
 -1      1679-3.98445E-01-1.28212E-02 2.11574E+01
 -1      1680 4.11227E-01-1.22373E-02 2.12926E+01
 -1      1681 9.48266E-01-1.11865E-02 2.12160E+01
 -1      1682-9.46868E-02-1.31489E-02 2.14971E+01
 -1      1683-8.05701E-01-1.39318E-02 2.14736E+01
 -1      1684 1.07991E+00-1.14941E-02 2.16073E+01
 -1      1685 1.11203E-01-1.50463E-02 2.34401E+01
 -1      1686-9.36137E-01-1.56663E-02 2.20790E+01
 -1      1687 8.11620E-01-1.21436E-02 2.22507E+01
 -1      1688-3.76613E-01-1.43414E-02 2.20256E+01
 -1      1689 5.01418E-01-1.25713E-02 2.17959E+01
 -1      1690-1.80992E-01-1.50951E-02 2.28433E+01
 -1      1691 2.27676E-01-1.40724E-02 2.29104E+01
 -1      1692-5.96643E-01-1.58796E-02 2.25934E+01
 -1      1693 1.56911E-01-1.36090E-02 2.23454E+01
 -1      1694 0.00000E+00 0.00000E+00 0.00000E+00
 -1      1695 0.00000E+00 0.00000E+00 0.00000E+00
 -1      1696 0.00000E+00 0.00000E+00 0.00000E+00
 -1      1697 0.00000E+00 0.00000E+00 0.00000E+00
 -1      1698 0.00000E+00 0.00000E+00 0.00000E+00
 -1      1699 0.00000E+00 0.00000E+00 0.00000E+00
 -1      1700 0.00000E+00 0.00000E+00 0.00000E+00
 -1      1701 0.00000E+00 0.00000E+00 0.00000E+00
 -1      1702 0.00000E+00 0.00000E+00 0.00000E+00
 -1      1703 0.00000E+00 0.00000E+00 0.00000E+00
 -1      1704 0.00000E+00 0.00000E+00 0.00000E+00
 -1      1705 0.00000E+00 0.00000E+00 0.00000E+00
 -1      1706 0.00000E+00 0.00000E+00 0.00000E+00
 -1      1707 0.00000E+00 0.00000E+00 0.00000E+00
 -1      1708 0.00000E+00 0.00000E+00 0.00000E+00
 -1      1709 0.00000E+00 0.00000E+00 0.00000E+00
 -1      1710 0.00000E+00 0.00000E+00 0.00000E+00
 -1      1711 0.00000E+00 0.00000E+00 0.00000E+00
 -1      1712 0.00000E+00 0.00000E+00 0.00000E+00
 -1      1713 0.00000E+00 0.00000E+00 0.00000E+00
 -1      1714 0.00000E+00 0.00000E+00 0.00000E+00
 -1      1715 0.00000E+00 0.00000E+00 0.00000E+00
 -1      1716 0.00000E+00 0.00000E+00 0.00000E+00
 -1      1717 0.00000E+00 0.00000E+00 0.00000E+00
 -1      1718 0.00000E+00 0.00000E+00 0.00000E+00
 -1      1719 0.00000E+00 0.00000E+00 0.00000E+00
 -1      1720 0.00000E+00 0.00000E+00 0.00000E+00
 -1      1721 0.00000E+00 0.00000E+00 0.00000E+00
 -1      1722 0.00000E+00 0.00000E+00 0.00000E+00
 -1      1723 0.00000E+00 0.00000E+00 0.00000E+00
 -1      1724 0.00000E+00 0.00000E+00 0.00000E+00
 -1      1725 0.00000E+00 0.00000E+00 0.00000E+00
 -1      1726 0.00000E+00 0.00000E+00 0.00000E+00
 -1      1727 0.00000E+00 0.00000E+00 0.00000E+00
 -1      1728 0.00000E+00 0.00000E+00 0.00000E+00
 -1      1729 0.00000E+00 0.00000E+00 0.00000E+00
 -1      1730 0.00000E+00 0.00000E+00 0.00000E+00
 -1      1731 0.00000E+00 0.00000E+00 0.00000E+00
 -1      1732 0.00000E+00 0.00000E+00 0.00000E+00
 -1      1733 0.00000E+00 0.00000E+00 0.00000E+00
 -1      1734 0.00000E+00 0.00000E+00 0.00000E+00
 -1      1735 0.00000E+00 0.00000E+00 0.00000E+00
 -1      1736 0.00000E+00 0.00000E+00 0.00000E+00
 -1      1737 0.00000E+00 0.00000E+00 0.00000E+00
 -1      1738 0.00000E+00 0.00000E+00 0.00000E+00
 -1      1739-3.45545E-02-3.70778E-02 5.83073E-03
 -1      1740-7.39906E-02-4.87009E-02 2.83222E-02
 -1      1741-1.41234E-01-5.51577E-02 7.68001E-02
 -1      1742-1.41053E-01-4.60969E-02 1.23446E-01
 -1      1743-1.65058E-01-4.16104E-02 2.06445E-01
 -1      1744-2.68319E-01-5.82017E-02 3.13992E-01
 -1      1745 1.59390E+00-1.20372E-02 2.43283E+01
 -1      1746-3.16035E-01-5.36500E-02 4.54929E-01
 -1      1747-1.58136E-01-3.13873E-02 3.94641E-01
 -1      1748-2.36443E-01-3.53021E-02 4.80444E-01
 -1      1749-3.57333E-01-4.90360E-02 6.01259E-01
 -1      1750-2.50646E-01-3.57414E-02 5.96808E-01
 -1      1751-3.90690E-01-4.59117E-02 7.71041E-01
 -1      1752-2.10469E-01-2.59361E-02 7.13753E-01
 -1      1753-4.23565E-01-4.67773E-02 9.54865E-01
 -1      1754-2.71087E-01-2.50869E-02 8.55387E-01
 -1      1755-2.82343E-01-2.59297E-02 1.00129E+00
 -1      1756-4.46091E-01-4.16293E-02 1.11033E+00
 -1      1757-4.64396E-01-4.11128E-02 1.27440E+00
 -1      1758-2.83347E-01-2.30937E-02 1.21484E+00
 -1      1759-4.87314E-01-3.94847E-02 1.50160E+00
 -1      1760-2.20299E-01-1.49310E-02 1.34567E+00
 -1      1761-2.21061E-01-1.36579E-02 1.55648E+00
 -1      1762-5.06484E-01-3.47726E-02 1.75181E+00
 -1      1763-3.32622E-01-1.95679E-02 1.85734E+00
 -1      1764-6.64660E-01-4.44579E-02 2.04165E+00
 -1      1765-4.02481E-01-1.91979E-02 2.12103E+00
 -1      1766 1.57417E+00-1.04304E-02 2.34242E+01
 -1      1767-6.88635E-01-3.79265E-02 2.29122E+00
 -1      1768-4.42760E-01-2.26730E-02 2.41486E+00
 -1      1769-2.29369E-01-8.06905E-03 2.20987E+00
 -1      1770-7.16459E-01-4.08957E-02 2.58434E+00
 -1      1771-1.08520E-01-2.34548E-03 2.52026E+00
 -1      1772-3.98214E-01-1.74733E-02 2.68126E+00
 -1      1773-5.08417E-01-2.70841E-02 2.89407E+00
 -1      1774-1.76798E-01-4.61004E-03 2.85140E+00
 -1      1775-7.88530E-01-4.08765E-02 3.23071E+00
 -1      1776-4.32308E-01-1.57324E-02 3.17500E+00
 -1      1777-1.56451E-01-2.22478E-03 3.18056E+00
 -1      1778-8.11208E-01-3.51232E-02 3.55487E+00
 -1      1779-4.28080E-01-1.65663E-02 3.42699E+00
 -1      1780-2.15814E-01-5.02411E-03 3.55487E+00
 -1      1781-4.90721E-01-2.05823E-02 3.80257E+00
 -1      1782-8.85291E-01-4.11037E-02 3.81182E+00
 -1      1783-1.03645E-01 7.37429E-04 3.88153E+00
 -1      1784-7.49379E-01-3.05281E-02 4.11345E+00
 -1      1785-9.97388E-01-4.18268E-02 4.09890E+00
 -1      1786-4.07647E-01-1.32572E-02 4.11820E+00
 -1      1787 1.10204E+00-1.34545E-02 2.43280E+01
 -1      1788 1.12681E+00-1.24964E-02 2.37702E+01
 -1      1789-7.32162E-02-1.72028E-03 4.25396E+00
 -1      1790-7.46839E-01-2.67689E-02 4.48961E+00
 -1      1791-3.59647E-01-9.44961E-03 4.49684E+00
 -1      1792-6.82404E-02 3.41302E-03 4.56913E+00
 -1      1793-1.10828E+00-1.98655E-02 2.43273E+01
 -1      1794-1.20412E+00-1.95345E-02 2.37506E+01
 -1      1795-1.51122E+00-2.03756E-02 2.34815E+01
 -1      1796-7.39991E-01-2.43556E-02 4.88491E+00
 -1      1797-2.33731E-01-4.15509E-03 4.88428E+00
 -1      1798-8.96830E-01-2.93781E-02 5.25966E+00
 -1      1799-6.25546E-01-2.04780E-02 5.33579E+00
 -1      1800-3.21000E-01-7.86626E-03 5.30515E+00
 -1      1801 3.30723E-04 5.42368E-03 5.32898E+00
 -1      1802-9.47281E-01-2.77435E-02 5.68815E+00
 -1      1803-5.62495E-01-1.59827E-02 5.69902E+00
 -1      1804-2.14520E-01-3.93151E-03 5.74583E+00
 -1      1805-1.00152E+00-3.25113E-02 6.06790E+00
 -1      1806-6.20102E-01-1.52669E-02 6.19365E+00
 -1      1807-1.43482E-01 1.27647E-04 6.15053E+00
 -1      1808-1.14705E+00-3.30929E-02 6.35773E+00
 -1      1809-7.93265E-01-2.19035E-02 6.48828E+00
 -1      1810-4.33098E-01-8.82588E-03 6.50945E+00
 -1      1811-1.49960E-01 7.57332E-04 6.62780E+00
 -1      1812 6.47023E-01-1.40706E-02 2.38468E+01
 -1      1813 6.10701E-01-1.48579E-02 2.43275E+01
 -1      1814-9.80740E-01-3.05448E-02 6.78639E+00
 -1      1815-6.08025E-01-1.42517E-02 6.75374E+00
 -1      1816-5.99205E-01-1.62176E-02 7.09713E+00
 -1      1817-2.12827E-01-2.62826E-03 7.06614E+00
 -1      1818 2.11624E-01 1.06227E-02 7.08804E+00
 -1      1819-9.42257E-01-2.61157E-02 7.24523E+00
 -1      1820-6.93679E-01-1.79288E-02 2.36495E+01
 -1      1821-4.32854E-01-1.78761E-02 2.43271E+01
 -1      1822-7.41022E-01-2.00954E-02 7.55016E+00
 -1      1823-3.88594E-01-8.68319E-03 7.43076E+00
 -1      1824 6.33383E-02 6.88548E-03 7.48517E+00
 -1      1825-1.20827E+00-3.43891E-02 7.73899E+00
 -1      1826-3.71148E-01-7.63735E-03 7.78752E+00
 -1      1827-7.88252E-01-1.87786E-02 7.88404E+00
 -1      1828 6.24985E-02 4.24837E-03 7.93915E+00
 -1      1829 7.15540E-01-1.29720E-02 2.32559E+01
 -1      1830 1.24487E+00-1.08801E-02 2.31111E+01
 -1      1831-1.00443E+00-2.43738E-02 8.20740E+00
 -1      1832-5.65701E-01-1.25957E-02 8.29149E+00
 -1      1833-1.81773E-01-3.28698E-03 8.26313E+00
 -1      1834 9.37498E-02 3.84157E-03 8.52208E+00
 -1      1835-1.01022E+00-2.65774E-02 8.70103E+00
 -1      1836-6.66575E-01-1.57366E-02 8.79946E+00
 -1      1837-3.19285E-01-7.63573E-03 8.77146E+00
 -1      1838 1.40592E-01 6.78549E-03 9.02358E+00
 -1      1839-1.01781E+00-1.85096E-02 2.31787E+01
 -1      1840-1.49153E+00-2.00165E-02 2.30005E+01
 -1      1841-8.05224E-01-1.95703E-02 9.25629E+00
 -1      1842-2.91194E-01-4.76261E-03 9.28164E+00
 -1      1843 3.14262E-01 7.85743E-03 9.48779E+00
 -1      1844 1.19596E-01-1.62711E-02 2.43274E+01
 -1      1845-8.93938E-01-2.11249E-02 9.71045E+00
 -1      1846-1.26900E+00-2.88517E-02 9.73975E+00
 -1      1847-5.18809E-01-1.16849E-02 9.68239E+00
 -1      1848-1.43664E-01-1.84496E-03 9.65670E+00
 -1      1849-6.31677E-01-1.54299E-02 1.00832E+01
 -1      1850-2.43679E-01-6.44040E-03 1.00560E+01
 -1      1851 2.26245E-01 6.06916E-03 9.92647E+00
 -1      1852-1.01856E+00-2.26452E-02 1.01115E+01
 -1      1853 2.66303E-01 4.67277E-03 1.03195E+01
 -1      1854-8.84910E-01-1.82108E-02 1.04984E+01
 -1      1855-1.28698E+00-2.73531E-02 1.05285E+01
 -1      1856-4.79556E-01-1.06647E-02 1.06036E+01
 -1      1857-8.79061E-02-3.73858E-03 1.04435E+01
 -1      1858 1.79410E-01 3.37712E-03 1.08267E+01
 -1      1859-8.80096E-01-1.77356E-02 1.08997E+01
 -1      1860-1.29729E+00-2.72000E-02 1.10655E+01
 -1      1861-4.60351E-01-1.06225E-02 1.10730E+01
 -1      1862-8.76679E-01-1.77257E-02 1.13058E+01
 -1      1863-3.03328E-01-6.18990E-03 1.14041E+01
 -1      1864 8.31329E-02-6.32333E-04 1.13428E+01
 -1      1865 4.55741E-01 7.42895E-03 1.11488E+01
 -1      1866-1.27034E+00-2.49263E-02 1.16710E+01
 -1      1867-7.24872E-01-1.33269E-02 1.17055E+01
 -1      1868 2.49962E-01 3.41539E-03 1.17010E+01
 -1      1869-2.75223E-01-5.79508E-03 1.19511E+01
 -1      1870-7.10981E-01-1.43586E-02 1.21875E+01
 -1      1871-1.33270E+00-2.34423E-02 1.22098E+01
 -1      1872 2.70602E-01 2.25397E-03 1.22285E+01
 -1      1873 6.25884E-01 1.11134E-02 1.19066E+01
 -1      1874-5.80001E-02-1.61804E-02 2.39006E+01
 -1      1875-2.42561E-01-5.83352E-03 1.25085E+01
 -1      1876 7.01923E-01 8.99665E-03 1.24445E+01
 -1      1877-6.96932E-01-1.36778E-02 1.27479E+01
 -1      1878-1.27938E+00-2.46756E-02 1.26791E+01
 -1      1879 1.93104E-01 1.30779E-03 1.26573E+01
 -1      1880-1.40214E+00-2.55899E-02 1.30732E+01
 -1      1881-2.73107E-02-2.41479E-03 1.31482E+01
 -1      1882 5.00965E-01 5.16734E-03 1.30290E+01
 -1      1883 2.92669E-01-1.47461E-02 2.35714E+01
 -1      1884 1.39497E+00-8.38078E-03 2.22049E+01
 -1      1885-9.62930E-01-1.68075E-02 1.32232E+01
 -1      1886-5.22174E-01-1.07289E-02 1.32350E+01
 -1      1887-1.01933E+00-1.77337E-02 1.36012E+01
 -1      1888-1.40879E+00-2.32682E-02 1.36428E+01
 -1      1889-5.05874E-01-1.13876E-02 1.36608E+01
 -1      1890 1.19055E-02-3.63018E-03 1.37180E+01
 -1      1891 4.01116E-01 3.51806E-03 1.36788E+01
 -1      1892 6.98843E-01 7.12423E-03 1.33766E+01
 -1      1893 7.60682E-01 7.78135E-03 1.39491E+01
 -1      1894-9.51043E-01-1.63492E-02 1.40814E+01
 -1      1895-1.41460E+00-2.29321E-02 1.42174E+01
 -1      1896-3.50172E-01-9.32509E-03 1.43359E+01
 -1      1897-2.44607E-02-3.99870E-03 1.41007E+01
 -1      1898 4.52246E-01 3.26737E-03 1.42547E+01
 -1      1899-1.00921E+00-1.75509E-02 1.44650E+01
 -1      1900 1.35716E-01-2.33060E-03 1.45630E+01
 -1      1901 8.24482E-01 6.28488E-03 1.45296E+01
 -1      1902-1.41962E+00-2.43308E-02 1.47983E+01
 -1      1903-3.70231E-01-8.95719E-03 1.48465E+01
 -1      1904 5.06842E-01 2.21264E-03 1.48383E+01
 -1      1905-9.38067E-01-1.69877E-02 1.48819E+01
 -1      1906 1.78557E-01-2.30193E-03 1.51487E+01
 -1      1907 8.72746E-01 6.26411E-03 1.49682E+01
 -1      1908-9.30781E-01-1.68241E-02 1.53204E+01
 -1      1909-1.42303E+00-2.24916E-02 1.53842E+01
 -1      1910 8.32506E-01-1.12108E-02 2.25753E+01
 -1      1911-3.46294E-01-9.14142E-03 1.53614E+01
 -1      1912 7.40151E-01 4.51622E-03 1.54165E+01
 -1      1913-1.89729E-01-7.00294E-03 1.57579E+01
 -1      1914 2.10228E-01-2.70310E-03 1.55915E+01
 -1      1915-5.94515E-01-1.33721E-02 1.59294E+01
 -1      1916-1.24034E+00-2.04254E-02 1.59647E+01
 -1      1917 2.43268E-01-2.64446E-03 1.60360E+01
 -1      1918 7.84634E-01 4.78672E-03 1.58621E+01
 -1      1919-1.56476E-01-8.46823E-03 1.63519E+01
 -1      1920 8.29349E-01 3.65948E-03 1.63078E+01
 -1      1921-7.53299E-01-1.53236E-02 1.64402E+01
 -1      1922-1.47442E+00-2.17933E-02 1.65393E+01
 -1      1923 2.29740E-01-4.20030E-03 1.64830E+01
 -1      1924-1.59353E+00-2.02851E-02 2.19031E+01
 -1      1925-1.26279E+00-1.89910E-02 2.24043E+01
 -1      1926-1.51256E-01-8.62310E-03 1.68983E+01
 -1      1927 4.73342E-01-2.24860E-03 1.68613E+01
 -1      1928 9.05473E-01 1.86809E-03 1.68356E+01
 -1      1929-6.50258E-01-1.40843E-02 1.70594E+01
 -1      1930-1.03869E+00-1.75167E-02 1.70802E+01
 -1      1931-1.42668E+00-2.20175E-02 1.69510E+01
 -1      1932-1.42596E+00-2.17749E-02 1.74013E+01
 -1      1933-9.72552E-02-9.11429E-03 1.74098E+01
 -1      1934 5.34604E-01-1.68577E-03 1.73049E+01
 -1      1935 9.41236E-01 1.20566E-03 1.74385E+01
 -1      1936 1.43620E+00 6.70360E-03 1.71015E+01
 -1      1937 1.41167E+00-6.55805E-03 2.15008E+01
 -1      1938-4.79605E-01-1.26626E-02 1.76936E+01
 -1      1939-9.03043E-01-1.60199E-02 1.76768E+01
 -1      1940 5.22621E-01-3.55063E-03 1.77605E+01
 -1      1941 1.17335E+00 2.40702E-03 1.79979E+01
 -1      1942-1.27335E+00-1.97205E-02 1.79991E+01
 -1      1943-5.84471E-02-8.40849E-03 1.80914E+01
 -1      1944-6.08868E-01-1.42435E-02 1.82701E+01
 -1      1945-1.01565E+00-1.73476E-02 1.82903E+01
 -1      1946 4.18122E-01-5.62565E-03 1.83741E+01
 -1      1947 8.26954E-01-1.73408E-03 1.83560E+01
 -1      1948-1.26618E+00-1.95615E-02 1.86836E+01
 -1      1949-3.54698E-01-1.24560E-02 1.88304E+01
 -1      1950 1.88233E-02-9.21175E-03 1.85457E+01
 -1      1951 1.16798E+00 7.73768E-05 1.86854E+01
 -1      1952-7.95248E-01-1.59438E-02 1.88895E+01
 -1      1953 2.02175E-01-8.11827E-03 1.89965E+01
 -1      1954 6.59676E-01-4.47065E-03 1.88226E+01
 -1      1955-1.20751E+00-1.89370E-02 1.92156E+01
 -1      1956 4.85915E-01-6.56734E-03 1.92905E+01
 -1      1957 1.09160E+00-1.95496E-03 1.92448E+01
 -1      1958-3.95773E-01-1.34513E-02 1.96953E+01
 -1      1959-7.81271E-01-1.57208E-02 1.93488E+01
 -1      1960 7.28426E-02-1.00492E-02 1.94629E+01
 -1      1961-8.75209E-01-1.60451E-02 1.98137E+01
 -1      1962-1.41544E+00-1.95921E-02 1.96855E+01
 -1      1963 2.03178E-01-9.62818E-03 1.98415E+01
 -1      1964 6.38728E-01-6.47887E-03 1.98995E+01
 -1      1965 1.16440E+00-2.85772E-03 1.97233E+01
 -1      1966-1.19331E+00-1.83396E-02 2.01362E+01
 -1      1967-1.62920E+00-2.07009E-02 2.01564E+01
 -1      1968-9.94883E-02-1.23337E-02 2.02407E+01
 -1      1969 9.90070E-01-5.31085E-03 2.01930E+01
 -1      1970 1.48484E+00-2.26157E-03 2.02326E+01
 -1      1971-6.94053E-01-1.57438E-02 2.04215E+01
 -1      1972 4.66016E-01-9.09737E-03 2.05244E+01
 -1      1973-1.18274E+00-1.82901E-02 2.07516E+01
 -1      1974-6.75649E-02-1.21782E-02 2.08562E+01
 -1      1975 1.21103E+00-5.72927E-03 2.08022E+01
 -1      1976-5.92524E-01-1.53868E-02 2.09565E+01
 -1      1977 5.04099E-01-9.52082E-03 2.10634E+01
 -1      1978-1.11790E+00-1.80647E-02 2.12112E+01
 -1      1979 6.52587E-02-1.28054E-02 2.14859E+01
 -1      1980 7.10339E-01-9.76778E-03 2.15080E+01
 -1      1981-5.98019E-01-1.58239E-02 2.16195E+01
 -1      1982-1.15428E+00-1.83403E-02 2.17683E+01
 -1      1983-1.95404E-01-1.61905E-02 2.35064E+01
 -1      1984 9.24127E-01-9.74096E-03 2.19928E+01
 -1      1985-3.33637E-01-1.60470E-02 2.30861E+01
 -1      1986 3.78707E-01-1.20793E-02 2.21265E+01
 -1      1987-6.50510E-01-1.64605E-02 2.20895E+01
 -1      1988 1.56371E-01-1.42830E-02 2.28707E+01
 -1      1989-6.61423E-01-1.67893E-02 2.25672E+01
 -1      1990-1.31862E-01-1.42080E-02 2.21082E+01
 -1      1991 0.00000E+00 0.00000E+00 0.00000E+00
 -1      1992 1.59274E+00 6.55584E-03 1.76542E+01
 -1      1993 1.41985E+00 9.27272E-03 1.64592E+01
 -1      1994 1.37376E+00 1.01141E-02 1.58736E+01
 -1      1995 1.32590E+00 1.16554E-02 1.52825E+01
 -1      1996 1.27787E+00 1.40833E-02 1.46964E+01
 -1      1997 1.22998E+00 1.44288E-02 1.41152E+01
 -1      1998 1.19384E+00 1.47183E-02 1.36837E+01
 -1      1999 1.15722E+00 1.50204E-02 1.32556E+01
 -1      2000 1.10752E+00 1.70846E-02 1.26892E+01
 -1      2001 1.19774E+00 1.99768E-02 1.21149E+01
 -1      2002 0.00000E+00 0.00000E+00 0.00000E+00
 -1      2003 1.15431E+00 1.99328E-02 1.15642E+01
 -1      2004 8.07131E-01 1.44140E-02 1.13557E+01
 -1      2005 0.00000E+00 0.00000E+00 0.00000E+00
 -1      2006 1.25548E+00 2.55851E-02 1.09363E+01
 -1      2007 6.83747E-01 1.37453E-02 1.08801E+01
 -1      2008 9.62702E-01 2.03873E-02 1.05896E+01
 -1      2009 7.07286E-01 1.53816E-02 1.03385E+01
 -1      2010 0.00000E+00 0.00000E+00 0.00000E+00
 -1      2011 1.18849E+00 2.82562E-02 9.77856E+00
 -1      2012 6.54750E-01 1.75023E-02 9.81383E+00
 -1      2013 1.21306E+00 3.00881E-02 9.29287E+00
 -1      2014 8.13193E-01 2.05319E-02 9.34619E+00
 -1      2015 9.42274E-01 2.58507E-02 8.96032E+00
 -1      2016 5.43033E-01 1.64839E-02 9.08902E+00
 -1      2017 5.45077E-01 1.84163E-02 8.70709E+00
 -1      2018 1.07298E+00 3.27917E-02 8.57070E+00
 -1      2019 1.21686E+00 3.53632E-02 8.28187E+00
 -1      2020 7.88941E-01 2.53254E-02 8.18979E+00
 -1      2021 4.55698E-01 1.64883E-02 8.21705E+00
 -1      2022 0.00000E+00 0.00000E+00 0.00000E+00
 -1      2023 1.14213E+00 3.82998E-02 7.85582E+00
 -1      2024 7.46401E-01 2.59746E-02 7.70324E+00
 -1      2025 4.05976E-01 1.80990E-02 7.72934E+00
 -1      2026 1.24631E+00 4.03775E-02 7.54904E+00
 -1      2027 8.89070E-01 3.11692E-02 7.39451E+00
 -1      2028 5.42641E-01 2.06652E-02 7.35826E+00
 -1      2029 1.09377E+00 4.03577E-02 7.02899E+00
 -1      2030 6.81333E-01 2.38340E-02 6.99731E+00
 -1      2031 3.11685E-01 1.52572E-02 6.79385E+00
 -1      2032 1.05643E+00 3.72721E-02 6.57365E+00
 -1      2033 6.41565E-01 2.36597E-02 6.54327E+00
 -1      2034 2.70984E-01 1.35347E-02 6.34127E+00
 -1      2035 9.57222E-01 4.02144E-02 6.18491E+00
 -1      2036 5.97511E-01 2.68102E-02 6.09586E+00
 -1      2037 2.29017E-01 1.32612E-02 5.90011E+00
 -1      2038 9.15782E-01 3.85865E-02 5.74969E+00
 -1      2039 5.57299E-01 2.83435E-02 5.66240E+00
 -1      2040 1.99889E-01 1.30191E-02 5.57866E+00
 -1      2041 7.40950E-01 3.77255E-02 5.30760E+00
 -1      2042 1.04816E+00 4.83067E-02 5.32059E+00
 -1      2043 3.55242E-01 1.97848E-02 5.35756E+00
 -1      2044 0.00000E+00 0.00000E+00 0.00000E+00
 -1      2045 5.08883E-01 2.83031E-02 5.14183E+00
 -1      2046 1.52025E-01 1.26303E-02 5.05883E+00
 -1      2047 8.94665E-01 4.34762E-02 4.86337E+00
 -1      2048 4.79311E-01 2.86846E-02 4.83570E+00
 -1      2049 1.23271E-01 9.71246E-03 4.75642E+00
 -1      2050 0.00000E+00 0.00000E+00 0.00000E+00
 -1      2051 0.00000E+00 0.00000E+00 0.00000E+00
 -1      2052 0.00000E+00 0.00000E+00 0.00000E+00
 -1      2053 7.95252E-01 4.27414E-02 4.51915E+00
 -1      2054 5.36124E-01 3.15061E-02 4.53333E+00
 -1      2055 2.66706E-01 1.80236E-02 4.44867E+00
 -1      2056 5.06630E-01 2.95465E-02 4.24214E+00
 -1      2057 7.62631E-01 4.43435E-02 4.23062E+00
 -1      2058 2.41350E-01 1.92551E-02 4.16325E+00
 -1      2059 6.49741E-01 3.74893E-02 3.95208E+00
 -1      2060 9.03168E-01 4.97669E-02 3.94380E+00
 -1      2061 2.82480E-01 1.97104E-02 3.92568E+00
 -1      2062 0.00000E+00 0.00000E+00 0.00000E+00
 -1      2063 4.11264E-01 2.60523E-02 3.68999E+00
 -1      2064 6.94149E-01 4.42011E-02 3.59079E+00
 -1      2065 1.43538E-01 1.39593E-02 3.52488E+00
 -1      2066 0.00000E+00 0.00000E+00 0.00000E+00
 -1      2067 4.93753E-01 3.37311E-02 3.28966E+00
 -1      2068 8.17903E-01 5.23651E-02 3.23798E+00
 -1      2069 1.55608E-01 1.72310E-02 3.17897E+00
 -1      2070 2.97000E-01 2.27961E-02 2.96407E+00
 -1      2071 6.18669E-01 4.29968E-02 2.95243E+00
 -1      2072 4.66057E-02 7.88254E-03 2.85508E+00
 -1      2073 0.00000E+00 0.00000E+00 0.00000E+00
 -1      2074 5.89137E-01 4.44518E-02 2.71368E+00
 -1      2075 2.68081E-01 2.29226E-02 2.68737E+00
 -1      2076 7.25830E-01 5.66778E-02 2.55625E+00
 -1      2077 4.79731E-01 3.74505E-02 2.44768E+00
 -1      2078 2.47215E-01 2.43710E-02 2.45717E+00
 -1      2079 6.90602E-01 5.10312E-02 2.25400E+00
 -1      2080 2.26438E-01 2.02470E-02 2.23272E+00
 -1      2081-5.80870E-02 1.08713E-03 2.26702E+00
 -1      2082 4.40913E-01 3.60202E-02 2.15543E+00
 -1      2083 6.44410E-01 5.82984E-02 1.97170E+00
 -1      2084 1.96668E-01 2.35205E-02 1.95074E+00
 -1      2085-1.29214E-01-5.27674E-03 1.95536E+00
 -1      2086 4.03988E-01 3.83075E-02 1.87819E+00
 -1      2087 0.00000E+00 0.00000E+00 0.00000E+00
 -1      2088 0.00000E+00 0.00000E+00 0.00000E+00
 -1      2089 5.99008E-01 5.48664E-02 1.70793E+00
 -1      2090 1.70580E-01 1.83043E-02 1.68977E+00
 -1      2091-9.01739E-02 6.34875E-04 1.75265E+00
 -1      2092 4.14081E-01 4.09681E-02 1.57275E+00
 -1      2093-1.07190E-02 6.95343E-03 1.60573E+00
 -1      2094 0.00000E+00 0.00000E+00 0.00000E+00
 -1      2095 5.77975E-01 5.97595E-02 1.46833E+00
 -1      2096 2.11529E-01 2.75366E-02 1.43833E+00
 -1      2097 1.47804E-03 4.51353E-03 1.41022E+00
 -1      2098 4.03291E-01 4.25116E-02 1.34156E+00
 -1      2099 5.32334E-01 5.70277E-02 1.23739E+00
 -1      2100 1.86911E-01 2.67963E-02 1.20792E+00
 -1      2101 1.15011E-02 9.02019E-03 1.22867E+00
 -1      2102 3.48929E-01 4.07201E-02 1.16627E+00
 -1      2103-1.00489E-01-1.04321E-02 1.09052E+00
 -1      2104 3.48485E-01 4.19358E-02 1.02635E+00
 -1      2105 4.84270E-01 6.30779E-02 1.02431E+00
 -1      2106 1.21755E-01 1.90475E-02 1.03409E+00
 -1      2107 1.74480E-01 2.80350E-02 8.98621E-01
 -1      2108 9.09519E-03 6.30053E-03 8.76652E-01
 -1      2109-1.62697E-01-1.52532E-02 8.87135E-01
 -1      2110 3.00929E-01 4.04391E-02 8.89107E-01
 -1      2111 4.38151E-01 5.92729E-02 8.34181E-01
 -1      2112 2.71681E-01 4.10593E-02 7.45421E-01
 -1      2113 0.00000E+00 0.00000E+00 0.00000E+00
 -1      2114 1.50867E-01 2.79499E-02 7.13680E-01
 -1      2115-2.63305E-03 5.92167E-03 7.38439E-01
 -1      2116 3.88249E-01 5.89381E-02 6.56253E-01
 -1      2117 4.99359E-02 1.35410E-02 6.09039E-01
 -1      2118-5.68243E-02-3.19888E-03 6.14975E-01
 -1      2119 1.48752E-01 2.99833E-02 5.68713E-01
 -1      2120 2.71312E-01 4.60244E-02 5.70046E-01
 -1      2121-1.53702E-01-1.94054E-02 5.44803E-01
 -1      2122 3.49644E-01 6.28657E-02 5.40149E-01
 -1      2123 3.74583E-02 1.03923E-02 4.56928E-01
 -1      2124-5.65318E-02-4.94539E-03 4.60123E-01
 -1      2125 1.69968E-01 3.44459E-02 4.39534E-01
 -1      2126 3.27004E-01 6.02962E-02 4.40998E-01
 -1      2127 0.00000E+00 0.00000E+00 0.00000E+00
 -1      2128 3.33315E-02 8.81960E-03 3.35377E-01
 -1      2129 1.39471E-01 2.94186E-02 3.10534E-01
 -1      2130 2.21610E-01 5.08351E-02 2.84547E-01
 -1      2131-5.91675E-02-1.39111E-02 2.84143E-01
 -1      2132-1.51604E-01-2.87210E-02 2.93208E-01
 -1      2133 2.65235E-02 5.25931E-03 2.21264E-01
 -1      2134 1.28751E-01 3.93716E-02 1.89140E-01
 -1      2135-6.38445E-02-1.73529E-02 2.02935E-01
 -1      2136 2.06073E-01 6.33300E-02 1.67612E-01
 -1      2137 5.33235E-02 1.92803E-02 1.19992E-01
 -1      2138 4.15384E-03 4.29576E-03 1.29512E-01
 -1      2139-4.90740E-02-1.37807E-02 1.37717E-01
 -1      2140-1.04564E-01-3.19207E-02 1.44968E-01
 -1      2141 9.86656E-02 3.45350E-02 1.16944E-01
 -1      2142 1.44685E-01 4.85882E-02 1.20416E-01
 -1      2143 1.50143E-02 8.42111E-03 5.98888E-02
 -1      2144-3.41498E-02-1.18965E-02 7.78046E-02
 -1      2145-8.84879E-02-3.15898E-02 8.96230E-02
 -1      2146 4.81272E-02 2.24447E-02 4.69550E-02
 -1      2147 9.93083E-02 4.77269E-02 6.09545E-02
 -1      2148-4.41443E-02-2.15268E-02 3.85231E-02
 -1      2149-8.88036E-02-4.05505E-02 5.09297E-02
 -1      2150 0.00000E+00 0.00000E+00 0.00000E+00
 -1      2151 0.00000E+00 0.00000E+00 0.00000E+00
 -1      2152 1.26448E-03 1.32550E-03 2.27273E-02
 -1      2153 3.10833E-02 2.65354E-02 9.48697E-03
 -1      2154 6.16487E-02 4.31658E-02 1.84131E-02
 -1      2155 4.41093E-03 4.10504E-03 2.44576E-03
 -1      2156-9.64629E-03-7.20786E-03-2.71969E-03
 -1      2157-4.01118E-02-2.52902E-02 8.30482E-03
 -1      2158-1.81378E-02-2.10438E-02-6.40888E-03
 -1      2159 5.34247E-03 8.77561E-03-4.57851E-03
 -1      2160 2.47109E-02 2.24208E-02-2.18922E-03
 -1      2161 1.63343E-02 1.28765E-02 3.48235E-03
 -1      2162-6.30603E-03-1.08905E-02-7.07175E-03
 -1      2163 0.00000E+00 0.00000E+00 0.00000E+00
 -1      2164 0.00000E+00 0.00000E+00 0.00000E+00
 -1      2165 0.00000E+00 0.00000E+00 0.00000E+00
 -1      2166 0.00000E+00 0.00000E+00 0.00000E+00
 -1      2167 0.00000E+00 0.00000E+00 0.00000E+00
 -1      2168 0.00000E+00 0.00000E+00 0.00000E+00
 -1      2169 0.00000E+00 0.00000E+00 0.00000E+00
 -1      2170 0.00000E+00 0.00000E+00 0.00000E+00
 -1      2171 0.00000E+00 0.00000E+00 0.00000E+00
 -1      2172 0.00000E+00 0.00000E+00 0.00000E+00
 -1      2173 0.00000E+00 0.00000E+00 0.00000E+00
 -1      2174 0.00000E+00 0.00000E+00 0.00000E+00
 -1      2175 0.00000E+00 0.00000E+00 0.00000E+00
 -1      2176 0.00000E+00 0.00000E+00 0.00000E+00
 -1      2177 0.00000E+00 0.00000E+00 0.00000E+00
 -1      2178 0.00000E+00 0.00000E+00 0.00000E+00
 -1      2179 0.00000E+00 0.00000E+00 0.00000E+00
 -1      2180 0.00000E+00 0.00000E+00 0.00000E+00
 -1      2181 0.00000E+00 0.00000E+00 0.00000E+00
 -1      2182 0.00000E+00 0.00000E+00 0.00000E+00
 -1      2183 0.00000E+00 0.00000E+00 0.00000E+00
 -1      2184 0.00000E+00 0.00000E+00 0.00000E+00
 -1      2185 0.00000E+00 0.00000E+00 0.00000E+00
 -1      2186 0.00000E+00 0.00000E+00 0.00000E+00
 -1      2187 0.00000E+00 0.00000E+00 0.00000E+00
 -1      2188 1.55956E+00-1.13492E-02 2.43376E+01
 -1      2189-1.31475E+00-2.06296E-02 2.43300E+01
 -1      2190 1.01450E+00-1.31675E-02 2.43385E+01
 -1      2191 7.37595E-01-1.40994E-02 2.43367E+01
 -1      2192 4.15698E-01-1.51440E-02 2.43382E+01
 -1      2193-1.19888E+00-2.03216E-02 2.43315E+01
 -1      2194-7.53377E-01-1.88072E-02 2.43316E+01
 -1      2195-1.56581E+00-2.18085E-02 2.43372E+01
 -1      2196-1.12161E+00-2.00556E-02 2.43328E+01
 -1      2197-7.58344E-02-1.67507E-02 2.43372E+01
 -1      2198 3.95496E-01-1.51983E-02 2.43353E+01
 -1      2199-1.13045E+00-2.03621E-02 2.43375E+01
 -1      2200-1.35727E+00-2.08694E-02 2.43341E+01
 -1      2201-5.91606E-01-1.83650E-02 2.43330E+01
 -1      2202-2.08615E-01-1.72168E-02 2.43309E+01
 -1      2203 2.09891E-04-1.64589E-02 2.43351E+01
 -1      2204 3.52650E-01-1.53793E-02 2.43335E+01
 -1      2205 2.63868E-01-1.57196E-02 2.43321E+01
 -1      2206-2.03672E-01-1.71250E-02 2.43337E+01
 -1      2207-5.83079E-01-1.83405E-02 2.43353E+01
 -1      2208-1.16269E+00-2.03266E-02 2.43358E+01
 -1      2209-6.20817E-01-1.85295E-02 2.43370E+01
 -1      2210-6.62298E-01-1.85956E-02 2.43289E+01
 -1      2211 1.28997E+00-1.23201E-02 2.43353E+01
 -1      2212 1.02851E-01-1.62622E-02 2.43283E+01
 -1      2213-3.89231E-03-1.65835E-02 2.43296E+01
 -1      2214 8.43884E-01-1.38128E-02 2.43334E+01
 -1      2215 1.17017E+00-1.31155E-02 2.43293E+01
 -1      2216 1.41386E+00-1.20990E-02 2.43327E+01
 -1      2217 1.60705E+00-1.16991E-02 2.43312E+01
 -1      2218 8.85256E-01-1.38193E-02 2.43315E+01
 -1      2219 5.24150E-01-1.49529E-02 2.43307E+01
 -1      2220 1.13809E+00-1.31073E-02 2.43305E+01
 -1      2221 6.19381E-01-1.47041E-02 2.43294E+01
 -1      2222-8.56057E-04 5.86703E-03 4.48629E+00
 -1      2223-1.77883E-03-2.64249E-03 1.27775E+01
 -1      2224 6.85696E-04 6.51227E-03 3.20722E+00
 -1      2225-2.89084E-03 5.75974E-03 4.46873E-01
 -1      2226 1.95333E-03-9.46615E-04-3.06522E-03
 -1      2227 4.37758E-04 3.59888E-03 8.26414E+00
 -1      2228 2.20405E-02-8.99491E-03 1.84353E+01
 -1      2229-3.12510E-02-5.57164E-03 1.55614E+01
 -1      2230 8.41491E-02-1.21929E-02 2.11716E+01
 -1      2231 3.42564E-02 6.54307E-03 9.58592E-01
 -1      2232 1.17643E-01 6.86494E-03 1.99551E+00
 -1      2233 0.00000E+00 0.00000E+00 0.00000E+00
 -1      2234-2.25726E-02 1.53086E-03 1.39890E-01
 -1      2235 3.77851E-03-1.18891E-04 9.90509E+00
 -1      2236 1.38660E-03 6.22603E-03 5.98573E+00
 -1      2237 3.67512E-01-1.33479E-02 2.27334E+01
 -1      2238 2.53707E-01-2.39468E-03 1.13131E+01
 -1      2239 3.57285E-01-2.52911E-03 1.41603E+01
 -1      2240 2.01709E-01-9.17570E-03 1.88095E+01
 -1      2241 3.88957E-01-6.74588E-03 1.69842E+01
 -1      2242-5.46434E-01 7.21156E-03 7.08701E+00
 -1      2243-5.51139E-01-1.20325E-02 1.99900E+01
 -1      2244 5.49166E-01-8.98549E-03 1.99329E+01
 -1      2245 9.29127E-02-7.67967E-03 2.23792E-01
 -1      2246-1.78097E-01 1.10040E-02 1.43731E+00
 -1      2247-5.04891E-01-3.14290E-03 1.42657E+01
 -1      2248 2.73096E-01 3.47413E-04 3.82046E+00
 -1      2249 2.04168E-01 1.17851E-02 1.37564E+00
 -1      2250-6.47105E-01-1.28795E-02 1.93811E+01
 -1      2251-4.50490E-01 4.90443E-03 5.21456E+00
 -1      2252-3.96896E-01 6.43629E-03 3.82131E+00
 -1      2253 4.38856E-01 1.54050E-04 6.78077E+00
 -1      2254 1.11799E-01 1.14174E-02 2.65842E-01
 -1      2255-7.02452E-01-9.59928E-03 1.74146E+01
 -1      2256 3.89229E-01 5.23479E-04 5.21243E+00
 -1      2257-5.75551E-01-1.58577E-02 2.22433E+01
 -1      2258-6.95994E-01-1.54256E-02 2.19987E+01
 -1      2259 3.80729E-02 7.69116E-03 3.96255E-02
 -1      2260 3.95260E-02-7.28753E-03 4.72355E-02
 -1      2261-1.78618E-01 1.54464E-02 6.68528E-01
 -1      2262 2.97691E-01-9.18580E-04 2.62615E+00
 -1      2263-2.64574E-01 2.79457E-03 2.55346E+00
 -1      2264-1.47025E-01 1.46669E-03 7.33799E+00
 -1      2265-7.40837E-01-1.00233E-02 1.60927E+01
 -1      2266 2.97736E-01 9.57369E-03 5.19207E+00
 -1      2267-2.45980E-01-8.10495E-03 9.46829E-01
 -1      2268 6.37482E-01-5.22650E-03 1.35566E+01
 -1      2269-3.42356E-02-6.85150E-03 3.03933E-02
 -1      2270-3.02903E-02 9.86567E-03 1.82756E-02
 -1      2271 6.94126E-01-1.12388E-02 2.20304E+01
 -1      2272 2.29567E-01 1.12972E-02 3.80524E+00
 -1      2273 5.09456E-01 1.65443E-02 4.48578E+00
 -1      2274-5.72793E-01-3.60678E-03 8.91261E+00
 -1      2275 4.99638E-01 7.64256E-03 9.06203E+00
 -1      2276 6.51269E-01-4.92430E-03 1.47629E+01
 -1      2277-5.87329E-01 6.00127E-03 8.88225E+00
 -1      2278 0.00000E+00 0.00000E+00 0.00000E+00
 -1      2279 0.00000E+00 0.00000E+00 0.00000E+00
 -1      2280 4.71263E-01-2.14939E-03 9.06183E+00
 -1      2281-3.03274E-01 1.39502E-02 2.22250E+00
 -1      2282-6.51275E-01-7.52913E-03 1.34674E+01
 -1      2283-5.53748E-01-4.73162E-03 1.14153E+01
 -1      2284 7.44830E-01-3.59385E-03 1.72314E+01
 -1      2285 6.14303E-01 2.67934E-03 1.19894E+01
 -1      2286 6.60066E-01-9.98497E-03 2.02541E+01
 -1      2287 1.83476E-01-9.34823E-03 5.86568E-01
 -1      2288 1.70155E-01 1.26201E-02 6.78679E-01
 -1      2289 5.94094E-01 5.78095E-03 1.06515E+01
 -1      2290 1.23309E-01 6.13492E-04 7.61323E+00
 -1      2291 7.36614E-01-1.67526E-03 1.60358E+01
 -1      2292-6.13061E-01 1.22355E-03 1.19942E+01
 -1      2293 3.77512E-01 1.61855E-02 2.84396E+00
 -1      2294-6.62824E-01-8.76187E-03 1.46521E+01
 -1      2295-5.18409E-01 1.18994E-02 5.73764E+00
 -1      2296-1.07842E-01-4.91314E-03 2.98068E-01
 -1      2297-6.47204E-01-5.90989E-03 1.64000E+01
 -1      2298 7.19893E-01 2.46491E-03 1.31778E+01
 -1      2299 0.00000E+00 0.00000E+00 0.00000E+00
 -1      2300 2.15340E-01-1.43202E-02 2.31494E+01
 -1      2301 7.13227E-01-5.15166E-03 1.24779E+01
 -1      2302-1.05053E-01 1.24681E-02 2.67515E-01
 -1      2303-3.79246E-01 1.49989E-02 2.83974E+00
 -1      2304-5.74316E-01 2.76349E-03 1.06369E+01
 -1      2305-1.99180E-01-8.81051E-03 6.04609E-01
 -1      2306 4.06765E-01 1.02308E-02 6.59193E+00
 -1      2307 0.00000E+00 0.00000E+00 0.00000E+00
 -1      2308-5.30397E-01-2.62557E-03 6.50061E+00
 -1      2309 0.00000E+00 0.00000E+00 0.00000E+00
 -1      2310 0.00000E+00 0.00000E+00 0.00000E+00
 -1      2311-7.80444E-01-1.74711E-02 2.31368E+01
 -1      2312 7.83058E-01-5.76459E-03 1.88191E+01
 -1      2313-8.17975E-01-1.30313E-02 1.82460E+01
 -1      2314-8.45524E-01-1.56252E-02 2.11103E+01
 -1      2315 6.87311E-01-8.18805E-03 1.81351E+01
 -1      2316-4.08492E-01 1.23834E-02 4.76102E+00
 -1      2317 7.20223E-01-3.81989E-03 8.23225E+00
 -1      2318-6.29573E-01-7.31845E-03 1.03807E+01
 -1      2319 8.14718E-01 9.56132E-04 1.49844E+01
 -1      2320-1.04653E+00-8.95038E-03 1.85319E+01
 -1      2321 8.30699E-03 2.27348E-03-3.98735E-03
 -1      2322-4.94561E-01-4.79281E-03 4.28752E+00
 -1      2323-6.67106E-01 7.66037E-03 7.98545E+00
 -1      2324 6.66302E-01 1.15421E-02 8.15274E+00
 -1      2325 5.25848E-01-2.89186E-03 4.49179E+00
 -1      2326-5.15092E-01-1.32158E-02 2.09808E+01
 -1      2327-5.41057E-01 5.98343E-03 3.28221E+00
 -1      2328-2.41716E-01 1.33646E-02 3.43209E+00
 -1      2329 6.78145E-01-3.24685E-03 1.02456E+01
 -1      2330 7.56485E-01-7.05894E-03 1.59625E+01
 -1      2331 6.03182E-01 4.79928E-03 7.44911E+00
 -1      2332 0.00000E+00 0.00000E+00 0.00000E+00
 -1      2333-7.85962E-01-2.95393E-03 1.53070E+01
 -1      2334 7.98596E-01-1.12424E-02 2.17380E+01
 -1      2335-2.43045E-01-2.59208E-03 1.36349E+00
 -1      2336 2.48997E-01-9.59684E-03 1.00484E+00
 -1      2337 4.16307E-01-4.67168E-03 3.20696E+00
 -1      2338-1.10446E-01-1.29701E-02 1.43229E-01
 -1      2339-8.17450E-01-2.03373E-03 1.33091E+01
 -1      2340-6.68244E-01-7.31932E-03 8.02695E+00
 -1      2341 2.79400E-01-1.24108E-03 1.45525E+00
 -1      2342 0.00000E+00 0.00000E+00 0.00000E+00
 -1      2343-2.35016E-01 1.54334E-02 1.03189E+00
 -1      2344-7.61030E-01-8.32165E-03 1.24194E+01
 -1      2345-2.86583E-01-2.30504E-03 3.08244E+00
 -1      2346-6.18529E-01-3.86356E-03 5.72727E+00
 -1      2347 3.27432E-02-5.68703E-04 1.28456E-02
 -1      2348 2.43937E-01 1.90708E-02 1.00492E+00
 -1      2349-1.58373E-01-5.72974E-03 1.52646E+01
 -1      2350 6.15300E-02 1.46767E-04 7.93536E-01
 -1      2351-8.79983E-02 1.68912E-02 1.10959E-01
 -1      2352 1.07510E-01 6.42171E-03 1.39792E-01
 -1      2353-2.15535E-01 1.35365E-02 4.57235E-01
 -1      2354-5.80411E-01 1.95850E-02 4.13489E+00
 -1      2355 6.08240E-01-3.03636E-03 5.97784E+00
 -1      2356 8.61352E-01-9.50388E-03 1.92752E+01
 -1      2357 6.17998E-01 1.63061E-02 5.85704E+00
 -1      2358-5.48018E-01-7.34938E-03 3.60057E+00
 -1      2359 0.00000E+00 0.00000E+00 0.00000E+00
 -1      2360 2.10094E-01 3.26504E-03 4.39803E-01
 -1      2361-2.32279E-01-7.89669E-03 1.76558E+01
 -1      2362-7.54644E-01 6.40941E-03 9.75245E+00
 -1      2363 1.04563E+00-9.55926E-03 2.11725E+01
 -1      2364 5.62755E-01-1.01376E-02 2.09587E+01
 -1      2365-2.16352E-01-8.58289E-03 3.74225E-01
 -1      2366-5.76299E-02 4.97379E-03 4.68535E+00
 -1      2367-2.96407E-01-1.26104E-02 2.02998E+01
 -1      2368 6.48915E-01 9.30783E-03 4.88100E+00
 -1      2369-2.10840E-01 7.22670E-03 6.41591E+00
 -1      2370 9.37234E-01-5.53647E-03 1.80375E+01
 -1      2371 1.59308E-01-7.69965E-03 1.80288E+01
 -1      2372-6.59475E-03-3.40887E-03-1.38322E-03
 -1      2373 8.00485E-03 1.89417E-03 8.32752E+00
 -1      2374-8.73763E-01-1.80320E-02 2.32678E+01
 -1      2375 4.71351E-04 1.62790E-03 4.40933E-01
 -1      2376-1.11295E-01-9.70466E-04 9.58205E+00
 -1      2377 1.80087E-02-6.53322E-03 1.66304E+01
 -1      2378 3.56041E-01-4.60685E-03 2.08279E+00
 -1      2379-5.68346E-04-9.40481E-05-4.89211E-03
 -1      2380 6.48913E-01 6.16107E-03 4.23556E+00
 -1      2381 2.85110E-01-6.59828E-04 8.01848E-01
 -1      2382 9.82952E-01-3.20713E-03 1.54512E+01
 -1      2383-3.58372E-01 5.19271E-03 1.83448E+00
 -1      2384-1.96802E-01-2.13162E-03 1.34960E+01
 -1      2385 4.98242E-01 8.87003E-03 3.47059E+00
 -1      2386-1.03059E+00-1.46005E-02 2.02081E+01
 -1      2387 6.71196E-02 1.10884E-02 4.44268E-01
 -1      2388 4.15829E-01 1.85951E-02 2.32185E+00
 -1      2389-1.94868E-03 1.32539E-03 3.99933E-02
 -1      2390 0.00000E+00 0.00000E+00 0.00000E+00
 -1      2391 9.41136E-01-1.28941E-03 1.29731E+01
 -1      2392 8.12211E-01 6.48275E-03 9.84711E+00
 -1      2393 0.00000E+00 0.00000E+00 0.00000E+00
 -1      2394-8.29593E-01-6.72031E-04 9.40725E+00
 -1      2395-4.97598E-01-1.02870E-02 1.72920E+01
 -1      2396-8.84876E-01-1.21525E-02 9.56757E+00
 -1      2397 3.89478E-01 2.09727E-02 1.74214E+00
 -1      2398-6.21721E-01 6.20951E-03 4.44003E+00
 -1      2399-9.70874E-02-5.45001E-04 9.86153E-02
 -1      2400-2.01876E-02 6.16346E-03 4.26690E+00
 -1      2401 7.53034E-02-1.08382E-03 1.25970E+01
 -1      2402 1.74862E-01-1.89782E-02 3.79942E-01
 -1      2403 0.00000E+00 0.00000E+00 0.00000E+00
 -1      2404-4.24468E-02 5.58068E-03 1.70435E+00
 -1      2405-1.22268E-01-1.56705E-02 2.33752E+01
 -1      2406 4.05862E-02 9.61237E-03 1.23661E-01
 -1      2407-1.52058E-02-7.47168E-03-5.67637E-04
 -1      2408 9.69034E-01 5.13987E-03 1.39925E+01
 -1      2409-9.36489E-01-7.84631E-03 1.53626E+01
 -1      2410-7.18152E-01 2.96742E-03 6.06902E+00
 -1      2411 9.01003E-01-6.76297E-03 1.13577E+01
 -1      2412 2.83010E-02 3.72669E-03 6.70019E-01
 -1      2413-6.45135E-01-6.84967E-03 4.89739E+00
 -1      2414-8.31612E-01-1.28781E-04 8.48100E+00
 -1      2415-7.20285E-02-2.86251E-03 1.36040E+01
 -1      2416 0.00000E+00 0.00000E+00 0.00000E+00
 -1      2417-9.17213E-01 1.44028E-02 8.44393E+00
 -1      2418 7.11131E-02-5.61533E-03 1.54760E+01
 -1      2419 3.31278E-01 5.43744E-03 1.14411E+00
 -1      2420-1.06072E+00-1.56748E-02 2.12824E+01
 -1      2421 1.00434E+00-8.93516E-03 1.72880E+01
 -1      2422-1.05836E+00-1.76561E-02 2.27721E+01
 -1      2423 7.00290E-01 7.33673E-03 5.50679E+00
 -1      2424-8.44497E-02-1.45123E-03 1.19460E+01
 -1      2425 1.01167E+00-1.14981E-02 2.28654E+01
 -1      2426-2.74644E-01-3.27711E-03 2.10271E+00
 -1      2427-7.65548E-02 5.89388E-03 6.76758E+00
 -1      2428-1.09048E-01-1.45237E-03 1.26404E+01
 -1      2429 7.15416E-01 1.71381E-02 7.43535E+00
 -1      2430-3.44035E-02 4.89418E-03 6.03492E+00
 -1      2431 8.38052E-01 3.65453E-03 8.59085E+00
 -1      2432-2.89679E-01 2.99455E-03 7.82452E-01
 -1      2433 7.79053E-01-5.62063E-03 7.34353E+00
 -1      2434-1.03454E+00-1.23989E-02 1.92450E+01
 -1      2435 0.00000E+00 0.00000E+00 0.00000E+00
 -1      2436 3.58015E-01-1.16452E-02 2.10070E+01
 -1      2437 9.61835E-01-7.46275E-03 1.92644E+01
 -1      2438-2.91770E-02 3.33313E-03 8.39723E+00
 -1      2439-1.44048E-01-2.83969E-03 2.17799E-01
 -1      2440-8.36320E-02 1.15977E-03 9.02677E+00
 -1      2441-6.93276E-01 6.20692E-04 7.58119E+00
 -1      2442-4.20575E-02 6.43408E-03 1.80759E+00
 -1      2443 1.50712E-02 3.49435E-03 2.68966E-01
 -1      2444 7.44823E-01 6.67416E-03 6.22234E+00
 -1      2445-9.92373E-01 2.10537E-03 1.37490E+01
 -1      2446-3.46711E-01 6.90277E-03 1.15994E+00
 -1      2447 1.70166E-01 1.20351E-02 3.28131E+00
 -1      2448 5.85819E-03 1.42484E-03 1.18794E-01
 -1      2449 0.00000E+00 0.00000E+00 0.00000E+00
 -1      2450-2.13015E-01-1.09331E-02 1.88606E+01
 -1      2451 6.28619E-02-4.09111E-05 9.71025E+00
 -1      2452-7.52726E-01 2.11899E-02 5.16061E+00
 -1      2453 9.04411E-01-9.89831E-04 1.18560E+01
 -1      2454 1.09398E+00-1.07447E-02 2.27244E+01
 -1      2455-6.59963E-02-1.37467E-02 2.20282E+01
 -1      2456-1.01317E-01-9.75407E-04 1.06956E+01
 -1      2457 1.04816E+00-3.65983E-03 1.65999E+01
 -1      2458 1.02102E+00-3.31233E-04 1.37266E+01
 -1      2459-1.08626E+00-1.60767E-02 1.99699E+01
 -1      2460 1.16198E+00-1.06556E-02 2.24294E+01
 -1      2461 1.06305E+00-1.19766E-02 2.33721E+01
 -1      2462 0.00000E+00 0.00000E+00 0.00000E+00
 -1      2463-9.75303E-01-6.37677E-03 1.40426E+01
 -1      2464 0.00000E+00 0.00000E+00 0.00000E+00
 -1      2465 2.23437E-01 2.89734E-02 3.91276E-01
 -1      2466-6.60430E-02-1.01477E-02 1.93513E+01
 -1      2467 1.04705E+00-1.31787E-03 1.45953E+01
 -1      2468 1.13611E-01 9.65545E-03 4.19503E+00
 -1      2469 8.89253E-01 1.06826E-03 1.08194E+01
 -1      2470 5.51501E-01 6.22119E-03 2.96805E+00
 -1      2471-1.10157E-01-1.17131E-02 2.03410E+01
 -1      2472-1.55522E-01-4.49958E-03 1.40443E+01
 -1      2473-1.74751E-01-4.05568E-03 1.47223E+01
 -1      2474-9.98259E-01-2.93012E-03 1.25729E+01
 -1      2475 0.00000E+00 0.00000E+00 0.00000E+00
 -1      2476-3.24918E-02-4.42863E-03 1.82911E-01
 -1      2477 8.83378E-02 3.75260E-03 5.64972E+00
 -1      2478 5.15313E-02-7.67566E-04 1.02854E+01
 -1      2479 1.74377E-01-2.67283E-03 1.18365E+01
 -1      2480 2.03569E-01 1.34270E-03 1.13138E+01
 -1      2481 1.26538E-01 3.39287E-03 4.80697E+00
 -1      2482 2.36689E-01-2.03131E-03 1.08775E+01
 -1      2483 3.17402E-01-1.72107E-02 7.85150E-01
 -1      2484-2.21632E-01 1.97978E-03 5.24521E+00
 -1      2485 1.96117E-01-7.70177E-03 1.76087E+01
 -1      2486-6.17734E-03 4.11386E-03 7.00171E+00
 -1      2487 6.65725E-01 2.46595E-02 4.00222E+00
 -1      2488-7.51003E-01-1.07532E-02 7.34830E+00
 -1      2489-8.86981E-01-3.10334E-03 1.08583E+01
 -1      2490-8.13425E-02-1.32146E-02 2.15279E+01
 -1      2491 0.00000E+00 0.00000E+00 0.00000E+00
 -1      2492-1.31544E-01-1.10409E-02 1.95076E+01
 -1      2493 9.35187E-01-8.62413E-03 9.51753E+00
 -1      2494-1.09456E+00-8.26634E-03 1.77009E+01
 -1      2495 3.98910E-01 2.86678E-02 1.27095E+00
 -1      2496 7.37884E-01-9.41698E-03 4.96806E+00
 -1      2497 1.13327E+00-9.35785E-03 1.93338E+01
 -1      2498 2.33631E-02 4.39347E-03 1.20614E+00
 -1      2499 5.13013E-04-9.22276E-03 1.84956E+01
 -1      2500 9.26145E-01 1.50775E-02 9.49610E+00
 -1      2501 6.34887E-01-1.30374E-02 3.62799E+00
 -1      2502-1.16628E+00-9.40122E-03 1.55086E+01
 -1      2503 0.00000E+00 0.00000E+00 0.00000E+00
 -1      2504 4.89738E-01-8.13668E-03 1.66451E+01
 -1      2505 1.68567E-01-4.98541E-03 1.42266E+01
 -1      2506-1.12742E+00 1.03733E-03 1.47165E+01
 -1      2507 1.25394E-02 6.95673E-03 8.33882E-01
 -1      2508-1.09773E+00-1.11753E-02 1.81907E+01
 -1      2509 7.30583E-01-1.22581E-02 2.25537E+01
 -1      2510-4.65199E-01-1.30908E-02 1.75199E+00
 -1      2511 7.59417E-01 2.04773E-02 4.96818E+00
 -1      2512 1.01018E-02 6.28231E-03 1.16921E+00
 -1      2513-5.89458E-01-2.02347E-03 2.88742E+00
 -1      2514-5.66199E-02 6.04865E-03 2.75326E+00
 -1      2515-1.15835E+00-1.41389E-02 2.05492E+01
 -1      2516 5.81702E-02 6.97810E-03 5.01841E+00
 -1      2517 7.98588E-01-7.44336E-03 6.49445E+00
 -1      2518 3.74237E-01-1.42657E-02 2.35009E+01
 -1      2519-4.24553E-01 2.25482E-02 1.69637E+00
 -1      2520-8.16034E-01 1.16696E-02 6.50722E+00
 -1      2521 0.00000E+00 0.00000E+00 0.00000E+00
 -1      2522-1.44625E-01-1.46378E-02 2.25122E+01
 -1      2523-7.29798E-03 5.92260E-03 3.04027E+00
 -1      2524-8.31082E-01 1.13549E-02 5.39468E+00
 -1      2525-6.78041E-01 1.76597E-02 3.66615E+00
 -1      2526 6.24420E-01 2.46906E-02 3.48307E+00
 -1      2527-2.50774E-02-5.91487E-03 6.82100E-02
 -1      2528-1.42653E-01 4.84378E-03 3.55618E+00
 -1      2529 0.00000E+00 0.00000E+00 0.00000E+00
 -1      2530-7.04325E-02 1.10552E-02 2.52323E+00
 -1      2531-1.06726E+00-1.11415E-02 1.95824E+01
 -1      2532-4.99560E-02 3.35618E-03 3.28332E-02
 -1      2533-1.08318E+00-9.11712E-03 1.63062E+01
 -1      2534-1.17267E+00-1.93138E-02 2.35360E+01
 -1      2535-9.58181E-01 3.46051E-03 1.27216E+01
 -1      2536-4.75653E-03 2.35668E-03 5.89934E-03
 -1      2537-1.86110E-01 8.66299E-03 5.24242E+00
 -1      2538 1.10787E-01 2.10492E-02 1.00719E-01
 -1      2539 7.16443E-01-1.15229E-02 4.10692E+00
 -1      2540-2.93384E-01 3.39339E-02 5.70194E-01
 -1      2541 9.86881E-01 6.66465E-03 1.13184E+01
 -1      2542 1.09413E+00-5.56190E-03 1.73480E+01
 -1      2543 1.18948E+00-7.45856E-03 2.04422E+01
 -1      2544 1.00256E+00-6.79393E-03 2.02739E+01
 -1      2545 0.00000E+00 0.00000E+00 0.00000E+00
 -1      2546 1.15356E+00-1.00377E-02 1.45518E+01
 -1      2547 4.11925E-01-3.11774E-03 1.66274E+01
 -1      2548 4.18448E-02 7.06070E-03 3.98638E+00
 -1      2549 0.00000E+00 0.00000E+00 0.00000E+00
 -1      2550 1.02195E-01-2.35124E-02 1.21691E-01
 -1      2551-4.26412E-02-1.30200E-02 2.15732E+01
 -1      2552 6.69771E-01-6.70944E-03 1.95233E+01
 -1      2553-1.20153E+00-1.72794E-02 2.17875E+01
 -1      2554-8.46386E-01 1.48011E-02 7.46063E+00
 -1      2555 4.35025E-01 6.34854E-03 1.73555E+00
 -1      2556-4.40300E-01 3.89579E-03 1.47504E+00
 -1      2557 1.82310E-01 1.23968E-04 2.76221E-01
 -1      2558-8.43561E-02-1.16786E-02 2.03162E+01
 -1      2559-9.80805E-01-4.12589E-03 1.17821E+01
 -1      2560 3.31821E-02-2.06123E-03 1.32697E+01
 -1      2561 0.00000E+00 0.00000E+00 0.00000E+00
 -1      2562 7.67441E-03 6.55644E-03 1.87931E-02
 -1      2563 1.74923E-01 5.78535E-03 7.77752E+00
 -1      2564-9.44085E-01-2.19003E-04 1.01371E+01
 -1      2565 5.36238E-01-1.54228E-02 2.41996E+00
 -1      2566 1.61605E-02-5.85011E-04 2.67481E-01
 -1      2567-4.52455E-02 6.17201E-03 3.59298E+00
 -1      2568 1.04362E+00-2.11873E-03 1.80021E+01
 -1      2569-3.75726E-01-2.66051E-03 1.47703E+01
 -1      2570-1.49404E-02 6.48684E-03 2.70194E+00
 -1      2571 3.75270E-01-5.71973E-03 1.62307E+01
 -1      2572-1.19482E+00-1.55115E-02 2.14449E+01
 -1      2573-6.07377E-01 1.97584E-02 3.21679E+00
 -1      2574-3.36956E-01 3.04367E-02 8.21038E-01
 -1      2575 7.51242E-01 6.55440E-03 6.83840E+00
 -1      2576-3.07381E-01 2.53506E-02 1.27558E+00
 -1      2577-1.02507E+00-1.36010E-02 1.53530E+01
 -1      2578 9.51803E-01-1.47610E-03 7.73524E+00
 -1      2579-8.41031E-01-2.07537E-03 6.93435E+00
 -1      2580-1.48257E-01 4.65098E-03 5.66652E-01
 -1      2581-4.30763E-02 4.46010E-03 1.22679E+00
 -1      2582-3.67072E-02 7.47758E-03 3.80095E+00
 -1      2583 4.78932E-01 7.71193E-03 2.32320E+00
 -1      2584 3.82251E-01-6.15751E-04 1.45059E+01
 -1      2585-1.09796E+00-1.53689E-02 1.67369E+01
 -1      2586-1.10349E+00-2.55892E-03 1.59670E+01
 -1      2587-1.02936E+00-1.30873E-02 1.11198E+01
 -1      2588 1.12271E+00 4.07629E-03 1.55815E+01
 -1      2589-9.06173E-02 3.12920E-03 7.63324E+00
 -1      2590-4.64051E-01 2.46511E-02 2.49943E+00
 -1      2591-5.52124E-01 9.51239E-03 2.52896E+00
 -1      2592-1.02884E-01-9.04203E-03 4.33665E-01
 -1      2593 9.37136E-01 7.85854E-03 1.25211E+01
 -1      2594 5.48822E-02-1.39638E-02 2.23782E+01
 -1      2595-1.66486E-01 3.22323E-04 3.78511E+00
 -1      2596 8.10946E-02-3.53013E-04 6.85660E-02
 -1      2597-5.61818E-01-1.55337E-02 2.59513E+00
 -1      2598 5.98316E-01 3.36262E-02 2.64077E+00
 -1      2599-8.03680E-01 9.92537E-03 4.87569E+00
 -1      2600-1.56032E-01 2.02233E-02 4.13327E-01
 -1      2601 8.85370E-01 2.72878E-03 9.29137E+00
 -1      2602-7.35050E-01-1.60645E-02 2.17039E+01
 -1      2603-2.30353E-03-6.11321E-03 1.60166E+01
 -1      2604-7.57793E-01 5.60212E-03 3.65046E+00
 -1      2605-2.38845E-02 7.30164E-03 5.02450E-02
 -1      2606-4.16935E-01 3.65316E-03 1.13134E+01
 -1      2607 3.32708E-01-4.09026E-03 1.41478E+01
 -1      2608-8.89839E-02 4.62321E-03 5.51204E+00
 -1      2609 9.00949E-01 1.68400E-02 8.71648E+00
 -1      2610 3.96657E-02 6.78036E-03 1.62643E+00
 -1      2611 1.20810E+00 1.90934E-03 1.68327E+01
 -1      2612-3.59687E-01-1.93723E-02 1.16982E+00
 -1      2613 1.18070E+00-8.43450E-03 2.14988E+01
 -1      2614 8.02286E-01-7.72065E-03 5.48852E+00
 -1      2615-1.03619E-01 2.49236E-03 3.40065E-01
 -1      2616 3.66271E-01-5.58909E-03 1.30932E+01
 -1      2617 2.79384E-01 3.13276E-02 5.77582E-01
 -1      2618-1.18587E-01 7.03578E-04 8.96976E+00
 -1      2619 0.00000E+00 0.00000E+00 0.00000E+00
 -1      2620 4.16652E-01 2.50552E-03 7.90684E+00
 -1      2621-1.06072E+00-1.37729E-02 1.40486E+01
 -1      2622 0.00000E+00 0.00000E+00 0.00000E+00
 -1      2623 2.96508E-01 6.56426E-03 6.22610E-01
 -1      2624-7.23016E-01-2.04018E-03 4.03724E+00
 -1      2625 1.09091E+00-5.41967E-03 1.41506E+01
 -1      2626-4.41830E-02 8.28912E-03 6.03616E-01
 -1      2627 3.48333E-01 3.11341E-02 8.21139E-01
 -1      2628 5.63742E-01-1.00938E-02 2.06064E+01
 -1      2629-9.27244E-03 4.82838E-03 5.78452E-01
 -1      2630-2.86939E-03 6.30748E-04-2.09831E-03
 -1      2631 2.89632E-02-1.38421E-02 9.45062E-03
 -1      2632-1.16799E+00-1.56642E-02 1.76521E+01
 -1      2633 5.64471E-01-5.36936E-03 7.42690E+00
 -1      2634 7.19537E-01-1.39530E-03 3.89948E+00
 -1      2635 5.50610E-01-1.60215E-04 1.26161E+01
 -1      2636 0.00000E+00 0.00000E+00 0.00000E+00
 -1      2637-2.57106E-01-4.33120E-03 1.19333E+01
 -1      2638-2.94553E-01 2.52991E-03 4.78205E+00
 -1      2639-1.95850E-01-1.52103E-02 2.28204E+01
 -1      2640-3.83432E-01-1.68333E-02 2.36073E+01
 -1      2641 1.14993E+00-6.75031E-03 1.53258E+01
 -1      2642-1.09514E+00-4.36779E-03 1.47337E+01
 -1      2643 1.08925E+00-1.00122E-02 1.32161E+01
 -1      2644-4.13867E-01-1.44311E-03 1.13818E+01
 -1      2645-7.44871E-02 8.49848E-03 9.73084E-01
 -1      2646-2.70448E-01 8.27364E-03 4.19206E+00
 -1      2647 1.33224E+00-1.13321E-02 2.35650E+01
 -1      2648 1.43920E-01 9.74714E-03 2.50180E+00
 -1      2649-9.77486E-01-1.71047E-02 2.23969E+01
 -1      2650-1.10637E-01-5.82957E-03 1.61944E+01
 -1      2651-1.00997E+00 2.75744E-03 1.12475E+01
 -1      2652 0.00000E+00 0.00000E+00 0.00000E+00
 -1      2653 1.01342E+00 1.42527E-02 1.02056E+01
 -1      2654 4.05226E-01-8.52040E-03 1.76328E+01
 -1      2655 4.13809E-01-3.15325E-03 1.50704E+01
 -1      2656 8.34875E-01-1.29510E-02 2.35210E+01
 -1      2657 7.11014E-02-1.93086E-03 3.54204E-01
 -1      2658 6.77711E-01-1.13053E-02 2.18466E+01
 -1      2659 1.17428E+00-1.01828E-02 2.07851E+01
 -1      2660 2.48461E-02 8.33671E-03 2.35251E+00
 -1      2661-3.23168E-01-8.99806E-03 1.66108E+01
 -1      2662 2.98778E-02 1.67977E-02 1.04744E-02
 -1      2663-1.96053E-01-2.15121E-02 2.53364E-01
 -1      2664 1.10212E+00 1.22516E-02 1.18272E+01
 -1      2665-9.73934E-01 1.20112E-02 9.20197E+00
 -1      2666-1.01545E-01-1.60677E-02 7.92262E-02
 -1      2667 3.89606E-01-1.55678E-03 1.22656E+01
 -1      2668 4.03375E-01 7.95042E-03 9.77992E+00
 -1      2669-3.11974E-01 7.84236E-03 7.83841E+00
 -1      2670-3.11540E-01-2.72010E-03 6.91943E+00
 -1      2671 1.28431E-02 4.85244E-03 3.00265E-01
 -1      2672 2.89219E-01-3.06242E-02 5.17219E-01
 -1      2673 4.88649E-01-5.17437E-02 7.09124E-01
 -1      2674-7.45781E-01-5.62025E-03 1.70775E+01
 -1      2675 1.06042E+00-7.12716E-03 1.66372E+01
 -1      2676 1.79313E-01 1.04516E-02 5.56126E+00
 -1      2677 1.65568E-01-9.68621E-03 1.89805E-01
 -1      2678-4.26959E-03 2.93497E-03 1.29793E-02
 -1      2679 5.01115E-01-5.68636E-03 8.64950E+00
 -1      2680-5.15914E-02 3.59786E-03 8.96385E+00
 -1      2681 1.07081E+00-1.03655E-02 1.20094E+01
 -1      2682-6.31277E-01-1.15335E-02 1.87249E+01
 -1      2683-8.41529E-02 4.14833E-03 7.77511E-01
 -1      2684-3.29562E-01-2.24406E-02 7.71620E-01
 -1      2685 2.02821E-01 3.00743E-02 2.56520E-01
 -1      2686 0.00000E+00 0.00000E+00 0.00000E+00
 -1      2687 0.00000E+00 0.00000E+00 0.00000E+00
 -1      2688-1.91537E-02-1.05378E-02 1.96092E+01
 -1      2689-7.24398E-01-1.61400E-02 3.96715E+00
 -1      2690-7.16885E-01-1.02312E-02 1.67899E+01
 -1      2691 2.67154E-01-1.42646E-04 1.34958E+01
 -1      2692-3.06607E-01-5.82674E-03 1.31147E+01
 -1      2693-1.02548E+00-1.29528E-02 1.30111E+01
 -1      2694-5.16141E-01-1.33243E-02 2.08219E+01
 -1      2695-6.55950E-01-1.98448E-02 3.08784E+00
 -1      2696-9.87109E-01-1.56657E-02 1.92633E+01
 -1      2697-8.85540E-01 2.51956E-02 5.63839E+00
 -1      2698-3.25577E-01-4.26924E-03 1.40660E+01
 -1      2699-3.50284E-01-6.62117E-03 1.62232E+01
 -1      2700 8.76606E-01 2.26312E-02 6.37695E+00
 -1      2701 2.74763E-01 8.23886E-03 4.72053E+00
 -1      2702 8.65537E-02 3.52444E-03 7.15987E+00
 -1      2703-5.92854E-01 1.52764E-02 6.79684E+00
 -1      2704-2.75902E-01-2.66137E-02 4.82930E-01
 -1      2705 8.22926E-01 1.11371E-02 1.10888E+01
 -1      2706-1.14366E+00-7.97251E-03 1.69623E+01
 -1      2707-1.04712E-01 1.15606E-02 1.47360E+00
 -1      2708 1.85125E-01-9.26632E-03 1.90044E+01
 -1      2709 1.21815E+00-7.93622E-03 1.99479E+01
 -1      2710-7.16360E-01-1.16282E-02 8.53510E+00
 -1      2711 3.19845E-01 1.43520E-02 4.67602E+00
 -1      2712-5.07227E-01-1.46072E-02 2.15131E+01
 -1      2713-8.52824E-01-5.92222E-03 5.33557E+00
 -1      2714 3.15206E-01 5.50583E-03 4.71973E+00
 -1      2715 9.92093E-01-5.71868E-03 8.78588E+00
 -1      2716-5.53947E-01-3.83471E-03 9.80495E+00
 -1      2717-3.72530E-01-1.38947E-02 2.10226E+01
 -1      2718 6.13072E-02 7.74386E-04 1.04187E+01
 -1      2719 4.86288E-01-4.37370E-04 1.55394E+01
 -1      2720-2.88119E-01 3.75481E-03 2.99316E+00
 -1      2721 3.62167E-02 7.69474E-03 2.91079E+00
 -1      2722 4.51792E-01 1.55815E-02 1.33750E+00
 -1      2723 8.44332E-01 1.29578E-04 5.12168E+00
 -1      2724-3.10345E-01-4.50143E-03 1.08690E+01
 -1      2725-1.32663E+00-6.25651E-03 1.14656E+01
 -1      2726 1.15812E+00-7.28649E-03 1.85767E+01
 -1      2727 1.48189E-01-3.14170E-03 1.31453E+01
 -1      2728 2.09148E-01 8.13229E-03 4.25141E+00
 -1      2729-9.79945E-01 1.06057E-02 1.03338E+01
 -1      2730 0.00000E+00 0.00000E+00 0.00000E+00
 -1      2731 1.11727E-01 1.11324E-02 2.03890E+00
 -1      2732-5.17167E-01 2.78620E-02 2.03850E+00
 -1      2733-4.79406E-02 1.19713E-02 1.61639E-01
 -1      2734 5.33894E-02 1.17069E-02 6.03206E-01
 -1      2735 2.44281E-01 8.26628E-03 7.06477E+00
 -1      2736 3.90960E-01-4.02664E-03 7.95048E+00
 -1      2737 3.14957E-01-9.65298E-03 2.01447E+01
 -1      2738-1.25415E+00-1.30079E-02 1.73170E+01
 -1      2739 0.00000E+00 0.00000E+00 0.00000E+00
 -1      2740 0.00000E+00 0.00000E+00 0.00000E+00
 -1      2741-8.05814E-01-1.22280E-02 2.03924E+01
 -1      2742 0.00000E+00 0.00000E+00 0.00000E+00
 -1      2743-3.94088E-01 4.52915E-03 2.20475E+00
 -1      2744-8.14243E-01 2.06478E-02 4.55589E+00
 -1      2745-1.33159E+00-1.71000E-02 2.06002E+01
 -1      2746-2.29462E-01 5.14751E-03 3.31294E-01
 -1      2747 8.90355E-03-1.13227E-03 1.24068E-02
 -1      2748 1.25560E-02-1.45122E-03 3.84196E-04
 -1      2749-7.26424E-01 1.83877E-02 6.15832E+00
 -1      2750 4.62594E-02 7.53969E-03 2.28868E-02
 -1      2751 0.00000E+00 0.00000E+00 0.00000E+00
 -1      2752-9.35685E-01-1.21786E-02 1.18024E+01
 -1      2753 4.81854E-01-2.53000E-04 9.66972E+00
 -1      2754 0.00000E+00 0.00000E+00 0.00000E+00
 -1      2755 9.67511E-01 1.84181E-02 6.54007E+00
 -1      2756-1.05320E+00 6.49687E-03 8.65019E+00
 -1      2757-8.04665E-02 2.85596E-02 5.52773E-02
 -1      2758-2.36178E-01 3.20883E-03 3.95607E+00
 -1      2759 1.76386E-01 1.60384E-02 1.51183E+00
 -1      2760 9.65654E-01-4.49654E-04 6.81094E+00
 -1      2761-5.52963E-01-4.46475E-03 1.28921E+01
 -1      2762 1.35247E+00-8.39122E-03 2.15209E+01
 -1      2763 1.28336E+00-5.64827E-03 1.97013E+01
 -1      2764 4.04958E-01 9.25087E-03 9.19551E+00
 -1      2765-2.99440E-01 1.79972E-02 3.08053E+00
 -1      2766 1.19071E+00 4.64954E-03 1.27302E+01
 -1      2767-1.20405E+00-7.73942E-03 1.33924E+01
 -1      2768 7.04503E-01 1.43780E-02 3.83235E+00
 -1      2769-2.88114E-01-2.29482E-03 5.22287E-01
 -1      2770-3.13454E-01 1.22868E-02 6.16646E-01
 -1      2771 5.85645E-01-1.23901E-02 2.83704E+00
 -1      2772 8.06424E-02-1.17358E-02 2.06514E+01
 -1      2773 9.80719E-01-8.69535E-03 1.38820E+01
 -1      2774-3.33838E-01-7.51541E-03 1.70302E+01
 -1      2775 2.16549E-01-6.04753E-03 1.73394E+01
 -1      2776-1.24329E+00-1.65634E-02 1.60707E+01
 -1      2777-3.17250E-01 2.05274E-03 9.41217E+00
 -1      2778 6.70506E-01-9.81280E-03 1.86608E+01
 -1      2779 1.02466E-01 1.68416E-03 3.33028E+00
 -1      2780 9.82387E-01 8.54851E-03 7.88065E+00
 -1      2781-3.94406E-01 1.62367E-02 9.54810E-01
 -1      2782 6.48521E-01 2.25448E-02 5.38684E+00
 -1      2783 2.87330E-01 6.35454E-03 7.83336E+00
 -1      2784 0.00000E+00 0.00000E+00 0.00000E+00
 -1      2785 8.55171E-01 1.76562E-02 4.64727E+00
 -1      2786-2.91729E-01 1.28396E-02 5.08153E+00
 -1      2787 2.64227E-01-1.54233E-03 6.52299E+00
 -1      2788-1.26840E+00-1.49606E-02 1.95547E+01
 -1      2789-1.18141E+00-1.50087E-02 1.89055E+01
 -1      2790 1.21315E+00-3.73758E-03 1.34923E+01
 -1      2791 2.20754E-04-5.54373E-05 6.87881E-02
 -1      2792-3.42871E-01-1.52936E-02 2.25712E+01
 -1      2793 4.58722E-01-9.74251E-03 1.95990E+01
 -1      2794 1.08252E+00-1.22164E-02 2.36346E+01
 -1      2795 4.89149E-01 2.64167E-03 1.03251E+01
 -1      2796 3.03918E-01-9.26010E-03 5.24445E-01
 -1      2797-1.65463E-01 3.06218E-02 2.02200E-01
 -1      2798-3.15373E-02 2.15397E-02 1.42793E-02
 -1      2799 6.38273E-01 3.04228E-02 3.06513E+00
 -1      2800 1.09149E+00-1.03657E-02 1.63122E+01
 -1      2801-4.82656E-01-8.82086E-03 9.91302E+00
 -1      2802 4.36567E-01-1.12240E-02 2.16112E+01
 -1      2803 2.74611E-01-1.27655E-02 2.19345E+01
 -1      2804 2.17947E-01 3.60960E-03 6.28312E+00
 -1      2805-2.71167E-01 1.08028E-02 3.18082E+00
 -1      2806 4.51779E-01-1.36179E-02 1.73051E+00
 -1      2807 4.87321E-01-1.63197E-03 1.33754E+01
 -1      2808-1.62297E-01 1.02872E-02 8.66598E-01
 -1      2809-1.83408E-01-4.65866E-03 1.51097E+01
 -1      2810-1.09483E+00-7.60142E-03 8.94391E+00
 -1      2811 6.56884E-01-1.32149E-02 2.33560E+01
 -1      2812-1.32764E+00-1.71782E-02 2.18362E+01
 -1      2813-1.34160E-01 1.84047E-02 7.73711E-01
 -1      2814-7.34169E-01 1.18233E-02 4.01507E+00
 -1      2815 4.93477E-01 3.52507E-02 1.52950E+00
 -1      2816 9.76910E-01 2.36309E-02 7.89986E+00
 -1      2817-1.32362E+00-1.25184E-02 1.61124E+01
 -1      2818-1.00634E+00 6.33402E-03 7.62454E+00
 -1      2819 1.47635E-02 4.95569E-03 2.02028E-01
 -1      2820-3.88712E-01-9.81151E-03 1.79636E+01
 -1      2821-3.68045E-02 7.81218E-03 2.13571E+00
 -1      2822 2.26392E-01 6.37934E-03 4.25756E+00
 -1      2823-1.16146E+00-1.82453E-02 2.24291E+01
 -1      2824 2.29741E-01 3.71916E-03 9.97196E+00
 -1      2825 3.06314E-01 1.47099E-03 8.52402E+00
 -1      2826-1.07688E+00-1.64721E-02 2.21074E+01
 -1      2827-4.82457E-01-1.41058E-02 2.16734E+01
 -1      2828 1.05941E+00 9.04998E-04 1.01772E+01
 -1      2829 1.06609E+00 6.34936E-03 1.45766E+01
 -1      2830-3.22549E-01 1.03156E-02 3.83465E+00
 -1      2831 9.73148E-02 4.26592E-03 5.51724E+00
 -1      2832-1.20926E+00-1.36605E-02 1.99143E+01
 -1      2833 3.82454E-01 1.37505E-02 9.45723E-01
 -1      2834-8.56696E-01-1.67651E-02 5.38974E+00
 -1      2835 1.25948E-01 5.58458E-03 5.46296E-01
 -1      2836-4.37263E-01-1.23952E-03 1.40424E+01
 -1      2837-7.56679E-01 2.96343E-02 3.84682E+00
 -1      2838-6.52444E-01 1.08087E-02 2.95358E+00
 -1      2839-5.01764E-02-2.12501E-02 2.52094E-02
 -1      2840 6.17052E-02-7.46029E-03 3.49858E-02
 -1      2841 4.14423E-02 7.81027E-04 1.70804E-01
 -1      2842 0.00000E+00 0.00000E+00 0.00000E+00
 -1      2843-3.85705E-01 6.53373E-03 5.68535E+00
 -1      2844 4.73144E-01 6.18955E-03 1.03961E+01
 -1      2845 1.06755E+00-9.77100E-03 1.07067E+01
 -1      2846 7.53406E-02-3.57209E-03 1.46756E+01
 -1      2847 8.56202E-02 7.43625E-03 3.61990E-01
 -1      2848-1.49198E-01-1.60994E-02 2.36393E+01
 -1      2849-6.31887E-01 1.37462E-02 2.16995E+00
 -1      2850 1.54671E-02 2.42456E-03-1.22333E-04
 -1      2851 1.10812E+00 2.90396E-04 1.74922E+01
 -1      2852 0.00000E+00 0.00000E+00 0.00000E+00
 -1      2853-2.32901E-01 2.77312E-02 3.39403E-01
 -1      2854 0.00000E+00 0.00000E+00 0.00000E+00
 -1      2855 0.00000E+00 0.00000E+00 0.00000E+00
 -1      2856 4.85759E-01-5.02520E-03 1.53978E+01
 -1      2857 0.00000E+00 0.00000E+00 0.00000E+00
 -1      2858 4.63060E-01-1.03743E-02 1.98026E+01
 -1      2859 0.00000E+00 0.00000E+00 0.00000E+00
 -1      2860-3.26616E-01 6.09216E-03 6.35021E+00
 -1      2861 4.69043E-01-2.18835E-02 1.22186E+00
 -1      2862 5.05018E-01 3.17838E-02 2.03060E+00
 -1      2863 4.67378E-01 1.63380E-02 2.03031E+00
 -1      2864-1.27650E+00-1.72170E-02 1.83199E+01
 -1      2865 9.44848E-01-1.35727E-02 7.85661E+00
 -1      2866 0.00000E+00 0.00000E+00 0.00000E+00
 -1      2867 3.60523E-01 4.62876E-03 8.52746E+00
 -1      2868-1.24013E-02 1.24960E-03 9.61992E-03
 -1      2869-4.03574E-01-1.11608E-02 1.80168E+01
 -1      2870 1.19400E-01-1.74066E-02 2.53932E-01
 -1      2871-3.40594E-01-5.44605E-03 1.57854E+01
 -1      2872 8.10790E-01 3.16880E-02 4.39430E+00
 -1      2873-3.63343E-02-7.05296E-03 1.70876E+01
 -1      2874-4.66493E-01-9.03785E-03 1.80793E+01
 -1      2875 1.26147E+00-9.75979E-03 2.22068E+01
 -1      2876-4.08715E-01-2.30042E-03 9.70508E-01
 -1      2877 1.26516E+00-2.69879E-03 1.74989E+01
 -1      2878-1.69421E-01 2.71728E-03 1.03512E+01
 -1      2879 2.72639E-01 2.81872E-03 9.94119E+00
 -1      2880 8.11440E-01 6.80475E-04 4.58614E+00
 -1      2881-1.01208E-01-2.86495E-03 4.49657E-01
 -1      2882 0.00000E+00 0.00000E+00 0.00000E+00
 -1      2883-8.26849E-01-1.31714E-02 6.18711E+00
 -1      2884 1.28228E-01-1.32704E-02 4.81757E-01
 -1      2885 3.19633E-01 1.08633E-03 1.15020E+01
 -1      2886-1.01207E+00 7.76994E-03 1.16769E+01
 -1      2887-4.44810E-01 1.90320E-02 4.44933E+00
 -1      2888 3.67170E-01-3.44874E-03 5.20574E+00
 -1      2889 1.27953E+00-2.79407E-03 1.91614E+01
 -1      2890-4.12341E-01-1.08341E-02 1.90913E+01
 -1      2891-8.56349E-01-1.36636E-02 6.79133E+00
 -1      2892-3.37561E-01 3.92044E-03 8.39804E+00
 -1      2893 8.53415E-02-6.67574E-03 9.84614E-02
 -1      2894 6.20115E-01 1.49150E-02 2.58719E+00
 -1      2895 1.24997E+00-9.96682E-03 1.82398E+01
 -1      2896 0.00000E+00 0.00000E+00 0.00000E+00
 -1      2897-6.01130E-01-6.16979E-03 3.24235E+00
 -1      2898-1.11413E+00 5.80663E-03 9.21699E+00
 -1      2899 1.64596E-01-1.31384E-02 6.79255E-01
 -1      2900-4.82642E-01-1.25480E-03 8.07031E+00
 -1      2901 0.00000E+00 0.00000E+00 0.00000E+00
 -1      2902-5.02796E-02 7.03100E-03 5.69699E-02
 -1      2903-7.53917E-02-2.24664E-02 7.71470E-02
 -1      2904-9.89398E-01-1.76310E-02 7.79811E+00
 -1      2905-1.94667E-01-2.53823E-02 3.32092E-01
 -1      2906 3.03298E-01-3.40629E-03 4.03201E+00
 -1      2907 0.00000E+00 0.00000E+00 0.00000E+00
 -1      2908-3.63014E-01 6.74944E-03 7.55402E+00
 -1      2909 1.79111E-01 1.77624E-02 1.93596E-01
 -1      2910-5.11515E-01-2.36370E-03 1.27469E+01
 -1      2911 0.00000E+00 0.00000E+00 0.00000E+00
 -1      2912-2.49079E-01 9.49070E-03 5.98231E+00
 -1      2913 4.20835E-01-8.35055E-03 9.40641E-01
 -1      2914 6.67006E-01 1.83406E-02 3.20468E+00
 -1      2915-1.02427E+00 1.68172E-02 7.94813E+00
 -1      2916-4.38431E-01 2.25327E-02 1.19695E+00
 -1      2917-2.02998E-01-1.26340E-02 2.08605E+01
 -1      2918-5.23397E-01 2.73917E-03 1.22941E+01
 -1      2919 0.00000E+00 0.00000E+00 0.00000E+00
 -1      2920 3.56639E-01-1.29252E-02 2.24325E+01
 -1      2921 0.00000E+00 0.00000E+00 0.00000E+00
 -1      2922 1.24688E+00-4.70998E-03 1.60371E+01
 -1      2923 0.00000E+00 0.00000E+00 0.00000E+00
 -1      2924-1.10599E+00-7.75478E-03 1.00836E+01
 -1      2925-1.04807E+00-1.56441E-02 1.01311E+01
 -1      2926-8.36182E-01-1.46502E-02 4.52977E+00
 -1      2927-1.30384E+00-1.93076E-02 2.32592E+01
 -1      2928 0.00000E+00 0.00000E+00 0.00000E+00
 -1      2929-1.20178E+00-5.85194E-03 1.57955E+01
 -1      2930-3.26388E-01-2.75542E-03 7.61456E+00
 -1      2931-4.61024E-02 3.98834E-03 5.42130E-01
 -1      2932-5.63380E-01 2.64257E-02 3.46396E+00
 -1      2933 2.76560E-01 7.49587E-03 7.07067E+00
 -1      2934-6.90589E-01-1.77641E-02 2.35716E+01
 -1      2935-1.34145E-01 1.85268E-03 3.36791E+00
 -1      2936 4.40735E-02 1.19905E-03 6.98526E-02
 -1      2937-1.29178E+00 1.35491E-03 1.53464E+01
 -1      2938-7.44619E-02 5.34081E-03 1.68064E-01
 -1      2939-6.54966E-01 3.38055E-02 2.89852E+00
 -1      2940 1.89930E-01-1.32019E-02 2.21862E+01
 -1      2941 1.87163E-01-2.82630E-03 2.78742E+00
 -1      2942 1.16032E+00-1.01448E-02 2.00454E+01
 -1      2943 4.52036E-02 1.42681E-02 5.70287E-02
 -1      2944-1.14442E-01-6.84289E-03 6.83640E-01
 -1      2945 0.00000E+00 0.00000E+00 0.00000E+00
 -1      2946-9.66904E-01-3.66566E-03 6.36159E+00
 -1      2947-4.63527E-01 3.62865E-02 1.50230E+00
 -1      2948 3.37294E-01 1.93578E-03 1.20764E+01
 -1      2949 3.60780E-01-7.16373E-03 4.10144E+00
 -1      2950 2.15384E-01 5.02257E-03 2.96320E+00
 -1      2951 3.15986E-01 1.18316E-02 3.12038E+00
 -1      2952 5.65163E-01-1.09809E-02 2.10724E+01
 -1      2953-1.34409E+00-1.66216E-02 2.09018E+01
 -1      2954-5.30590E-01-9.30081E-03 1.89069E+01
 -1      2955 1.11074E+00-1.10415E-02 1.00863E+01
 -1      2956-3.45886E-01 1.51315E-02 5.53166E+00
 -1      2957 1.34811E+00-9.01882E-03 2.21570E+01
 -1      2958 7.86537E-02 1.70748E-02 2.03389E-01
 -1      2959-1.32703E+00-1.13988E-02 1.76019E+01
 -1      2960 1.67144E-01 8.15550E-03 8.69489E-01
 -1      2961 1.30454E+00-8.01061E-04 1.60683E+01
 -1      2962 4.62247E-01-6.39148E-03 1.84978E+01
 -1      2963-4.19344E-01-2.48012E-02 9.73359E-01
 -1      2964 1.23919E+00-2.91581E-04 1.24038E+01
 -1      2965 0.00000E+00 0.00000E+00 0.00000E+00
 -1      2966 1.05544E+00 1.03561E-02 8.95997E+00
 -1      2967-2.82229E-01-1.18656E-03 6.40823E+00
 -1      2968-3.39365E-02 4.70422E-03 1.00494E+00
 -1      2969-9.52303E-01-9.10455E-04 5.74904E+00
 -1      2970 1.21053E+00-1.07217E-02 1.26094E+01
 -1      2971-1.03034E+00 9.82237E-03 1.09354E+01
 -1      2972-1.03215E+00-7.90174E-03 7.67825E+00
 -1      2973 6.36658E-01-7.37850E-03 1.86196E+01
 -1      2974 3.35421E-01 9.68183E-03 5.73471E+00
 -1      2975-3.57858E-01 1.97768E-03 6.04029E+00
 -1      2976 1.28732E+00-4.59780E-03 1.87567E+01
 -1      2977 1.41043E+00-1.14029E-02 2.38409E+01
 -1      2978-1.23967E+00-1.87876E-02 2.29640E+01
 -1      2979 4.23425E-01 3.76550E-02 1.04839E+00
 -1      2980-8.68571E-01-9.39557E-04 4.91780E+00
 -1      2981-6.15008E-01-5.10898E-03 2.51944E+00
 -1      2982 3.16619E-01-7.87681E-03 1.76420E+01
 -1      2983 1.27699E-02 2.67213E-03-2.98287E-03
 -1      2984 2.13399E-01-1.65061E-02 2.88942E-01
 -1      2985 2.93657E-01-4.38415E-03 1.56335E+01
 -1      2986 1.88586E-01-9.71691E-03 8.68515E-01
 -1      2987 3.90654E-01-2.95702E-02 9.41852E-01
 -1      2988 3.71991E-01 1.87377E-02 7.56199E-01
 -1      2989 1.29055E+00-9.49520E-03 2.17499E+01
 -1      2990 1.24859E+00-7.09961E-03 2.08694E+01
 -1      2991 0.00000E+00 0.00000E+00 0.00000E+00
 -1      2992-5.16558E-01 1.00980E-02 8.74856E+00
 -1      2993 1.26780E+00-7.70082E-03 1.78096E+01
 -1      2994 7.29329E-01-8.35637E-03 1.54616E+01
 -1      2995 1.39177E-01 1.18426E-03 9.42974E+00
 -1      2996 8.89061E-01 2.31649E-02 6.93863E+00
 -1      2997 3.60000E-01 1.00621E-02 8.62688E+00
 -1      2998 6.94329E-03 6.31483E-04-3.23777E-03
 -1      2999-1.55356E-01 1.11422E-02 1.54989E-01
 -1      3000 5.64396E-01-1.09926E-02 2.13400E+01
 -1      3001-5.88163E-01-2.15707E-02 2.11987E+00
 -1      3002 7.75827E-01 1.93922E-02 4.25374E+00
 -1      3003 1.56442E-01 1.02803E-02 5.07258E+00
 -1      3004-5.17294E-02-9.48979E-03 3.14454E-02
 -1      3005 1.11063E-01 6.72696E-04 1.13544E+00
 -1      3006 1.27107E+00 3.55419E-03 1.61981E+01
 -1      3007 1.07542E+00-4.68100E-04 8.23571E+00
 -1      3008 3.94815E-01 1.44965E-02 6.19740E+00
 -1      3009 1.22187E+00 5.77133E-03 1.21106E+01
 -1      3010-5.37560E-02 8.52637E-03 4.59206E+00
 -1      3011 8.55008E-02-2.99740E-02 4.68147E-02
 -1      3012-3.69508E-01 8.62381E-03 3.50326E+00
 -1      3013-2.32888E-01-6.31827E-03 1.46522E+01
 -1      3014 1.12522E+00-9.01593E-03 2.05948E+01
 -1      3015 1.98791E-02-6.39944E-03 1.64898E+01
 -1      3016 6.97863E-01-8.40654E-04 3.27750E+00
 -1      3017 1.08738E+00 7.15023E-03 1.03877E+01
 -1      3018 3.64634E-01-1.12198E-02 6.94155E-01
 -1      3019 1.31486E+00-1.10313E-02 2.32347E+01
 -1      3020 3.52238E-01 5.66426E-03 6.50994E+00
 -1      3021-3.42044E-01 4.43070E-03 7.19761E+00
 -1      3022 2.06611E-01 1.78303E-02 4.88205E-01
 -1      3023-5.03609E-01-1.00422E-02 1.57543E+01
 -1      3024 1.26665E+00 1.77403E-03 1.54016E+01
 -1      3025-4.88532E-02 4.61627E-03 6.41331E+00
 -1      3026 1.25556E-01 1.36465E-03 7.53864E+00
 -1      3027 1.19379E+00-1.89606E-03 1.12405E+01
 -1      3028-1.26367E+00-9.86159E-03 1.46391E+01
 -1      3029 0.00000E+00 0.00000E+00 0.00000E+00
 -1      3030 2.59972E-01-5.73663E-03 1.48627E+01
 -1      3031 8.58392E-01 6.69047E-03 1.34597E+01
 -1      3032-5.10581E-02 7.78109E-03 3.82715E-01
 -1      3033-6.42395E-02-1.55223E-02 1.24036E-01
 -1      3034-1.94773E-01-3.51282E-03 1.24400E+01
 -1      3035-3.35327E-01-7.10033E-03 1.56542E+01
 -1      3036-4.71532E-01-2.23253E-02 1.43953E+00
 -1      3037 1.50940E-01 5.66362E-03 1.13624E+00
 -1      3038 2.31659E-01 1.73538E-02 3.25897E-01
 -1      3039-1.10771E+00-1.53017E-02 1.47061E+01
 -1      3040-1.36066E+00-1.82417E-02 2.13505E+01
 -1      3041-1.49464E-01 3.72572E-03 4.40174E+00
 -1      3042-1.02153E+00-8.86749E-03 8.42604E+00
 -1      3043 5.27407E-01-7.67044E-03 5.73538E+00
 -1      3044 5.27982E-01 1.77834E-02 1.59965E+00
 -1      3045-1.58450E-01-1.26510E-02 2.10255E+01
 -1      3046-9.15496E-02-1.53786E-02 2.32022E+01
 -1      3047-5.07074E-01-3.45402E-03 1.56900E+01
 -1      3048-5.35042E-02-5.18119E-03 9.52932E-02
 -1      3049-3.00837E-03 3.16324E-03 2.12865E-01
 -3
    1PSTEP                         2           1           1          
  100CL  101 1.000000000        3049                     0    1           1
 -4  STRESS      6    1
 -5  SXX         1    4    1    1
 -5  SYY         1    4    2    2
 -5  SZZ         1    4    3    3
 -5  SXY         1    4    1    2
 -5  SYZ         1    4    2    3
 -5  SZX         1    4    3    1
 -1         1 0.00000E+00 0.00000E+00 0.00000E+00 0.00000E+00 0.00000E+00 0.00000E+00
 -1         2 0.00000E+00 0.00000E+00 0.00000E+00 0.00000E+00 0.00000E+00 0.00000E+00
 -1         3 0.00000E+00 0.00000E+00 0.00000E+00 0.00000E+00 0.00000E+00 0.00000E+00
 -1         4 0.00000E+00 0.00000E+00 0.00000E+00 0.00000E+00 0.00000E+00 0.00000E+00
 -1         5 0.00000E+00 0.00000E+00 0.00000E+00 0.00000E+00 0.00000E+00 0.00000E+00
 -1         6 1.89910E+00 8.69054E-01 9.11711E-01-2.05974E-01-5.32211E-02-1.11511E-01
 -1         7 3.41964E+00 4.15036E-01 4.14802E-01-3.69166E-01-1.50529E-01 1.62178E-01
 -1         8 3.35408E+00 8.48955E-01 6.34680E-01-3.92475E-01-9.38583E-02-5.20862E-02
 -1         9 3.71455E+00 2.92013E-01-1.10074E-02-1.54306E-01-1.54473E-04 9.67872E-02
 -1        10 3.62083E+00 1.85098E-01-1.07148E-01-6.89047E-02-4.66939E-02 8.39513E-02
 -1        11 3.66954E+00 2.11019E-01-1.27144E-01 1.75541E-02-8.17906E-02 5.31856E-02
 -1        12 3.83087E+00 2.64085E-01 1.03991E-01 9.02247E-02-1.91344E-01 9.43834E-02
 -1        13 3.67581E+00 2.57683E-01 3.53972E-02 7.58423E-02-3.07108E-02-6.56206E-02
 -1        14 3.78450E+00 8.38497E-02 9.95755E-02 9.21032E-02-7.61234E-02-3.74397E-02
 -1        15 4.16491E+00 2.57416E-01 4.35328E-02 1.06309E-01-1.22878E-02-1.69961E-01
 -1        16 4.41615E+00 4.30256E-01 5.41769E-02-1.88160E-02-5.82042E-02-1.72517E-01
 -1        17 3.70231E+00 8.83296E-02 4.93189E-02 9.26692E-02-1.33934E-01-1.32462E-01
 -1        18 3.72900E+00 1.54113E-01 3.85071E-02 5.81253E-02-3.10095E-02-1.13060E-01
 -1        19 7.34396E-03 4.79028E-03-2.32468E-02-7.44289E-04 6.85878E-03-1.15547E-02
 -1        20 6.02019E-03 3.29536E-03-2.47805E-02-8.22877E-04 7.76610E-03-1.22410E-02
 -1        21 1.95213E-02 6.75568E-03-1.67890E-02-4.11398E-03 7.02984E-03-1.45423E-02
 -1        22 3.16946E-03 3.85560E-03-3.11796E-02 1.14353E-03-7.66812E-03-1.25479E-02
 -1        23 1.31151E-02 3.98152E-03-2.68389E-02 1.28394E-03-7.49641E-03-1.55563E-02
 -1        24 1.33851E-02 6.62708E-03-3.66635E-02 7.33512E-03-1.20167E-02-1.68989E-02
 -1        25 2.24963E-02 5.29252E-03-2.05374E-02 3.73951E-03-7.54746E-03-1.49559E-02
 -1        26 3.87372E+00 2.17698E-01 2.06255E-01 1.39041E-01-1.52751E-01-1.91138E-01
 -1        27 3.71316E+00 2.15454E-01 1.53220E-01-5.79601E-02 5.51722E-02-1.40301E-01
 -1        28 4.36887E+00 3.00290E-01 2.28162E-01-6.03951E-02 3.45467E-02-2.11512E-01
 -1        29 3.91608E+00 1.85982E-01 2.80252E-01-5.48946E-02 1.58760E-02-8.07736E-02
 -1        30 3.88806E+00 1.25385E-01 1.28804E-01 2.06282E-02-6.95157E-02-1.33320E-01
 -1        31 4.24627E+00 4.25704E-01 3.92626E-01-3.04135E-02 3.10635E-05-1.21698E-01
 -1        32 3.77899E+00 1.91659E-01 2.39149E-01 1.78636E-02 2.56069E-02-8.77951E-02
 -1        33 3.92120E+00 2.53382E-01 2.49568E-01 4.78832E-02 4.75553E-02-8.88322E-02
 -1        34 3.83535E+00 7.25382E-02 5.16176E-02-5.99918E-03-5.74807E-02-1.04039E-01
 -1        35 3.78965E+00 1.15714E-01 5.41531E-02-3.94540E-02-5.85246E-03-8.84798E-02
 -1        36 3.75174E+00 2.18893E-01 2.23109E-01 2.10897E-02 8.01092E-02-8.08154E-02
 -1        37 3.84921E+00 1.19476E-01-1.40150E-02-2.23896E-02 4.58642E-04-2.01585E-01
 -1        38 3.64067E+00 2.61934E-01 2.10619E-01-9.64332E-03 1.73875E-02-8.65032E-02
 -1        39 3.51322E+00 8.03141E-02-1.43980E-02 4.09374E-02-7.24473E-02-1.87025E-02
 -1        40 2.95636E+00 1.48583E-01 9.16284E-02-8.37771E-03-2.65716E-02-1.37207E-02
 -1        41 3.99669E+00 3.08609E-01 1.66070E-01 2.37482E-02 6.57960E-02 2.52675E-02
 -1        42 3.46207E+00 2.31971E-01 1.56552E-01 1.54765E-02-9.97781E-02-8.57019E-02
 -1        43 3.44756E+00 2.96701E-01 1.69892E-01-1.32532E-03 3.71153E-02-5.43802E-02
 -1        44 3.31070E+00 2.21877E-01 1.36471E-01 3.73318E-02 3.01055E-02-1.04910E-02
 -1        45 3.54678E+00 7.37238E-02 1.56697E-01-2.68171E-03-2.69034E-03-8.13804E-02
 -1        46 3.42928E+00 1.26550E-01 2.04029E-02 4.16333E-02 8.89526E-02 1.07820E-02
 -1        47 3.19235E+00 1.66353E-01-8.19519E-02 2.64034E-02 4.97082E-02 8.06847E-03
 -1        48 1.06653E-02 5.66345E-03-2.37557E-02-5.44773E-04-3.21232E-03-9.53623E-03
 -1        49 3.43045E+00 9.76873E-02 3.18197E-02 8.37035E-03-8.21299E-02 2.04959E-02
 -1        50 3.20433E+00 2.45683E-01 1.49562E-01 2.87515E-02 1.26694E-03-4.35906E-02
 -1        51 3.11558E+00 1.24984E-01 2.26802E-02 6.13225E-02-1.08636E-02-8.65392E-02
 -1        52 3.40558E+00 2.38592E-01 1.88213E-01-5.36630E-02-1.20134E-01-1.37721E-01
 -1        53 3.56248E+00 3.52366E-01 2.95680E-01 2.11547E-02-7.95194E-02-1.56915E-02
 -1        54 3.16778E+00 8.40881E-02-6.88847E-03 8.64768E-03-5.60225E-02-5.20233E-03
 -1        55 2.90752E+00 1.50247E-01 1.29888E-01 3.93244E-03 2.26398E-02 5.45629E-02
 -1        56 3.68789E+00 3.67052E-01 2.03186E-01 9.75536E-02-6.65628E-02-1.04177E-03
 -1        57 1.99834E-02 4.89290E-03-1.40095E-02-1.51694E-03 5.67012E-03-1.44848E-02
 -1        58 3.22887E-02 4.78388E-03-2.43877E-02-7.07247E-03 6.01527E-03-1.67464E-02
 -1        59 2.90298E+00 7.26889E-02-3.34802E-02 1.10876E-02-4.64852E-02-6.41713E-02
 -1        60 2.97633E+00 2.74545E-01 2.29723E-01-3.55636E-02-3.83196E-02 3.94095E-02
 -1        61 3.16769E+00 9.75845E-02 1.64500E-01-5.00525E-02-3.60043E-02 7.42624E-02
 -1        62 2.95881E+00 1.31196E-01 1.76245E-01-8.07640E-04-4.58261E-02-1.17187E-01
 -1        63 2.88117E+00 1.79757E-01 1.77196E-01 3.23997E-02 3.62664E-02-1.13261E-02
 -1        64 3.17839E+00 2.05454E-01 3.85374E-02 2.40868E-02-1.31545E-01-1.28932E-01
 -1        65 2.73282E+00 2.13544E-01 1.66876E-01 2.39160E-02 2.37169E-02-9.10277E-02
 -1        66 2.81946E+00 8.85511E-02 1.09246E-02 3.75033E-02-6.69681E-02-4.47811E-02
 -1        67 3.19227E+00 2.72515E-01 1.56491E-01 5.45798E-02 1.96427E-02-1.05006E-01
 -1        68 3.27512E+00 1.87788E-01 1.12133E-01 4.06299E-03 5.13359E-02-1.14818E-02
 -1        69 2.70449E+00 8.17066E-02-6.78424E-02 5.00905E-02-7.23504E-02 2.09086E-02
 -1        70 9.62299E-03 6.49803E-03-1.22717E-02-9.56346E-06 3.35086E-03-1.21521E-02
 -1        71 3.00772E+00 1.52544E-01 1.39876E-01 2.08934E-02 1.19385E-02-1.71728E-02
 -1        72 3.24815E+00 9.57876E-02-1.76364E-02-1.38406E-02-3.11900E-02-2.77018E-02
 -1        73 3.14968E+00 1.96716E-01 1.37517E-01 3.45011E-02 1.59717E-02-5.67009E-02
 -1        74 2.75650E+00 2.09889E-02 6.38274E-02 9.68800E-03-1.15294E-03-2.32526E-02
 -1        75 2.71303E+00 7.51085E-02 1.37511E-02-8.32913E-03-3.28500E-02-9.00746E-02
 -1        76 2.79987E+00 8.99731E-02 6.75227E-02-2.97221E-02-7.14359E-02-7.91928E-02
 -1        77 2.78365E+00 8.52057E-02 8.97295E-02-3.79652E-02 2.66313E-02-1.16771E-01
 -1        78 2.89394E+00 1.54350E-01 1.48945E-01 2.00086E-02-1.65982E-02-7.20159E-02
 -1        79 3.24645E+00 3.26292E-01 2.53425E-01 1.27226E-02-7.10404E-02-4.58922E-02
 -1        80 3.00363E+00 2.55699E-01 2.05551E-01 8.00666E-03-9.11141E-02-5.98167E-02
 -1        81 3.04980E+00 2.48063E-01 8.13540E-02 2.64919E-02-1.53672E-01-7.57918E-02
 -1        82 2.65317E+00 1.35564E-01 1.03636E-01 6.59213E-02-2.47851E-02-3.98905E-02
 -1        83 2.95743E+00 1.97724E-01 2.26225E-01 3.89293E-02 2.31657E-02-1.28684E-01
 -1        84 2.61790E+00 1.80946E-01 1.31478E-01 1.17345E-02-3.83541E-02-2.25102E-02
 -1        85 2.96540E+00 2.37329E-01 2.34123E-01-1.27862E-02 1.29992E-02-1.15206E-01
 -1        86 4.42881E-02 2.80064E-03-1.71020E-02-5.40455E-03 7.26945E-03-2.14643E-02
 -1        87 2.58057E+00 1.08340E-01-3.38159E-02-2.49359E-02-8.22267E-02-7.67996E-02
 -1        88 2.52105E+00-5.26522E-02 7.46679E-02-4.96694E-03-5.56444E-03-1.00494E-01
 -1        89 2.45876E+00 1.32357E-01 1.12672E-01 6.82822E-02-1.19812E-02-1.10800E-01
 -1        90 2.72215E+00 2.45858E-01 1.29134E-01-3.21529E-02-2.59210E-02-6.18232E-02
 -1        91 2.36643E+00 4.49536E-02 9.20351E-02-2.38593E-02-5.56099E-02-1.11164E-01
 -1        92 2.53454E+00 1.10653E-01-6.76736E-02-3.15378E-02-2.52510E-02-1.05283E-01
 -1        93 2.65993E+00 1.54428E-01 6.20599E-02 3.26762E-02-1.80912E-02-2.28449E-02
 -1        94 2.95901E+00 2.15564E-01 1.08620E-01 1.32310E-01-6.02892E-02-1.50764E-02
 -1        95 1.23834E-02 8.23418E-04-2.52663E-02 6.26420E-04-6.03068E-03-1.27672E-02
 -1        96 4.29119E-02 1.02575E-02-1.41583E-02 5.95427E-03-8.42327E-03-2.30263E-02
 -1        97 2.79865E+00 9.69277E-02-1.45030E-01-1.30769E-02-4.06045E-02 6.31387E-03
 -1        98 2.74211E+00 5.59598E-02-6.84564E-02 2.55463E-02 2.89739E-02-2.47285E-02
 -1        99 2.50567E+00 1.26309E-01 2.44537E-02-1.65416E-02 2.31100E-02-6.08260E-02
 -1       100 2.71279E+00 1.77857E-01 4.57848E-02 1.70814E-02-4.79219E-02-9.82691E-02
 -1       101 2.64939E+00 5.28028E-02-4.47452E-02 9.12330E-03-1.62024E-02-5.33057E-02
 -1       102 2.37782E+00 7.94882E-02 5.85523E-02 1.34138E-02 2.67281E-02-8.07650E-02
 -1       103 2.55013E+00 2.61024E-01 1.80256E-01-3.12037E-02 2.42973E-02-8.46642E-02
 -1       104 2.69072E+00 1.88502E-01 7.70395E-02 7.03508E-02-5.60961E-02-1.02099E-01
 -1       105 2.24447E+00 2.02309E-02-5.39957E-02-7.36491E-03-4.77802E-02-1.27425E-01
 -1       106 2.33216E+00 6.17432E-02-8.42975E-03 5.45982E-02-5.34326E-02-7.33328E-02
 -1       107 2.41597E+00 1.66940E-01 1.97342E-01 1.57348E-02-3.34913E-03-8.37234E-02
 -1       108 2.10818E+00 1.65785E-02-6.04312E-03 4.94514E-02-5.59714E-03-6.61872E-02
 -1       109 2.21014E+00 9.25412E-02 5.96866E-02 5.84790E-03-1.08581E-03-3.74335E-02
 -1       110 2.60883E+00 2.55164E-01 1.49344E-01 2.83585E-03-5.06589E-02-6.09785E-02
 -1       111 2.24395E+00 5.68681E-02-2.49365E-02 4.52492E-02-4.78010E-02-3.42862E-02
 -1       112 2.13648E+00 1.18590E-01 1.12555E-01-1.36903E-03-4.65452E-02-1.06582E-01
 -1       113 2.50866E+00 2.83846E-01 1.97907E-01 6.73200E-02-5.91824E-02-7.55256E-02
 -1       114 2.27863E+00 1.45331E-01 1.03975E-01 1.45788E-02 5.89679E-03-4.06630E-02
 -1       115 2.01485E+00 1.15981E-01 6.36235E-02 2.46081E-02-1.57319E-03-5.90463E-02
 -1       116 2.01679E+00 3.01796E-03 3.91277E-02 2.04033E-02-2.85288E-02-8.57445E-02
 -1       117 2.35488E+00 1.64260E-01 2.11444E-01 5.64110E-02 3.26395E-02-7.06443E-02
 -1       118 2.30087E+00 1.89883E-01 1.53050E-01 1.97396E-02-2.04913E-02-4.98925E-02
 -1       119 1.00367E-02 2.25849E-03-1.46331E-02 6.04446E-04 3.11560E-03-1.30765E-02
 -1       120 1.19034E-02 8.87710E-03-9.46166E-03 1.72893E-04-1.39392E-03-1.31929E-02
 -1       121 2.22214E+00 3.14481E-02 5.51780E-02-3.16127E-02 1.91280E-02-2.37637E-02
 -1       122 2.01999E+00 1.27288E-01 1.33820E-01-6.29373E-03 2.81376E-03-9.48862E-02
 -1       123 2.21239E+00 1.75728E-01 1.17478E-01 7.64592E-03-6.20505E-02-1.23880E-01
 -1       124 1.88123E+00 1.22247E-01 7.12243E-02 2.30557E-02-1.18204E-02-8.71911E-02
 -1       125 1.99909E+00 3.79061E-02 6.99218E-02-1.87281E-02-4.02450E-02-7.19134E-02
 -1       126 2.07376E+00 9.15900E-02 5.63007E-02-2.44009E-02-1.04704E-02-5.66028E-02
 -1       127 2.20960E+00 1.63849E-01 7.15687E-02 7.88645E-03-6.66606E-03-9.16698E-02
 -1       128 2.15417E+00 1.64302E-01 7.66817E-02-9.48523E-03-1.60565E-02-1.28360E-01
 -1       129 2.15134E+00 1.18485E-01 4.06149E-02 3.70103E-02-2.51935E-02-1.11412E-01
 -1       130 1.51495E-02 7.81817E-03-1.83533E-02 2.64087E-03-4.54380E-03-1.06854E-02
 -1       131 1.01125E-02 8.84972E-03-2.11329E-02 3.20201E-03-3.98307E-03-1.11760E-02
 -1       132 2.44321E+00 1.83835E-01 8.33405E-02 4.83401E-03-7.38524E-02-7.22252E-02
 -1       133 2.23655E+00 1.17535E-01 3.17484E-02 1.39051E-02-4.69320E-02-7.85558E-02
 -1       134 2.30909E+00 8.66618E-02-1.11347E-02-3.32718E-02-6.50885E-02-8.23032E-02
 -1       135 2.34025E+00 2.17687E-01 6.98343E-02-5.40605E-03-1.88784E-02-1.73184E-02
 -1       136 2.30510E+00 1.66294E-01 1.04071E-01-3.58717E-03 5.63980E-02-1.94020E-02
 -1       137 2.17140E+00 1.57136E-01 6.26474E-02 2.01434E-02 5.24896E-02-1.04584E-01
 -1       138 2.29103E+00 6.61028E-02 3.09859E-02 3.78706E-02-3.91155E-02-1.07013E-01
 -1       139 1.89092E+00 1.16940E-01 1.61845E-02 1.59598E-02-1.22353E-02-3.52049E-02
 -1       140 1.98511E+00 7.24970E-02 4.52812E-02 2.14139E-02-2.64124E-02-1.56542E-02
 -1       141 3.62893E-02 7.05911E-03-1.50486E-02-1.34789E-03 2.87378E-03-1.92282E-02
 -1       142 4.03488E-02 8.36410E-04-1.44295E-02-1.92385E-03 5.40012E-03-2.38315E-02
 -1       143 6.42229E-02 1.04446E-03-2.56525E-02-1.19081E-02 6.37036E-03-2.79075E-02
 -1       144 1.91480E+00 8.13938E-02 6.53912E-02 5.46054E-03 3.52576E-03-8.44594E-02
 -1       145 1.86422E+00 5.57281E-02 5.79297E-02 3.86137E-02-3.22526E-02-1.46565E-01
 -1       146 1.87145E+00 6.07920E-02 5.83323E-02 4.35207E-02 7.74790E-03-5.22130E-02
 -1       147 1.90274E+00-1.02699E-01 2.58392E-02 1.55329E-02 2.69570E-02-2.49590E-02
 -1       148 2.07836E+00 1.22251E-01-1.85694E-02-4.04567E-03 3.23777E-02-4.33399E-02
 -1       149 2.00379E+00 1.53457E-01-8.32400E-03-3.27881E-03-1.49895E-03-2.74923E-02
 -1       150 2.06970E+00 1.53746E-01 1.64167E-01-5.96714E-03-1.02694E-02-7.82240E-02
 -1       151 2.01912E+00 1.47359E-01 8.15450E-02 4.08490E-02-4.62404E-02-1.08883E-01
 -1       152 2.28912E+00 2.44398E-01 1.44689E-01 2.90065E-02 5.06702E-03-9.16308E-02
 -1       153 1.89406E+00 8.62590E-02 1.58447E-04-4.20961E-03 2.56382E-02-6.28214E-02
 -1       154 2.05280E+00 1.31874E-01 5.21667E-02-1.29983E-02-1.35899E-02-8.09332E-02
 -1       155 1.98109E+00 1.69709E-01 1.29748E-01 1.57185E-02-5.11327E-02-8.06971E-02
 -1       156 2.02069E+00 1.48547E-01 1.04775E-01 2.08545E-02-1.44531E-02-1.13129E-01
 -1       157 3.41989E-02 1.11827E-02-1.33837E-02 5.48257E-03-5.57790E-03-1.60764E-02
 -1       158 3.49863E-02 4.49685E-03-2.91180E-02 8.19013E-03-1.30601E-02-2.44473E-02
 -1       159 1.98172E+00 1.02104E-01 1.13492E-01 1.65464E-03-2.04015E-02-4.84443E-02
 -1       160 1.97153E+00 1.59122E-01 1.85454E-01-2.45772E-02 2.76025E-02-8.92132E-02
 -1       161 1.80858E+00 1.34836E-01 1.01505E-01 1.60691E-02 9.07305E-04-4.75412E-02
 -1       162 1.78846E+00 4.83103E-02-1.89840E-02 9.54371E-03-7.04704E-02-1.00581E-01
 -1       163 2.07301E+00 1.90762E-01 9.47444E-02 3.19384E-02 1.29025E-02-1.16305E-01
 -1       164 1.94209E+00 1.51231E-01 1.31463E-01-8.72618E-04-9.49529E-03-9.08880E-02
 -1       165 1.69613E+00 9.46967E-02 8.46547E-02-1.13680E-02-2.36093E-02-1.69153E-02
 -1       166 1.49953E+00-6.00629E-02-6.03925E-02 4.20845E-02-5.43874E-02-8.97549E-02
 -1       167 1.59783E+00 8.46071E-02 3.50349E-02-9.53673E-04-7.65698E-03-4.69589E-02
 -1       168 1.60428E+00 7.86828E-02 1.39909E-02 2.47687E-02-7.21624E-03-2.74255E-02
 -1       169 1.58560E+00 9.46906E-02 8.42212E-02-2.28024E-03 6.51151E-03-7.99420E-02
 -1       170 1.64419E+00 3.73206E-02-2.04736E-02 6.21904E-02-5.02369E-02-7.21931E-02
 -1       171 1.60816E+00 3.44526E-02 1.60104E-02 1.32830E-02-5.01684E-02-5.52598E-02
 -1       172 1.71298E+00 2.36447E-01 1.53563E-01-1.27982E-03-2.16233E-02-5.67043E-02
 -1       173 1.81535E+00 1.66856E-01 7.33820E-02 3.58281E-02-4.07891E-03-9.73806E-02
 -1       174 1.80153E+00 1.61707E-01 2.81041E-02-6.37107E-04-3.02105E-02-1.50559E-01
 -1       175 1.64585E+00 1.29903E-01 1.06560E-01 7.03835E-02-2.44234E-03-6.03257E-02
 -1       176 1.62717E+00 7.38726E-02 6.71265E-03 6.97417E-02-2.59314E-02-4.81202E-02
 -1       177 1.36516E+00 7.82378E-02 5.38951E-02 3.16176E-03-8.09705E-03-6.35902E-02
 -1       178 1.47453E+00 1.18853E-01 5.80499E-02 8.31005E-02 2.16533E-02-4.60082E-02
 -1       179 1.54073E+00 9.82197E-02 8.51419E-02 1.74836E-02-5.21284E-03-9.64760E-02
 -1       180 1.58059E+00 1.57546E-01 1.12165E-01 6.14360E-04-1.45572E-02-6.40587E-02
 -1       181 1.58986E+00 1.14306E-01 7.81514E-02 3.69600E-02-3.70035E-03-5.36291E-02
 -1       182 1.62697E+00 3.47710E-02 1.60874E-02 5.28588E-02-9.82528E-03-3.98049E-02
 -1       183 1.71789E+00 2.49723E-01 2.28989E-01 3.32575E-02 2.67376E-02-6.60796E-02
 -1       184 1.63485E+00 1.68311E-01 8.38468E-02 1.50263E-02 1.41223E-02-6.43638E-02
 -1       185 1.74312E+00 1.55185E-01 5.18139E-02 1.67581E-02-2.61640E-02-2.87883E-02
 -1       186 1.70491E+00 2.05608E-01 1.58624E-01 4.94272E-03-3.39343E-02-7.32211E-02
 -1       187 1.56450E+00 8.86123E-02 3.01505E-02-3.55809E-02-2.34938E-02-9.37865E-02
 -1       188 1.51837E+00 9.69366E-02 7.25491E-02 2.82092E-02 1.63268E-03-6.00517E-02
 -1       189 1.37920E+00 5.32732E-02 3.19284E-02 1.07992E-02 4.80774E-02-4.17631E-02
 -1       190 1.58835E+00 1.02018E-01 6.67253E-02-1.81857E-02-2.39547E-02-3.43096E-02
 -1       191 1.44476E+00 9.59598E-02 5.85063E-02-7.09520E-03-2.20438E-02-4.85800E-02
 -1       192 1.45476E+00 6.68264E-02 7.23177E-02 4.15315E-02-2.57310E-02-1.93923E-02
 -1       193 1.30424E+00 6.17758E-02 1.33458E-02-2.56927E-02 1.13985E-02-5.92380E-02
 -1       194 1.28307E+00 7.87375E-02 4.20286E-02 8.86218E-03-1.52481E-02-8.78421E-02
 -1       195 1.34222E+00 7.09202E-02 7.99674E-02 1.79360E-02-1.47254E-02-5.87832E-02
 -1       196 1.37777E+00 7.46420E-02 1.05538E-01-1.01884E-02-4.29892E-03-3.14559E-02
 -1       197 1.39824E+00 5.91256E-02 9.31675E-02-3.24976E-02 1.23892E-02-5.15075E-02
 -1       198 1.34412E+00 8.31877E-02 8.29861E-02-1.28641E-02-4.81632E-02-3.55965E-02
 -1       199 6.29790E-02 8.43211E-03-1.65908E-02 1.41559E-02-1.01469E-02-3.20403E-02
 -1       200 1.50296E+00 1.65406E-01 8.09011E-02-1.89321E-03-1.27198E-02-6.15465E-02
 -1       201 1.38962E+00 5.34017E-02 1.70151E-02 1.47047E-02-1.35893E-02-9.02854E-02
 -1       202 1.21425E+00 7.26673E-02 1.90558E-02 3.24468E-03-3.16732E-02-7.40788E-02
 -1       203 1.23356E+00 1.14167E-01 1.04142E-01 4.12150E-02-2.29242E-02-2.34878E-02
 -1       204 1.27142E+00 2.04059E-03 7.46062E-02 4.14169E-02-2.94590E-02-2.63370E-02
 -1       205 1.34549E+00 8.94667E-02 9.26404E-02 3.03057E-02 1.33013E-02-6.94342E-02
 -1       206 1.22452E+00 6.20237E-02 2.52577E-02 1.88823E-02 1.03368E-02-6.56205E-02
 -1       207 1.23758E+00 6.04356E-02 7.25536E-02 2.49005E-02-1.45800E-02-2.20729E-02
 -1       208 1.19289E+00 5.63092E-02 2.06358E-02-4.67600E-03-7.61337E-03-6.61592E-02
 -1       209 9.91020E-02 3.33120E-03-3.11438E-02-1.60763E-02 6.65283E-03-3.69093E-02
 -1       210 8.83361E-02 6.32528E-03-1.53320E-02-9.15150E-03 6.37581E-03-3.19528E-02
 -1       211 1.12400E+00 2.50506E-02 3.78211E-02 1.96387E-02-1.04201E-02-8.54388E-02
 -1       212 1.14303E+00 9.72223E-02 8.96016E-02 1.36120E-03-2.31335E-03-8.12424E-02
 -1       213 1.08935E+00-4.53011E-02 2.02214E-02-4.01559E-03-1.66314E-02-6.11423E-02
 -1       214 1.18921E+00 6.64743E-02 5.85556E-02 3.16633E-02-1.34256E-02-7.86509E-02
 -1       215 1.13301E+00 9.60881E-02 1.00544E-01-2.25774E-04 2.47836E-03-5.23491E-02
 -1       216 1.22957E+00 1.02649E-01 1.13445E-01-9.70027E-03 3.47139E-03-1.15261E-02
 -1       217 1.22787E+00 9.24412E-02 7.63393E-02 1.56240E-02-2.29323E-02-3.06713E-02
 -1       218 1.25182E+00 1.02019E-01 6.52626E-02-1.48296E-02-8.93481E-03-7.34473E-02
 -1       219 1.20125E+00 1.30775E-01 9.26971E-02 7.36895E-03-2.13075E-03-8.96492E-02
 -1       220 1.04633E+00 1.05223E-02 5.30324E-02 7.67113E-04-1.83943E-02-7.33844E-02
 -1       221 1.07013E+00 7.32505E-02 6.26423E-02 1.19404E-02 6.18645E-03-7.30462E-02
 -1       222 1.05724E+00 7.76945E-03 1.70612E-03 2.24235E-02-1.61036E-02-8.45907E-02
 -1       223 1.07645E+00 9.29411E-02 9.20841E-02-2.34966E-02-7.90847E-03-5.93134E-02
 -1       224 9.86941E-01-2.29118E-02 6.82438E-03-3.23399E-03-9.41968E-03-4.39578E-02
 -1       225 9.96600E-01 2.54266E-02 1.15285E-02 4.55169E-03 3.65402E-03-6.30519E-02
 -1       226 1.21719E+00 1.72943E-01 1.21860E-01-3.02524E-02-1.00873E-02-4.12351E-02
 -1       227 1.18505E+00 8.67103E-02 5.45146E-02-6.04040E-03 2.17479E-03-3.77638E-02
 -1       228 1.10079E+00 8.92198E-02 6.39046E-02 2.13158E-02-2.00091E-02-8.49800E-02
 -1       229 1.06267E+00 7.40680E-02 8.49415E-02 4.75053E-02-2.93316E-02-8.13707E-02
 -1       230 1.04285E+00 7.04170E-02 6.58275E-02-1.89970E-02 2.18451E-02-4.86777E-02
 -1       231 1.07385E+00 9.84788E-02 9.10732E-02 9.56111E-03 5.01036E-03-5.54898E-02
 -1       232 9.41862E-01 2.65030E-02 5.04206E-03 2.13576E-02 6.50571E-03-6.68354E-02
 -1       233 9.80013E-01 7.22592E-02 6.13304E-02 4.04827E-02-8.96023E-03-8.00357E-02
 -1       234 9.54772E-01 4.78617E-02 3.56896E-02 1.38244E-03-8.97915E-03-3.56452E-02
 -1       235 9.35903E-01 4.62205E-02 1.97510E-02 1.57346E-02 4.77881E-02-9.20834E-02
 -1       236 1.04843E+00 7.55332E-02 1.04333E-01 4.09615E-02-2.30047E-02-6.21454E-02
 -1       237 1.21208E-01 5.99650E-03-1.95163E-02-1.22465E-02 1.18697E-02-4.39344E-02
 -1       238 6.53688E-02 6.38799E-03-1.06039E-02-1.99393E-03 3.35555E-03-2.55162E-02
 -1       239 1.03627E+00 6.27999E-02 1.57875E-02-1.60824E-02 1.01274E-02-3.33789E-02
 -1       240 9.19943E-01 5.56687E-02 4.51371E-02 1.87621E-02-1.05224E-02-5.57037E-02
 -1       241 9.45347E-01 5.04625E-02 2.75355E-02 9.88961E-03 6.28713E-03-6.98922E-02
 -1       242 9.42226E-01 2.39997E-02 3.96518E-02 1.02732E-03 4.31332E-03-5.39646E-02
 -1       243 9.12451E-01 9.20415E-02 4.99032E-02-1.51063E-03 1.29239E-02-4.51118E-02
 -1       244 1.04034E+00 1.32605E-01 7.61393E-02 3.19212E-02-1.21814E-03-6.19272E-02
 -1       245 9.64514E-01 5.73478E-02 1.91207E-02 9.81104E-03 7.80362E-04-8.18042E-02
 -1       246 8.73965E-01 7.30316E-02 4.37682E-02 1.25196E-03-7.23829E-03-5.42720E-02
 -1       247 9.52836E-01 6.20591E-02 4.61137E-02 4.30949E-02 1.04012E-03-5.19274E-02
 -1       248 1.01184E+00 7.80422E-02 1.46146E-02-1.59131E-02-9.78789E-03-4.85376E-02
 -1       249 7.24144E-01 1.47439E-02 6.60735E-03 1.47595E-02 2.99824E-03-6.96111E-02
 -1       250 9.16710E-01 7.51739E-02 5.97893E-02 1.54738E-02-1.78500E-02-6.82295E-02
 -1       251 8.56926E-01 3.74425E-02 4.79699E-02 2.30011E-02-1.18392E-02-6.92985E-02
 -1       252 7.98866E-01 4.41522E-02 5.65827E-02-1.44674E-03 1.68986E-03-6.22368E-02
 -1       253 9.92296E-01 9.91570E-02 1.11799E-02-1.26672E-02-9.71984E-04-5.96961E-02
 -1       254 7.70199E-01 5.67056E-02 5.18468E-02 1.02285E-02 1.66683E-04-5.60454E-02
 -1       255 8.34447E-01 8.37217E-02 6.73273E-02 1.98422E-02-2.84428E-02-5.60645E-02
 -1       256 6.81187E-01 2.76974E-02 6.03505E-03-1.61719E-03-3.68998E-03-6.17232E-02
 -1       257 7.63054E-01 3.75101E-02 1.14389E-02-8.22426E-03-9.14639E-03-4.76665E-02
 -1       258 4.31208E-02 7.83827E-03-1.10812E-02 3.40777E-03-4.12435E-03-2.69902E-02
 -1       259 5.43050E-02 1.44761E-03-1.59536E-02 3.73206E-03-7.01372E-03-3.36608E-02
 -1       260 8.72184E-02 4.93670E-03-1.06588E-02 1.14432E-02-8.29602E-03-3.77805E-02
 -1       261 1.11949E-01 3.79775E-03-1.37808E-02 2.29919E-02-6.46164E-03-3.71900E-02
 -1       262 8.06560E-01-5.04534E-02 2.26460E-02 5.63851E-02 2.92315E-02-3.91150E-02
 -1       263 7.42167E-01 1.56423E-02 4.73005E-02 1.72908E-02 7.65636E-04-6.86460E-02
 -1       264 6.61441E-01 3.37932E-02 1.12174E-02 3.95109E-03-3.73255E-03-6.20634E-02
 -1       265 7.59189E-01 4.19809E-02 8.86002E-03 2.14609E-02-2.21032E-02-6.36400E-02
 -1       266 7.06111E-01 5.45956E-02 1.09861E-02-2.41896E-02-5.98412E-03-6.47863E-02
 -1       267 7.07120E-01 4.92527E-02 4.04553E-02-5.45999E-03 6.53872E-03-5.84252E-02
 -1       268 6.97193E-01 4.35734E-02 3.49593E-02 4.67609E-03-9.69359E-03-4.75886E-02
 -1       269 6.89794E-01 1.47128E-02 1.79453E-02 1.98047E-02-1.59567E-03-4.77141E-02
 -1       270 7.90971E-01 4.93197E-02 5.79783E-02 4.14908E-02-2.37867E-03-5.93214E-02
 -1       271 1.30067E-01 6.53769E-03-8.77336E-03-7.52769E-03 7.53247E-03-4.67027E-02
 -1       272 7.00937E-01 5.23339E-02 4.50230E-02-1.02140E-02-8.82066E-03-4.14478E-02
 -1       273 6.35683E-01 3.49416E-02 1.36873E-02 2.13291E-02-9.58942E-03-6.22225E-02
 -1       274 6.17544E-01 5.05133E-02 4.42845E-02 3.05809E-02-2.06330E-04-5.99038E-02
 -1       275 8.29443E-01 1.06272E-01 5.89383E-02-1.23864E-02-1.42292E-02-4.87886E-02
 -1       276 6.14769E-01 4.24964E-02 2.28570E-02 1.76516E-05 3.34501E-03-5.67630E-02
 -1       277 7.70009E-01 1.09246E-01 7.68837E-02 2.78084E-03 1.09989E-02-5.42584E-02
 -1       278 6.38673E-01 2.79181E-02 1.82879E-02-1.31551E-02 1.82632E-03-4.92780E-02
 -1       279 5.78272E-01 3.64467E-02 3.38199E-02 1.86077E-02-9.12770E-03-4.80590E-02
 -1       280 6.90477E-01 2.79864E-02 5.09283E-02 1.18025E-02 7.22185E-04-5.22846E-02
 -1       281 5.50414E-01 2.01981E-03-1.71763E-03 7.68763E-04 6.54525E-03-5.98326E-02
 -1       282 5.16858E-01 7.20073E-03 9.05934E-03 1.30905E-02 1.16575E-03-5.45994E-02
 -1       283 5.32916E-01 5.28023E-02 4.33551E-02 9.62992E-03 3.85328E-03-7.01964E-02
 -1       284 5.09123E-01 1.18381E-02 3.06838E-02 8.40162E-03 5.57922E-03-8.53239E-02
 -1       285 5.54398E-01 2.93170E-02 4.08933E-02 1.55606E-02 1.20427E-02-6.02647E-02
 -1       286 5.04761E-01 1.15117E-02 8.57456E-03-4.79300E-03 1.05214E-03-6.82692E-02
 -1       287 5.83192E-01 4.16722E-02 2.66361E-02-1.05084E-02 1.70519E-02-6.36968E-02
 -1       288 4.89034E-01 3.46342E-02 3.19107E-02 3.87924E-04 1.35890E-02-5.55419E-02
 -1       289 5.35237E-01 7.87637E-02 5.60899E-02-2.07478E-03-5.43613E-03-8.90702E-02
 -1       290 5.62195E-01 3.29278E-02 1.27060E-02-1.49847E-02 9.92960E-03-6.64727E-02
 -1       291 4.70361E-01 4.10800E-02 3.83865E-02 7.21960E-03 7.48142E-03-6.48014E-02
 -1       292 4.63299E-01 4.20797E-02 3.91811E-02 4.56061E-03 5.62120E-03-5.40135E-02
 -1       293 4.65627E-01 1.61671E-02 2.09231E-02-4.15522E-03 8.39659E-04-5.09260E-02
 -1       294 3.48657E-02 1.29411E-02-1.52880E-02 5.49146E-03-6.49787E-03-1.56089E-02
 -1       295 4.11989E-01 1.76951E-02 5.13235E-03 1.70763E-03 1.26620E-03-8.40974E-02
 -1       296 4.81629E-01 3.30288E-02 2.44616E-02 6.46401E-03-3.69201E-02-9.34120E-02
 -1       297 3.65991E-01 1.11748E-02-3.92247E-04 1.05161E-02 7.87187E-03-6.38441E-02
 -1       298 4.18996E-01 2.06923E-02 2.49617E-03-1.28252E-02 5.14688E-03-6.13322E-02
 -1       299 3.80151E-01 1.82345E-02 1.28793E-02 1.57288E-02 7.44246E-03-6.13015E-02
 -1       300 4.44264E-01 1.53156E-02 1.34256E-02 1.12491E-02 1.47070E-04-6.48789E-02
 -1       301 3.90649E-01 2.33877E-02 3.79638E-03 1.63803E-02-1.34423E-02-8.63652E-02
 -1       302 4.28627E-01 4.90216E-02 2.22316E-02-4.54024E-03-6.21705E-04-5.34309E-02
 -1       303 3.36697E-01 2.64529E-03-1.05929E-02-1.56911E-02-1.42318E-03-5.48112E-02
 -1       304 3.74712E-01 3.59273E-02-4.40406E-04 2.54514E-02-2.37198E-02-8.62322E-02
 -1       305 3.17633E-01 2.59962E-02 2.23377E-02-5.65113E-04 5.95018E-03-5.43279E-02
 -1       306 3.60161E-01 4.04953E-02 2.94816E-02-1.02979E-02 7.10222E-03-5.95278E-02
 -1       307 3.24697E-01 2.54362E-02 2.54613E-03-1.58665E-02 1.09231E-02-6.43219E-02
 -1       308 3.29287E-01 1.02613E-02 5.93100E-03 1.21965E-02 4.25934E-03-6.98320E-02
 -1       309 3.17935E-01 2.50737E-02 9.44495E-03 1.20416E-02-1.22128E-03-7.93807E-02
 -1       310 2.97714E-01 2.62876E-02 1.34410E-02-9.85108E-03-2.84249E-03-6.48255E-02
 -1       311 2.94804E-01 3.32159E-02 2.00786E-02 1.24501E-02 1.93733E-03-6.40235E-02
 -1       312 2.91414E-01 3.26948E-02-3.66355E-04 2.06941E-02-6.62263E-03-6.24804E-02
 -1       313 2.73943E-01 2.25725E-02 1.73936E-02-2.25001E-03-4.51593E-03-5.38899E-02
 -1       314 2.57045E-01 1.87543E-02 9.12514E-03-1.43646E-02 4.90996E-03-6.41297E-02
 -1       315 2.88095E-01 2.87082E-02-2.36202E-03-2.96349E-02 1.13961E-02-5.18172E-02
 -1       316 2.35355E-01 1.19959E-02-6.95004E-03 9.97190E-03 1.28136E-03-5.50447E-02
 -1       317 2.46122E-01 2.16935E-02 6.11250E-03 4.06653E-03-6.46490E-03-4.05035E-02
 -1       318 1.99844E-01 1.40761E-02-4.83371E-03 1.48650E-02-4.40388E-03-5.73819E-02
 -1       319 2.31515E-01 2.25988E-02-2.51183E-02 3.07760E-02-1.85684E-02-4.05894E-02
 -1       320 1.88583E-01 4.91821E-03-9.19574E-03 3.72088E-03-3.65378E-03-3.88411E-02
 -1       321 2.24852E-01 2.06304E-02 1.08301E-02-1.03404E-03-1.63385E-03-4.37186E-02
 -1       322 1.93929E-01 2.13601E-02 6.24697E-03-1.26781E-02 1.19245E-03-4.85684E-02
 -1       323 1.67403E-01 8.40700E-03-5.64365E-03 7.89247E-03-5.01578E-04-5.06293E-02
 -1       324 1.59609E-01 4.92858E-03-2.26140E-02 2.07723E-02-7.45994E-03-3.62080E-02
 -1       325 1.56847E-01-4.89570E-03-1.69359E-02 1.88770E-03-7.29524E-03-4.17742E-02
 -1       326 1.64475E-01 6.31151E-03-5.90989E-03 1.31010E-03-2.15813E-03-3.34630E-02
 -1       327 1.36318E-01 6.81229E-03-8.81381E-03 1.27199E-02-3.96867E-03-4.33121E-02
 -1       328 1.54363E-01 3.73719E-03-1.06443E-02-1.54218E-02 8.05244E-03-5.60835E-02
 -1       329 1.24595E-01 5.21261E-03-6.16742E-03 7.38567E-04 2.30714E-03-3.33004E-02
 -1       330 1.95927E-02 6.43697E-03-1.34815E-02 7.96382E-04-1.79596E-03-1.47364E-02
 -1       331 9.30431E-02 1.07483E-02-4.97347E-03 7.81845E-03-4.16152E-03-3.42509E-02
 -1       332 1.46467E-01 1.08487E-02-8.35129E-03 1.41918E-02-5.14676E-03-4.17129E-02
 -1       333 3.74505E-02 4.57908E-03-1.60554E-02-7.82908E-04 1.81245E-03-1.77578E-02
 -1       334 9.13778E-02 6.36426E-03-6.93962E-03 2.63894E-03 1.48762E-03-2.93267E-02
 -1       335 1.38903E-01 6.01130E-03-1.11074E-02 5.52636E-03-1.57281E-03-3.78121E-02
 -1       336 1.25376E-01 1.61243E-02 3.80751E-04 4.56611E-03-1.82268E-03-3.30032E-02
 -1       337 6.33010E-02 9.61209E-03-6.93501E-03 2.32441E-03 1.06300E-03-2.75564E-02
 -1       338 3.78720E-01 2.63029E-02 1.24329E-02-2.67175E-02 1.21848E-02-6.45521E-02
 -1       339 4.02312E-01 3.98367E-03 7.61865E-03-2.15911E-02 2.56314E-03-7.16807E-02
 -1       340 5.63602E-01 4.69933E-02 1.90624E-02-1.77299E-02 1.83240E-02-5.92219E-02
 -1       341 5.72606E-01 9.49135E-03 1.88291E-02-2.48396E-02 1.13592E-02-6.03396E-02
 -1       342 7.33714E-01 2.02459E-02-1.87675E-02-2.04565E-02 1.56022E-02-4.87602E-02
 -1       343 7.53191E-01 2.79150E-02-1.83524E-02-8.18874E-03 1.20950E-02-1.63251E-02
 -1       344 0.00000E+00 0.00000E+00 0.00000E+00 0.00000E+00 0.00000E+00 0.00000E+00
 -1       345 0.00000E+00 0.00000E+00 0.00000E+00 0.00000E+00 0.00000E+00 0.00000E+00
 -1       346 0.00000E+00 0.00000E+00 0.00000E+00 0.00000E+00 0.00000E+00 0.00000E+00
 -1       347 0.00000E+00 0.00000E+00 0.00000E+00 0.00000E+00 0.00000E+00 0.00000E+00
 -1       348 0.00000E+00 0.00000E+00 0.00000E+00 0.00000E+00 0.00000E+00 0.00000E+00
 -1       349 0.00000E+00 0.00000E+00 0.00000E+00 0.00000E+00 0.00000E+00 0.00000E+00
 -1       350 0.00000E+00 0.00000E+00 0.00000E+00 0.00000E+00 0.00000E+00 0.00000E+00
 -1       351 6.96332E-01-1.34285E-02-1.12808E-02 5.94415E-03 4.14971E-03-4.15385E-02
 -1       352 8.09992E-01 5.55269E-02 4.25690E-02-9.37043E-03-1.28527E-02-4.53534E-02
 -1       353 9.82706E-01 1.00653E-01 1.02548E-01-3.20146E-02 1.78423E-02-3.06636E-02
 -1       354 9.67342E-01 1.05761E-01 5.70167E-02-1.35723E-02 1.21201E-03-5.85903E-02
 -1       355 9.25629E-01 6.40227E-02 4.52022E-02-1.19080E-02-1.16520E-02-5.52145E-02
 -1       356 9.05810E-01 3.11634E-03 3.45551E-02-2.77705E-02 5.88300E-03-4.34682E-02
 -1       357 1.02828E+00 7.04947E-02 5.09231E-02-4.46483E-02-5.93189E-03-2.23651E-02
 -1       358 1.00113E+00 7.52145E-02 6.24523E-02-2.36210E-02-1.03638E-02-4.35832E-02
 -1       359 1.17174E+00 7.69665E-02 4.07006E-03-1.04550E-02 7.53152E-03-1.34159E-02
 -1       360 1.05789E+00 5.84712E-02 2.82749E-02 2.15936E-03 3.96441E-03-5.77665E-02
 -1       361 1.12756E+00 6.06560E-02 2.28271E-02-1.80185E-03 1.88545E-02-2.06094E-02
 -1       362 1.21206E+00 1.25549E-01 5.82209E-02-4.29609E-03 1.44232E-02-4.77282E-02
 -1       363 1.22608E+00 1.02638E-01 7.47615E-02-1.93369E-02 4.08289E-02-2.69237E-02
 -1       364 1.22110E+00 1.01799E-01 8.22367E-02-1.54642E-02 1.79272E-02-6.42636E-02
 -1       365 1.30725E+00 8.32286E-02 7.32706E-02-4.09934E-02 2.93863E-02-1.43901E-02
 -1       366 1.39269E+00 1.07551E-01 6.98538E-02-2.07522E-02 1.42323E-02-8.01300E-02
 -1       367 1.36216E+00 7.58565E-02 6.82771E-02-4.09052E-02 2.65845E-02-3.50995E-02
 -1       368 1.22003E+00 5.31588E-02 2.42048E-02-1.07645E-02-1.95714E-03-6.78030E-02
 -1       369 1.45384E+00 1.21683E-01 5.93914E-02-3.66587E-02 2.77317E-02-6.73896E-02
 -1       370 1.47625E+00 7.37767E-02 5.15119E-02-5.10852E-02 3.58704E-02-4.38533E-02
 -1       371 1.41746E+00 7.21394E-02 5.57551E-02-2.84854E-02 1.63043E-02-2.35936E-02
 -1       372 1.51794E+00 6.46363E-02 3.61628E-02-2.33187E-02 3.15496E-02-3.23858E-03
 -1       373 1.54862E+00 1.18265E-01 1.10677E-01-1.73580E-02 2.09293E-02-1.77503E-02
 -1       374 1.61296E+00 1.08309E-01 6.04266E-02-2.59565E-03 2.43292E-02-2.13857E-02
 -1       375 1.64198E+00 1.02622E-01 3.10343E-02 1.15438E-02 3.77546E-02 3.04211E-02
 -1       376 1.48741E+00 1.03686E-01 1.01893E-01 1.47078E-02-7.50742E-03-8.56487E-02
 -1       377 1.69467E+00 8.26411E-02 2.58669E-03 5.75245E-03 2.63283E-02-7.36606E-03
 -1       378 1.66917E+00 1.32642E-01 1.49261E-01-3.47900E-03-4.60319E-02-3.34753E-02
 -1       379 1.84226E+00 1.65581E-01 7.97660E-02-2.67475E-02-5.09351E-02-1.24851E-01
 -1       380 0.00000E+00 0.00000E+00 0.00000E+00 0.00000E+00 0.00000E+00 0.00000E+00
 -1       381 1.86472E+00 1.78000E-01 1.14286E-01-2.32524E-02 1.88987E-02-2.52723E-02
 -1       382 1.81746E+00 1.13245E-01 7.20848E-02-8.79696E-03 2.21438E-02-6.24195E-02
 -1       383 1.71290E+00 6.54346E-02 8.16969E-03 2.31024E-03-8.88736E-03-5.94539E-02
 -1       384 1.90018E+00 1.73637E-01 1.47362E-01 1.49426E-02-1.56512E-02-3.76970E-02
 -1       385 1.80286E+00 1.06853E-01 1.18059E-01 5.24005E-04 6.32264E-02-5.33954E-02
 -1       386 1.69567E+00 9.43507E-02 1.13463E-01-3.13532E-02 3.02635E-02-3.97436E-02
 -1       387 1.88940E+00 1.79823E-01 1.12608E-01 2.59580E-02-4.42378E-02-1.27885E-02
 -1       388 1.75477E+00 9.41484E-02 8.02052E-02-8.39768E-03 8.01488E-02-1.08656E-01
 -1       389 1.61229E+00 7.84738E-02 1.92225E-02-5.13120E-03 5.06310E-03-6.75373E-02
 -1       390 1.99040E+00 1.79993E-01 1.06793E-01 1.96731E-02-4.08013E-02-8.78621E-02
 -1       391 1.94963E+00 5.22947E-02 6.07557E-02-1.24368E-02-1.87321E-02-4.46107E-02
 -1       392 0.00000E+00 0.00000E+00 0.00000E+00 0.00000E+00 0.00000E+00 0.00000E+00
 -1       393 0.00000E+00 0.00000E+00 0.00000E+00 0.00000E+00 0.00000E+00 0.00000E+00
 -1       394 0.00000E+00 0.00000E+00 0.00000E+00 0.00000E+00 0.00000E+00 0.00000E+00
 -1       395 0.00000E+00 0.00000E+00 0.00000E+00 0.00000E+00 0.00000E+00 0.00000E+00
 -1       396 1.88979E+00 1.17207E-01 3.36673E-02-2.60699E-02 6.50693E-02-2.45318E-03
 -1       397 2.06899E+00 1.53572E-01 6.77517E-02 4.68390E-03-1.43771E-02-1.97834E-02
 -1       398 2.11959E+00 4.29111E-02 1.92235E-02 2.42995E-02-2.77017E-02-1.05770E-02
 -1       399 1.84513E+00 6.05792E-02-1.34141E-02-1.11027E-02 1.82384E-02-3.43637E-02
 -1       400 2.14514E+00 6.29371E-02 2.24072E-02-1.54031E-02 3.17247E-02-3.32903E-02
 -1       401 2.11510E+00 5.77296E-02 6.16620E-02-1.62508E-02-3.29472E-02-5.35767E-02
 -1       402 0.00000E+00 0.00000E+00 0.00000E+00 0.00000E+00 0.00000E+00 0.00000E+00
 -1       403 2.43655E+00 1.47890E-01 1.72765E-02-4.52389E-02-2.58206E-03-2.33651E-02
 -1       404 2.33901E+00 5.64405E-02-5.33061E-02-1.03937E-02-6.86095E-03 6.36352E-03
 -1       405 2.18724E+00 1.42309E-01 1.49400E-01-1.50989E-02 4.57203E-04-3.68758E-02
 -1       406 1.98511E+00 5.17285E-02 4.63964E-02 7.15230E-04-1.96772E-02-5.27339E-02
 -1       407 2.06312E+00 2.64157E-02 9.80278E-02-3.87573E-02 1.96066E-02-3.81284E-02
 -1       408 1.99948E+00 1.88018E-02 8.71429E-02-2.53498E-03 4.54285E-03-4.02247E-02
 -1       409 2.06414E+00 8.73530E-02 5.07683E-02 1.00938E-02 2.37549E-02-5.12371E-02
 -1       410 2.51229E+00 2.30966E-01 1.20783E-01-1.24328E-02 2.53593E-02-1.06817E-01
 -1       411 2.30180E+00 7.34472E-02 2.41854E-02-5.12060E-02 1.32006E-02-3.02366E-02
 -1       412 2.30696E+00 1.28908E-01 6.97502E-02 3.23965E-02 2.00664E-02-6.15449E-02
 -1       413 2.41252E+00-2.14471E-02 4.85639E-02 8.37752E-02 2.15648E-02-9.35308E-02
 -1       414 2.25315E+00 1.36803E-01 3.73130E-02-5.53522E-04 1.38787E-02-3.33848E-02
 -1       415 2.58571E+00 1.85815E-01 2.45082E-02-3.63555E-02 1.43606E-01-6.44707E-02
 -1       416 2.59763E+00 2.67237E-01 1.29245E-01 6.78606E-03 1.63086E-02-6.40172E-02
 -1       417 2.54540E+00 1.35542E-01 7.66970E-03-6.79534E-03 3.15930E-02-4.72396E-02
 -1       418 2.26494E+00 2.53051E-02-2.32543E-03 7.13838E-02 2.06925E-02-5.93386E-02
 -1       419 2.29791E+00 1.51900E-01 6.12296E-02 5.78318E-03 5.26611E-03-7.10193E-02
 -1       420 2.31435E+00 9.16756E-02 9.05468E-02 4.02520E-02 2.57817E-02 7.42099E-03
 -1       421 0.00000E+00 0.00000E+00 0.00000E+00 0.00000E+00 0.00000E+00 0.00000E+00
 -1       422 0.00000E+00 0.00000E+00 0.00000E+00 0.00000E+00 0.00000E+00 0.00000E+00
 -1       423 2.37624E+00 1.84940E-01 2.05675E-01-1.25224E-02-1.00228E-02-5.96520E-02
 -1       424 2.38184E+00-2.32744E-03 1.22010E-01 2.35144E-02 2.28306E-02-7.54487E-02
 -1       425 2.55283E+00 1.05468E-01 4.02686E-02 6.54533E-02 1.11038E-02-3.89523E-02
 -1       426 2.58845E+00 1.42077E-01 4.35408E-02-5.28392E-02-3.69237E-02-1.58685E-01
 -1       427 2.51372E+00 1.56429E-01 2.98997E-01-5.71403E-02 7.61938E-02-1.32467E-01
 -1       428 2.40796E+00 2.07627E-01 1.22340E-01-1.05794E-02-9.85705E-03-7.42036E-02
 -1       429 2.61801E+00 1.06395E-01 1.51318E-01-3.02997E-02 1.86396E-02-3.60097E-02
 -1       430 2.54437E+00 2.14738E-01 1.75346E-01-5.13516E-02 5.50666E-02-1.47490E-01
 -1       431 2.35547E+00 1.63775E-01 6.25175E-02-4.47343E-03 1.22218E-02-7.79079E-02
 -1       432 2.59397E+00 1.75956E-01 1.70387E-01-7.33842E-03 8.09766E-02-1.64992E-01
 -1       433 0.00000E+00 0.00000E+00 0.00000E+00 0.00000E+00 0.00000E+00 0.00000E+00
 -1       434 0.00000E+00 0.00000E+00 0.00000E+00 0.00000E+00 0.00000E+00 0.00000E+00
 -1       435 0.00000E+00 0.00000E+00 0.00000E+00 0.00000E+00 0.00000E+00 0.00000E+00
 -1       436 2.45573E+00 2.29095E-01 2.00732E-01-3.74547E-02 1.53002E-02-7.55828E-02
 -1       437 2.55481E+00 8.87735E-03 3.90146E-02-3.60436E-02 5.44778E-02-6.70088E-02
 -1       438 2.58345E+00 1.39420E-01 1.05627E-02-3.73244E-02 9.02793E-02 2.81168E-02
 -1       439 2.54013E+00 1.12704E-01 1.39307E-02 2.82574E-02 2.08381E-02-4.34886E-02
 -1       440 2.62007E+00 1.23600E-01 6.94538E-02-1.69463E-03 1.67060E-02-9.79976E-02
 -1       441 2.39823E+00-2.05738E-03 1.49580E-02-4.63937E-02-1.57128E-02-9.80956E-02
 -1       442 2.79685E+00 2.44770E-01 1.70213E-01 3.97840E-03-2.18164E-02-1.38129E-02
 -1       443 0.00000E+00 0.00000E+00 0.00000E+00 0.00000E+00 0.00000E+00 0.00000E+00
 -1       444 2.98236E+00 1.92742E-01 1.34707E-01-6.27633E-02 5.65161E-02 7.54127E-02
 -1       445 2.66774E+00 7.93767E-02 2.83505E-02-4.92856E-02 1.63265E-02-3.91990E-02
 -1       446 2.91378E+00 1.62307E-01 4.53218E-02-8.97694E-02 5.89990E-02 6.73728E-03
 -1       447 2.60245E+00 1.68184E-01 1.42319E-01-2.38786E-02-2.33436E-02-4.80462E-02
 -1       448 2.95664E+00 1.73525E-01 1.65576E-01-5.82887E-02 4.04402E-02-4.48394E-02
 -1       449 3.00010E+00 1.83531E-01 3.07887E-02-6.46709E-02 4.89744E-02-7.38388E-02
 -1       450 2.86456E+00 6.42084E-02 1.20551E-02-4.97532E-02 2.24793E-02-5.09206E-02
 -1       451 3.20527E+00 2.49776E-01 2.69017E-01 3.38139E-02-5.83007E-02-6.08346E-02
 -1       452 0.00000E+00 0.00000E+00 0.00000E+00 0.00000E+00 0.00000E+00 0.00000E+00
 -1       453 2.74915E+00 1.11430E-01 1.25697E-01 3.22312E-02-4.96874E-02-4.84866E-02
 -1       454 2.95691E+00 1.20486E-01 1.70064E-01 3.62812E-02 7.36900E-03-1.08294E-01
 -1       455 2.61148E+00 1.03438E-01 7.86042E-02 2.16422E-02 6.46152E-03-5.04469E-02
 -1       456 2.83711E+00 1.29435E-01 1.76268E-02 2.13803E-02 7.17928E-02 8.31179E-03
 -1       457 2.61355E+00 9.72785E-02 2.80225E-02 3.15419E-02-4.35652E-02 1.05381E-02
 -1       458 2.88009E+00 1.98176E-01 2.21962E-01-3.17967E-02-3.51915E-02-5.70307E-02
 -1       459 2.61076E+00 1.11939E-01 8.81611E-02-6.35461E-03 2.65563E-02-4.63864E-02
 -1       460 3.04565E+00 6.09161E-02 4.31499E-02-1.32510E-02-6.49578E-02 2.03460E-02
 -1       461 3.39345E+00 2.35520E-01 1.72916E-01 7.91533E-03-9.23423E-02-7.38762E-02
 -1       462 3.02208E+00 2.57219E-01 2.77018E-01-1.24606E-02-1.50565E-02-2.39593E-02
 -1       463 2.81085E+00 2.98312E-01 2.56866E-01 3.62695E-02 2.91671E-02 4.59989E-03
 -1       464 2.92855E+00 2.17738E-01 1.85815E-01-5.28141E-02-6.15483E-02-4.57635E-02
 -1       465 2.83796E+00 9.33823E-02 5.65901E-02-2.85720E-02-3.83563E-02-5.83261E-02
 -1       466 2.86065E+00 5.07745E-02 1.21935E-02-7.51738E-02-4.33733E-02-7.04574E-02
 -1       467 3.13330E+00 2.24319E-01 2.41449E-01 3.29289E-02-4.19577E-02-4.55086E-02
 -1       468 0.00000E+00 0.00000E+00 0.00000E+00 0.00000E+00 0.00000E+00 0.00000E+00
 -1       469 3.00926E+00 7.61453E-02 1.14785E-01-3.09973E-02-3.59392E-03 7.62979E-03
 -1       470 3.13592E+00 9.82608E-02 6.47126E-02 4.56597E-02-1.32597E-02-7.80567E-02
 -1       471 3.43837E+00 2.35638E-01 6.12567E-03-3.65723E-03 3.61437E-03-4.48666E-02
 -1       472 3.31396E+00 1.14695E-01-6.13733E-02 2.46563E-02-1.87874E-02-5.64097E-02
 -1       473 3.05198E+00 1.27705E-01 1.18220E-01 9.86214E-03-4.51821E-02-8.11234E-02
 -1       474 0.00000E+00 0.00000E+00 0.00000E+00 0.00000E+00 0.00000E+00 0.00000E+00
 -1       475 3.86333E+00 4.35157E-01 1.81325E-01 1.87996E-02 1.74782E-02-4.94500E-02
 -1       476 3.55347E+00 1.93911E-01 1.14591E-01 6.76543E-02-3.23791E-02-8.23949E-02
 -1       477 2.86241E+00 1.11137E-01-1.38149E-02-3.53348E-02-1.55474E-02-1.65401E-01
 -1       478 3.01865E+00 1.24309E-01 8.99805E-02-4.90427E-02 1.32101E-02-5.36818E-02
 -1       479 3.10517E+00 5.86748E-02 1.31769E-01-7.53020E-03 8.34290E-02-2.70370E-02
 -1       480 3.28996E+00 1.10890E-01 1.21717E-01-7.92188E-02 5.54648E-02-6.19206E-02
 -1       481 2.85129E+00 1.30705E-01 1.73586E-02 3.76782E-03-3.79648E-02-8.24713E-02
 -1       482 3.62814E+00 1.29526E-01 6.32122E-02 1.01367E-01-8.15588E-04 4.44577E-02
 -1       483 2.98295E+00 1.98459E-01 2.07209E-01 6.58510E-02 1.88983E-02-3.67578E-02
 -1       484 3.43641E+00 2.63116E-01 2.49209E-01-4.52818E-02 1.57998E-03-3.54571E-02
 -1       485 3.29522E+00 1.48943E-01 7.10698E-02 1.01847E-02 5.58874E-03-1.16711E-01
 -1       486 0.00000E+00 0.00000E+00 0.00000E+00 0.00000E+00 0.00000E+00 0.00000E+00
 -1       487 3.29390E+00 2.05658E-01 1.63090E-01-1.95328E-02-3.66651E-02-8.64619E-02
 -1       488 3.13284E+00 2.68052E-01 1.52157E-01 7.17256E-02 9.64697E-02-8.45759E-02
 -1       489 3.51346E+00 2.11905E-01 3.57105E-01 1.08843E-01 7.94800E-02-9.53005E-02
 -1       490 3.24908E+00 2.96321E-01 2.10705E-01 2.21708E-02 1.07817E-02-1.48570E-01
 -1       491 3.00206E+00 2.13860E-01 5.08707E-02 4.93660E-02 2.88278E-02-4.76899E-02
 -1       492 3.30512E+00 2.41842E-01 2.76107E-01-1.24893E-02-5.41403E-03-3.09134E-02
 -1       493 3.18676E+00 2.36778E-01 1.63840E-01 1.68343E-02-4.06356E-02-6.63317E-02
 -1       494 3.30925E+00 9.20889E-02 6.63235E-02-2.47098E-02-1.38886E-02-6.26328E-02
 -1       495 3.40815E+00 2.36438E-01 2.21966E-01-1.50774E-02 2.34023E-02-1.05014E-01
 -1       496 3.25905E+00 2.79834E-01 2.44496E-01 3.16902E-02-3.99706E-02-9.77070E-02
 -1       497 0.00000E+00 0.00000E+00 0.00000E+00 0.00000E+00 0.00000E+00 0.00000E+00
 -1       498 0.00000E+00 0.00000E+00 0.00000E+00 0.00000E+00 0.00000E+00 0.00000E+00
 -1       499 3.81517E+00 3.99985E-01 3.06602E-01 2.03008E-02-5.51685E-02-8.20071E-02
 -1       500 3.81736E+00 3.84988E-01 2.47926E-01-5.10330E-02-3.72128E-03-8.73154E-03
 -1       501 3.33972E+00 2.37309E-01 2.14748E-01-2.37764E-02-4.60729E-02-5.04351E-02
 -1       502 3.33082E+00 9.58026E-02 1.65331E-01-8.66253E-02-2.60622E-02-2.31896E-02
 -1       503 3.02156E+00 1.64537E-01 1.05923E-01 3.64082E-03 2.89217E-02-4.25385E-02
 -1       504 3.40323E+00 1.85079E-01 2.60822E-01 1.92134E-02 3.44822E-02-7.58674E-02
 -1       505 3.18959E+00-6.63565E-02 2.59122E-02-3.14093E-02 3.78625E-02-3.33417E-02
 -1       506 3.39012E+00 1.86861E-01 1.49369E-01-1.60533E-02 2.42288E-03-7.85576E-02
 -1       507 3.18241E+00 1.47080E-02 9.76088E-02-8.95290E-02 2.42415E-02-7.07706E-02
 -1       508 3.58283E+00 2.62895E-01 1.46432E-01-1.40009E-02 5.47956E-02-2.62787E-02
 -1       509 3.49454E+00 1.64034E-01 1.50914E-01-1.52271E-02 1.60949E-02-6.45283E-02
 -1       510 4.35837E+00 4.50538E-01 2.39824E-01 4.62853E-02-2.42423E-02-1.64195E-01
 -1       511 3.59464E+00 8.90797E-02 4.55730E-02-1.51016E-03 8.66773E-02-5.76867E-02
 -1       512 3.52888E+00 1.11553E-01 1.59716E-02 1.18787E-03-6.24837E-02-5.74489E-02
 -1       513 4.69726E+00 8.12497E-01 4.13112E-01 3.40732E-02 2.28674E-02-1.50836E-01
 -1       514 3.88671E+00 4.26289E-01 2.98904E-01 2.68588E-02 5.52550E-02-8.72600E-02
 -1       515 3.79302E+00 2.68261E-01 6.72340E-02-1.98524E-02-1.89793E-02-1.27793E-01
 -1       516 3.64029E+00 1.05957E-01 2.27631E-02 2.62649E-02 1.57560E-02 4.90481E-02
 -1       517 3.40469E+00 1.19377E-01-2.93392E-02 2.52593E-03 8.09049E-03-9.15390E-02
 -1       518 3.78125E+00 1.60977E-01 4.45130E-02-7.92244E-02 8.23760E-02-9.11577E-02
 -1       519 3.65012E+00 2.13327E-01 5.67520E-02 3.07626E-03-4.25164E-02-1.66140E-02
 -1       520 0.00000E+00 0.00000E+00 0.00000E+00 0.00000E+00 0.00000E+00 0.00000E+00
 -1       521 3.38904E+00 9.21579E-02 1.45946E-01 3.51670E-02-2.94788E-02-6.34564E-02
 -1       522 3.27421E+00 6.37980E-02-6.98662E-02-2.03341E-03 4.97918E-02-6.06751E-02
 -1       523 3.85649E+00 1.33327E-01 5.92787E-02 7.20493E-02 3.31309E-02-6.00312E-02
 -1       524 3.36564E+00 2.67339E-01 9.65742E-02 2.60335E-02 3.45694E-03-7.91177E-02
 -1       525 3.90608E+00 2.81010E-01 1.71431E-01 7.85351E-02-2.18845E-02-4.72197E-02
 -1       526 3.79990E+00 2.49266E-01 1.81986E-01 3.55445E-03 1.50610E-02-8.49544E-02
 -1       527 4.39616E+00 4.33729E-01 2.28193E-01 3.49210E-02 7.92245E-03-3.22763E-02
 -1       528 4.55535E+00 5.59430E-01 1.97407E-01-1.47768E-02-4.07514E-02-8.68108E-02
 -1       529 4.28868E+00 2.75389E-01 2.20706E-01-3.85102E-02 1.02903E-01-5.10339E-02
 -1       530 4.34363E+00 3.29048E-01 5.19784E-02-3.13185E-02-7.97384E-03 7.06502E-02
 -1       531 3.91697E+00 6.65494E-02 8.89303E-02-1.24896E-02 2.62473E-02-9.65103E-02
 -1       532 4.35579E+00 4.66739E-01 3.19914E-01-8.84735E-03 5.67503E-02-9.12298E-02
 -1       533 3.94457E+00 1.60395E-01 6.50523E-02-8.15322E-02 7.61325E-02-1.35223E-01
 -1       534 3.46351E+00 6.47834E-02-1.73143E-03 1.65067E-02-4.64299E-02-2.64337E-02
 -1       535 3.48270E+00 1.08102E-01 9.02291E-02 8.35879E-02-1.56997E-02-3.70552E-02
 -1       536 0.00000E+00 0.00000E+00 0.00000E+00 0.00000E+00 0.00000E+00 0.00000E+00
 -1       537 0.00000E+00 0.00000E+00 0.00000E+00 0.00000E+00 0.00000E+00 0.00000E+00
 -1       538 0.00000E+00 0.00000E+00 0.00000E+00 0.00000E+00 0.00000E+00 0.00000E+00
 -1       539 0.00000E+00 0.00000E+00 0.00000E+00 0.00000E+00 0.00000E+00 0.00000E+00
 -1       540 3.44810E+00 5.59618E-02-1.48925E-01-9.52870E-02 6.49853E-03-3.66751E-02
 -1       541 3.93585E+00 2.07958E-01 1.39153E-01-6.74084E-04 2.61201E-03-7.09388E-02
 -1       542 3.76279E+00 7.12912E-02 4.10565E-03-2.32251E-02-2.67296E-02-2.00623E-02
 -1       543 4.08126E+00 1.49768E-01 2.38884E-01 1.27499E-01-7.78049E-03-2.28352E-02
 -1       544 3.99775E+00 3.07790E-01 3.63829E-01 4.08681E-02-2.66659E-02-7.76775E-02
 -1       545 4.27608E+00 1.16845E-01-3.19594E-02-6.11200E-02 1.40830E-01-6.10319E-02
 -1       546 3.98564E+00 3.05113E-01 2.12009E-01 1.18120E-02 1.98528E-02 1.83487E-02
 -1       547 4.07598E+00 1.25481E-01 2.15635E-01 6.47043E-02-8.69569E-02 6.39614E-03
 -1       548 3.89028E+00 2.56610E-01 2.19696E-01 1.92067E-02-2.66258E-03-2.02991E-02
 -1       549 3.90984E+00 2.25476E-01 1.37776E-01 1.15147E-01-2.54327E-02-8.18276E-02
 -1       550 3.84301E+00 2.07391E-01 1.55313E-01 4.24299E-02-1.81500E-02-1.11982E-01
 -1       551 3.94772E+00 1.00457E-01 1.85381E-02-7.65017E-02-5.39831E-02-1.34641E-01
 -1       552 3.67234E+00 2.90751E-02 1.21060E-01 2.82777E-02 1.23295E-01 2.06478E-02
 -1       553 4.43125E+00 4.81298E-01 3.59666E-01 1.67761E-02 5.30131E-05-1.09927E-01
 -1       554 4.17526E+00 3.30460E-01 4.03186E-01 3.43752E-02-3.59399E-02-1.02833E-01
 -1       555 3.44917E+00 2.28138E-01 1.73066E-01 2.99679E-02 1.52968E-02-1.04353E-01
 -1       556 4.44455E+00 1.23844E-01-6.70265E-02-2.39910E-02-1.69760E-02-1.64802E-01
 -1       557 3.53896E+00 2.84773E-01 7.00691E-02 6.44304E-02 1.10410E-02-1.41995E-01
 -1       558 3.58717E+00 1.12752E-01 8.82648E-02-1.89628E-02 3.24903E-02 4.60711E-03
 -1       559 4.07395E+00 3.40559E-01 2.08561E-01-2.30681E-02 2.63218E-02-7.96559E-02
 -1       560 4.54635E+00 8.54551E-02-1.45447E-01-4.56323E-02 1.99289E-02-2.61699E-02
 -1       561 3.79674E+00 2.18487E-01-6.31849E-03 5.74129E-02-1.08595E-01-8.41973E-02
 -1       562 3.90827E+00 3.98297E-01 2.87303E-01 5.57143E-02 3.78427E-02-1.20971E-01
 -1       563 3.94032E+00 3.58832E-01 2.53596E-01-5.74286E-02-1.28076E-02-3.21121E-02
 -1       564 4.47801E+00 5.63117E-01 2.45757E-01-5.34932E-02 1.32658E-02-3.82479E-02
 -1       565 4.26098E+00 1.98963E-01-1.41686E-02-5.71201E-02 3.42857E-02 8.80734E-03
 -1       566 4.36032E+00 4.13342E-01 5.68257E-02 9.12193E-02-1.95932E-02-1.46606E-01
 -1       567 4.26777E+00 5.50323E-01 2.29896E-01 7.07216E-02 3.34875E-02-1.88518E-02
 -1       568 4.66171E+00 4.79901E-01-6.14534E-02 5.67323E-02 9.96676E-02-9.35424E-03
 -1       569 3.91237E+00 3.70364E-01 1.46212E-01-2.65249E-02-1.16569E-01-9.48193E-02
 -1       570 4.51423E+00 4.86904E-01 1.84958E-01 9.79940E-02-1.69370E-01-9.43450E-02
 -1       571 0.00000E+00 0.00000E+00 0.00000E+00 0.00000E+00 0.00000E+00 0.00000E+00
 -1       572 4.40275E+00 4.60051E-01 5.25903E-02 1.94441E-01 9.55479E-02 4.80357E-02
 -1       573 4.24369E+00 8.05907E-01 3.56407E-01-5.23942E-02 4.97687E-03-1.09638E-01
 -1       574 4.09721E+00 6.80539E-01 4.02542E-01-7.28705E-02 3.39297E-03-1.87910E-01
 -1       575 4.06153E+00 4.88934E-01 1.11475E-01 1.23942E-01 3.18824E-02 2.00474E-02
 -1       576 4.40941E+00 6.66209E-01 2.30438E-01 1.57501E-01-2.56348E-02-6.70653E-02
 -1       577 4.26428E+00 8.93427E-01 5.78070E-01-5.93978E-02-1.78054E-01-1.61304E-01
 -1       578 3.83886E+00 4.71461E-01 1.27196E-01-1.55256E-02-9.36907E-02 5.31607E-04
 -1       579 4.48147E+00 1.12100E+00 2.61672E-01 2.24403E-01-4.45877E-02-8.48864E-02
 -1       580 4.25092E+00 9.29361E-01 5.09937E-01 3.23016E-01 3.60709E-03-2.00235E-01
 -1       581 4.34820E+00 1.03474E+00 2.61675E-01 5.04242E-01 1.76027E-01-3.39902E-02
 -1       582 4.51476E+00 1.60475E+00 1.11545E+00-2.58688E-01 1.74234E-01-2.91864E-01
 -1       583 3.96655E+00 1.29717E+00 1.13361E+00-1.05662E-01-1.65634E-01-2.91391E-01
 -1       584 3.17789E+00 1.69194E+00 1.22489E+00 1.84371E-01-1.11477E-01-2.94267E-01
 -1       585 3.19892E+00 1.54684E+00 1.32930E+00 4.40934E-01-2.18945E-01-3.40439E-01
 -1       586 2.42589E+00 1.20790E+00 1.03345E+00 3.27279E-01 1.95648E-02-1.44737E-01
 -1       587 2.00589E+00 1.10387E+00 8.62061E-01 3.37078E-01 3.94022E-02-6.32401E-02
 -1       588 2.62944E+00 1.16136E+00 1.08283E+00-7.66443E-02-3.83386E-02-3.25565E-01
 -1       589 2.65914E+00 9.57069E-01 5.47659E-01 8.62724E-02-2.75866E-01-1.89511E-01
 -1       590 7.59431E-01 4.31268E-01 2.99915E-01-1.00264E-01 6.83050E-02-5.01928E-02
 -1       591 5.37598E-01 2.28248E-01 7.01699E-02 8.47263E-02-8.64838E-02-3.25679E-02
 -1       592 1.14317E+00 5.51795E-01 4.49446E-01-7.53917E-02-1.33831E-02-1.21813E-01
 -1       593 1.34076E+00 7.26257E-01 4.81759E-01-1.58258E-01-3.35187E-02-9.80302E-02
 -1       594 6.82009E-01 4.22700E-01 3.85897E-01 6.35466E-02-5.09266E-02-7.02064E-02
 -1       595 0.00000E+00 0.00000E+00 0.00000E+00 0.00000E+00 0.00000E+00 0.00000E+00
 -1       596 0.00000E+00 0.00000E+00 0.00000E+00 0.00000E+00 0.00000E+00 0.00000E+00
 -1       597 0.00000E+00 0.00000E+00 0.00000E+00 0.00000E+00 0.00000E+00 0.00000E+00
 -1       598 0.00000E+00 0.00000E+00 0.00000E+00 0.00000E+00 0.00000E+00 0.00000E+00
 -1       599 0.00000E+00 0.00000E+00 0.00000E+00 0.00000E+00 0.00000E+00 0.00000E+00
 -1       600 0.00000E+00 0.00000E+00 0.00000E+00 0.00000E+00 0.00000E+00 0.00000E+00
 -1       601 0.00000E+00 0.00000E+00 0.00000E+00 0.00000E+00 0.00000E+00 0.00000E+00
 -1       602 0.00000E+00 0.00000E+00 0.00000E+00 0.00000E+00 0.00000E+00 0.00000E+00
 -1       603 0.00000E+00 0.00000E+00 0.00000E+00 0.00000E+00 0.00000E+00 0.00000E+00
 -1       604 0.00000E+00 0.00000E+00 0.00000E+00 0.00000E+00 0.00000E+00 0.00000E+00
 -1       605 0.00000E+00 0.00000E+00 0.00000E+00 0.00000E+00 0.00000E+00 0.00000E+00
 -1       606 0.00000E+00 0.00000E+00 0.00000E+00 0.00000E+00 0.00000E+00 0.00000E+00
 -1       607 0.00000E+00 0.00000E+00 0.00000E+00 0.00000E+00 0.00000E+00 0.00000E+00
 -1       608 0.00000E+00 0.00000E+00 0.00000E+00 0.00000E+00 0.00000E+00 0.00000E+00
 -1       609 0.00000E+00 0.00000E+00 0.00000E+00 0.00000E+00 0.00000E+00 0.00000E+00
 -1       610 0.00000E+00 0.00000E+00 0.00000E+00 0.00000E+00 0.00000E+00 0.00000E+00
 -1       611 0.00000E+00 0.00000E+00 0.00000E+00 0.00000E+00 0.00000E+00 0.00000E+00
 -1       612 0.00000E+00 0.00000E+00 0.00000E+00 0.00000E+00 0.00000E+00 0.00000E+00
 -1       613 0.00000E+00 0.00000E+00 0.00000E+00 0.00000E+00 0.00000E+00 0.00000E+00
 -1       614 0.00000E+00 0.00000E+00 0.00000E+00 0.00000E+00 0.00000E+00 0.00000E+00
 -1       615 0.00000E+00 0.00000E+00 0.00000E+00 0.00000E+00 0.00000E+00 0.00000E+00
 -1       616 0.00000E+00 0.00000E+00 0.00000E+00 0.00000E+00 0.00000E+00 0.00000E+00
 -1       617 0.00000E+00 0.00000E+00 0.00000E+00 0.00000E+00 0.00000E+00 0.00000E+00
 -1       618 0.00000E+00 0.00000E+00 0.00000E+00 0.00000E+00 0.00000E+00 0.00000E+00
 -1       619 0.00000E+00 0.00000E+00 0.00000E+00 0.00000E+00 0.00000E+00 0.00000E+00
 -1       620-3.97519E+00-2.87057E+00-2.56001E+00 7.68986E-01 2.50325E-01-3.42758E-01
 -1       621-1.43203E+00-1.01651E+00-1.05227E+00 1.44379E-01 5.41877E-02-1.50568E-01
 -1       622-3.80836E+00-1.60638E+00-1.62003E+00 4.55899E-01 1.13025E-01-3.72123E-01
 -1       623-4.40751E+00-7.62075E-01-7.66382E-01 6.31991E-01-1.13046E-01-3.52620E-01
 -1       624-4.31543E+00-4.17310E-01-4.69083E-01 3.20604E-01 7.97597E-02-2.20801E-01
 -1       625-4.35759E+00-3.67553E-01-3.07151E-01 2.04874E-01-1.08013E-01-2.39098E-02
 -1       626-4.08968E+00-4.46174E-01-2.18738E-01 6.06606E-02-3.75041E-02 2.60581E-02
 -1       627-4.37141E+00-3.88291E-01-5.17375E-02 8.49781E-02-2.22231E-01 9.68045E-02
 -1       628-3.94121E+00-1.79679E-01-4.38618E-03-7.34415E-03-7.83212E-02 2.02340E-02
 -1       629-3.74455E+00-2.83450E-01-7.14360E-03-2.47482E-02 2.14641E-02-6.90949E-03
 -1       630-3.61029E+00-2.18072E-01-1.18054E-02 1.40322E-02-8.61037E-02 5.46972E-03
 -1       631-3.69459E+00-3.32143E-01-2.03760E-01 5.26360E-02-6.79805E-03-6.21997E-02
 -1       632-3.84085E+00-3.67782E-01-2.39967E-01-8.60079E-03-7.34985E-02 3.85548E-03
 -1       633-4.02855E+00-2.64458E-01-1.05463E-01-1.33434E-01-1.86939E-01 1.13282E-01
 -1       634-4.05414E+00-1.38324E-01-6.50240E-02-5.87466E-02-8.29521E-02-4.62739E-02
 -1       635-3.76812E+00-1.44096E-01-9.90389E-02 2.36285E-02 2.24988E-02-5.88710E-02
 -1       636-4.02662E+00-1.72117E-01-8.27403E-03 5.78737E-02 6.99538E-04-4.29820E-02
 -1       637-3.65169E+00-2.21326E-02 1.37204E-02 5.41227E-02 3.47285E-02-2.19262E-02
 -1       638-3.98659E+00-9.48031E-02 2.10491E-02-2.81522E-02 9.34621E-03-6.91716E-02
 -1       639-4.28126E+00-3.01346E-01 1.56312E-03 4.12216E-02-5.08584E-02 3.72418E-03
 -1       640-4.02648E+00-9.50763E-02 2.71852E-01 3.00958E-02 9.52154E-03-4.38533E-02
 -1       641-3.90075E+00-9.86523E-02 4.31479E-03-7.46524E-02-6.36106E-02-4.41606E-02
 -1       642-3.75602E+00-2.06149E-01-4.74321E-02-3.70141E-02-2.25135E-02-2.82926E-02
 -1       643-3.87193E+00-1.71832E-01 7.09086E-02-1.47868E-02 1.68926E-02-5.33662E-02
 -1       644-3.69100E+00-2.57748E-01-2.65785E-01-7.45841E-02-5.33947E-02-5.36900E-02
 -1       645-3.44417E+00-1.55922E-01-5.09317E-02 4.42834E-03 2.69704E-03-6.94718E-02
 -1       646-3.56234E+00-1.86422E-01-1.18279E-01 1.03705E-02-1.12695E-02-7.63780E-02
 -1       647-3.85362E+00-3.67249E-01-2.08273E-01 4.11152E-02-1.91836E-02-7.29970E-02
 -1       648-3.97292E+00-1.47333E-01-3.25017E-02-3.24942E-02-1.03629E-01 7.71928E-02
 -1       649-3.90593E+00-4.51091E-01-2.70233E-01 4.19395E-02-3.32864E-02-3.79154E-02
 -1       650-3.77793E+00-4.32249E-01-4.19212E-01 7.54573E-02 7.64481E-03-1.11064E-01
 -1       651-3.63129E+00-1.87020E-01-1.62380E-01-3.72895E-02-5.51840E-02-3.94194E-02
 -1       652-3.65833E+00-3.29105E-01-1.99290E-01-4.39271E-02-6.40425E-02-4.95903E-02
 -1       653-3.62109E+00-4.02473E-01-5.04139E-01 1.39777E-02 5.19049E-02-4.45245E-02
 -1       654-3.41717E+00-1.79051E-01-1.91732E-01-6.82257E-02-7.19605E-02-1.01993E-01
 -1       655-3.20208E+00-3.60593E-01-2.18420E-01 1.51321E-02-4.83654E-02-8.99723E-02
 -1       656-3.45073E+00-3.24848E-01-4.25591E-01 5.82573E-02-5.78259E-02-3.09213E-02
 -1       657-3.63206E+00-3.10914E-01-1.82589E-01 4.42696E-02-1.47632E-01-8.72356E-02
 -1       658-3.40861E+00-2.65004E-01-3.18111E-02-1.06440E-03-1.16568E-01 5.96098E-02
 -1       659-3.30812E+00-2.12378E-01-1.13731E-01-3.59989E-02-9.42273E-02 1.92750E-02
 -1       660-3.21977E+00-9.12067E-02-1.34453E-01-2.88068E-03-3.67814E-02-3.65548E-03
 -1       661-3.49265E+00-3.63028E-01-1.85971E-01-1.82576E-02-7.97680E-02-4.13267E-02
 -1       662-3.17911E+00-2.38212E-01-1.67858E-01-7.18364E-02 8.93725E-03-7.88024E-02
 -1       663-3.45661E+00-2.39523E-01-3.12381E-01-9.19785E-02-1.01335E-01-4.90999E-02
 -1       664-3.05470E+00-2.77180E-01-2.61025E-01 1.39184E-02-3.46784E-02-8.62801E-02
 -1       665-2.79888E+00-1.45806E-01-2.10846E-01 2.73985E-02 1.63899E-02-7.10319E-02
 -1       666-3.10591E+00-1.14309E-01-1.55287E-01 7.84885E-02-9.09115E-02-1.20774E-01
 -1       667-8.70621E-03-7.66592E-03 1.81030E-02 7.36870E-05 1.37675E-03-1.10207E-02
 -1       668-1.11723E-02-1.11771E-03 2.11622E-02 1.29778E-03 4.10379E-03-1.36618E-02
 -1       669-1.83476E-02-8.85929E-03 2.15393E-02 5.92072E-03 3.63338E-03-7.26979E-03
 -1       670-2.86222E-02-1.73894E-03 1.88744E-02 4.58010E-03 5.02039E-03-1.98071E-02
 -1       671-2.24360E-02-5.39991E-03 2.64449E-02 8.62673E-03 4.73743E-03-1.49924E-02
 -1       672-3.11215E+00-1.32821E-01-1.01238E-01-3.01820E-03-2.89128E-02-7.34762E-02
 -1       673-3.22754E+00-2.65732E-01-3.15153E-01 1.97428E-02-8.68941E-03-9.33469E-02
 -1       674-3.08290E+00-6.23216E-02 4.62737E-02-1.75331E-02-6.57986E-02-5.54302E-02
 -1       675-3.58704E+00-1.92130E-01-1.21526E-01-9.19378E-02-9.25643E-02-1.03073E-01
 -1       676-2.99979E+00-1.25232E-01-5.57733E-02-2.80751E-02-2.79660E-02-1.28850E-01
 -1       677-2.67609E+00-1.33675E-01 3.39517E-04 1.07159E-02 6.74215E-03-7.18974E-02
 -1       678-3.20070E+00-1.16381E-01-4.37819E-02-2.53609E-02-1.54456E-01-1.11211E-01
 -1       679-2.94206E+00-3.59053E-02-1.34635E-01-4.05179E-02-7.40819E-02-1.59389E-01
 -1       680-3.07133E+00-3.11143E-01-2.51412E-01-1.95147E-02-6.05025E-02-1.52629E-01
 -1       681-3.51865E+00-5.66732E-01-4.77513E-01 6.49730E-03-3.82754E-02-6.37706E-02
 -1       682-3.03558E+00-2.34222E-01-1.73227E-01-5.29497E-02-7.62015E-02-7.39458E-02
 -1       683-3.08295E+00-1.73792E-01-1.32710E-01 2.90469E-02-1.70208E-02-3.90741E-03
 -1       684-2.62065E+00-7.69595E-02-1.92312E-02-7.76917E-02-3.55403E-02-4.00479E-02
 -1       685-5.92170E-03-2.55488E-03 3.02637E-02-2.31370E-03 1.08545E-03-1.59059E-02
 -1       686-1.21550E-02-4.88984E-03 2.06264E-02-2.56707E-03 2.01669E-03-1.28681E-02
 -1       687-2.81868E+00-1.80835E-01-1.84195E-01-2.14090E-02-1.93777E-02-9.46843E-02
 -1       688-2.98835E+00-1.98966E-01-1.44062E-01 4.16197E-02-1.20697E-01-1.21120E-01
 -1       689-3.31606E+00-2.46915E-01-1.84942E-01 2.19265E-02 5.44332E-02-3.43997E-02
 -1       690-3.37928E+00-2.62867E-01-9.62938E-02 2.73468E-02-9.95390E-03-6.33355E-02
 -1       691-2.91182E+00-1.28537E-01-8.75272E-02 1.26328E-02-3.95429E-02-8.01482E-02
 -1       692-2.75214E+00-1.66076E-01-8.67574E-02-4.04210E-02-4.56015E-02-4.32074E-02
 -1       693-2.68232E+00-1.33398E-01 2.08655E-02 9.09579E-03 2.31053E-02-5.29748E-02
 -1       694-3.00079E+00-4.88867E-02-4.18185E-02-4.44035E-02 1.61661E-02-2.56539E-02
 -1       695-2.82074E+00-7.11210E-02-5.23434E-02 4.35221E-02-1.26016E-03-2.84669E-02
 -1       696-3.25650E+00-1.97494E-01 1.15819E-02-1.14563E-02-9.18664E-02 4.05689E-05
 -1       697-2.79807E+00-1.78356E-01-8.31586E-02-4.18814E-02-3.36216E-02-8.27301E-02
 -1       698-3.19999E+00-4.01006E-01-2.22718E-01 2.15411E-03 2.31146E-02-1.66884E-02
 -1       699-3.00432E+00-2.16646E-01-1.08081E-01 9.64717E-03-7.20160E-02-4.98631E-02
 -1       700-2.57583E+00-8.81785E-02-6.89613E-02-6.65306E-02 6.69971E-02-1.21251E-01
 -1       701-4.54740E-02-2.59377E-04 2.45984E-02 8.87315E-03 5.97366E-03-2.63931E-02
 -1       702-2.97620E+00-2.56920E-01-1.68912E-01-4.14812E-02-2.75613E-02 2.69009E-02
 -1       703-2.59310E+00-1.57585E-01-1.25071E-01-7.14268E-02 2.35538E-02-7.36706E-02
 -1       704-2.60845E+00-1.89494E-01-1.66972E-01-3.51138E-02 4.40157E-02-1.68658E-01
 -1       705-2.37696E+00-9.92898E-02-9.00626E-02 5.47622E-03 2.45242E-02-2.13695E-02
 -1       706-2.49496E+00-1.09355E-02-9.23763E-02 3.50931E-02-1.18465E-02-3.60965E-02
 -1       707-2.74330E+00-1.61018E-01-1.01146E-01 2.13116E-02 5.53994E-02-1.45225E-01
 -1       708-2.89399E+00-1.81426E-01-4.51141E-02 6.53149E-03-2.73735E-02 6.23652E-02
 -1       709-2.59629E+00-2.64600E-01-1.97760E-01-3.60792E-03 2.75048E-02-9.14557E-03
 -1       710-3.01229E+00-3.02699E-01-1.82749E-01 5.36386E-02 7.30305E-02-8.81869E-02
 -1       711-1.83954E-02-8.54542E-03 1.27428E-02-2.35659E-03-3.11803E-03-1.10618E-02
 -1       712-1.10490E-02-5.23064E-04 1.39482E-02-2.97936E-03-7.70318E-03-1.41262E-02
 -1       713-1.97004E-02-7.20671E-03 9.37709E-03-3.98164E-03-7.85401E-03-1.40782E-02
 -1       714-1.62424E-02 4.07316E-03 1.87701E-02-2.46408E-03-7.83815E-03-1.44534E-02
 -1       715-3.04583E-02-4.79496E-03 1.19271E-02-4.10090E-03-8.58751E-03-1.84051E-02
 -1       716-2.69086E+00-1.36772E-01-1.09405E-01 2.37710E-02 8.64277E-03 2.42288E-02
 -1       717-2.51776E+00-1.55100E-01-8.93822E-02-6.15292E-02 2.82411E-03-1.58415E-02
 -1       718-2.68456E+00-2.32814E-01-2.02960E-01 2.50607E-02-4.88419E-02-4.23174E-02
 -1       719-2.57914E+00-9.54344E-02-4.52159E-02-5.11132E-02-4.05077E-02 1.70690E-02
 -1       720-2.85976E+00-1.37966E-01-1.72950E-01 6.19879E-02-1.94735E-02-9.95697E-03
 -1       721-2.65420E+00-1.69764E-01-1.13666E-01-3.69317E-03-3.18250E-02-1.83590E-02
 -1       722-2.47504E+00-2.03021E-01-1.77972E-01-1.97332E-02 3.92509E-02-3.91364E-02
 -1       723-2.55893E+00-1.50715E-01-1.37861E-01-4.23616E-02-1.24807E-02-3.94280E-02
 -1       724-2.16416E+00-4.15955E-02-1.00955E-01-3.47566E-02-2.08990E-02-5.00894E-02
 -1       725-2.36341E+00-1.35402E-02-1.00613E-01 2.31580E-02 9.80160E-04-1.31755E-02
 -1       726-2.21930E+00-1.45043E-01-1.06149E-01-1.36157E-02 1.17905E-02-5.41759E-02
 -1       727-1.98512E+00-6.59550E-02-1.74055E-02-1.56842E-02-2.73809E-02-8.93089E-02
 -1       728-2.12832E+00 2.16281E-02-3.44192E-02 1.15688E-02-7.05801E-02-9.58115E-02
 -1       729-4.68895E-02-9.06912E-03 1.11225E-02-9.27672E-03-7.41537E-03-2.38681E-02
 -1       730-2.18718E+00-1.76387E-01-5.05733E-02 6.17665E-03-2.33868E-02-8.79297E-02
 -1       731-2.36897E+00-1.94979E-01-1.51752E-01 6.10682E-03-4.54196E-02-9.62791E-02
 -1       732-2.43253E+00-1.47042E-01 1.68486E-03 9.09366E-03-4.45014E-02-6.45775E-02
 -1       733-2.48230E+00-1.50494E-01 4.45500E-03 1.94797E-02-4.12962E-02-1.18056E-01
 -1       734-2.58153E+00-2.29014E-01-1.04535E-01-9.10755E-02-5.36373E-02 2.96517E-02
 -1       735-2.56555E+00-1.80588E-01-1.73450E-01 3.74409E-02-4.15101E-02-3.01992E-02
 -1       736-2.36488E+00-2.36181E-01-1.94156E-01 2.32516E-02-2.46040E-02-4.51625E-02
 -1       737-2.30809E+00-1.78804E-01-7.25980E-02-2.45909E-02-6.04911E-02-8.83936E-02
 -1       738-2.29900E+00-1.30176E-01-7.78503E-02-7.84678E-02-9.85133E-02-6.81404E-02
 -1       739-2.31218E+00-1.25303E-01-1.44509E-01-3.38104E-02-5.50068E-02-2.69360E-02
 -1       740-1.88859E+00-6.72267E-02-9.31442E-03-3.15478E-02-7.14038E-02-5.80992E-02
 -1       741-2.09761E+00-1.44962E-01-1.61335E-01-2.87968E-03 2.14336E-02-7.67190E-02
 -1       742-1.86845E+00-1.37964E-01-9.24319E-02-6.55725E-03-2.17294E-02-5.63030E-02
 -1       743-2.06016E+00-2.32643E-02 4.78720E-03-7.10621E-02-6.12164E-02-9.30473E-02
 -1       744-2.02773E+00-3.81218E-02-6.66399E-02 2.06248E-03 2.02922E-02-6.19039E-02
 -1       745-2.08082E+00-8.73328E-02-6.51468E-02 8.14316E-03 2.48279E-02-9.94462E-02
 -1       746-2.08017E+00-1.06020E-01-4.96623E-02-2.68050E-03 4.95206E-02-7.05805E-02
 -1       747-2.05473E+00-1.20529E-01-8.71292E-02 1.78466E-02-1.20742E-02-9.65110E-02
 -1       748-2.10493E+00-7.97480E-02-7.40110E-02-3.45053E-02-1.52906E-02-1.05061E-01
 -1       749-2.25191E+00-2.44296E-01-1.42142E-01 3.39030E-02 2.37669E-02-7.01505E-02
 -1       750-2.01436E+00-1.96454E-01-1.65604E-01-2.34893E-02 2.86424E-02-1.26401E-01
 -1       751-2.12927E+00-1.21951E-01-9.50922E-02-2.20819E-02 6.02810E-02-9.97203E-02
 -1       752-2.26118E+00-1.20154E-01-6.72242E-02 9.63705E-04-2.49657E-02-1.16572E-01
 -1       753-2.72399E-02-1.23484E-03 1.81116E-02 3.32533E-04 2.14884E-03-1.37616E-02
 -1       754-2.10141E+00-1.42888E-01-1.43632E-01-6.12103E-05-1.85765E-02-1.34409E-01
 -1       755-1.92917E+00-2.51301E-02-4.89955E-02-9.19270E-02-1.01448E-03-1.06330E-01
 -1       756-1.84917E+00-9.95807E-02-1.12306E-01-1.68350E-02 4.50671E-03-8.52829E-02
 -1       757-2.06559E+00-1.30722E-01-1.11404E-01-1.37241E-02-5.03033E-02-5.48092E-02
 -1       758-1.95692E+00-1.69212E-01-1.97993E-01-5.17947E-03 4.31398E-02-1.01917E-01
 -1       759-2.07619E+00-1.38553E-01-1.41070E-01 9.43302E-04-7.82502E-03-5.48830E-02
 -1       760-1.92258E+00-3.72446E-02-6.97769E-02-3.73466E-02-1.86053E-02-7.95474E-02
 -1       761-2.13284E+00-1.54913E-01-9.88729E-02 7.37813E-03 1.72670E-02-1.11117E-01
 -1       762-1.95440E+00-8.92266E-02-1.73564E-02-6.49330E-02 2.75585E-02-9.64054E-02
 -1       763-1.87475E+00-7.73583E-02-8.43928E-02 1.14895E-02 3.06266E-02-7.29264E-02
 -1       764-1.95467E+00-9.96356E-02-8.28173E-02 4.33647E-03-2.62955E-02-7.16287E-02
 -1       765-1.68706E+00-1.36603E-01-4.42099E-03-9.58314E-03-4.32162E-02-8.26718E-02
 -1       766-3.44395E-02-6.00717E-03 1.02977E-02-3.99491E-03-5.22535E-03-2.39270E-02
 -1       767-1.89044E+00-8.27166E-02-1.42694E-01 1.83755E-02 2.72318E-02-5.72180E-02
 -1       768-1.87000E+00-1.56762E-01-4.62696E-02-9.37491E-03-1.97724E-02-8.66424E-02
 -1       769-2.14552E+00-5.48487E-02 2.98500E-02 1.80196E-03 5.90101E-02-1.21461E-01
 -1       770-1.87190E+00-1.03334E-01-7.61261E-02-8.90032E-03-1.64068E-02-4.60146E-02
 -1       771-1.84024E+00-6.43618E-02-7.69168E-02-1.23879E-02 2.41598E-03-6.36792E-02
 -1       772-1.71018E+00-7.05208E-02-6.06487E-02 2.16023E-03 1.45654E-02-7.08857E-02
 -1       773-1.49268E-02-6.44904E-03 2.35411E-02 2.38316E-03 3.38531E-03-1.28226E-02
 -1       774-1.80050E+00-5.98948E-02-7.89547E-02 1.66028E-02-2.80057E-02-5.59911E-02
 -1       775-1.95284E+00-1.04404E-01-1.42466E-02-6.48846E-03-4.00379E-02-2.09980E-02
 -1       776-1.77296E+00-1.50221E-01-1.47500E-01-1.51872E-02-7.17059E-03-4.23737E-02
 -1       777-1.68896E+00-1.53499E-01-1.34419E-01-4.65283E-03 4.41924E-03-4.61924E-02
 -1       778-1.68481E+00-1.25717E-01-1.20024E-01 4.88805E-02 2.87805E-02-5.03833E-02
 -1       779-1.61331E+00 2.94646E-04-4.49148E-02-2.64729E-02-4.36421E-02-6.40158E-02
 -1       780-1.71570E+00-1.10638E-01-8.08274E-02 1.29818E-02-3.19561E-02-5.63543E-02
 -1       781-1.60336E+00-1.10368E-02 4.31670E-04 1.36360E-02-1.22638E-02-3.73775E-02
 -1       782-1.57913E+00-1.28025E-01-5.87657E-02-2.91780E-02-2.15003E-03-6.64184E-02
 -1       783-1.63249E+00-8.33384E-02-7.09044E-02 2.64920E-02 2.58914E-03-5.23917E-02
 -1       784-1.65843E+00-6.07685E-02-3.33388E-02-1.49641E-02-2.86221E-04-4.98512E-02
 -1       785-1.80793E+00-2.18512E-02 1.73406E-02-1.37124E-02-1.68168E-02-5.19422E-03
 -1       786-1.61030E+00-1.26448E-01-1.05324E-01 9.64049E-03 7.14639E-03-5.91441E-02
 -1       787-2.02735E-02-7.82848E-03 1.41099E-02-5.17447E-04-1.09176E-04-1.02706E-02
 -1       788-1.20659E-02-9.06577E-03 1.66980E-02-1.36654E-04 9.75928E-04-1.09632E-02
 -1       789-1.65446E+00-1.41306E-01-6.52975E-02-3.86596E-02 4.62157E-03-8.12224E-02
 -1       790-1.57714E+00-7.11076E-02-9.84535E-03 1.23186E-02-1.50306E-02-7.87632E-02
 -1       791-1.57239E+00-1.10186E-01-9.15044E-02-2.02464E-02 2.74650E-02-3.35858E-02
 -1       792-1.54433E+00-5.09822E-02-1.34964E-02-1.13085E-02-1.34939E-02-2.63779E-02
 -1       793-1.73649E+00-1.20545E-01-9.50244E-02-4.96618E-02 2.14387E-02-6.50076E-02
 -1       794-1.48998E+00-9.35051E-02-2.27977E-02-6.36420E-03-2.25234E-02-5.15743E-02
 -1       795-4.74013E-02-2.97666E-03 1.51921E-02 6.33432E-03 2.82944E-03-2.36249E-02
 -1       796-7.86556E-02-9.27455E-03 1.32359E-02 6.91580E-03 2.26106E-03-3.11563E-02
 -1       797-1.66404E+00-1.06604E-01-4.44679E-02-2.51045E-02-1.31356E-02-7.40230E-02
 -1       798-1.39525E+00-8.17932E-02-7.35231E-02-2.09511E-02-3.48110E-03-5.36934E-02
 -1       799-1.37051E+00-4.72948E-02-3.47809E-02-4.60826E-03-1.13704E-02-5.98811E-02
 -1       800-1.53960E+00-7.81630E-02 7.49701E-04-5.01553E-03-7.23055E-02-4.13049E-02
 -1       801-1.49928E+00-1.18627E-01-7.39131E-02-7.51914E-03-4.07895E-02-5.48206E-02
 -1       802-1.42497E+00-7.20983E-02-4.35670E-02-1.00714E-02-3.88245E-02-2.61708E-02
 -1       803-1.33797E+00-5.76745E-02-3.67799E-02-6.12832E-03 8.03733E-03-6.10611E-02
 -1       804-1.33847E+00 2.89605E-02 9.02433E-03-6.74242E-03 3.43963E-02-4.33903E-02
 -1       805-1.34345E+00-1.98932E-02-2.06510E-02-4.51581E-02-2.45478E-02-6.60107E-02
 -1       806-1.37349E+00-1.21685E-01-7.92198E-02-2.63982E-02-1.02238E-02-8.53911E-02
 -1       807-1.46194E+00-9.51331E-02-3.96871E-02 1.79699E-02 3.99437E-02-3.98990E-02
 -1       808-1.64487E+00-1.03476E-01-4.34551E-02 2.49396E-02 3.80244E-02-1.82169E-02
 -1       809-1.42291E+00-1.27159E-01-1.15825E-01-3.44737E-02 8.39547E-03-4.11294E-02
 -1       810-1.39806E+00-2.80474E-02-4.16904E-02-1.86489E-02-2.99158E-02-2.07433E-02
 -1       811-6.06888E-02-7.34982E-03 1.22364E-02-7.62689E-03-6.29607E-03-3.10229E-02
 -1       812-1.35263E+00-5.03132E-02 2.11415E-03 1.10313E-02 9.18931E-03-3.36735E-02
 -1       813-1.69260E+00-3.13819E-01-2.05769E-01-3.83807E-02-6.20093E-03-8.43980E-02
 -1       814-1.35420E+00-8.88516E-02-8.11462E-02-1.50535E-03 2.05304E-02-5.61644E-02
 -1       815-1.28104E+00-9.56714E-02-5.53109E-02-5.00742E-03 1.12856E-02-5.97726E-02
 -1       816-1.50258E+00-1.42267E-01-7.65657E-02 2.41780E-02 1.13599E-02-3.55074E-02
 -1       817-1.33700E+00-1.21178E-01-6.29769E-02-2.65232E-02-4.06477E-04-6.53849E-02
 -1       818-1.31401E+00-5.39972E-02-2.91625E-02-2.02199E-02-1.20440E-02-3.71844E-02
 -1       819-1.26981E+00-5.44130E-02-6.26944E-02 3.36621E-02-2.60836E-03-5.03207E-02
 -1       820-1.19590E+00-3.88089E-02-2.43608E-02-1.32524E-03-1.35029E-02-4.26347E-02
 -1       821-2.08257E-02-3.69498E-03 1.96101E-02-1.56733E-04 2.11240E-03-1.42881E-02
 -1       822-1.33154E+00-1.23837E-01-7.58337E-02-1.75195E-02 1.10277E-02-5.19180E-02
 -1       823-1.40670E+00-1.47436E-01-1.00707E-01-2.66358E-02-1.37911E-02-2.39351E-02
 -1       824-1.27728E+00-9.94833E-02-1.27995E-01 2.25529E-02 2.38642E-02-2.77442E-02
 -1       825-1.13967E+00-8.85827E-02-6.22235E-02-1.16782E-02 7.38550E-03-1.77816E-02
 -1       826-1.16782E+00-5.10120E-02-3.37061E-02-1.40415E-02-3.68189E-02-1.21931E-02
 -1       827-1.15514E+00-2.18825E-02-4.50468E-02 6.24411E-03-4.60977E-03-1.97931E-02
 -1       828-1.23693E+00-8.81835E-02-6.25041E-02 1.70643E-02 7.56901E-03-4.63249E-02
 -1       829-1.01349E+00-3.68383E-02-1.14461E-02 1.42265E-02-2.43832E-02-6.43429E-02
 -1       830-1.10604E+00-7.29703E-02-3.77567E-02-2.02685E-02 5.94856E-03-4.07703E-02
 -1       831-1.06915E+00-4.50134E-02-4.94259E-02 2.23214E-02 7.55198E-03-6.16128E-02
 -1       832-1.26259E+00-1.25811E-01-7.16530E-02-2.27146E-03-2.10830E-02-6.93642E-02
 -1       833-1.09465E+00-8.01506E-02-7.80257E-02 1.85755E-02-1.40243E-02-5.13310E-02
 -1       834-1.15539E+00-7.62321E-02-6.06271E-02-4.36599E-03-4.10572E-02-2.50548E-02
 -1       835-1.11515E+00-3.79497E-02-7.91885E-03 7.71879E-03-3.63197E-04-8.09201E-02
 -1       836-1.06945E+00-3.09344E-02-3.96919E-02 2.53339E-02-2.87929E-02-5.65949E-02
 -1       837-1.08266E+00-9.70057E-02-7.60436E-02-1.24449E-02-6.73942E-03-7.95498E-02
 -1       838-1.16669E+00-9.74588E-02-9.09719E-02-2.36414E-02-2.89788E-02-4.56026E-02
 -1       839-9.35884E-02-1.31432E-02 1.13247E-02-1.46357E-02-1.02788E-02-3.38419E-02
 -1       840-1.13097E+00-7.88032E-02-6.79503E-02-2.86422E-02-1.88527E-02-7.20082E-02
 -1       841-1.00460E+00-7.35337E-02-7.53987E-02-3.73988E-03-7.44912E-03-6.75298E-02
 -1       842-1.12017E+00-1.01474E-01-1.00779E-01-6.40311E-02-1.12724E-02-6.11274E-02
 -1       843-1.13884E+00-1.18111E-01-1.24842E-01-4.77791E-02-5.80912E-03 1.77816E-03
 -1       844-1.00302E+00-5.46402E-02-3.62512E-02-2.55650E-02-1.66352E-03-6.50599E-02
 -1       845-9.17417E-01-3.44772E-02-2.99117E-02-1.68312E-02-2.41949E-02-6.89254E-02
 -1       846-1.00936E+00-9.55335E-02-9.16179E-02-3.30407E-02-1.53057E-03-3.47873E-02
 -1       847-9.68821E-01-5.68161E-02-7.35457E-02-2.60508E-02-1.02921E-02-4.11524E-02
 -1       848-9.73872E-01-4.31410E-02-4.22526E-02-1.42865E-02 1.83008E-02-5.31940E-02
 -1       849-9.00146E-01-6.22067E-02-2.54915E-02 1.64349E-04 3.60156E-03-9.05171E-02
 -1       850-9.82158E-01-2.63900E-02 1.01081E-04-1.67522E-02 6.56871E-03-7.56281E-02
 -1       851-1.05390E-02-2.84344E-03 2.05372E-02 2.16528E-03 4.80186E-04-1.09965E-02
 -1       852-4.84056E-02-6.62034E-03 1.46523E-02 2.85973E-03 1.07492E-03-1.65521E-02
 -1       853-1.14144E-01-6.48379E-03 1.37016E-02 9.33822E-03 6.76271E-03-3.79116E-02
 -1       854-9.28906E-02-4.90242E-03 2.51843E-02 1.17828E-02 6.98506E-03-3.36475E-02
 -1       855-9.64148E-01-2.75349E-02-4.37000E-02 6.99454E-04-3.86671E-04-6.58231E-02
 -1       856-1.03986E+00-1.13975E-01-4.41867E-02-6.04007E-03 6.96625E-03-5.25534E-02
 -1       857-1.04240E+00-9.24006E-02-7.69751E-03 1.68326E-03 5.03929E-03-6.95948E-02
 -1       858-8.13966E-01-4.65576E-02-1.19346E-02-1.56179E-03-2.45684E-03-8.43743E-02
 -1       859-8.90522E-01-3.89049E-02-3.68172E-02-1.98121E-02-2.64989E-02-3.44086E-02
 -1       860-8.98438E-01-3.75094E-02-3.67699E-02 1.33909E-02 1.17384E-02-5.49386E-02
 -1       861-9.16213E-01-5.08167E-02-1.40950E-02 6.32103E-03 1.99864E-03-5.98851E-02
 -1       862-8.39443E-01-2.24608E-02-2.87021E-02-4.28182E-03-8.75756E-03-6.02299E-02
 -1       863-8.11982E-01-3.07186E-02-4.43894E-03 7.02619E-03-8.98331E-03-8.91177E-02
 -1       864-8.68194E-01-4.59683E-02-1.33716E-02 2.15009E-02-1.33091E-02-6.16789E-02
 -1       865-8.31530E-01-2.36181E-02 2.66470E-02-3.34198E-02-1.56726E-02-5.90222E-02
 -1       866-8.13211E-01-6.36628E-02-5.10474E-02-7.33476E-04-1.08280E-03-4.46396E-02
 -1       867-8.69598E-01-5.48563E-02-6.76423E-02-1.23811E-02-1.32294E-02-3.89377E-02
 -1       868-9.67860E-01-1.00213E-01-8.13055E-02 4.11392E-03-1.97037E-02-6.39438E-02
 -1       869-8.36492E-01-7.95216E-02-6.70610E-02-1.43753E-02 1.75655E-03-7.13746E-02
 -1       870-8.47132E-01-3.17141E-02 1.35804E-02-2.93662E-02-1.82951E-02-9.13744E-02
 -1       871-8.81154E-01-4.27344E-02-1.35781E-02-5.71510E-02-3.30853E-02-4.51385E-02
 -1       872-8.66038E-01-1.04077E-01-9.33782E-02 1.13698E-03 2.81791E-03-3.51052E-02
 -1       873-1.33879E-01 8.84903E-04 2.21350E-02-4.65854E-03-1.39123E-02-5.10431E-02
 -1       874-1.17347E-01 3.76068E-03 2.52031E-02-9.45148E-03-7.55268E-03-4.41646E-02
 -1       875-7.25297E-01-4.08501E-02-5.79097E-02 3.98583E-03 4.39447E-03-5.08060E-02
 -1       876-7.03861E-01-4.35709E-02-4.70001E-02-3.55083E-06-1.53973E-02-4.42034E-02
 -1       877-7.06275E-01-2.81106E-02-1.92022E-02-1.01371E-03-2.06452E-02-3.86382E-02
 -1       878-6.97138E-01-4.09378E-02-5.39504E-02-1.12960E-02 1.21643E-02-5.53351E-02
 -1       879-7.02066E-01-4.55782E-02-4.88310E-02-1.47958E-02 2.13100E-03-7.40453E-02
 -1       880-7.32960E-01-3.54930E-02-3.93637E-02-3.42719E-02-2.97090E-02-6.14429E-02
 -1       881-7.03587E-01-5.14555E-02-4.46206E-02 1.24586E-02 9.55423E-03-4.75453E-02
 -1       882-6.91674E-01-4.58315E-02-4.21830E-02 1.21938E-02 8.10573E-03-5.12891E-02
 -1       883-7.32171E-01-5.85472E-02-4.70524E-02 9.01918E-03 4.74640E-03-5.04179E-02
 -1       884-6.48709E-01-3.00478E-02-2.17895E-02-3.88848E-03 1.64799E-02-6.72795E-02
 -1       885-7.08419E-01-5.84265E-02-1.14568E-02-6.35711E-03-1.92536E-02-4.86821E-02
 -1       886-6.90632E-01-2.78666E-02 9.96965E-03 2.24158E-02-1.08685E-02-4.83811E-02
 -1       887-6.42244E-01-6.04041E-02-2.73967E-02 2.25795E-02 9.79212E-04-5.49803E-02
 -1       888-6.44502E-02-1.60368E-03 1.82476E-02 3.79224E-03 1.40524E-03-2.51023E-02
 -1       889-9.28585E-02-9.07711E-03 1.14546E-02 6.23792E-03 9.66259E-04-3.06279E-02
 -1       890-6.04644E-01-3.46591E-02-3.18785E-02-1.13327E-02-1.52711E-03-7.84296E-02
 -1       891-6.04115E-01-2.14079E-02-2.60228E-02-2.37584E-02-2.29333E-02-6.94209E-02
 -1       892-6.13196E-01-2.06638E-02-2.09996E-02 1.29433E-02-1.67355E-02-3.51546E-02
 -1       893-6.35660E-01-4.99743E-02-2.17630E-02-6.51220E-03 5.53503E-03-4.27219E-02
 -1       894-6.52382E-01-3.75168E-02-1.51574E-02 4.78302E-03 3.76161E-03-5.25710E-02
 -1       895-6.01134E-01-2.57834E-02-9.31168E-04-1.55850E-02-9.04764E-04-6.66047E-02
 -1       896-5.19083E-01-1.16409E-02 6.29765E-03-7.27864E-03-3.73599E-03-5.40931E-02
 -1       897-5.40421E-01-1.84896E-02-3.18627E-03-4.77744E-03-2.50295E-03-5.57060E-02
 -1       898-5.25475E-01-1.32245E-02 8.74083E-03 4.94712E-04-3.71061E-03-6.37298E-02
 -1       899-5.72219E-01-1.91398E-02 3.95316E-03 7.53195E-03-2.19226E-03-5.66292E-02
 -1       900-5.98405E-01-3.27133E-02-1.25210E-02-1.16167E-02-5.85317E-03-3.15623E-02
 -1       901-5.18353E-01-3.44464E-02-1.24006E-02 4.51821E-03 1.53343E-03-6.03746E-02
 -1       902-5.71100E-01-5.54736E-02-1.36005E-02-2.29132E-02 2.96889E-03-4.94737E-02
 -1       903-5.17619E-01-2.95522E-02-9.50895E-03-1.11976E-02 1.17788E-02-4.50427E-02
 -1       904-6.39868E-01-5.83992E-02-2.41119E-02-1.18777E-02-1.36589E-02-5.52652E-02
 -1       905-5.96180E-01-4.98100E-02-8.73470E-03-1.96823E-02-2.60942E-02-5.13608E-02
 -1       906-5.02604E-01-3.27734E-02-1.66933E-02-2.86764E-03 1.44036E-03-5.81633E-02
 -1       907-4.65109E-01-2.29129E-02-2.41220E-02-2.09191E-02-4.53602E-03-4.98667E-02
 -1       908-4.85961E-01-1.12098E-02 4.24103E-03-8.37951E-03-1.03537E-02-5.40727E-02
 -1       909-5.16380E-01-2.97141E-02 5.39076E-03 1.79568E-02 1.32755E-02-5.30842E-02
 -1       910-1.00934E-01-5.07525E-03 1.33869E-02-1.01569E-02-5.31977E-04-4.41616E-02
 -1       911-4.09658E-01-2.20730E-02-1.49211E-02-1.25593E-02 1.12101E-02-5.82327E-02
 -1       912-4.44042E-01-1.07201E-02-1.52886E-02-2.61129E-02-1.10578E-02-5.41940E-02
 -1       913-3.76310E-01-1.49527E-02-4.26607E-03-4.37851E-03-4.50975E-03-5.48861E-02
 -1       914-4.74415E-01-4.06848E-02-1.91572E-02-1.77051E-04-4.24649E-03-5.59241E-02
 -1       915-3.90716E-01-6.43765E-03-1.08161E-02-3.26909E-03 4.34206E-03-6.23633E-02
 -1       916-4.09053E-01-2.75904E-02-1.70980E-02-1.92235E-02 1.24708E-03-5.29059E-02
 -1       917-3.56222E-01 1.25526E-02 6.16067E-03-6.23880E-03 9.58169E-03-5.46720E-02
 -1       918-4.14401E-01-3.11189E-02-1.86316E-02 1.56974E-03-4.65690E-03-6.34141E-02
 -1       919-3.79048E-01-1.37852E-02 2.56226E-03 1.90126E-02 2.33387E-03-6.65351E-02
 -1       920-4.21700E-01-2.25723E-02 8.33687E-03 2.32673E-02 1.06796E-02-6.29892E-02
 -1       921-3.92702E-01-2.97870E-02-1.29870E-02-7.67392E-03-6.87220E-03-5.87425E-02
 -1       922-3.53083E-01-1.83773E-02-3.85208E-03-7.34560E-03 1.17803E-03-5.92313E-02
 -1       923-3.74229E-01-2.94325E-02-2.68120E-02 3.75134E-03-5.06085E-03-5.77134E-02
 -1       924-3.09818E-01-1.34747E-02-1.19759E-02 1.95506E-02-1.17874E-03-6.50639E-02
 -1       925-3.04882E-01-1.65724E-02 2.53857E-03-2.14157E-02-7.99933E-03-7.09556E-02
 -1       926-2.94337E-01-1.59259E-02-6.80774E-03-7.51786E-04-9.06658E-03-5.30307E-02
 -1       927-2.87924E-01-2.07755E-02-6.17687E-03 6.15526E-03-7.09127E-04-5.93614E-02
 -1       928-3.06545E-01-2.68418E-02-1.18690E-02 1.57171E-02-4.28920E-03-6.13488E-02
 -1       929-2.71405E-01-1.73820E-02-5.68574E-03-1.48916E-02-2.18997E-03-5.38029E-02
 -1       930-2.68910E-01-1.60085E-02-7.30122E-03-2.04483E-02-6.24418E-03-5.36959E-02
 -1       931-2.93584E-01-1.35964E-02-3.48613E-03 2.42820E-02 6.90392E-03-6.15417E-02
 -1       932-2.36884E-01-1.65017E-02-2.13605E-03-1.74808E-02-8.49570E-03-5.66979E-02
 -1       933-2.15708E-01-1.63474E-02-5.45866E-03-2.98823E-03-5.89346E-05-5.49570E-02
 -1       934-2.13888E-01-1.15483E-02-3.88133E-04 1.15131E-03-3.10143E-03-5.28600E-02
 -1       935-2.13624E-01-9.93209E-03 5.04089E-03 1.01302E-02 2.07659E-03-6.37788E-02
 -1       936-2.00825E-01-1.71338E-02-7.77161E-03-9.35823E-03 4.86897E-03-4.95516E-02
 -1       937-1.81567E-01-1.87577E-02-2.01487E-03-1.60882E-02-1.09783E-03-4.93203E-02
 -1       938-1.95251E-01-9.45745E-03 1.11325E-03-5.03996E-04 3.99647E-04-5.03934E-02
 -1       939-1.76728E-01-7.24801E-03 1.12479E-02-1.31083E-02-8.79184E-03-4.76309E-02
 -1       940-1.71697E-01-1.53127E-02-3.36503E-03-1.96957E-03 3.06065E-03-4.02586E-02
 -1       941-1.90778E-01-2.01359E-02-4.98059E-03-2.85236E-03 1.77438E-03-4.22173E-02
 -1       942-1.61625E-01-8.28973E-03 7.46488E-03 5.28603E-03 1.71263E-03-4.01225E-02
 -1       943-1.69732E-01-1.61466E-02 3.57145E-03 1.19211E-02 8.68782E-03-4.83558E-02
 -1       944-1.50766E-01-1.19649E-02 1.82576E-03-1.21688E-02 3.56800E-04-4.16410E-02
 -1       945-1.16015E-01-4.40161E-03 1.18713E-02 6.09896E-03 3.30748E-03-3.67855E-02
 -1       946-2.52755E-02-9.58821E-03 1.35426E-02 1.47814E-03-4.50115E-04-1.33320E-02
 -1       947-9.57283E-02-7.70355E-03 1.34374E-02 3.69498E-03-7.53170E-04-2.93067E-02
 -1       948-3.33375E-02-4.81132E-03 1.56826E-02 2.34693E-04-4.19433E-04-1.89428E-02
 -1       949-1.24434E-01-1.01463E-02 5.37245E-03 4.67010E-04-3.10056E-04-3.33776E-02
 -1       950-8.07934E-02-6.20916E-03 9.90601E-03-5.10382E-03-7.55540E-04-3.17341E-02
 -1       951-1.14652E-01-2.28201E-03 8.88069E-03 1.12275E-03-3.87071E-04-3.29768E-02
 -1       952-5.39291E-02-2.68683E-03 1.73155E-02 2.14985E-04 2.38326E-03-2.12428E-02
 -1       953-8.55418E-02-2.14732E-03 1.67427E-02 1.22708E-03-6.42265E-04-2.52365E-02
 -1       954-8.77922E-02-3.58448E-06 1.59485E-02 1.85783E-03-1.32071E-03-2.97633E-02
 -1       955-6.48800E-02-2.84035E-03 1.73348E-02 2.66489E-05-2.89438E-04-2.31640E-02
 -1       956-1.41387E-01-1.45122E-02 1.08222E-02 1.68036E-02 9.41765E-03-3.87923E-02
 -1       957-1.90482E-01-1.20211E-02 6.49992E-04 1.55603E-02 1.15122E-02-5.55296E-02
 -1       958-3.08333E-01 2.76404E-03-1.39723E-02 1.33108E-02 1.74399E-03-7.59280E-02
 -1       959-5.49215E-01-3.89992E-02-4.54564E-03 2.19348E-02 2.29014E-02-5.75264E-02
 -1       960-5.99027E-01-1.57099E-02-2.32196E-02 1.18537E-02 3.07789E-03-3.04496E-02
 -1       961-6.64024E-01-1.87816E-02-1.31085E-02 2.55866E-02 1.46120E-02-3.69159E-02
 -1       962-7.57017E-01-2.07983E-02-2.39283E-03 8.39979E-03 3.11930E-02-5.95277E-02
 -1       963 0.00000E+00 0.00000E+00 0.00000E+00 0.00000E+00 0.00000E+00 0.00000E+00
 -1       964 0.00000E+00 0.00000E+00 0.00000E+00 0.00000E+00 0.00000E+00 0.00000E+00
 -1       965 0.00000E+00 0.00000E+00 0.00000E+00 0.00000E+00 0.00000E+00 0.00000E+00
 -1       966-8.64159E-01-8.20767E-02-6.20344E-02 1.04564E-02-4.97829E-03-5.70718E-02
 -1       967-9.20126E-01-5.10624E-02-8.48749E-03 1.84201E-02 3.30366E-02-3.70729E-02
 -1       968-8.11864E-01-4.22656E-02-1.05311E-02 9.52286E-03 8.68921E-03-5.77918E-02
 -1       969-8.77412E-01-5.98828E-02-4.51347E-02 2.09850E-02 2.99782E-02-4.48648E-02
 -1       970-9.74297E-01-8.39156E-02-3.80261E-02 1.86319E-02 1.32883E-02-5.81852E-02
 -1       971-9.84328E-01-6.33902E-02-5.98944E-02 2.15846E-02 2.28873E-02-6.43420E-02
 -1       972-1.02054E+00-8.08702E-02-9.40320E-02 1.45566E-02 3.40512E-03-8.47509E-02
 -1       973-1.07028E+00-4.78907E-02-7.80719E-02 4.24537E-02 5.25002E-03-7.65653E-02
 -1       974-1.09351E+00-7.05301E-02-8.15154E-02 1.71607E-03-5.69971E-03-8.88494E-02
 -1       975-1.05547E+00-2.85740E-02-5.64843E-02 3.05641E-02-2.28624E-03-8.24991E-02
 -1       976-1.16819E+00-5.91198E-02-2.05912E-02 2.25819E-02 1.67732E-02-6.74165E-02
 -1       977-1.05461E+00-4.61338E-02-5.74028E-03 7.18448E-03-1.38008E-02-7.58432E-02
 -1       978-1.14344E+00-8.91492E-02-6.46580E-02-7.60042E-04 1.86827E-02-6.01040E-02
 -1       979-1.17354E+00-1.61678E-02-2.96461E-02 1.32812E-02 2.27726E-02-7.98142E-02
 -1       980-1.28803E+00-8.68702E-02-8.86668E-02 1.58580E-02 1.35347E-02-4.80150E-02
 -1       981-1.33167E+00-1.08794E-01-5.96696E-02-8.36565E-03 2.43441E-02-6.70251E-02
 -1       982-1.37054E+00-5.05564E-02-2.19635E-02 1.79010E-02 4.22290E-02-4.97991E-02
 -1       983-1.36805E+00-6.64371E-02-2.63360E-02 4.19768E-03 2.53282E-02-2.38313E-02
 -1       984-1.44375E+00-7.36644E-02-8.36544E-02 1.29211E-02 3.90765E-02-4.62381E-02
 -1       985 0.00000E+00 0.00000E+00 0.00000E+00 0.00000E+00 0.00000E+00 0.00000E+00
 -1       986 0.00000E+00 0.00000E+00 0.00000E+00 0.00000E+00 0.00000E+00 0.00000E+00
 -1       987 0.00000E+00 0.00000E+00 0.00000E+00 0.00000E+00 0.00000E+00 0.00000E+00
 -1       988-1.55530E+00-1.70247E-01-1.19737E-01 9.50799E-03 3.42315E-02-2.59972E-02
 -1       989-1.46610E+00-2.65674E-02-5.85657E-02 2.78021E-02 3.26158E-02-7.43766E-02
 -1       990-1.37160E+00-9.69396E-03-1.95341E-02-8.93346E-03 8.01311E-03-6.76130E-02
 -1       991-1.46922E+00-6.95752E-02-4.75769E-02 1.01981E-02 1.10463E-02-6.53445E-02
 -1       992-1.72848E+00-5.42710E-02 1.08258E-02-1.10009E-03 6.48896E-02-7.91348E-02
 -1       993-1.44820E+00-7.97653E-02-1.07573E-01 1.83064E-02-4.23605E-02-4.56710E-02
 -1       994-1.76270E+00-8.01963E-02 1.61136E-02 9.17750E-03 5.04660E-02-5.68592E-03
 -1       995-1.69259E+00-1.42954E-01-1.64212E-01-3.57743E-03-1.08253E-02-4.80534E-02
 -1       996-1.59078E+00-9.16874E-02-7.69884E-02-1.60330E-02 3.67756E-02-9.15541E-02
 -1       997 0.00000E+00 0.00000E+00 0.00000E+00 0.00000E+00 0.00000E+00 0.00000E+00
 -1       998 0.00000E+00 0.00000E+00 0.00000E+00 0.00000E+00 0.00000E+00 0.00000E+00
 -1       999-1.62450E+00-4.69466E-02-5.46215E-02 1.06173E-02-4.87785E-04-6.73202E-02
 -1      1000-1.74829E+00-1.98528E-01-1.70068E-01-1.98780E-03-1.87314E-02-5.13465E-02
 -1      1001-1.80367E+00-7.20577E-02-6.52356E-03 5.07308E-02 4.25158E-02-7.77745E-02
 -1      1002-1.83217E+00-1.35002E-01-5.72800E-02 7.91123E-04 3.59755E-02-5.75108E-02
 -1      1003-1.73786E+00-6.51969E-02-2.46113E-02 1.83576E-02-5.06677E-04-5.22840E-02
 -1      1004-1.69173E+00-1.14996E-01-1.33711E-01 7.17560E-04 1.53736E-02-5.51067E-02
 -1      1005-1.96175E+00-1.12890E-01-1.30099E-01-2.21885E-02 5.33208E-02-8.24525E-02
 -1      1006-1.71764E+00-7.56367E-02 4.08387E-03-3.12886E-04 3.43013E-02-6.64672E-02
 -1      1007-1.96648E+00-1.69171E-01-2.21999E-02 2.33733E-03 6.47245E-02-3.60568E-02
 -1      1008-2.11300E+00-9.14681E-02 2.97737E-02 2.66502E-02 6.76658E-03-8.68149E-02
 -1      1009-1.85658E+00-8.89456E-02-8.15227E-02 6.69302E-03 3.38163E-02-3.54255E-02
 -1      1010-2.08911E+00-1.52067E-01-4.44027E-02 1.59635E-02 4.18454E-03-2.56108E-02
 -1      1011-2.07966E+00-1.11846E-01 6.80345E-03 1.03555E-02 5.18922E-02-4.99844E-02
 -1      1012-1.90625E+00-7.15020E-02-3.36982E-02 5.71983E-02-9.36990E-03-2.51267E-02
 -1      1013-1.88001E+00 1.26360E-02-5.00584E-03 4.87820E-02 3.79108E-02-5.02541E-02
 -1      1014-1.75457E+00-4.06863E-02-1.33719E-02 4.12525E-02-2.73823E-03-8.09491E-02
 -1      1015-1.71412E+00-1.07386E-01-2.91359E-02-6.02803E-03 1.45315E-02-7.16086E-02
 -1      1016-2.15320E+00-1.28964E-01-4.64976E-05 5.08283E-02 1.11137E-02-3.98012E-02
 -1      1017-2.16285E+00-1.69212E-01-7.53984E-02 1.90907E-02 5.54156E-04-9.92776E-02
 -1      1018 0.00000E+00 0.00000E+00 0.00000E+00 0.00000E+00 0.00000E+00 0.00000E+00
 -1      1019 0.00000E+00 0.00000E+00 0.00000E+00 0.00000E+00 0.00000E+00 0.00000E+00
 -1      1020 0.00000E+00 0.00000E+00 0.00000E+00 0.00000E+00 0.00000E+00 0.00000E+00
 -1      1021 0.00000E+00 0.00000E+00 0.00000E+00 0.00000E+00 0.00000E+00 0.00000E+00
 -1      1022-2.19285E+00-1.45861E-01-1.97572E-02 4.65114E-02-1.91520E-02 9.94375E-03
 -1      1023-2.16802E+00-5.54541E-02 6.89888E-02 1.20306E-02 8.45942E-03-2.35806E-02
 -1      1024-2.02792E+00-9.40241E-02-8.07436E-02 1.60501E-02 7.90538E-04-3.59747E-02
 -1      1025-1.97576E+00-8.24926E-02-1.54970E-02-3.79100E-02 1.02543E-02-5.55217E-02
 -1      1026-2.31166E+00-1.09479E-01 1.49941E-02-1.47813E-02 5.57858E-02-3.89827E-02
 -1      1027-2.37521E+00-1.36333E-01-8.83088E-02-2.18822E-02 2.12723E-02-6.46836E-02
 -1      1028-2.12753E+00-1.27928E-01-1.38483E-01-8.97407E-04-1.43389E-02-4.85438E-02
 -1      1029-2.19714E+00-5.57148E-02-6.38086E-02 3.70961E-02 9.65095E-02-6.62905E-02
 -1      1030-1.92627E+00-1.45655E-03 3.46241E-02 1.60591E-02 7.35896E-02-6.11052E-02
 -1      1031-2.30899E+00-8.28351E-02-1.40073E-01-2.35416E-02 5.48258E-02-3.39364E-02
 -1      1032-2.25482E+00-1.01985E-01-6.59863E-02 2.51736E-02 1.16922E-01-1.05718E-01
 -1      1033-2.33875E+00-1.93422E-01-1.40147E-01-7.59694E-03 2.19864E-02-9.41852E-02
 -1      1034-2.41609E+00-2.02580E-01-2.26157E-01-1.05548E-02 2.35082E-02-8.94946E-02
 -1      1035-2.73384E+00-2.28503E-01-2.76427E-01-3.45308E-02-5.76004E-02-7.91924E-02
 -1      1036-2.26424E+00-2.40464E-02 1.38729E-02-5.50887E-03 1.74335E-02-4.03904E-02
 -1      1037-2.27364E+00-2.61272E-02-8.10296E-02 1.94454E-02-2.61701E-02-8.66816E-02
 -1      1038 0.00000E+00 0.00000E+00 0.00000E+00 0.00000E+00 0.00000E+00 0.00000E+00
 -1      1039-2.24977E+00-1.30135E-01-1.17293E-01 1.77902E-02 5.32902E-02-9.88030E-02
 -1      1040-2.33459E+00-1.68004E-01-1.19473E-01 1.91330E-02-1.71987E-02-3.82126E-02
 -1      1041-2.23701E+00-1.34936E-01-1.06663E-01 3.95622E-02 2.30297E-02-5.31379E-02
 -1      1042-2.78983E+00-3.39907E-01-2.23953E-01 9.38311E-03 5.22178E-03-6.57657E-02
 -1      1043-2.58715E+00-1.06073E-01-9.10172E-02 3.09269E-02 3.39414E-02 1.13160E-02
 -1      1044-2.71238E+00-3.40270E-01-3.33814E-01 1.33314E-02 1.63595E-02-5.72980E-02
 -1      1045-2.29248E+00-1.30033E-01-7.69973E-02 3.53354E-03-9.92169E-03-3.16451E-02
 -1      1046-2.58351E+00-1.73061E-01-1.02818E-01-3.58749E-02 7.39447E-02-7.12245E-02
 -1      1047 0.00000E+00 0.00000E+00 0.00000E+00 0.00000E+00 0.00000E+00 0.00000E+00
 -1      1048 0.00000E+00 0.00000E+00 0.00000E+00 0.00000E+00 0.00000E+00 0.00000E+00
 -1      1049-2.39181E+00-1.96425E-01-1.94497E-01 7.55747E-03-1.34486E-02-1.37917E-02
 -1      1050-2.56920E+00-1.10784E-01-6.28173E-02 2.64543E-02-3.17141E-02-4.21509E-03
 -1      1051-2.58114E+00-1.10887E-01-7.02585E-02 5.31458E-03-3.27391E-02 2.45936E-02
 -1      1052-2.47664E+00-8.92813E-02-6.17733E-02 4.79155E-02 1.52917E-02 1.63750E-03
 -1      1053-2.61046E+00-1.67106E-01-1.19420E-01 1.35566E-02 7.80162E-03-3.55223E-02
 -1      1054-2.60595E+00-3.81213E-02-6.06572E-02-4.04101E-02 6.06958E-02-5.76904E-02
 -1      1055 0.00000E+00 0.00000E+00 0.00000E+00 0.00000E+00 0.00000E+00 0.00000E+00
 -1      1056-2.94016E+00-1.76948E-01 1.60428E-02 5.59835E-02-3.98557E-03-8.66138E-02
 -1      1057-2.98628E+00-2.98868E-01-1.38061E-01 3.60298E-02 5.58010E-02-9.07620E-02
 -1      1058-3.01543E+00-2.40441E-01-5.89788E-02 9.62067E-03-3.57915E-02-3.47044E-02
 -1      1059-3.13307E+00-2.93487E-01-1.20984E-01 4.99746E-02 1.79334E-02-5.11903E-02
 -1      1060-2.90920E+00-3.33508E-01-1.08610E-01 8.16181E-02 9.60384E-02-8.19379E-02
 -1      1061-2.83926E+00-1.60987E-01-4.14094E-02 6.17236E-03-3.00765E-02-5.02788E-02
 -1      1062-2.67932E+00-1.79819E-01-8.11842E-02 1.48754E-03 3.80341E-02-8.99789E-02
 -1      1063-2.74299E+00-1.36836E-01-1.05837E-01 4.37951E-02-4.13320E-03-9.30592E-02
 -1      1064-2.78898E+00-2.62171E-01-1.31749E-01 2.74767E-02 3.48095E-02-1.01401E-01
 -1      1065-3.00954E+00-1.85971E-01 2.18127E-02 1.00394E-01 1.19008E-01-1.55795E-02
 -1      1066-2.70044E+00-1.52715E-01-2.07800E-01-3.62926E-02-7.85719E-04-6.03568E-02
 -1      1067-2.56901E+00-4.46343E-02-1.12131E-01-6.46210E-02 1.56618E-02 1.82787E-02
 -1      1068 0.00000E+00 0.00000E+00 0.00000E+00 0.00000E+00 0.00000E+00 0.00000E+00
 -1      1069 0.00000E+00 0.00000E+00 0.00000E+00 0.00000E+00 0.00000E+00 0.00000E+00
 -1      1070-2.61457E+00-2.13170E-01-1.36780E-01 2.47021E-02-3.20588E-02-5.88231E-02
 -1      1071-2.71166E+00-1.36604E-01-1.73286E-01 2.19019E-02-2.36397E-02-6.19578E-02
 -1      1072-2.70265E+00-4.06016E-02 3.00086E-02-5.04135E-02 1.75965E-02-5.49075E-02
 -1      1073-2.74683E+00-1.19191E-01-1.42826E-01 4.22339E-02-1.77442E-03-1.07518E-01
 -1      1074-2.71149E+00-2.26228E-01-1.44101E-01 1.71332E-02-4.63757E-03-7.97269E-02
 -1      1075-2.95430E+00-2.53567E-01-1.65110E-01 4.03438E-02 9.85697E-03-5.89765E-02
 -1      1076-2.99252E+00-2.18105E-01-1.36510E-01-1.80631E-02-7.52714E-02-1.51505E-02
 -1      1077-3.38788E+00-2.05938E-01-4.17568E-02-1.56950E-01-6.71196E-03-6.70499E-02
 -1      1078-2.99297E+00-2.46139E-01-8.85526E-02 1.00962E-02-8.33405E-03-1.02425E-01
 -1      1079-3.46461E+00-4.91389E-01-3.13070E-01 8.88773E-02-8.07456E-03-4.87271E-02
 -1      1080-2.91105E+00-1.41466E-01-7.11368E-02-1.65305E-02 2.37304E-02-4.25752E-02
 -1      1081-2.88934E+00-7.50161E-02-9.23898E-03 4.02401E-02-4.74467E-02 8.96317E-03
 -1      1082-2.98266E+00-1.34539E-01-9.74798E-02 6.54876E-03-2.23175E-02-1.73841E-02
 -1      1083-2.62401E+00-4.57158E-02 7.80583E-03-4.42887E-02 3.68068E-02-4.36029E-02
 -1      1084-2.86611E+00-9.05841E-03 6.39133E-02 7.00841E-02-4.19495E-03-6.79699E-02
 -1      1085-3.09922E+00-1.15993E-01 5.49590E-02-1.53020E-02-2.45176E-02-5.88595E-02
 -1      1086-3.48074E+00-2.71308E-01-9.30299E-02 1.85899E-02 5.03246E-02-1.15311E-01
 -1      1087-3.34048E+00-3.15373E-01-2.22327E-01 8.53340E-02 4.32578E-02 2.03565E-03
 -1      1088-3.47485E+00-2.83618E-01-1.10207E-01-2.01022E-02-2.53163E-02-7.53452E-02
 -1      1089 0.00000E+00 0.00000E+00 0.00000E+00 0.00000E+00 0.00000E+00 0.00000E+00
 -1      1090-3.20583E+00-7.23448E-02-1.77484E-02 4.81755E-02 7.00401E-02-4.88921E-02
 -1      1091-2.71501E+00-9.62362E-02-1.61123E-02 4.93196E-02-1.92398E-03-9.39285E-02
 -1      1092-3.41575E+00-3.47615E-01-1.99767E-01 2.57832E-02 1.13225E-01-3.53499E-02
 -1      1093-2.72323E+00-1.21814E-01-2.80613E-04-7.24455E-03-2.57468E-02-8.43979E-02
 -1      1094-2.78776E+00-3.43474E-02 1.39239E-02 3.02345E-03 1.74809E-02-7.30194E-02
 -1      1095-3.36789E+00-1.61599E-01-1.17170E-01 6.90879E-02 4.37720E-02-1.41695E-01
 -1      1096-3.30506E+00-1.15392E-01-1.18332E-01 1.32109E-01 3.26177E-02-1.37505E-01
 -1      1097-3.25155E+00-2.51333E-01-2.03766E-01 6.99794E-02 2.90394E-02-1.08797E-01
 -1      1098-3.03182E+00-3.12140E-01-2.99277E-01-2.67398E-02 4.43375E-02-1.10089E-01
 -1      1099-3.50484E+00-3.86108E-01-2.00934E-01-3.20657E-02-5.07365E-02-1.31000E-01
 -1      1100-3.10219E+00-1.18737E-01-7.99912E-02-1.57744E-02-5.24512E-02-1.07756E-01
 -1      1101-3.17264E+00-4.00110E-03 1.49843E-02 6.53135E-02 2.22275E-02-5.23539E-02
 -1      1102-3.01348E+00-1.31877E-01-6.39814E-02 3.01616E-02 2.00589E-02-9.87585E-02
 -1      1103-3.17412E+00-1.72508E-01-1.44891E-01 5.99444E-02 5.00843E-02-9.92042E-02
 -1      1104-3.30863E+00-2.14641E-01-8.77907E-02 4.52142E-02-9.28456E-03-2.18862E-02
 -1      1105-3.57251E+00-9.06619E-02 6.05632E-03 1.06035E-01 6.40001E-02-1.80323E-01
 -1      1106-3.48970E+00-2.43452E-01-1.58418E-01-1.84338E-02 8.38067E-02-7.97726E-02
 -1      1107-3.47901E+00-1.26702E-01-6.02528E-02 3.73648E-02 2.11085E-02-5.47408E-02
 -1      1108-3.19275E+00-2.80078E-01-2.01384E-01-1.25299E-02-3.64543E-02-7.31693E-02
 -1      1109-3.58571E+00-2.63334E-01-1.81694E-01-2.92076E-02 3.17571E-02-6.27793E-02
 -1      1110-3.21357E+00 5.20169E-02 2.47553E-02-1.67067E-02-1.03617E-02-5.52562E-02
 -1      1111-3.26917E+00-1.70674E-01-1.36263E-01-5.08948E-02 3.26773E-02-2.60557E-02
 -1      1112-3.27688E+00-1.72776E-01-1.18989E-01-5.95528E-02-2.12670E-02-6.18230E-02
 -1      1113-3.33018E+00-2.95792E-02-2.22768E-04-1.94131E-02-3.41804E-03-6.05046E-02
 -1      1114-3.37598E+00-2.58521E-01-3.48999E-01-4.05879E-02-3.31013E-02-2.52515E-02
 -1      1115-3.52830E+00-1.09862E-01-6.39768E-02-2.87748E-02-6.38734E-02 7.22619E-02
 -1      1116-3.52123E+00-2.73690E-01-2.22221E-01-5.09617E-02-3.37731E-02 3.40171E-02
 -1      1117-3.48203E+00-1.41068E-01-1.21366E-01 4.31896E-03-7.14706E-02-3.30103E-02
 -1      1118-3.66740E+00-5.05314E-02-1.20845E-01 9.61728E-03-5.93866E-02-1.09939E-01
 -1      1119-3.17294E+00-2.48977E-01-5.33727E-02-4.03258E-02-1.26098E-02 3.31710E-02
 -1      1120-3.43630E+00-2.44922E-01-2.30591E-01-3.33222E-02 5.52301E-02 7.24220E-03
 -1      1121-4.17649E+00-5.38145E-01-2.97540E-01-3.25629E-02-7.55116E-02-1.15834E-01
 -1      1122 0.00000E+00 0.00000E+00 0.00000E+00 0.00000E+00 0.00000E+00 0.00000E+00
 -1      1123-4.22430E+00-5.30017E-01-2.26101E-01-5.73419E-02-2.24829E-02-2.07741E-01
 -1      1124-3.84921E+00-2.89085E-01-2.60455E-01-5.08284E-02 6.58828E-02-1.07103E-01
 -1      1125-3.65408E+00-1.88493E-01-2.13204E-01 4.34701E-02 5.00544E-03-5.88689E-02
 -1      1126-3.46258E+00 2.26077E-02-1.13128E-01 6.93297E-02 2.34307E-03-7.65924E-02
 -1      1127-3.51477E+00-2.36555E-01-1.47649E-01-1.56319E-02 2.22996E-02-1.38162E-01
 -1      1128-3.72304E+00-1.64010E-01-1.20034E-01 4.58986E-02 8.36482E-02-1.31895E-01
 -1      1129-3.72655E+00-1.84968E-01-8.85791E-02-4.58143E-02 3.07098E-02-1.17796E-01
 -1      1130-3.66875E+00-1.90701E-01-1.33915E-01-8.39076E-02-5.28932E-02-1.08533E-01
 -1      1131-3.49249E+00 8.40933E-03 6.19822E-03-3.66477E-02-3.61890E-02-1.10501E-01
 -1      1132-3.87600E+00-3.24398E-01-2.79283E-01-2.77389E-02 7.89949E-02-3.02645E-02
 -1      1133-3.83699E+00-3.67268E-01-2.35607E-01 4.45072E-02 8.06987E-02-3.53236E-02
 -1      1134 0.00000E+00 0.00000E+00 0.00000E+00 0.00000E+00 0.00000E+00 0.00000E+00
 -1      1135 0.00000E+00 0.00000E+00 0.00000E+00 0.00000E+00 0.00000E+00 0.00000E+00
 -1      1136-3.87907E+00-2.74674E-01-2.17018E-01-7.62413E-02 5.77224E-02-3.94316E-02
 -1      1137-3.81801E+00-2.64821E-01-1.86729E-01-6.89314E-02-3.62597E-02-4.71516E-02
 -1      1138-4.04560E+00-5.68389E-02 9.26579E-03 7.18433E-03 1.14218E-01-2.03326E-01
 -1      1139-3.80641E+00-1.46898E-01 2.21937E-02-5.47636E-02-7.68159E-03-9.90233E-02
 -1      1140-4.21250E+00-3.90826E-01-2.18686E-01-1.23220E-01 3.07130E-02-4.50326E-02
 -1      1141-3.92007E+00-6.98538E-02-4.15378E-02 7.77329E-02-1.83954E-02-4.58356E-02
 -1      1142-3.74228E+00 8.57047E-03 3.17590E-02 4.89732E-02 2.09904E-02-4.90556E-02
 -1      1143-4.04110E+00-2.79588E-01-1.52096E-01-9.44381E-02-3.89734E-03-5.67398E-02
 -1      1144-3.50042E+00-1.51528E-01-1.15753E-01 4.58636E-02-3.18449E-02-7.79680E-02
 -1      1145-4.10360E+00-2.85141E-01-2.48642E-01-2.53488E-02-9.69096E-02-4.01128E-03
 -1      1146-3.78048E+00-3.64628E-01-3.08346E-01 2.23643E-02-4.32071E-02-1.01516E-01
 -1      1147-3.70379E+00-1.90391E-01-2.16042E-01-3.82500E-02-2.28633E-03-4.08582E-02
 -1      1148-3.78612E+00-2.13357E-01-1.18965E-01-8.60621E-03-3.70051E-02-5.46425E-02
 -1      1149-4.14890E+00-1.01448E-01-2.70264E-02-1.81884E-02 1.47245E-01-1.38100E-01
 -1      1150-4.11467E+00-4.61417E-01-2.60356E-01 2.66865E-02-4.52052E-02-5.08139E-02
 -1      1151 0.00000E+00 0.00000E+00 0.00000E+00 0.00000E+00 0.00000E+00 0.00000E+00
 -1      1152-3.66786E+00-1.28528E-01-1.28587E-01 2.32710E-02-2.85245E-02-4.69227E-02
 -1      1153-3.43718E+00-1.89708E-01-5.02319E-02 3.73132E-02-1.23269E-03-6.58392E-02
 -1      1154-3.38874E+00-3.52396E-02 5.69056E-02-4.45639E-02 7.65200E-03-4.40852E-02
 -1      1155-4.30219E+00-1.89151E-01-1.11908E-01-2.95978E-02-5.80040E-04-3.04179E-02
 -1      1156-3.85791E+00-2.68724E-01-1.47825E-01 1.38286E-02 4.05263E-02-3.00354E-02
 -1      1157-4.10344E+00-2.52586E-01-1.94846E-01 3.21975E-02 1.28268E-01-4.79119E-02
 -1      1158-4.70674E+00-3.00730E-01-9.36060E-02-3.98500E-02 7.33782E-03 8.15847E-02
 -1      1159-4.49425E+00-1.52442E-01-4.27231E-02 2.43456E-02 1.40992E-02 2.65010E-02
 -1      1160-4.25942E+00-3.79517E-01-9.39272E-02-4.81584E-02-6.54114E-02-2.39292E-02
 -1      1161-4.14318E+00-1.44171E-01-1.65783E-01 9.04386E-02 3.70691E-03-1.23597E-01
 -1      1162-4.44874E+00-2.99764E-01-1.20932E-01 3.39180E-02 6.15002E-02-3.41485E-03
 -1      1163 0.00000E+00 0.00000E+00 0.00000E+00 0.00000E+00 0.00000E+00 0.00000E+00
 -1      1164-4.11576E+00-3.07503E-01-1.20254E-01-3.30546E-02 7.78468E-02-6.20672E-02
 -1      1165-4.36083E+00-2.76119E-01-1.70164E-01 1.64502E-02 6.86321E-02-4.31085E-04
 -1      1166-3.90209E+00-1.77537E-01-4.87883E-02 6.10678E-03 3.39099E-02 3.91274E-03
 -1      1167-4.16727E+00-4.55254E-01-1.72396E-01-6.87146E-02-1.90818E-04-3.51200E-02
 -1      1168-4.67106E+00-3.85182E-01-2.17721E-01-7.21258E-02 5.55237E-02-8.11793E-02
 -1      1169-4.73677E+00-2.07997E-01 1.72532E-02-5.38138E-02 6.05246E-02-2.08654E-02
 -1      1170-4.47407E+00-4.96477E-01-3.52685E-01-4.08177E-02-1.80899E-02-1.13255E-01
 -1      1171-4.01174E+00-7.07796E-02-9.58005E-02 9.99521E-02 6.35130E-02-3.45187E-02
 -1      1172-4.20532E+00-4.81395E-01-2.40659E-01-1.04507E-01 1.66978E-02-2.15129E-01
 -1      1173-4.22926E+00-3.47921E-01-1.62894E-01-1.02919E-01-2.35945E-03-2.74588E-01
 -1      1174-4.17990E+00-3.56961E-01-1.72264E-01-3.24576E-02-1.52978E-02-1.68456E-01
 -1      1175-3.61036E+00-1.26407E-01 2.58786E-02-4.37558E-02-2.61345E-03-2.22091E-02
 -1      1176-4.01008E+00-9.32595E-02-1.34743E-01-4.78794E-02 7.81205E-02-1.94890E-02
 -1      1177-3.96012E+00-4.37694E-01-2.00523E-01-1.12342E-01-5.31211E-02-1.33491E-01
 -1      1178-4.42904E+00-6.50766E-01-4.20906E-01-1.76252E-01 3.40478E-02-2.12971E-01
 -1      1179-4.93976E+00-5.48200E-01-3.05844E-01-1.17831E-01-1.63669E-02-2.02130E-01
 -1      1180-4.30742E+00-5.02340E-01-3.15241E-01-4.78691E-02 2.72209E-02-1.14436E-01
 -1      1181-4.12233E+00-6.76181E-01-2.65077E-01 5.20897E-02-3.14214E-02-4.25507E-02
 -1      1182 0.00000E+00 0.00000E+00 0.00000E+00 0.00000E+00 0.00000E+00 0.00000E+00
 -1      1183-4.59982E+00-9.20705E-01-6.71326E-01-2.60293E-01-9.48315E-03-2.46963E-01
 -1      1184-4.12512E+00-4.29971E-01-2.28115E-01-8.91522E-02 1.22473E-01-1.35476E-02
 -1      1185-4.31145E+00-9.03559E-01-3.29827E-01-8.47129E-02-4.81414E-02-1.88606E-01
 -1      1186-5.14185E+00-1.17512E+00-6.33781E-01 3.02567E-01 4.39869E-02-5.53491E-02
 -1      1187-4.51109E+00-9.74465E-01-6.55213E-01-2.44704E-01-4.72465E-02-2.70282E-01
 -1      1188-3.85969E+00-3.60253E-01-1.58680E-01-1.48710E-01 1.96356E-03-1.49498E-01
 -1      1189-4.73399E+00-1.17760E+00-2.78364E-01 6.03450E-02 6.82643E-03-1.63103E-01
 -1      1190-4.91169E+00-2.10373E+00-1.53800E+00-3.04411E-01-4.56981E-02-6.03519E-01
 -1      1191-4.11500E+00-1.19128E+00-6.53891E-01-4.13195E-01-9.51060E-02-2.88165E-01
 -1      1192-4.35094E+00-1.10984E+00-4.83215E-01-3.84638E-01 1.94728E-01-1.53113E-01
 -1      1193-4.08913E+00-1.42933E+00-6.68371E-01-1.26847E-01-8.93446E-02-4.19352E-01
 -1      1194-4.27738E+00-1.14800E+00-7.84927E-01 2.27025E-01 8.82824E-02-3.41593E-01
 -1      1195-4.35640E+00-1.78011E+00-1.15504E+00 8.22303E-02-1.23318E-03-5.89408E-01
 -1      1196-2.93765E+00-1.75236E+00-1.52980E+00-2.21065E-01-9.63474E-02-5.72225E-01
 -1      1197-2.86628E+00-1.56472E+00-1.34428E+00-2.83856E-01-6.27125E-02-3.80469E-01
 -1      1198-1.88044E+00-1.09870E+00-9.36818E-01-2.15136E-01 1.71524E-02-1.46633E-01
 -1      1199-2.62507E+00-1.44895E+00-1.19861E+00 1.08916E-02-6.56220E-02-4.07073E-01
 -1      1200-2.25974E+00-1.28126E+00-1.10550E+00-2.57104E-02-1.63290E-02-4.33421E-01
 -1      1201-3.17510E+00-1.67308E+00-1.68986E+00 1.49708E-01 6.90367E-02-5.16486E-01
 -1      1202-2.18482E-01-1.41463E-01-1.43174E-01 1.43217E-03-5.74776E-03-3.60035E-02
 -1      1203 0.00000E+00 0.00000E+00 0.00000E+00 0.00000E+00 0.00000E+00 0.00000E+00
 -1      1204 0.00000E+00 0.00000E+00 0.00000E+00 0.00000E+00 0.00000E+00 0.00000E+00
 -1      1205 2.64700E-02 5.01755E-02 2.66322E-02-8.92333E-02 2.69543E-03-4.70377E-02
 -1      1206-2.02716E-01-1.50222E-01-1.46135E-01 3.64824E-02 7.70058E-03-5.88073E-02
 -1      1207 0.00000E+00 0.00000E+00 0.00000E+00 0.00000E+00 0.00000E+00 0.00000E+00
 -1      1208 0.00000E+00 0.00000E+00 0.00000E+00 0.00000E+00 0.00000E+00 0.00000E+00
 -1      1209 0.00000E+00 0.00000E+00 0.00000E+00 0.00000E+00 0.00000E+00 0.00000E+00
 -1      1210 0.00000E+00 0.00000E+00 0.00000E+00 0.00000E+00 0.00000E+00 0.00000E+00
 -1      1211 0.00000E+00 0.00000E+00 0.00000E+00 0.00000E+00 0.00000E+00 0.00000E+00
 -1      1212 0.00000E+00 0.00000E+00 0.00000E+00 0.00000E+00 0.00000E+00 0.00000E+00
 -1      1213 0.00000E+00 0.00000E+00 0.00000E+00 0.00000E+00 0.00000E+00 0.00000E+00
 -1      1214 0.00000E+00 0.00000E+00 0.00000E+00 0.00000E+00 0.00000E+00 0.00000E+00
 -1      1215 0.00000E+00 0.00000E+00 0.00000E+00 0.00000E+00 0.00000E+00 0.00000E+00
 -1      1216 0.00000E+00 0.00000E+00 0.00000E+00 0.00000E+00 0.00000E+00 0.00000E+00
 -1      1217 0.00000E+00 0.00000E+00 0.00000E+00 0.00000E+00 0.00000E+00 0.00000E+00
 -1      1218 0.00000E+00 0.00000E+00 0.00000E+00 0.00000E+00 0.00000E+00 0.00000E+00
 -1      1219 0.00000E+00 0.00000E+00 0.00000E+00 0.00000E+00 0.00000E+00 0.00000E+00
 -1      1220 1.04069E-01-1.13459E-03-1.62614E-02 1.44808E-02-8.50657E-03-5.31873E-02
 -1      1221 1.43252E-01 1.00711E-02-7.70727E-03 9.12322E-03-6.19627E-03-6.18409E-02
 -1      1222 1.70628E-01 5.53086E-03-1.36712E-02 1.47193E-02-9.03294E-03-6.86343E-02
 -1      1223 3.24194E-01 2.52892E-02 8.94437E-03 1.08520E-02-5.75837E-03-8.77214E-02
 -1      1224 2.96354E-01 1.00551E-02-1.04050E-02 1.29638E-02-1.98261E-02-1.15475E-01
 -1      1225 3.31997E-01-5.67261E-03-2.25323E-02 3.78577E-03-4.04808E-03-1.12365E-01
 -1      1226 3.92489E-01-1.79556E-02-2.61596E-02 1.07958E-02-9.09544E-03-8.94876E-02
 -1      1227 4.29268E-01-1.82106E-02-3.29408E-02 1.85615E-02-1.88314E-02-1.02790E-01
 -1      1228 6.39381E-01 1.94146E-02-2.18750E-03 1.54045E-02-1.32737E-02-8.02361E-02
 -1      1229 6.32293E-01 2.26352E-02 1.18656E-02 1.44713E-02-1.97705E-02-8.23270E-02
 -1      1230 3.78860E-01 1.58855E-02 5.20976E-03 1.38990E-02-3.07226E-02-1.32145E-01
 -1      1231 3.33531E-01 1.15391E-03-2.14155E-04 1.31045E-02-2.00440E-02-1.48062E-01
 -1      1232 7.19183E-01-2.35410E-02-1.71668E-02 1.54031E-02-1.94031E-02-8.49338E-02
 -1      1233 7.72002E-01 1.51566E-02 4.82762E-04 1.71070E-02-2.12901E-02-8.29110E-02
 -1      1234 5.33210E-01 4.47929E-02 5.31123E-02 1.35973E-02-4.47660E-02-1.21583E-01
 -1      1235 0.00000E+00 0.00000E+00 0.00000E+00 0.00000E+00 0.00000E+00 0.00000E+00
 -1      1236 0.00000E+00 0.00000E+00 0.00000E+00 0.00000E+00 0.00000E+00 0.00000E+00
 -1      1237 7.70698E-01 5.81858E-03-1.51272E-02 2.89881E-02-3.70537E-02-1.06821E-01
 -1      1238 3.26272E-01-2.86102E-02-5.12964E-02 1.90403E-03-3.89032E-02-1.11152E-01
 -1      1239 5.35786E-01 2.45196E-02 3.76921E-02 4.34371E-03-3.55166E-02-1.40323E-01
 -1      1240 8.43473E-01-1.40006E-02-2.73760E-02 1.26651E-02-2.20994E-02-1.17510E-01
 -1      1241 4.96177E-01-8.75933E-04-1.61829E-02-4.85408E-03-1.40073E-02-1.22244E-01
 -1      1242 8.69667E-01 2.89687E-02-3.01900E-03 2.41934E-02-7.99316E-03-9.78446E-02
 -1      1243 9.20132E-01 6.63026E-03-1.11241E-02 5.48149E-03-1.92420E-02-1.20854E-01
 -1      1244 4.43970E-01 2.41314E-02-4.15502E-02 1.27318E-02-1.88145E-02-1.37187E-01
 -1      1245 9.09811E-01 5.92206E-03-1.39571E-02 5.46097E-04-1.71012E-02-8.97068E-02
 -1      1246 4.01796E-01 2.01752E-02-3.39053E-02 9.66253E-03-1.09898E-02-1.26476E-01
 -1      1247 7.63242E-01 5.37505E-03-5.12531E-02 5.00379E-04-4.70049E-02-9.11516E-02
 -1      1248 1.70981E-01 5.93998E-03-3.14179E-02 9.96842E-03-4.86421E-02-1.28230E-01
 -1      1249 9.86703E-01-1.70200E-02-3.17740E-02 5.87525E-03-1.88978E-02-6.61805E-02
 -1      1250 7.03417E-01 3.38897E-03-1.50060E-02 3.74194E-02-4.08094E-02-1.02787E-01
 -1      1251 1.08483E+00-4.75943E-02-6.56294E-02 1.45332E-02-1.23766E-02-4.70536E-02
 -1      1252 5.84512E-01 1.53385E-02-5.79821E-04 2.14923E-02-3.65284E-02-1.22981E-01
 -1      1253 8.67627E-01-1.75854E-02-7.44350E-02-3.03676E-03-2.34825E-02-8.69802E-02
 -1      1254 0.00000E+00 0.00000E+00 0.00000E+00 0.00000E+00 0.00000E+00 0.00000E+00
 -1      1255 1.37550E+00 1.05649E-01 4.85474E-02 2.19478E-02 9.90938E-03-5.98075E-02
 -1      1256 1.21526E-01 3.85109E-02-2.00354E-02 1.53101E-03-4.29895E-02-1.40698E-01
 -1      1257 6.66611E-01 5.63270E-02-5.50700E-03-1.24445E-02-2.36845E-02-1.16585E-01
 -1      1258 1.32700E+00 3.52627E-02-5.52636E-02 4.53503E-02-1.04318E-02-2.13466E-02
 -1      1259 1.06551E+00 1.09573E-01 5.59033E-02 2.94193E-03-5.21569E-02-7.04806E-02
 -1      1260 4.20562E-01 5.64067E-02-5.77421E-02 1.15905E-02-3.42847E-02-1.34900E-01
 -1      1261 1.59624E+00 1.39410E-01 1.04517E-01 2.75298E-02-9.14592E-03-7.36003E-02
 -1      1262 6.97076E-01 3.58926E-02-9.39448E-02 3.48615E-03-5.42990E-02-1.46174E-01
 -1      1263 0.00000E+00 0.00000E+00 0.00000E+00 0.00000E+00 0.00000E+00 0.00000E+00
 -1      1264 1.15560E+00-1.97245E-02-1.00272E-01 5.13867E-03-6.24134E-02-1.28493E-01
 -1      1265 2.57824E-01 6.32484E-02-1.50841E-02 5.15119E-03-5.15708E-02-1.41462E-01
 -1      1266 6.55306E-01 4.63120E-02-3.64789E-02 1.89776E-03-3.52885E-02-1.34565E-01
 -1      1267 0.00000E+00 0.00000E+00 0.00000E+00 0.00000E+00 0.00000E+00 0.00000E+00
 -1      1268 0.00000E+00 0.00000E+00 0.00000E+00 0.00000E+00 0.00000E+00 0.00000E+00
 -1      1269 1.34779E+00 1.91593E-05-4.42953E-02 3.16688E-02-4.16008E-02-7.73889E-02
 -1      1270 4.06034E-01 3.72073E-02 2.21080E-02-1.42306E-02-1.59736E-02-1.32018E-01
 -1      1271 1.64538E+00 4.40211E-02 2.86776E-02 2.97401E-02-2.83915E-02-7.97567E-02
 -1      1272 9.90128E-01 1.05735E-02 2.19209E-02 9.18337E-03-6.83926E-02-1.02380E-01
 -1      1273 1.05772E+00 2.84964E-02 1.78646E-02 1.32640E-02-5.29872E-02-1.42050E-01
 -1      1274 6.61141E-01-4.17659E-02 2.02705E-02 1.88298E-03-4.70570E-02-1.48527E-01
 -1      1275 1.77992E-01-2.79832E-02-8.18827E-02-1.29726E-02-7.33565E-02-1.66531E-01
 -1      1276 1.64753E+00 5.73592E-02 5.78163E-03 6.92547E-03-2.23763E-02-9.59582E-02
 -1      1277 0.00000E+00 0.00000E+00 0.00000E+00 0.00000E+00 0.00000E+00 0.00000E+00
 -1      1278 1.08514E+00 1.07765E-01 3.23649E-02 7.34285E-04-8.06061E-02-1.30256E-01
 -1      1279 6.34167E-01 1.83014E-02-2.44406E-02-6.56313E-03-5.36702E-02-1.11660E-01
 -1      1280 3.89712E-02 4.42779E-03-4.74769E-02-2.06154E-02-6.60235E-02-9.86340E-02
 -1      1281 1.33625E+00-4.48147E-03-5.29994E-02 5.93044E-02-5.10416E-02-1.09953E-01
 -1      1282 1.03732E+00 4.07935E-03-1.81168E-02 2.44577E-02-4.91465E-02-1.16395E-01
 -1      1283 4.19028E-01 3.93347E-02-1.15857E-02 2.19162E-02-8.70148E-02-1.10712E-01
 -1      1284 1.80289E+00 3.61847E-02-1.52594E-03 3.34898E-02-2.26092E-02-1.08893E-01
 -1      1285 1.07349E+00-4.86867E-04-1.58127E-02 2.16889E-02-9.23284E-02-1.01317E-01
 -1      1286 6.37515E-01 1.83340E-02 3.44321E-02-6.03370E-04-4.36302E-02-8.16393E-02
 -1      1287 1.17010E-01 1.37362E-02 7.53912E-02 2.09459E-02-6.97972E-02-1.07535E-01
 -1      1288 1.75412E+00 6.45245E-02 2.63990E-03 1.95832E-02-6.95693E-02-1.46991E-01
 -1      1289 4.25243E-01-3.54654E-03 2.50501E-03-2.73299E-02-1.25973E-02-1.22859E-01
 -1      1290 1.03719E+00 3.06410E-02 8.14821E-03 9.02795E-03-7.99258E-02-9.81703E-02
 -1      1291 1.60956E+00 3.07201E-02 6.77259E-03 2.81463E-02-2.68245E-02-1.05281E-01
 -1      1292 1.70578E-01-3.40916E-02-1.01066E-01-6.60284E-03-7.36117E-02-1.60279E-01
 -1      1293 1.25250E+00-3.82007E-02-6.91879E-02 1.76255E-03-6.91845E-02-8.32059E-02
 -1      1294 9.17671E-01 5.30775E-02-1.52422E-02-1.04652E-02-6.52529E-02-9.71836E-02
 -1      1295 2.57855E-01 2.02593E-02 2.59069E-02 2.37102E-03-6.83670E-02-9.50784E-02
 -1      1296 2.01957E+00 7.51225E-02 1.40892E-02 9.47870E-04-4.30175E-02-7.70222E-02
 -1      1297 4.53505E-01-1.43551E-02-3.71231E-02-1.02038E-02-6.45743E-02-1.07853E-01
 -1      1298 1.68212E+00-2.32656E-04-4.55946E-02 2.80969E-02-7.57138E-02-5.98355E-02
 -1      1299 1.13297E+00 2.14536E-02-7.95788E-03 1.73284E-02-4.15976E-02-1.06029E-01
 -1      1300-5.88871E-02 6.84472E-04 9.17125E-02 3.81843E-03-4.45372E-02-2.14375E-01
 -1      1301 0.00000E+00 0.00000E+00 0.00000E+00 0.00000E+00 0.00000E+00 0.00000E+00
 -1      1302 5.02941E-01 6.48011E-02-2.88075E-02-5.64007E-03-9.47545E-02-1.91691E-01
 -1      1303 1.56456E+00 1.76276E-02 1.00923E-01 3.76735E-02-3.90093E-02-7.50272E-02
 -1      1304 2.11826E+00 4.14526E-02 4.72562E-02 2.77552E-02-5.20257E-03-6.21809E-02
 -1      1305 1.31366E+00 1.30245E-01 1.06521E-01-4.63574E-03-6.05055E-02-1.27873E-01
 -1      1306-2.33969E-01 5.93362E-02 5.61867E-02 7.12363E-03-7.40817E-02-1.44937E-01
 -1      1307 1.56612E+00-1.93765E-02-9.69332E-03-1.27569E-02-3.79181E-02-8.11332E-02
 -1      1308 8.69273E-01 1.14855E-02 1.44496E-02-1.99680E-02-9.38511E-02-1.70969E-01
 -1      1309 2.43021E-01 6.60814E-02 5.66884E-02 3.82802E-04-6.76093E-02-1.79817E-01
 -1      1310 2.42586E+00 7.03342E-02-5.15198E-02 7.77846E-03-2.74526E-02-3.97696E-02
 -1      1311 0.00000E+00 0.00000E+00 0.00000E+00 0.00000E+00 0.00000E+00 0.00000E+00
 -1      1312-4.04746E-01-1.60895E-02 2.21185E-02-1.72394E-03-7.82330E-02-1.64204E-01
 -1      1313 1.32142E+00 5.84667E-02 1.27639E-02 2.24251E-02-4.87432E-02-5.51784E-02
 -1      1314 7.03760E-01 2.09974E-02 7.67259E-02 2.25781E-02-9.77178E-02-1.63139E-01
 -1      1315-6.63944E-02-3.17756E-02-6.49351E-02 2.59880E-03-6.38427E-02-1.61502E-01
 -1      1316 1.88472E+00 3.60772E-02-4.17021E-02 2.87710E-03-3.95853E-02-1.29537E-01
 -1      1317 1.02988E+00 7.99514E-02-1.83119E-02 3.82096E-02-6.88270E-02-1.07375E-01
 -1      1318-4.50401E-01 4.22897E-03 8.95083E-02-4.00308E-02-8.64878E-02-1.62015E-01
 -1      1319 0.00000E+00 0.00000E+00 0.00000E+00 0.00000E+00 0.00000E+00 0.00000E+00
 -1      1320 0.00000E+00 0.00000E+00 0.00000E+00 0.00000E+00 0.00000E+00 0.00000E+00
 -1      1321 3.42085E-01 1.05437E-01 5.53970E-02 1.05356E-02-5.31495E-02-1.25895E-01
 -1      1322 1.63274E+00 3.20267E-02-8.29924E-02 6.54060E-03-8.19849E-02-1.11158E-01
 -1      1323 2.09957E+00 8.62453E-02-3.37926E-02-1.02830E-02-5.37730E-03-1.13399E-01
 -1      1324 5.20610E-01 6.68286E-02 3.57570E-02 5.32850E-03-9.44455E-02-1.64685E-01
 -1      1325 3.00063E-02 1.53491E-01 2.23395E-01-5.11010E-02-9.42772E-02-1.36964E-01
 -1      1326 1.01421E+00 9.18095E-02 1.23717E-03 4.28190E-03-4.47400E-02-1.27884E-01
 -1      1327-3.55951E-02 1.67428E-02-2.64846E-03-6.38597E-03-7.86071E-02-1.69804E-01
 -1      1328 1.64492E+00 3.36405E-02-1.13550E-01-2.79834E-02-1.41120E-01-1.22024E-01
 -1      1329 2.50845E+00 1.36596E-01 7.01365E-02-3.12984E-03-1.14397E-01-7.03841E-02
 -1      1330 0.00000E+00 0.00000E+00 0.00000E+00 0.00000E+00 0.00000E+00 0.00000E+00
 -1      1331 0.00000E+00 0.00000E+00 0.00000E+00 0.00000E+00 0.00000E+00 0.00000E+00
 -1      1332 1.22592E+00 3.00837E-02-4.77019E-03 1.77977E-02-6.08318E-02-1.31912E-01
 -1      1333 3.57527E-01-6.31158E-02-4.92305E-02 2.51812E-02-7.97830E-02-1.77741E-01
 -1      1334-4.58405E-01-4.07249E-02 6.96638E-02-3.19751E-03-1.22090E-01-1.06331E-01
 -1      1335 2.07735E+00 2.20194E-02-2.16618E-02-9.73821E-03-9.63723E-02-1.29337E-01
 -1      1336-6.37868E-01-5.86597E-02 1.06753E-02-3.70881E-02-1.00940E-01-1.22430E-01
 -1      1337 0.00000E+00 0.00000E+00 0.00000E+00 0.00000E+00 0.00000E+00 0.00000E+00
 -1      1338 1.49744E+00-8.88327E-03-5.97816E-02 2.17766E-02-7.18580E-02-1.34841E-01
 -1      1339 5.31917E-01 3.13866E-03 7.77936E-02 5.17876E-03-9.91901E-02-1.42651E-01
 -1      1340 2.68096E+00 1.30025E-01 3.09227E-02 1.53301E-03-5.04251E-03-3.50550E-02
 -1      1341-3.69377E-01 2.99185E-02 8.53112E-02-6.28435E-02-1.15891E-01-1.64145E-01
 -1      1342 1.00231E+00-1.39731E-01-1.74182E-01 5.40410E-02-1.30128E-01-7.74265E-02
 -1      1343 1.40174E-01 2.41408E-02-5.18011E-02 3.85022E-03-1.20256E-01-1.04697E-01
 -1      1344 1.86998E+00-9.03210E-02-1.62748E-01 5.49108E-02-7.56419E-02-1.20655E-01
 -1      1345 1.01062E+00 7.39630E-02 2.86554E-02 5.63005E-02-4.97689E-02-1.03787E-01
 -1      1346-7.35709E-01-6.37523E-02-5.26461E-03-7.08099E-03-1.23394E-01-1.03349E-01
 -1      1347 1.97347E+00-1.29179E-02-9.41835E-02 4.02884E-03-7.35610E-02-5.05607E-02
 -1      1348 9.34967E-02 8.18058E-02-3.42820E-02 1.85021E-02-1.20526E-01-1.08706E-01
 -1      1349 2.92509E+00 2.06941E-01 1.45900E-01 4.65218E-02-8.40576E-02-4.17826E-02
 -1      1350 9.66009E-01-7.69150E-02-7.68622E-02-2.37954E-02-8.50455E-02-9.93304E-02
 -1      1351-7.17333E-01 7.06796E-02 3.18309E-02 1.68032E-02-1.25842E-01-1.34372E-01
 -1      1352 1.61577E+00-8.58526E-02-1.80440E-01-9.70391E-03-1.12652E-01-1.81804E-01
 -1      1353 2.37273E+00 1.02106E-01 7.15936E-02 9.54384E-03-1.02358E-03-5.87181E-02
 -1      1354-1.23823E-01 8.90829E-02 2.31325E-02-5.15903E-02-1.08680E-01-1.30927E-01
 -1      1355 1.51443E+00-1.17033E-01-6.94284E-02-4.47023E-03-1.13527E-01-8.57049E-02
 -1      1356 5.38456E-01-9.63856E-02-1.45961E-01-7.05186E-02-8.10596E-02-8.74893E-02
 -1      1357-1.26478E+00 2.70072E-02-8.28537E-03-1.52725E-02-8.33821E-02-1.90187E-01
 -1      1358 2.18661E+00-1.42930E-01-1.58532E-01 4.12313E-02-4.05629E-02-4.63551E-02
 -1      1359 1.39256E+00 6.32926E-02-1.68397E-02 1.76970E-02-3.82667E-02-1.65405E-01
 -1      1360 5.17076E-01 8.67792E-02-6.58122E-02-6.34445E-02-1.32618E-01-1.95034E-01
 -1      1361-5.89216E-01 3.94799E-03-4.62955E-02-4.23495E-02-1.24657E-01-2.32132E-01
 -1      1362 2.86965E+00 5.25018E-02-7.09350E-02 1.15781E-02-5.54296E-02 1.80583E-03
 -1      1363-1.58780E+00-1.20801E-02 1.03307E-01 4.93391E-02-9.24102E-02-1.71054E-01
 -1      1364 1.35471E+00 4.69366E-02-1.05014E-01 6.86674E-03-6.10612E-02-2.06075E-01
 -1      1365 1.75752E-01-2.26621E-02-1.00427E-01-1.34055E-03-1.28309E-01-1.26780E-01
 -1      1366-6.21971E-01-6.24343E-02-4.93864E-02 2.35997E-02-1.81239E-02-1.78239E-01
 -1      1367 2.57410E+00 9.20357E-02-5.53457E-02 4.80719E-03-9.79966E-02-7.89967E-02
 -1      1368 1.02780E+00 6.75127E-02 5.97475E-02 3.68565E-02-1.19821E-01-1.28238E-01
 -1      1369-7.80186E-01 3.66246E-03 1.67794E-01 4.36370E-02-7.38875E-02-1.18170E-01
 -1      1370 1.89681E+00 9.50683E-02 2.50982E-02 2.10910E-02-2.04552E-01-1.04572E-01
 -1      1371 2.87775E+00-7.30117E-03-7.68696E-02 2.02142E-02-7.14671E-02-1.15875E-02
 -1      1372 5.09478E-02-6.62111E-02 5.72415E-03 1.87397E-03-1.30408E-01-3.94856E-02
 -1      1373 0.00000E+00 0.00000E+00 0.00000E+00 0.00000E+00 0.00000E+00 0.00000E+00
 -1      1374 0.00000E+00 0.00000E+00 0.00000E+00 0.00000E+00 0.00000E+00 0.00000E+00
 -1      1375 1.15804E+00 1.22350E-02 3.40283E-02-2.34780E-02-1.83732E-01-1.60474E-01
 -1      1376-1.12064E+00-3.89315E-02 6.87786E-02-3.03394E-02-7.64372E-02-1.65848E-01
 -1      1377 2.07931E+00 8.93150E-02-2.96820E-02 1.90819E-02-2.18454E-01-1.58884E-01
 -1      1378 3.18320E+00 4.22669E-02-1.62278E-02 6.35006E-02-2.65292E-02-4.45786E-02
 -1      1379 1.04075E-02-1.49925E-01-7.38173E-02-8.48406E-02-2.27864E-01-7.35490E-02
 -1      1380 2.62864E+00-7.61261E-02-1.33212E-01 1.28856E-03-5.47145E-02-7.71134E-02
 -1      1381 7.21277E-01-5.68619E-03-8.41295E-02-1.06584E-02-1.94577E-01-1.28605E-01
 -1      1382-1.03304E-01-7.56705E-02-8.56807E-02-3.63170E-02-1.78829E-01-8.97563E-02
 -1      1383-1.27703E+00-3.63400E-02-1.04595E-02-1.58697E-02-9.07818E-02-2.14269E-01
 -1      1384 1.91764E+00-1.08207E-02 1.58088E-02-4.21953E-03-1.95886E-01-7.28424E-02
 -1      1385 1.13951E+00 7.90824E-02-4.52993E-02-3.66966E-02-1.64292E-01-1.17569E-01
 -1      1386 1.88801E+00-5.81064E-02 1.42270E-02-3.88088E-02-1.09477E-01-1.28367E-01
 -1      1387 2.99636E+00 1.82413E-02 5.56975E-02-1.99327E-02-8.81007E-02-5.35149E-02
 -1      1388 0.00000E+00 0.00000E+00 0.00000E+00 0.00000E+00 0.00000E+00 0.00000E+00
 -1      1389 3.99717E-01-7.92364E-02-1.89303E-01-3.81993E-02-2.20915E-01-1.36488E-01
 -1      1390-6.44068E-01-3.77024E-03-6.37381E-02-4.29406E-03-1.23720E-01-1.63045E-01
 -1      1391-1.67021E+00-7.93009E-02-9.54203E-02-4.14308E-03-9.94492E-02-1.52714E-01
 -1      1392 1.24940E+00-4.90479E-02-1.04565E-01 4.19759E-02-1.44056E-01-2.44913E-01
 -1      1393-1.80550E+00 1.06666E-02 1.24611E-01 3.99202E-02-1.86944E-01-1.93956E-01
 -1      1394 1.89744E+00 2.11923E-02 4.68683E-02 5.76058E-02-1.01223E-01-2.07482E-01
 -1      1395 3.16423E+00 4.34238E-03-8.39903E-02-5.03715E-03-1.11418E-02-1.27045E-01
 -1      1396 2.97904E-01-3.53541E-02-8.96198E-02 1.84226E-02-1.75670E-01-2.50947E-01
 -1      1397-2.69643E-01 7.28988E-02-6.52970E-02 2.70798E-02-1.29530E-01-2.52203E-01
 -1      1398-1.10788E+00 5.75851E-02-2.16178E-02 2.34283E-02-2.27710E-01-2.71114E-01
 -1      1399 0.00000E+00 0.00000E+00 0.00000E+00 0.00000E+00 0.00000E+00 0.00000E+00
 -1      1400 0.00000E+00 0.00000E+00 0.00000E+00 0.00000E+00 0.00000E+00 0.00000E+00
 -1      1401 1.25997E+00 1.17349E-01 6.17883E-02 6.84585E-02-1.93247E-01-2.25469E-01
 -1      1402-3.48536E-01-2.02285E-02-4.23162E-02-2.68792E-02-1.16655E-01-1.48589E-01
 -1      1403-2.07517E+00 2.73112E-02 1.29237E-01 2.29635E-02-1.29178E-01-1.76257E-01
 -1      1404 2.02477E+00 3.44458E-02-1.41747E-02 2.77531E-03-5.46562E-02-7.43441E-02
 -1      1405 3.07524E+00 2.54057E-03-6.38710E-02 1.98824E-02-3.40509E-02-1.17462E-01
 -1      1406 5.29017E-01-2.19181E-02-1.54269E-02 1.08403E-02-1.65270E-01-1.27588E-01
 -1      1407-1.33469E+00-3.15626E-02 7.69329E-03-1.32992E-02-1.53267E-01-2.36548E-01
 -1      1408 1.21969E+00 2.43758E-02-7.72487E-04 8.13134E-03-3.91609E-02-5.85391E-02
 -1      1409 2.00071E+00-9.48376E-02-1.16684E-01-2.02254E-02-1.72585E-01-8.84659E-02
 -1      1410-6.22677E-01 4.79178E-03-8.23436E-02 8.15047E-03-1.16873E-01-1.75888E-01
 -1      1411-1.98604E+00 8.91699E-02 5.89050E-02 9.26549E-03-3.52385E-02-1.26089E-01
 -1      1412 3.16208E+00-1.42969E-02-1.57302E-01 1.25082E-02-4.89855E-02-1.37373E-01
 -1      1413 2.70924E-01-1.48270E-02-3.11613E-02 3.93756E-03-8.31537E-02-1.12371E-01
 -1      1414-1.73455E+00 3.22947E-02-4.55966E-02 1.88195E-02-1.53668E-01-1.19930E-01
 -1      1415 1.28391E+00-1.75417E-02 7.78260E-02 2.20012E-02-1.34559E-01-1.06758E-02
 -1      1416 2.22898E+00 3.31975E-02 5.19120E-02 2.01574E-02-1.66577E-01-6.66941E-02
 -1      1417 3.13898E+00 6.19288E-02-4.87666E-02 1.81609E-02-2.85649E-02-1.35622E-01
 -1      1418-4.72368E-01 1.72897E-02-3.27757E-02 1.29173E-02-1.71372E-01-1.04387E-01
 -1      1419 0.00000E+00 0.00000E+00 0.00000E+00 0.00000E+00 0.00000E+00 0.00000E+00
 -1      1420 0.00000E+00 0.00000E+00 0.00000E+00 0.00000E+00 0.00000E+00 0.00000E+00
 -1      1421 1.15330E+00-1.89974E-01-1.02338E-01 5.04583E-02-3.26299E-01 6.00774E-02
 -1      1422 5.71304E-01-2.25566E-02-3.47749E-02 2.47234E-02-1.42722E-01-6.93390E-02
 -1      1423 2.22577E-02 1.06508E-01 1.13877E-01 5.31146E-03-1.60063E-01-1.04766E-01
 -1      1424-1.14781E+00-1.09519E-02-7.77720E-02 4.35457E-02-1.68644E-01-2.61023E-01
 -1      1425-1.95810E+00 5.20988E-02 2.60187E-02 4.20091E-03-9.81631E-02-9.39646E-02
 -1      1426 2.83104E+00-3.68998E-02-1.47081E-01 1.26495E-01-1.37150E-01-6.84977E-02
 -1      1427 1.38073E+00 1.55615E-02-5.75305E-02 3.21274E-02-1.29492E-01-6.04641E-02
 -1      1428 2.27924E+00 2.52819E-02 3.10262E-02 6.90120E-02-1.73374E-01-3.56052E-02
 -1      1429 3.64020E-01 7.18924E-02-3.85785E-02-1.28936E-02-3.05620E-01-7.49929E-02
 -1      1430-5.39072E-01 4.60063E-02 1.09858E-01 1.04316E-02-2.00218E-01-1.89252E-01
 -1      1431-9.38699E-01 2.51904E-01 1.88101E-01 9.45041E-04-1.99941E-01-1.94648E-01
 -1      1432-2.21270E+00 7.25025E-03 4.52894E-02 1.71375E-02-1.13232E-01-6.16266E-02
 -1      1433-3.08526E+00-9.43058E-02-1.54398E-02-4.31309E-02-6.47490E-02-7.32545E-02
 -1      1434 0.00000E+00 0.00000E+00 0.00000E+00 0.00000E+00 0.00000E+00 0.00000E+00
 -1      1435 3.40813E+00 9.45001E-02-1.72174E-01 6.24187E-02-7.17563E-02-4.72985E-02
 -1      1436-6.18715E-01 4.19043E-02 1.45729E-01 2.28863E-02-1.46798E-01-1.18423E-01
 -1      1437 1.29024E+00-3.47919E-02-2.31021E-01 3.70067E-02-2.03715E-01 9.28268E-03
 -1      1438 3.08355E+00 3.33540E-02-9.66074E-02 6.91275E-02-6.93551E-02-7.64692E-02
 -1      1439 3.52051E-01 1.89055E-02 3.90401E-02 2.70794E-02-2.20368E-01-6.17453E-02
 -1      1440-1.55348E+00-5.02044E-02-3.66634E-03-1.77290E-02-2.02696E-01-8.30933E-02
 -1      1441-1.91937E+00-1.16846E-01 1.12619E-02-3.08357E-02-2.22260E-01-9.42459E-02
 -1      1442-3.09198E+00-1.75516E-01-1.61919E-02-1.33347E-02-3.49616E-02-4.07898E-02
 -1      1443-6.28323E-01 2.63964E-02 1.60666E-01 2.80586E-02-2.17933E-01-4.32109E-02
 -1      1444 1.45012E+00-1.88682E-02-1.34797E-01 7.86515E-03-1.46993E-01-2.85073E-02
 -1      1445 2.33869E+00 1.68473E-02-1.99523E-01 4.41543E-02-1.61025E-01 9.68118E-03
 -1      1446 3.00109E+00 1.10054E-01-1.21573E-01 2.23208E-02-1.08565E-01 7.81498E-02
 -1      1447 2.23936E-01 1.23169E-01 2.41071E-01-4.77862E-02-1.83170E-01 1.17525E-02
 -1      1448-2.45583E+00-1.76154E-01-1.12843E-01-3.91885E-02-2.03090E-01-6.76554E-03
 -1      1449-3.43848E+00-1.64016E-01 3.80126E-02-1.73581E-02-3.66383E-02 3.94720E-02
 -1      1450-1.66386E+00-1.34585E-01-1.28615E-01 2.59545E-02-1.99510E-01-3.36249E-02
 -1      1451 0.00000E+00 0.00000E+00 0.00000E+00 0.00000E+00 0.00000E+00 0.00000E+00
 -1      1452 1.18973E+00-6.29307E-02-1.77219E-01-2.24663E-02-1.86096E-01 5.92699E-03
 -1      1453 2.18986E+00 2.20295E-02-1.77366E-01 3.61831E-02-1.81021E-01 1.23196E-01
 -1      1454 2.95396E+00 1.27592E-01-3.48753E-01 5.81693E-02-1.98137E-01 1.23361E-01
 -1      1455 1.91296E-01 3.97852E-02-7.67969E-02-5.89405E-02-2.37016E-01 6.26360E-02
 -1      1456-3.06634E+00-1.38112E-02 2.74098E-02 1.10684E-01-1.78814E-01-1.03906E-02
 -1      1457 1.48388E+00 1.97490E-01 1.45422E-01-3.04743E-02-1.36001E-01 5.76458E-02
 -1      1458 3.09252E+00 1.80181E-01-1.67248E-01-3.44423E-02-1.04733E-01 1.64409E-01
 -1      1459-7.56602E-01-1.35333E-01-1.39926E-01-1.44243E-02-1.67730E-01 1.48442E-01
 -1      1460-1.74265E+00-2.34966E-01-2.24902E-01 1.06629E-01-1.71866E-01 1.50494E-01
 -1      1461-2.32954E+00-8.67621E-02-4.26761E-02 1.72743E-01-2.61859E-01 5.65183E-02
 -1      1462-3.30013E+00-1.10146E-01-1.70286E-01 2.99758E-01-1.09377E-01-1.70082E-01
 -1      1463 2.25940E+00 1.00336E-01 1.70365E-01-2.65033E-02-2.27850E-01 2.45646E-01
 -1      1464 5.29152E-01 1.69901E-01 2.00337E-01-8.87567E-02-1.45831E-01 2.85021E-01
 -1      1465-8.80137E-01-4.73488E-01-4.61942E-01 5.56746E-02-2.14363E-01 3.19984E-01
 -1      1466 1.05964E+00 7.46724E-02 8.12913E-02-1.65127E-01-5.75163E-02 2.23399E-01
 -1      1467 2.49244E+00 6.40396E-02 2.38287E-01-3.49081E-01-1.19595E-01 2.49787E-01
 -1      1468-1.28422E+00-6.11149E-01-7.90094E-01 1.23434E-01-1.22284E-01 2.40655E-01
 -1      1469-2.76018E+00-1.04039E+00-1.03600E+00 4.42317E-01-5.78780E-02 2.12131E-02
 -1      1470-6.86179E-01-7.94051E-01-6.43327E-01 1.30906E-01-2.50171E-01 3.18835E-01
 -1      1471 9.72769E-01 4.25616E-01 4.80689E-01-1.37907E-01 3.28080E-02 1.05719E-02
 -1      1472 2.20304E+00 8.14379E-01 8.41286E-01-2.83435E-01-5.49939E-02-5.19856E-02
 -1      1473 2.36788E-01 1.14217E-01 1.91715E-01-1.70387E-02-1.34584E-02 5.48000E-02
 -1      1474-4.39900E-01-3.13785E-01-3.55469E-01 5.52027E-02-2.44559E-02 7.05107E-02
 -1      1475-8.28586E-01-4.92719E-01-5.48623E-01 1.16897E-01-4.98454E-02 1.23099E-01
 -1      1476-1.96080E+00-1.46414E+00-1.33593E+00 3.36698E-01 1.21591E-01-9.38707E-02
 -1      1477 0.00000E+00 0.00000E+00 0.00000E+00 0.00000E+00 0.00000E+00 0.00000E+00
 -1      1478 0.00000E+00 0.00000E+00 0.00000E+00 0.00000E+00 0.00000E+00 0.00000E+00
 -1      1479 0.00000E+00 0.00000E+00 0.00000E+00 0.00000E+00 0.00000E+00 0.00000E+00
 -1      1480 0.00000E+00 0.00000E+00 0.00000E+00 0.00000E+00 0.00000E+00 0.00000E+00
 -1      1481 0.00000E+00 0.00000E+00 0.00000E+00 0.00000E+00 0.00000E+00 0.00000E+00
 -1      1482 0.00000E+00 0.00000E+00 0.00000E+00 0.00000E+00 0.00000E+00 0.00000E+00
 -1      1483 0.00000E+00 0.00000E+00 0.00000E+00 0.00000E+00 0.00000E+00 0.00000E+00
 -1      1484 0.00000E+00 0.00000E+00 0.00000E+00 0.00000E+00 0.00000E+00 0.00000E+00
 -1      1485 0.00000E+00 0.00000E+00 0.00000E+00 0.00000E+00 0.00000E+00 0.00000E+00
 -1      1486 0.00000E+00 0.00000E+00 0.00000E+00 0.00000E+00 0.00000E+00 0.00000E+00
 -1      1487 0.00000E+00 0.00000E+00 0.00000E+00 0.00000E+00 0.00000E+00 0.00000E+00
 -1      1488 0.00000E+00 0.00000E+00 0.00000E+00 0.00000E+00 0.00000E+00 0.00000E+00
 -1      1489 0.00000E+00 0.00000E+00 0.00000E+00 0.00000E+00 0.00000E+00 0.00000E+00
 -1      1490 0.00000E+00 0.00000E+00 0.00000E+00 0.00000E+00 0.00000E+00 0.00000E+00
 -1      1491 0.00000E+00 0.00000E+00 0.00000E+00 0.00000E+00 0.00000E+00 0.00000E+00
 -1      1492 0.00000E+00 0.00000E+00 0.00000E+00 0.00000E+00 0.00000E+00 0.00000E+00
 -1      1493 8.95259E-03 2.59629E-03-3.50912E-02 2.86983E-03-1.11012E-02-1.88891E-02
 -1      1494-3.38875E+00-4.19434E-02 1.40284E-02-3.01548E-02-4.24917E-02-7.25482E-02
 -1      1495-3.25491E+00 6.07397E-02 7.71330E-02-1.79498E-02-2.73184E-02-8.27956E-02
 -1      1496-3.15722E+00-1.89016E-01-9.40134E-02-1.99472E-02-8.35655E-02-1.52377E-01
 -1      1497-2.56827E+00 5.32674E-02 2.67970E-01 5.41790E-02-9.28233E-02-1.86072E-01
 -1      1498-3.05082E+00-7.86341E-02 5.51589E-02 1.00581E-02-7.34562E-02-8.41254E-02
 -1      1499-2.51987E+00 2.55418E-02 7.00739E-02-6.55262E-02-5.46399E-02-1.19766E-01
 -1      1500-2.43168E+00-3.76042E-02 1.99883E-01-5.05797E-03-6.63969E-02-1.01711E-01
 -1      1501-2.68036E+00-1.17581E-01 1.02419E-01 2.80979E-03-1.14652E-01-2.06884E-02
 -1      1502-2.53950E+00-7.89599E-02 2.03715E-02-3.66692E-03-4.03500E-02-1.06913E-01
 -1      1503 1.67353E-02 2.19197E-03-1.96931E-02 2.05950E-03-7.23703E-03-2.27640E-02
 -1      1504-1.99448E+00 1.40247E-01 2.43036E-01 6.96675E-02-1.14318E-01-5.06111E-02
 -1      1505-2.54924E+00-6.74802E-03 6.49407E-02 2.25230E-02-6.54566E-02-7.23712E-02
 -1      1506-1.40536E+00 1.44342E-01 1.25931E-01 3.00272E-02-2.09427E-01-1.21143E-01
 -1      1507-8.57530E-03-1.61958E-03 8.76220E-03-1.03602E-03-7.89530E-03-1.90033E-02
 -1      1508-1.19790E-02 6.86427E-03 1.95178E-02-2.29241E-03-5.60608E-03-2.00636E-02
 -1      1509-3.50637E-02-2.98759E-03 1.60434E-02-5.05679E-03-7.40571E-03-2.22497E-02
 -1      1510-2.52888E+00-6.70881E-02 4.46306E-02-1.38244E-02-4.08741E-02-1.37899E-01
 -1      1511-1.52329E+00 2.16716E-02 2.86270E-02-5.47997E-03-8.51986E-02-1.39558E-01
 -1      1512-1.85209E+00-1.24793E-02 1.16099E-01-4.20803E-02-2.66408E-02-1.37774E-01
 -1      1513-1.16710E+00-9.03049E-03 3.95344E-02-9.09122E-03-3.11360E-02-6.97307E-02
 -1      1514 3.61461E-03-3.71790E-04-2.28934E-02-4.65357E-04-8.29892E-03-2.35767E-02
 -1      1515-2.33651E+00-1.00529E-01-1.55936E-03-4.71451E-04-3.60011E-02-1.17022E-01
 -1      1516-1.34702E+00-1.15802E-01-6.45306E-02-3.75337E-02-1.01736E-01-9.17113E-02
 -1      1517-9.05089E-03 2.06719E-03 1.37411E-02-1.07718E-05-9.16981E-03-2.70612E-02
 -1      1518-2.15730E+00-1.10130E-01 7.34626E-02-2.09141E-03-9.80357E-02-1.43718E-01
 -1      1519-1.37118E+00-1.08669E-01-2.21446E-02-5.15029E-02-8.67252E-02-9.55850E-02
 -1      1520-2.46375E+00-7.41420E-02 6.18842E-02-8.60321E-03-5.29104E-02-8.85459E-02
 -1      1521-1.50448E+00-8.50987E-03 5.46577E-02-1.35742E-02-6.07256E-02-9.02979E-02
 -1      1522-8.58228E-01 2.16048E-02 6.55722E-02 7.02657E-03-1.18664E-01-9.63187E-02
 -1      1523 2.53093E-02 3.07301E-03-2.25829E-02 4.00501E-03-8.18115E-03-2.04261E-02
 -1      1524-2.18542E+00-6.32945E-02-4.31218E-02-1.69691E-02-1.86377E-02-9.63152E-02
 -1      1525-1.11061E+00-1.40414E-02 4.23432E-02 1.90651E-02-1.02592E-01-2.17480E-01
 -1      1526-1.53088E+00 8.34084E-02 7.38508E-02 6.38291E-04-2.33820E-02-1.45869E-01
 -1      1527-7.83955E-01 1.93260E-03 5.75513E-02-5.30660E-02-4.41769E-02-1.70557E-01
 -1      1528-2.38411E+00-7.56923E-02-7.24374E-02-1.21563E-03-5.18623E-02-9.37600E-03
 -1      1529-1.11183E+00-6.31170E-02 4.28227E-02-1.51504E-03-8.30012E-02-1.28903E-01
 -1      1530-1.70901E+00 2.25732E-02 5.95442E-02-2.82256E-04-5.21736E-02-9.63351E-02
 -1      1531-9.16774E-01 7.32221E-03 8.39210E-02 3.43339E-02-1.52162E-01-1.85102E-01
 -1      1532-1.73213E+00-2.80737E-02 2.41847E-02-3.84651E-02-8.50636E-02-1.04358E-01
 -1      1533-5.94647E-01-1.36705E-02 1.03912E-01-9.19702E-03-1.15104E-01-1.78514E-01
 -1      1534-1.34690E+00 5.89132E-02 9.39102E-02-2.03792E-02-4.99332E-02-1.18659E-01
 -1      1535-6.56116E-01-3.87558E-02 3.34636E-02-1.21482E-02-4.00342E-02-1.18940E-01
 -1      1536-1.80788E+00 7.16899E-03 3.53946E-02-2.26761E-02-5.40106E-02-9.74407E-02
 -1      1537-2.02832E+00-2.33251E-02 1.07685E-01-4.03585E-02-3.31006E-02-1.13555E-01
 -1      1538-9.61076E-01 8.68174E-03 9.71273E-02-3.37262E-02-8.03192E-02-1.32447E-01
 -1      1539-3.63435E-01-1.71273E-02 1.01000E-01 2.90316E-02-9.50827E-02-1.75031E-01
 -1      1540 5.94721E-03 2.18552E-03-1.10239E-02-1.08051E-03-8.56310E-03-3.66144E-02
 -1      1541-1.51582E+00 3.90082E-02 4.49955E-02-7.17091E-02-8.23247E-02-1.42062E-01
 -1      1542-8.56393E-01 1.67181E-02 8.36004E-02 1.24500E-02-1.97873E-02-1.47844E-01
 -1      1543-1.60772E+00-2.74452E-02 3.36675E-03-3.26912E-02-6.57883E-02-7.41946E-02
 -1      1544-4.55039E-01-7.78973E-05 9.86826E-02 4.74952E-03-5.72854E-02-1.63650E-01
 -1      1545-8.67142E-01 3.20258E-02 7.00347E-02 4.98879E-03-8.24086E-02-1.07622E-01
 -1      1546-2.36583E-01 2.76484E-02 1.77404E-02 3.16858E-03-7.58120E-02-1.56469E-01
 -1      1547-1.61181E+00-4.42494E-02 1.28212E-02 5.06972E-03-5.16491E-02-8.86947E-02
 -1      1548-7.82930E-01 1.15209E-02 1.02163E-02 1.76720E-02-7.53911E-02-1.32182E-01
 -1      1549-3.79043E-01 3.43175E-02-1.11138E-02 3.14305E-03-6.68596E-02-1.46576E-01
 -1      1550-1.10936E+00-2.65079E-02 5.57269E-02 5.48457E-03-5.70756E-02-1.41468E-01
 -1      1551-1.78468E+00-7.41158E-02-1.01690E-02-1.23993E-02-1.63597E-02-1.25931E-01
 -1      1552-1.30954E-01 1.01038E-02 6.33090E-02 1.91105E-03-6.83407E-02-1.40898E-01
 -1      1553 2.44584E-02-2.04233E-03-2.48560E-02 3.95587E-03-6.30549E-03-3.88712E-02
 -1      1554 5.22229E-02 7.58328E-03-1.74819E-02 6.30643E-03-9.01641E-03-3.57045E-02
 -1      1555-7.74484E-01-2.01445E-02 5.71944E-02-1.93319E-02-6.43441E-02-1.61662E-01
 -1      1556-1.37811E+00 8.92651E-03 4.50004E-02-7.61046E-03-3.50075E-02-8.76775E-02
 -1      1557-4.34978E-01-4.99656E-02-2.05666E-02-1.54814E-02-7.34469E-02-1.20647E-01
 -1      1558-1.02266E+00-1.87820E-02 1.02217E-02-5.88458E-03-8.03490E-02-1.57721E-01
 -1      1559-3.18823E-01 2.60423E-02 8.12384E-02-1.99401E-02-1.02909E-01-1.71594E-01
 -1      1560-1.77732E+00-9.59538E-02-8.56066E-02-2.10715E-03-2.97681E-02-7.44420E-02
 -1      1561-3.46098E-02-2.42370E-03 5.58602E-03-2.53982E-03-9.02126E-03-3.54069E-02
 -1      1562-1.42614E+00-6.95988E-03 2.76266E-02-3.99554E-03-2.97545E-02-1.07907E-01
 -1      1563-5.18431E-01 1.37816E-03 3.43939E-02 1.03875E-02-3.77126E-02-1.64659E-01
 -1      1564-1.60550E-01 3.66413E-02 9.77389E-02 1.03442E-02-4.82071E-02-1.70836E-01
 -1      1565-7.59341E-01 1.11492E-01 1.54155E-01 3.89552E-02-1.09804E-01-1.45955E-01
 -1      1566 2.88057E-03 5.30475E-03 5.15429E-03-9.21415E-04-1.11862E-02-3.47230E-02
 -1      1567-8.84336E-01 5.21836E-02 2.78702E-02 2.22149E-02-6.13124E-02-1.24926E-01
 -1      1568-1.59025E+00-7.57090E-02-5.43036E-03 4.57024E-03-2.86536E-02-6.60417E-02
 -1      1569-3.38229E-01 1.68677E-02-3.65057E-03-3.90721E-03-3.07250E-02-1.73268E-01
 -1      1570-7.28960E-01-1.38335E-02-2.76875E-02-2.66585E-02-3.07545E-02-1.18636E-01
 -1      1571-1.80541E-01 2.45064E-02 1.76010E-02-3.00180E-02-4.73246E-02-1.31123E-01
 -1      1572-1.17614E+00 2.80332E-02 7.25395E-02 1.85948E-02-4.73903E-02-8.48768E-02
 -1      1573-1.23572E+00-4.29828E-03 1.66494E-02 6.23372E-03-2.45655E-02-8.73588E-02
 -1      1574-7.28970E-01-9.64449E-03 1.87973E-02-8.06153E-03-2.53805E-02-1.50200E-01
 -1      1575-1.63618E-01 2.93508E-02-2.29713E-02-1.07678E-02-4.92033E-02-1.60898E-01
 -1      1576-1.78749E-02-5.88652E-04 7.59544E-03-6.78094E-04-1.06879E-02-3.61475E-02
 -1      1577-6.24699E-03-4.32679E-04 3.76531E-03-9.54335E-04-1.07393E-02-3.61848E-02
 -1      1578-4.65557E-04 9.96896E-04 1.36407E-02-1.43631E-03-1.45275E-02-3.79756E-02
 -1      1579-1.61756E+00-8.57524E-02-4.08839E-02 1.99511E-03-3.97226E-04-3.94237E-02
 -1      1580-7.31103E-01-8.19900E-03 3.10819E-03-1.61113E-02-3.86842E-02-1.56359E-01
 -1      1581-1.19175E+00-3.61330E-02-1.31994E-02-1.15355E-02-5.94508E-03-6.80335E-02
 -1      1582-2.81089E-01 3.71930E-03 8.83625E-03-1.69582E-02-1.79265E-02-1.35344E-01
 -1      1583-6.40718E-01-3.75161E-03 3.00601E-02-1.38138E-02-2.80301E-02-1.24490E-01
 -1      1584-1.16981E+00-4.07979E-02 3.17510E-02-6.18949E-04-3.80680E-02-9.15631E-02
 -1      1585-2.15709E-01-2.14230E-02 5.64382E-03-1.57015E-02-5.63051E-02-1.56502E-01
 -1      1586 1.75176E-01-2.67544E-03-3.06492E-02 1.48205E-03-4.11682E-02-1.51872E-01
 -1      1587-5.52371E-01-2.49350E-02 3.81046E-02-9.64991E-03-3.07691E-02-1.47947E-01
 -1      1588 4.27685E-01 2.46147E-02 5.75817E-02 2.13983E-02-4.88399E-02-1.58471E-01
 -1      1589-1.15821E+00-6.03410E-02-2.40493E-02 6.73108E-03-3.44432E-02-5.12472E-02
 -1      1590-5.68003E-02-2.49419E-02-6.11227E-03 1.19035E-02-3.84422E-02-1.37638E-01
 -1      1591-4.84022E-02-5.78645E-03 9.74731E-03-4.93347E-03-8.36650E-03-4.11660E-02
 -1      1592-3.17019E-01-8.12764E-03 1.19000E-02-2.34203E-03-2.85975E-02-1.31870E-01
 -1      1593-6.98229E-01-1.75458E-02 3.24873E-02-6.38036E-04-3.48859E-02-9.99345E-02
 -1      1594-1.18232E+00-6.42632E-02-3.55204E-02-2.76873E-03-5.11588E-03-5.85541E-02
 -1      1595-4.61119E-01 1.20804E-02 8.30403E-02-1.64137E-02-4.80088E-02-1.45367E-01
 -1      1596-7.56380E-02 4.56480E-03 3.81799E-02-1.13509E-02-3.83164E-02-1.54903E-01
 -1      1597 6.79571E-02 1.98636E-03-1.43599E-02 6.69022E-03-1.10619E-02-5.01130E-02
 -1      1598-2.30787E-03-7.21211E-04-9.54770E-03-1.16263E-03-9.64899E-03-3.82028E-02
 -1      1599 2.57208E-02 2.16623E-03-1.10849E-02 2.56873E-04-8.62827E-03-5.50494E-02
 -1      1600 4.37566E-02 4.47261E-03-1.64201E-02 3.13016E-03-9.77798E-03-5.13321E-02
 -1      1601-7.28972E-01-1.04760E-02 1.35909E-02-1.09289E-02-3.98558E-02-1.13707E-01
 -1      1602-1.01260E+00-6.27237E-02-4.31848E-03-1.73469E-02-4.48580E-03-3.15328E-02
 -1      1603-4.61933E-01-1.94922E-02-5.92006E-03-1.51509E-02-2.00478E-02-1.56312E-01
 -1      1604 1.88169E-01-5.95977E-03-1.32487E-02 4.17521E-03-1.62021E-02-1.48088E-01
 -1      1605-6.02453E-01 4.06139E-02 5.13243E-02 4.86661E-03-3.09400E-02-1.31109E-01
 -1      1606-9.13841E-01-2.21176E-02-2.32896E-03 5.23963E-03-2.25966E-02-6.14923E-02
 -1      1607-3.12991E-01 2.49281E-03-8.90078E-03-1.69440E-02-3.43491E-02-1.47207E-01
 -1      1608 2.98213E-02 2.42716E-03 5.67259E-02-1.64307E-03-2.63377E-02-1.30535E-01
 -1      1609 2.58520E-01-1.42126E-04 4.22914E-03-5.22653E-03-2.46784E-02-1.44842E-01
 -1      1610 4.80403E-02-2.26435E-02-4.61538E-03-1.39927E-02-3.99468E-02-1.47230E-01
 -1      1611-5.69042E-01-3.05229E-03-4.12544E-04-5.23537E-03-2.35929E-02-1.36108E-01
 -1      1612-9.44286E-01-2.56052E-02 3.22097E-03-8.56652E-03-4.05895E-02-7.42727E-02
 -1      1613-2.90063E-01-2.27356E-02-3.12572E-02-1.38199E-02-3.55777E-02-1.48465E-01
 -1      1614 3.06539E-01-1.57233E-02 1.75174E-02-6.81878E-03-4.15145E-02-1.34655E-01
 -1      1615-5.79946E-01-3.88367E-02-8.99480E-03-1.73689E-02-2.61399E-02-1.32630E-01
 -1      1616 8.02230E-02 9.02638E-04 1.41786E-02-4.13815E-03-4.41567E-02-1.49846E-01
 -1      1617-8.37393E-01-2.37900E-02 3.29015E-03-2.08533E-02-9.52610E-03-6.30252E-02
 -1      1618-1.19412E-01-3.36894E-02-3.68183E-02-7.46104E-03-4.17294E-02-1.42772E-01
 -1      1619 2.32059E-01-1.58077E-02-1.06705E-03 9.21914E-03-3.01344E-02-1.22919E-01
 -1      1620-4.65112E-01-2.95813E-03 2.40400E-02-3.74261E-03-3.44740E-02-1.34396E-01
 -1      1621-2.21010E-01-1.73193E-02-3.27545E-02-1.03776E-03-3.55294E-02-1.31256E-01
 -1      1622 8.07387E-02-7.46621E-03 4.41066E-03 5.98764E-03-2.19635E-02-1.36717E-01
 -1      1623-7.17708E-01-1.20975E-02 1.50105E-02-1.96804E-03-1.13784E-02-8.96641E-02
 -1      1624-7.48717E-02-1.90145E-02 1.25288E-02-2.80253E-03-2.62702E-02-1.59803E-01
 -1      1625 1.94780E-01 1.53682E-02-8.34886E-04 6.64379E-03-3.37470E-02-1.47733E-01
 -1      1626-3.19643E-01-1.34206E-02-3.91965E-03 5.34479E-03-2.74120E-02-1.21360E-01
 -1      1627-5.23783E-01-1.11318E-03 4.38354E-03 2.60495E-02-3.62818E-02-1.21565E-01
 -1      1628-7.39672E-01-1.13995E-02 1.21903E-02-4.23193E-03-2.38899E-02-8.43970E-02
 -1      1629-6.75130E-02-1.21816E-02-4.34150E-03-2.41377E-03-2.63896E-02-1.56308E-01
 -1      1630 1.16367E-01 9.79422E-03-4.59952E-02 1.07481E-02-2.14868E-02-1.61745E-01
 -1      1631-3.67403E-01-1.34456E-03 9.44196E-03 3.80938E-03-3.69097E-02-1.32502E-01
 -1      1632-6.97288E-01-8.62149E-03 2.60875E-02-2.06602E-02-2.13241E-02-8.19910E-02
 -1      1633-7.94503E-02 2.38849E-04 1.93889E-02-8.51802E-03-6.04687E-03-4.80320E-02
 -1      1634-1.97530E-02 2.07840E-03 8.78186E-03-2.43249E-03-1.01949E-02-6.32534E-02
 -1      1635-1.49340E-01-1.44273E-04 2.23843E-02-8.43759E-03-3.06939E-02-1.60023E-01
 -1      1636-7.31172E-02-6.68093E-03-1.60675E-02-9.06117E-03-3.27419E-02-1.59726E-01
 -1      1637 1.58963E-01 1.41578E-02 1.76727E-02-1.56521E-03-2.32220E-02-1.55186E-01
 -1      1638-4.85233E-01-1.04942E-02-1.01831E-02-8.35895E-04-7.95306E-03-1.00649E-01
 -1      1639-2.01932E-01-4.02222E-03-5.73986E-03-4.44357E-03-2.53551E-02-1.38096E-01
 -1      1640-4.34834E-02-1.29489E-02-2.31356E-02-7.88571E-03-2.98604E-02-1.54950E-01
 -1      1641 1.37540E-01-4.31084E-03-1.21742E-02 2.19136E-03-2.79086E-02-1.61063E-01
 -1      1642-2.94792E-01-3.80710E-03 7.09207E-03 2.71159E-03-1.48366E-02-1.30636E-01
 -1      1643-4.41324E-01-1.40827E-03 9.92312E-03-3.01101E-03-1.66695E-02-1.03486E-01
 -1      1644-1.15447E-01 1.11246E-02-7.73198E-03 3.54232E-03-4.43349E-02-1.55068E-01
 -1      1645-6.99646E-02-1.09006E-02-1.02448E-02-3.68537E-04-1.34138E-02-1.56423E-01
 -1      1646 2.07112E-01-7.67991E-04-1.81534E-03 7.71585E-04-8.54892E-03-1.40569E-01
 -1      1647-2.65426E-01-9.80759E-03-1.60396E-02 2.91149E-03-1.50454E-02-1.31591E-01
 -1      1648-5.05416E-01-5.98617E-03 1.03819E-03-1.63576E-02-1.35402E-02-8.65982E-02
 -1      1649-1.47567E-01 6.53883E-03 3.84643E-03 8.12105E-03-2.22816E-02-1.54040E-01
 -1      1650-2.81085E-01-3.19688E-03-1.43195E-03-7.57458E-03-1.46273E-02-1.30460E-01
 -1      1651-4.18435E-01-1.54901E-02 6.40408E-03-1.72947E-02-8.73321E-03-8.73445E-02
 -1      1652-2.14038E-02-1.34288E-03 1.07633E-02 7.68597E-03-8.76303E-03-1.56137E-01
 -1      1653 9.10579E-02-8.56907E-03 6.49585E-03 1.27852E-02-1.73962E-02-1.57993E-01
 -1      1654 1.97680E-01-1.52338E-02-1.66831E-02 1.00584E-02-1.81366E-02-1.41109E-01
 -1      1655 5.77693E-02-3.03963E-03-2.27226E-03 7.79048E-03-1.60091E-02-1.55637E-01
 -1      1656-1.18276E-01 6.73818E-03 3.90966E-03-1.44715E-03-1.16262E-02-1.44111E-01
 -1      1657-2.01538E-01 2.80338E-02 3.65351E-02-1.06172E-02-8.32218E-03-1.15991E-01
 -1      1658-3.29472E-01 1.16162E-03 1.48562E-02-1.77689E-02-1.38362E-02-8.46398E-02
 -1      1659-1.79984E-01 2.76526E-03 1.89503E-04-5.81658E-03-7.69750E-03-1.30911E-01
 -1      1660-3.21781E-01-4.67880E-03 1.16301E-02-1.42479E-02-4.74851E-03-8.44632E-02
 -1      1661-4.34704E-02 1.05873E-02 4.03067E-03-9.26927E-04-1.87999E-02-1.62102E-01
 -1      1662 1.44695E-01 9.99208E-03 1.24192E-02 6.90263E-03-1.11595E-02-1.40552E-01
 -1      1663 5.25432E-02 6.67598E-03 4.43450E-03 5.04718E-03-6.09898E-03-1.53138E-01
 -1      1664 2.39110E-01-3.03768E-03-2.29851E-02 1.34489E-02-9.97643E-03-9.94122E-02
 -1      1665-1.07433E-01 1.69757E-02 8.55254E-03-1.53349E-03-1.09164E-02-1.50666E-01
 -1      1666-1.88084E-01 3.63336E-03 9.08516E-03-7.67743E-03-8.74979E-03-1.20035E-01
 -1      1667-7.89809E-03 7.31325E-03 7.78181E-03 2.92747E-04-1.27352E-02-1.49352E-01
 -1      1668 7.10061E-02-2.88792E-03-5.69863E-03 3.80584E-03-1.82356E-02-1.50419E-01
 -1      1669 1.50476E-01 8.88877E-03-2.34088E-03 1.41041E-02-1.82090E-02-1.29486E-01
 -1      1670-1.00602E-01-1.29884E-03 7.55668E-03-2.55467E-03-9.05394E-03-1.33435E-01
 -1      1671-1.67521E-01-7.37409E-03 3.02359E-03-7.77182E-03-1.66100E-02-1.11929E-01
 -1      1672-2.12473E-01-1.39539E-03 1.57076E-02-1.49882E-02-1.12963E-02-7.60257E-02
 -1      1673 2.33161E-01 1.74935E-02 5.21810E-03 1.19404E-02-1.97759E-03-8.48709E-02
 -1      1674-1.63874E-04 2.83077E-03 1.34910E-02-1.81649E-03-1.88223E-02-1.41611E-01
 -1      1675 7.30603E-02 3.57807E-03-5.26353E-03 2.32450E-03-1.62159E-02-1.37662E-01
 -1      1676 1.41246E-01 1.10641E-02-1.61229E-03 7.65220E-03-9.04700E-03-1.00109E-01
 -1      1677-8.07545E-02 3.21655E-04 1.37165E-02-3.83426E-03-1.61934E-02-1.24660E-01
 -1      1678-1.60961E-01-3.11010E-03 1.46888E-02-1.15367E-02-1.20433E-02-6.46404E-02
 -1      1679 5.13222E-02 1.18362E-03 5.41524E-03-4.91618E-03-1.83490E-02-1.33671E-01
 -1      1680-2.83229E-02 1.18797E-02 1.62565E-02-3.18653E-04-1.41984E-02-1.14652E-01
 -1      1681-8.14824E-02 1.74632E-03 1.40496E-02-5.15773E-03-1.54085E-02-1.03362E-01
 -1      1682-3.26487E-04-3.52491E-03-4.53538E-03-3.02863E-03-1.64055E-02-1.16267E-01
 -1      1683 8.20333E-02 4.85876E-03-3.55256E-03 6.68121E-04-1.17254E-02-1.03013E-01
 -1      1684-1.02803E-01-6.91916E-04 1.39596E-02-6.81657E-03-9.09791E-03-7.10339E-02
 -1      1685 2.72354E-03 2.50781E-03 3.54553E-04-7.73642E-04-8.09053E-03-5.34218E-02
 -1      1686 7.48464E-02 4.12036E-03-2.85760E-03 1.06962E-03-1.14013E-02-8.65923E-02
 -1      1687-5.59678E-02-4.29607E-04 1.04571E-02-6.48922E-03-8.70279E-03-8.02134E-02
 -1      1688 3.34054E-02 1.37666E-03-8.74682E-03-1.38419E-03-1.03559E-02-9.47173E-02
 -1      1689-4.66386E-02-2.00752E-03-1.46838E-04-3.86431E-03-1.49728E-02-1.01894E-01
 -1      1690 3.07975E-03-6.30984E-03-9.00781E-03-2.76692E-03-9.13939E-03-6.62413E-02
 -1      1691-4.79018E-03 9.57766E-04 1.74574E-03-1.18654E-03-8.57750E-03-6.63832E-02
 -1      1692 3.32055E-02-3.33157E-04-1.10792E-02-1.19127E-03-9.79700E-03-7.07289E-02
 -1      1693-8.81748E-03 1.36275E-03-1.57489E-03-2.00267E-03-9.55926E-03-8.85814E-02
 -1      1694 0.00000E+00 0.00000E+00 0.00000E+00 0.00000E+00 0.00000E+00 0.00000E+00
 -1      1695 0.00000E+00 0.00000E+00 0.00000E+00 0.00000E+00 0.00000E+00 0.00000E+00
 -1      1696 0.00000E+00 0.00000E+00 0.00000E+00 0.00000E+00 0.00000E+00 0.00000E+00
 -1      1697 0.00000E+00 0.00000E+00 0.00000E+00 0.00000E+00 0.00000E+00 0.00000E+00
 -1      1698 0.00000E+00 0.00000E+00 0.00000E+00 0.00000E+00 0.00000E+00 0.00000E+00
 -1      1699 0.00000E+00 0.00000E+00 0.00000E+00 0.00000E+00 0.00000E+00 0.00000E+00
 -1      1700 0.00000E+00 0.00000E+00 0.00000E+00 0.00000E+00 0.00000E+00 0.00000E+00
 -1      1701 0.00000E+00 0.00000E+00 0.00000E+00 0.00000E+00 0.00000E+00 0.00000E+00
 -1      1702 0.00000E+00 0.00000E+00 0.00000E+00 0.00000E+00 0.00000E+00 0.00000E+00
 -1      1703 0.00000E+00 0.00000E+00 0.00000E+00 0.00000E+00 0.00000E+00 0.00000E+00
 -1      1704 0.00000E+00 0.00000E+00 0.00000E+00 0.00000E+00 0.00000E+00 0.00000E+00
 -1      1705 0.00000E+00 0.00000E+00 0.00000E+00 0.00000E+00 0.00000E+00 0.00000E+00
 -1      1706 0.00000E+00 0.00000E+00 0.00000E+00 0.00000E+00 0.00000E+00 0.00000E+00
 -1      1707 0.00000E+00 0.00000E+00 0.00000E+00 0.00000E+00 0.00000E+00 0.00000E+00
 -1      1708 0.00000E+00 0.00000E+00 0.00000E+00 0.00000E+00 0.00000E+00 0.00000E+00
 -1      1709 0.00000E+00 0.00000E+00 0.00000E+00 0.00000E+00 0.00000E+00 0.00000E+00
 -1      1710 0.00000E+00 0.00000E+00 0.00000E+00 0.00000E+00 0.00000E+00 0.00000E+00
 -1      1711 0.00000E+00 0.00000E+00 0.00000E+00 0.00000E+00 0.00000E+00 0.00000E+00
 -1      1712 0.00000E+00 0.00000E+00 0.00000E+00 0.00000E+00 0.00000E+00 0.00000E+00
 -1      1713 0.00000E+00 0.00000E+00 0.00000E+00 0.00000E+00 0.00000E+00 0.00000E+00
 -1      1714 0.00000E+00 0.00000E+00 0.00000E+00 0.00000E+00 0.00000E+00 0.00000E+00
 -1      1715 0.00000E+00 0.00000E+00 0.00000E+00 0.00000E+00 0.00000E+00 0.00000E+00
 -1      1716 0.00000E+00 0.00000E+00 0.00000E+00 0.00000E+00 0.00000E+00 0.00000E+00
 -1      1717 0.00000E+00 0.00000E+00 0.00000E+00 0.00000E+00 0.00000E+00 0.00000E+00
 -1      1718 0.00000E+00 0.00000E+00 0.00000E+00 0.00000E+00 0.00000E+00 0.00000E+00
 -1      1719 0.00000E+00 0.00000E+00 0.00000E+00 0.00000E+00 0.00000E+00 0.00000E+00
 -1      1720 0.00000E+00 0.00000E+00 0.00000E+00 0.00000E+00 0.00000E+00 0.00000E+00
 -1      1721 0.00000E+00 0.00000E+00 0.00000E+00 0.00000E+00 0.00000E+00 0.00000E+00
 -1      1722 0.00000E+00 0.00000E+00 0.00000E+00 0.00000E+00 0.00000E+00 0.00000E+00
 -1      1723 0.00000E+00 0.00000E+00 0.00000E+00 0.00000E+00 0.00000E+00 0.00000E+00
 -1      1724 0.00000E+00 0.00000E+00 0.00000E+00 0.00000E+00 0.00000E+00 0.00000E+00
 -1      1725 0.00000E+00 0.00000E+00 0.00000E+00 0.00000E+00 0.00000E+00 0.00000E+00
 -1      1726 0.00000E+00 0.00000E+00 0.00000E+00 0.00000E+00 0.00000E+00 0.00000E+00
 -1      1727 0.00000E+00 0.00000E+00 0.00000E+00 0.00000E+00 0.00000E+00 0.00000E+00
 -1      1728 0.00000E+00 0.00000E+00 0.00000E+00 0.00000E+00 0.00000E+00 0.00000E+00
 -1      1729 0.00000E+00 0.00000E+00 0.00000E+00 0.00000E+00 0.00000E+00 0.00000E+00
 -1      1730 0.00000E+00 0.00000E+00 0.00000E+00 0.00000E+00 0.00000E+00 0.00000E+00
 -1      1731 0.00000E+00 0.00000E+00 0.00000E+00 0.00000E+00 0.00000E+00 0.00000E+00
 -1      1732 0.00000E+00 0.00000E+00 0.00000E+00 0.00000E+00 0.00000E+00 0.00000E+00
 -1      1733 0.00000E+00 0.00000E+00 0.00000E+00 0.00000E+00 0.00000E+00 0.00000E+00
 -1      1734 0.00000E+00 0.00000E+00 0.00000E+00 0.00000E+00 0.00000E+00 0.00000E+00
 -1      1735 0.00000E+00 0.00000E+00 0.00000E+00 0.00000E+00 0.00000E+00 0.00000E+00
 -1      1736 0.00000E+00 0.00000E+00 0.00000E+00 0.00000E+00 0.00000E+00 0.00000E+00
 -1      1737 0.00000E+00 0.00000E+00 0.00000E+00 0.00000E+00 0.00000E+00 0.00000E+00
 -1      1738 0.00000E+00 0.00000E+00 0.00000E+00 0.00000E+00 0.00000E+00 0.00000E+00
 -1      1739 3.39073E+00 8.80643E-01 6.23017E-01 4.79336E-01 1.31935E-01-1.07756E-01
 -1      1740 3.76882E+00 3.45054E-01 1.80952E-02 1.41023E-01 1.24530E-01-1.66018E-03
 -1      1741 3.66574E+00 2.14963E-01-6.74256E-02 2.87721E-02 4.05996E-02 2.93802E-02
 -1      1742 2.58398E+00 1.63794E-02-1.50330E-01 4.17849E-03 6.60897E-02-1.91039E-02
 -1      1743 2.49058E+00 5.17844E-02-5.69870E-02 4.94670E-02 6.90099E-02-6.68221E-02
 -1      1744 3.16573E+00-4.27636E-02-1.03592E-01-2.99741E-02 7.64610E-02-6.13915E-02
 -1      1745-1.12725E-02-2.27378E-03 2.49591E-02 3.64934E-03 5.88759E-03-1.27292E-02
 -1      1746 3.17470E+00 8.36264E-02-1.04278E-01-2.78845E-02 6.58368E-02-1.34771E-01
 -1      1747 1.70510E+00-1.93622E-02 3.35856E-02 3.08538E-03 1.35220E-01-1.36364E-01
 -1      1748 2.02152E+00 4.29492E-02 1.86656E-02-3.03766E-02 1.19034E-01-1.93684E-01
 -1      1749 3.19835E+00 1.00822E-01-4.41018E-02 2.81076E-02 2.48844E-02-8.55784E-02
 -1      1750 2.02657E+00 1.19274E-01 6.09299E-04 2.15128E-02 6.98912E-02-1.41710E-01
 -1      1751 2.81007E+00-8.51952E-03-2.03793E-01 4.05908E-02 2.71462E-02 1.92145E-02
 -1      1752 1.56405E+00 2.10891E-02-1.08662E-01-2.85377E-03 1.13120E-01-1.53993E-01
 -1      1753 3.09250E+00 3.34195E-02-9.95914E-03 3.21249E-02 7.22193E-02-5.02254E-02
 -1      1754 2.01434E+00 6.32916E-02-1.25805E-01 5.14420E-03 6.54723E-02-8.42051E-02
 -1      1755 1.77898E+00-6.83943E-02-7.83813E-02 7.65905E-02 7.74667E-02-2.08834E-01
 -1      1756 2.46429E+00-9.34957E-03-1.22687E-01-1.91484E-02 8.22303E-02-8.52506E-02
 -1      1757 2.56992E+00 1.85038E-02-4.46280E-02-7.25297E-04 4.06765E-02-4.43068E-02
 -1      1758 1.49981E+00-4.12729E-02-1.31577E-01 3.95410E-03 8.11508E-02-7.34987E-02
 -1      1759 2.58401E+00-4.71938E-02-3.18402E-02-1.29665E-02-5.63776E-03-8.58321E-02
 -1      1760 1.21071E+00-4.80306E-02-1.50208E-01-4.26979E-03 1.00232E-01-8.09621E-02
 -1      1761 1.20104E+00 2.68944E-02 8.80787E-03 3.13090E-04 9.34514E-02-1.52105E-01
 -1      1762 2.49434E+00 2.18700E-03-5.24971E-02-2.57244E-02 1.25619E-02-1.42652E-01
 -1      1763 1.38547E+00 8.43679E-02 1.64105E-02-2.19262E-02 6.84893E-02-8.10009E-02
 -1      1764 2.72320E+00 7.43105E-02-6.11720E-03-7.53835E-02 1.28994E-02-7.20197E-02
 -1      1765 1.49371E+00-3.07889E-02-5.25568E-02-7.06926E-02 4.66363E-02-4.62253E-02
 -1      1766-2.64305E-02-1.34292E-03 1.92774E-02 3.78012E-03 5.71131E-03-2.22301E-02
 -1      1767 2.42262E+00 9.81918E-02 5.25514E-02-5.88726E-02 6.10859E-02-8.07620E-02
 -1      1768 1.71984E+00 6.70939E-02 6.54657E-02-1.51184E-02 6.86002E-02-5.12194E-02
 -1      1769 9.04907E-01-6.46887E-02-5.88744E-02 1.90644E-02 1.19807E-02-9.49806E-02
 -1      1770 2.60162E+00 1.08485E-01-3.80016E-02-1.75839E-02 2.40658E-02-7.77543E-02
 -1      1771 3.52641E-01-1.15900E-01 7.01008E-03 4.83171E-03 7.06099E-02-1.02275E-01
 -1      1772 1.01787E+00-9.16450E-02-1.29121E-01-7.46153E-03 1.01487E-01-1.98778E-01
 -1      1773 1.80185E+00 5.80881E-02 4.47651E-02-4.08407E-02 7.31240E-02-1.03477E-01
 -1      1774 6.77486E-01 3.33836E-02-4.80936E-03-2.11856E-02 1.34867E-01-1.72433E-01
 -1      1775 2.52253E+00-1.46167E-02-1.49165E-02 4.60536E-03-3.67457E-02-4.82536E-02
 -1      1776 9.81486E-01-3.29728E-02-1.11319E-01-6.00754E-02 1.14646E-01-1.15785E-01
 -1      1777 5.28428E-01 3.13095E-02 3.97380E-02-1.75211E-03 1.47149E-01-1.51329E-01
 -1      1778 2.14183E+00 1.10560E-02-4.31155E-02 2.10692E-02 3.61390E-02-4.24065E-02
 -1      1779 1.20583E+00 4.82960E-02-3.82349E-02 2.55412E-02 7.18117E-02-1.25086E-01
 -1      1780 4.37282E-01 3.85830E-02-4.24636E-03 1.05186E-02 1.76999E-01-1.97149E-01
 -1      1781 1.38231E+00 3.50611E-02-4.32791E-03 9.11506E-03 9.67284E-02-1.21549E-01
 -1      1782 2.52162E+00 8.35160E-02 2.74615E-02-1.83476E-02 8.29240E-02-6.26721E-02
 -1      1783 3.57834E-01 7.79032E-02 1.03327E-01 2.54706E-02 1.25192E-01-2.04957E-01
 -1      1784 1.84866E+00-9.45633E-02-9.70858E-02-7.53455E-03 7.16314E-02-5.37831E-02
 -1      1785 2.54515E+00 5.28768E-02-4.63560E-02-5.99053E-02 5.39953E-02-2.58232E-02
 -1      1786 1.02737E+00-4.55710E-02-6.09516E-02-4.43927E-03 3.33252E-02-8.54471E-02
 -1      1787-3.12116E-03-6.41303E-04 2.58718E-02-1.11204E-03 9.44521E-03-2.37818E-02
 -1      1788-1.29190E-02-9.94617E-04 2.03387E-02 1.70293E-03 7.32551E-03-2.43170E-02
 -1      1789 2.49400E-01-1.26255E-02 9.65112E-02 1.81226E-03 8.44708E-02-1.91159E-01
 -1      1790 2.07520E+00-2.93900E-02-4.19118E-02-1.54302E-02 3.03243E-02-6.71961E-02
 -1      1791 8.45228E-01-2.86903E-03 8.74225E-03-1.31896E-02 1.84808E-02-1.49575E-01
 -1      1792-1.09859E-01-5.48344E-02 2.32767E-03-7.40587E-03 7.47482E-02-1.98387E-01
 -1      1793 2.66890E-03-8.47557E-04-2.08623E-02-3.14181E-04 5.16237E-03-1.66190E-02
 -1      1794 9.73623E-03 1.45133E-03-1.69890E-02-7.71378E-04 5.64619E-03-1.78514E-02
 -1      1795 2.66881E-02 2.42667E-05-1.77920E-02-4.37958E-03 5.58926E-03-1.95793E-02
 -1      1796 1.75274E+00 7.74972E-03 2.24542E-03-1.04214E-03 3.74187E-02-8.71697E-02
 -1      1797 3.85066E-01-2.84087E-02-1.21186E-02 1.18182E-02 8.20712E-02-1.81050E-01
 -1      1798 1.93915E+00 1.68568E-02-1.66521E-02-3.15145E-02 7.83733E-02-1.40091E-01
 -1      1799 1.24456E+00 5.86981E-02 5.90443E-02-3.82289E-02 8.62932E-02-1.05682E-01
 -1      1800 7.02208E-01 6.76420E-03-1.45262E-02-2.50254E-04 1.22569E-01-1.24123E-01
 -1      1801 1.34427E-01 6.90134E-02 9.30378E-02 2.10724E-02 6.97819E-02-1.42325E-01
 -1      1802 1.75627E+00-6.94168E-02-1.07938E-01-4.62506E-02 5.07966E-02-1.20590E-01
 -1      1803 1.27021E+00 1.04318E-02 9.10829E-03-2.38374E-02 7.44522E-02-1.62713E-01
 -1      1804 5.21012E-01-2.25322E-02-5.58096E-02-1.40175E-02 4.37967E-02-1.16680E-01
 -1      1805 2.13586E+00 7.29281E-02 5.71493E-02-7.19073E-03 1.99620E-02-7.42981E-02
 -1      1806 1.04930E+00 5.33388E-02-9.05416E-03-1.65325E-02 1.05762E-01-1.39420E-01
 -1      1807 2.40626E-01 1.56032E-02-4.22586E-02-1.04329E-02 1.05594E-01-8.96746E-02
 -1      1808 2.03164E+00 3.71835E-02-5.38330E-02-1.43139E-02 3.91031E-02-2.60029E-02
 -1      1809 1.37774E+00 8.55149E-02 8.55976E-03 3.40596E-04 8.79354E-02-1.41097E-01
 -1      1810 6.37529E-01 9.59059E-02-3.03820E-02 1.17832E-02 1.00420E-01-1.25325E-01
 -1      1811 2.59796E-01 5.10593E-02 2.47646E-02 5.09247E-03 8.06916E-02-1.00660E-01
 -1      1812-5.02135E-03 4.19135E-04 2.09315E-02 9.36615E-04 7.38728E-03-3.12801E-02
 -1      1813-1.70649E-03 1.33892E-03 2.32152E-02 5.76478E-04 8.33921E-03-2.80154E-02
 -1      1814 1.85204E+00 2.78393E-03 1.70220E-02-9.57761E-03 2.13646E-02-5.46030E-02
 -1      1815 8.07998E-01 4.96491E-03-1.12824E-02 2.73608E-02 7.06052E-02-1.57363E-01
 -1      1816 9.09226E-01 2.39587E-02 4.20016E-02 1.54025E-02 4.78925E-02-1.27104E-01
 -1      1817 2.87162E-01 2.07365E-02-7.93042E-02 1.05952E-02 6.23665E-02-1.11193E-01
 -1      1818-3.42267E-01 4.14714E-03-3.55748E-02-7.27336E-03 8.98112E-02-1.08159E-01
 -1      1819 1.46075E+00-3.61470E-02-7.31215E-03 2.13556E-03 1.98180E-02-6.26765E-02
 -1      1820 1.09915E-02 2.30879E-03-1.42309E-03-8.61966E-04 6.46865E-03-3.67859E-02
 -1      1821 5.12984E-03 4.70388E-03 8.45589E-03 1.02735E-03 6.79440E-03-3.00190E-02
 -1      1822 1.02553E+00-2.13124E-02-5.00417E-02-8.30132E-03 6.88614E-02-7.68420E-02
 -1      1823 6.09294E-01 6.48145E-02 7.11653E-02 7.31125E-04 1.07231E-01-1.41513E-01
 -1      1824-5.39001E-02 3.56435E-02 1.45051E-02-1.16255E-03 7.46353E-02-1.36040E-01
 -1      1825 1.91072E+00 2.56841E-02 1.11075E-02-7.28494E-03 2.69810E-02-4.55223E-02
 -1      1826 5.19216E-01-4.52987E-03 7.55949E-03 2.17980E-02 6.34781E-02-1.93316E-01
 -1      1827 9.47227E-01-4.05091E-02-4.72140E-02-6.82379E-03 7.88734E-02-1.76483E-01
 -1      1828-1.25476E-01 3.20602E-02 6.57839E-02-4.19209E-03 8.31060E-02-1.59096E-01
 -1      1829-1.60048E-02 4.45319E-04 1.58936E-02 3.40543E-03 6.41058E-03-4.85785E-02
 -1      1830-3.84068E-02-2.07316E-03 1.80599E-02 5.76990E-03 5.28429E-03-3.33940E-02
 -1      1831 1.40660E+00 3.27287E-02-3.85300E-02-5.19296E-03 8.83354E-02-7.82722E-02
 -1      1832 8.07149E-01 1.72708E-02-1.32896E-02 6.63552E-03 7.08647E-02-1.73522E-01
 -1      1833 2.53183E-01-1.80365E-03 7.84632E-02-7.23289E-04 2.32620E-02-1.35778E-01
 -1      1834-1.13170E-01-5.22925E-03 3.38082E-02-3.26917E-02 9.58850E-02-1.20698E-01
 -1      1835 1.55097E+00 6.89210E-02 1.55334E-02-1.21223E-02 6.54530E-02-1.02394E-01
 -1      1836 9.35890E-01 9.95486E-02 2.07642E-02-4.72683E-02 9.10533E-02-2.41928E-01
 -1      1837 4.63038E-01-1.28200E-02-9.40950E-03-2.89128E-02 8.41175E-02-1.70775E-01
 -1      1838-1.98628E-01-2.50305E-03-3.43184E-02-5.35688E-03 7.62677E-02-1.56204E-01
 -1      1839 2.87361E-02 8.62088E-04-1.38366E-02-2.93469E-03 6.93301E-03-4.60647E-02
 -1      1840 4.70366E-02 9.73884E-04-1.97801E-02-4.16138E-03 6.18661E-03-2.81172E-02
 -1      1841 1.05926E+00-1.91875E-03-2.92607E-02-2.39200E-02 8.34923E-02-1.33946E-01
 -1      1842 2.86587E-01 1.67442E-03-4.22874E-02 1.24622E-02 7.81359E-02-1.10436E-01
 -1      1843-3.22566E-01-6.89729E-02-7.38648E-02-1.83899E-02 8.67129E-02-1.36142E-01
 -1      1844-1.04154E-03 4.83617E-04 1.57509E-02 2.48482E-03 9.80556E-03-3.59318E-02
 -1      1845 9.04882E-01 7.97320E-03-1.72932E-02-6.24050E-03 8.73137E-02-1.13061E-01
 -1      1846 1.55207E+00 1.04616E-01 4.92811E-02-1.27772E-02 3.33984E-02-7.69833E-02
 -1      1847 4.62912E-01-9.13463E-02-7.10990E-02 3.73281E-02 1.26722E-01-9.92179E-02
 -1      1848 9.50782E-02-1.61011E-02-1.25556E-02 8.45799E-03 7.15834E-02-1.21422E-01
 -1      1849 6.73639E-01-1.17209E-02-4.47374E-03-1.39006E-02 7.55200E-02-1.55886E-01
 -1      1850 1.51621E-01 2.91678E-02 3.71128E-02 1.10006E-02 8.44262E-02-1.92274E-01
 -1      1851-3.93939E-01-4.48085E-02-8.49733E-02-2.69648E-02 1.48098E-01-1.16759E-01
 -1      1852 1.11322E+00-5.09908E-02-9.69829E-02-1.51229E-02 6.72386E-02-1.24469E-01
 -1      1853-3.61544E-01-4.33102E-02-7.13423E-02 1.64768E-02 9.20930E-02-1.12758E-01
 -1      1854 7.94404E-01 1.54257E-02-1.50597E-02-1.49572E-02 2.41717E-02-1.39992E-01
 -1      1855 1.43151E+00 4.24723E-02-4.78017E-03-8.87998E-03 2.86991E-02-5.22520E-02
 -1      1856 4.12994E-01 8.63597E-04-1.87449E-02-1.64072E-02 4.02523E-02-1.60330E-01
 -1      1857-3.43575E-02-6.00846E-02-1.00963E-01 5.67727E-03 4.15061E-02-1.66334E-01
 -1      1858-2.15147E-01-2.87024E-02-3.50128E-02-2.16347E-02 3.92095E-02-1.45463E-01
 -1      1859 8.94567E-01 4.81952E-02 2.10353E-03 1.96275E-03 4.11466E-02-1.25331E-01
 -1      1860 1.36236E+00 5.83605E-02 2.37011E-03 3.06675E-03 3.47235E-02-2.79201E-02
 -1      1861 6.29148E-01 2.82808E-02 3.80954E-02 1.74146E-03 4.44067E-02-1.69396E-01
 -1      1862 9.39473E-01 6.16797E-02 6.44007E-02-1.72011E-02 6.18158E-02-1.06528E-01
 -1      1863 2.68890E-01-1.14190E-02-5.38340E-02-5.37115E-03 1.33109E-02-1.54446E-01
 -1      1864-3.52440E-02-3.77300E-02-4.99594E-02-7.51173E-03 3.26053E-02-1.55546E-01
 -1      1865-3.63161E-01-1.01855E-02 5.38474E-02-6.23830E-03 6.36916E-02-1.60858E-01
 -1      1866 1.12337E+00 2.05555E-02-1.42495E-02-2.35964E-02 3.34661E-02-5.46641E-02
 -1      1867 5.40715E-01 2.37237E-02-5.92384E-03-2.40687E-03 6.20260E-02-1.20333E-01
 -1      1868-3.28901E-01-7.76324E-02-1.78394E-02 1.21705E-03 4.80434E-02-1.17592E-01
 -1      1869 1.19115E-01 2.54309E-02-3.29463E-03 2.56518E-03 2.82110E-02-1.33429E-01
 -1      1870 5.96671E-01 2.73081E-02-1.31990E-02-1.51518E-03 4.60550E-02-1.45029E-01
 -1      1871 1.05059E+00 2.82328E-02-2.38759E-02-9.54333E-03 2.55089E-02-5.95010E-02
 -1      1872-2.17415E-01 2.19797E-02 1.40842E-02-6.46368E-03 3.42664E-02-1.48820E-01
 -1      1873-6.44935E-01 3.33896E-03 1.49389E-02-8.82885E-03 3.72726E-02-1.22372E-01
 -1      1874 6.65400E-04-7.45085E-04 3.92162E-03 1.31769E-03 6.85568E-03-3.44169E-02
 -1      1875 1.27678E-01-2.30733E-02-2.81259E-02-7.57814E-03 2.59858E-02-1.61728E-01
 -1      1876-5.00412E-01 2.86977E-02 5.31101E-02-1.18701E-02 4.49802E-02-1.55457E-01
 -1      1877 5.56724E-01-9.62298E-03-3.47062E-02-6.48427E-03 5.38537E-02-1.45083E-01
 -1      1878 1.10110E+00 1.25294E-02 1.82397E-02 4.06240E-04 3.62724E-02-9.09749E-02
 -1      1879-1.55002E-01-1.60210E-04 2.42288E-03-1.28772E-02 1.14082E-02-1.57188E-01
 -1      1880 1.10034E+00 1.47258E-02-2.17257E-02-3.77014E-03 2.88509E-02-7.76902E-02
 -1      1881 1.25754E-01 3.53961E-02 1.26771E-02-3.66182E-03 5.69673E-02-1.57765E-01
 -1      1882-4.04573E-01-8.63292E-03 7.38376E-03-8.21036E-03 2.66856E-02-1.35973E-01
 -1      1883-2.45906E-03-1.01366E-03 9.60320E-03 6.44158E-04 5.36028E-03-4.52330E-02
 -1      1884-8.27313E-02-2.65434E-03 1.78796E-02 6.63360E-03 5.57739E-03-4.48153E-02
 -1      1885 6.41543E-01-3.43201E-02-6.92663E-02-4.98600E-04 5.99284E-02-1.26088E-01
 -1      1886 4.25498E-01 1.24746E-02-1.04948E-02-1.14656E-03 4.53188E-02-1.46893E-01
 -1      1887 7.19641E-01 2.45303E-02-8.69415E-02 1.96755E-02 2.69309E-02-1.00625E-01
 -1      1888 9.94789E-01 5.83338E-02-3.93361E-03 1.67163E-03 3.24182E-02-6.87330E-02
 -1      1889 4.02205E-01 2.94963E-03-2.99492E-02 5.99848E-03 1.74103E-02-1.17800E-01
 -1      1890-1.83058E-02-4.03270E-02-2.71703E-02-1.77763E-02 4.30690E-02-1.43262E-01
 -1      1891-3.22621E-01-2.92912E-02-1.68325E-02-1.52776E-02 3.76246E-02-1.22814E-01
 -1      1892-4.56584E-01-2.32265E-02 1.33179E-02 3.48553E-03 3.77324E-02-1.03016E-01
 -1      1893-5.07945E-01-3.00043E-02-1.16248E-02-1.89038E-03 2.33190E-02-1.09639E-01
 -1      1894 5.41324E-01 1.81495E-02-5.50277E-02 1.51627E-03 2.01352E-02-1.11471E-01
 -1      1895 9.16453E-01 4.57932E-02-4.19447E-02 8.45980E-03 1.31801E-02-7.59263E-02
 -1      1896 2.59540E-01-3.68996E-02-5.07753E-02-8.20006E-03 2.28979E-02-1.39759E-01
 -1      1897-3.06838E-02 1.12369E-02 3.66307E-02-5.09728E-03 3.12793E-02-1.31420E-01
 -1      1898-3.12714E-01 7.83695E-03 2.11994E-02-1.44373E-03 2.96317E-02-1.37166E-01
 -1      1899 6.17870E-01 2.35116E-02-3.02075E-02 1.04519E-02 3.45052E-02-1.40169E-01
 -1      1900-4.58259E-02 1.28241E-02 1.87677E-02 1.03346E-03 4.24679E-02-1.55503E-01
 -1      1901-4.79261E-01 8.38505E-03 4.58363E-02 7.14772E-03 3.72576E-02-1.27198E-01
 -1      1902 9.06601E-01 1.31563E-02-9.55689E-03-2.38275E-03 1.38826E-02-6.88174E-02
 -1      1903 2.81856E-01-1.52507E-02-2.53022E-02 7.50373E-04 2.87016E-02-1.36815E-01
 -1      1904-3.21269E-01 7.10521E-03 2.50504E-02 2.55838E-03 2.74112E-02-1.47313E-01
 -1      1905 5.98488E-01 5.06379E-04 6.59410E-03 1.15017E-03 5.70123E-02-1.20281E-01
 -1      1906-1.37964E-02 1.24627E-02 1.53400E-02 1.67811E-03 2.78055E-02-1.41512E-01
 -1      1907-4.80007E-01 3.06267E-02 6.07177E-02 2.28516E-03 2.63405E-02-8.93419E-02
 -1      1908 5.07333E-01-1.13008E-03 5.47543E-03-1.33637E-03 3.10946E-02-1.12294E-01
 -1      1909 7.61057E-01 1.19025E-02-1.39852E-02-2.34743E-02-5.04326E-03-7.39788E-02
 -1      1910-3.40985E-02 1.12452E-03 1.13361E-02 4.12629E-03 6.72498E-03-6.53474E-02
 -1      1911 1.68580E-01-3.54338E-02-4.31285E-03 2.71130E-04 4.85956E-02-1.41229E-01
 -1      1912-3.41781E-01 2.32363E-02 2.61903E-02-5.80065E-03 3.14312E-02-1.10816E-01
 -1      1913 2.61897E-03-3.83083E-02-3.52366E-02 2.77376E-03 4.72847E-02-1.46537E-01
 -1      1914-6.04244E-02-9.16206E-03-3.15994E-02 9.28958E-04 2.91822E-02-1.42474E-01
 -1      1915 2.76326E-01-1.37019E-02 1.78963E-02-4.50424E-03 3.84835E-02-1.17149E-01
 -1      1916 6.49873E-01 4.67130E-03-2.20174E-02-8.14591E-03 1.61854E-02-8.92153E-02
 -1      1917-1.91336E-01-1.99972E-02 3.81641E-03-7.52203E-04 4.39537E-02-1.36156E-01
 -1      1918-4.46885E-01-1.22457E-02-3.38566E-02-1.59357E-02 2.36379E-02-1.16807E-01
 -1      1919 9.16029E-02-9.02928E-03 8.17625E-03 9.22642E-04 3.38007E-02-1.53518E-01
 -1      1920-3.44612E-01 9.58980E-04-1.11059E-02 9.90055E-03 2.52201E-02-1.01484E-01
 -1      1921 3.61620E-01 2.23680E-03 6.79371E-03-1.00733E-02 1.21490E-02-1.13877E-01
 -1      1922 7.05498E-01 3.83480E-02 3.21539E-04-2.03804E-02 1.17038E-03-7.01834E-02
 -1      1923-6.18329E-02-9.94074E-03 2.85881E-02-1.03184E-05 3.03339E-02-1.31757E-01
 -1      1924 9.24622E-02-2.49801E-04-2.44721E-02-1.11167E-02 8.79899E-03-3.95503E-02
 -1      1925 6.04359E-02-2.22396E-03-2.20292E-02-6.07910E-03 8.71051E-03-5.00474E-02
 -1      1926 4.15204E-02-2.13868E-02 6.54962E-03-9.08376E-04 2.03062E-02-1.42294E-01
 -1      1927-1.38317E-01-4.94729E-03 2.51863E-02-4.49725E-03 3.61716E-02-1.44583E-01
 -1      1928-3.20879E-01-6.09960E-03 1.09244E-02 9.20650E-03 1.89464E-02-1.22864E-01
 -1      1929 2.78243E-01-1.80482E-03-8.14841E-03-5.53174E-03 1.53043E-02-1.22305E-01
 -1      1930 4.43719E-01 3.87183E-02 1.68653E-03-2.80720E-02 1.73212E-02-1.01054E-01
 -1      1931 5.41688E-01-1.36861E-02-3.87809E-02-3.16788E-03-3.05526E-03-8.69963E-02
 -1      1932 5.92520E-01 1.00618E-02-6.61324E-03-1.07476E-02 9.06140E-03-6.39027E-02
 -1      1933 1.31708E-02-2.73150E-02 6.06864E-03-8.93685E-04 2.58799E-02-1.52134E-01
 -1      1934-3.01640E-01-3.00328E-02-6.25939E-03 4.70965E-03 2.07859E-02-1.43234E-01
 -1      1935-3.24340E-01 1.41993E-02 3.49878E-02 5.74640E-03 2.60353E-02-1.31108E-01
 -1      1936-5.06445E-01-1.11580E-02 1.46344E-02 7.61935E-03 3.01530E-02-7.86404E-02
 -1      1937-1.24669E-01-1.10128E-04 1.89340E-02 9.59167E-03 1.01715E-02-5.60741E-02
 -1      1938 1.39598E-01-4.05055E-02-2.21320E-02 9.65524E-04 1.61820E-02-1.36658E-01
 -1      1939 2.92550E-01-1.13143E-02-3.51915E-03 4.57576E-03 1.69943E-02-1.22895E-01
 -1      1940-2.00281E-01-1.01013E-03 8.45053E-03 1.09076E-03 2.10209E-02-1.33495E-01
 -1      1941-4.44209E-01 5.04455E-03 1.51511E-02 1.14265E-03 1.16482E-02-7.67071E-02
 -1      1942 4.49401E-01-7.97701E-03-1.29111E-02-9.02706E-03 2.14478E-02-9.45744E-02
 -1      1943-2.47750E-02-4.54969E-03-1.25938E-02-4.10450E-04 1.78682E-02-1.39050E-01
 -1      1944 2.08743E-01 1.85620E-02 1.45114E-02 8.03703E-03 2.15606E-02-1.37381E-01
 -1      1945 3.02842E-01 5.09736E-03 1.57427E-02 9.61117E-03 1.83583E-02-1.27038E-01
 -1      1946-9.43948E-02 1.74834E-02 8.70562E-03-1.61161E-03 2.44722E-02-1.45116E-01
 -1      1947-2.38825E-01 6.39019E-03 8.90122E-03 2.66240E-03 2.88834E-02-1.27297E-01
 -1      1948 4.28879E-01 1.19607E-02-7.58233E-03-8.51966E-03 1.53915E-02-7.76195E-02
 -1      1949 7.31393E-02 4.53247E-03-2.43854E-03 1.62534E-03 1.83167E-02-1.31799E-01
 -1      1950 3.63269E-02 3.70130E-02 1.34397E-02-3.37901E-03 1.23706E-02-1.42702E-01
 -1      1951-3.83464E-01-9.45945E-03 1.14888E-02 9.16056E-03 1.32603E-02-8.68711E-02
 -1      1952 1.94331E-01-9.15107E-03-4.94005E-03-2.43414E-03 9.36342E-03-1.21704E-01
 -1      1953-7.01710E-02-2.39738E-03-1.06834E-02-5.95550E-03 1.41899E-02-1.54948E-01
 -1      1954-1.58554E-01 9.30451E-03-5.83372E-03-6.53305E-03 1.77073E-02-1.29399E-01
 -1      1955 2.81370E-01-7.18119E-03-1.24232E-02-1.51530E-02 1.12253E-02-9.13226E-02
 -1      1956-1.11257E-01 9.78702E-03-8.15710E-03-2.82054E-03 1.53311E-02-1.48768E-01
 -1      1957-2.70705E-01-3.54148E-03-5.47608E-03 8.88922E-03 1.10823E-02-9.33995E-02
 -1      1958 7.89648E-02-4.04067E-03-3.61977E-03 3.41194E-05 5.39741E-03-1.30446E-01
 -1      1959 1.58984E-01-1.50286E-02 3.78082E-03-4.27851E-03 1.06693E-02-1.17939E-01
 -1      1960-1.87945E-02-2.60415E-03-9.55536E-03-2.08310E-03 1.12226E-02-1.45795E-01
 -1      1961 1.71407E-01 3.40125E-04-5.88560E-03-5.57846E-03 1.25811E-02-1.12829E-01
 -1      1962 3.01491E-01 1.54947E-02 2.29320E-03-1.45709E-02 9.63738E-03-7.64057E-02
 -1      1963-4.91140E-02 8.95576E-03-5.90924E-03 1.24779E-03 2.37212E-02-1.53282E-01
 -1      1964-1.36578E-01-1.25258E-03-1.57840E-03 6.53622E-03 1.62993E-02-1.28382E-01
 -1      1965-2.25990E-01 2.98184E-03 4.00804E-03 1.05531E-02 4.02546E-03-8.84443E-02
 -1      1966 1.74833E-01-1.18188E-02-1.78590E-02-6.11467E-03 1.31024E-02-8.86273E-02
 -1      1967 2.89306E-01 2.43728E-02 6.22885E-03-1.55194E-02 1.11704E-02-7.08939E-02
 -1      1968 4.59287E-02 5.37928E-03 1.72386E-03-7.01122E-06 1.82968E-02-1.45461E-01
 -1      1969-1.42206E-01 3.95350E-03 4.34752E-03 1.12396E-02 1.74274E-02-1.16952E-01
 -1      1970-2.70231E-01-1.24157E-02-4.72307E-03 1.68046E-02 7.15036E-03-7.14295E-02
 -1      1971 1.14177E-01 2.91796E-03-2.38801E-03-3.65062E-03 9.86145E-03-1.17316E-01
 -1      1972-6.36292E-02 6.66536E-03 4.18499E-03 4.32139E-03 1.68087E-02-1.34478E-01
 -1      1973 1.69173E-01 7.50791E-03-6.62017E-03-1.17304E-02 6.65326E-03-7.45375E-02
 -1      1974-9.02079E-03 1.16547E-03-4.06447E-03 2.12105E-03 1.44381E-02-1.26115E-01
 -1      1975-1.54797E-01-2.27974E-03 1.07556E-02 7.46318E-03 1.04385E-02-8.24334E-02
 -1      1976 6.78586E-02 1.16688E-04-1.33504E-02 2.74749E-03 1.73585E-02-1.11243E-01
 -1      1977-7.19006E-02 4.96862E-03 1.40614E-02 3.24727E-03 8.53861E-03-1.11968E-01
 -1      1978 1.03884E-01-4.08411E-03-2.11962E-02-5.22537E-03 7.36963E-03-8.10482E-02
 -1      1979 3.01276E-03-1.20684E-02-5.77120E-03 5.90048E-03 1.03523E-02-1.12056E-01
 -1      1980-6.86541E-02-3.91225E-04 1.96356E-02 4.00577E-03 7.03057E-03-9.81279E-02
 -1      1981 6.57576E-02 8.86002E-04-7.75715E-03 2.18116E-03 1.09743E-02-1.05267E-01
 -1      1982 9.34011E-02 6.49531E-04-1.74370E-02-5.01724E-03 1.15079E-02-6.94650E-02
 -1      1983 1.26291E-02 2.34701E-03 6.74983E-03 1.67291E-03 7.25781E-03-4.87175E-02
 -1      1984-6.52172E-02 2.64324E-03 1.81156E-02 8.60058E-04 5.45064E-03-7.34742E-02
 -1      1985 6.10230E-03-4.03225E-03-5.96311E-03 8.51384E-04 7.43014E-03-5.80847E-02
 -1      1986-2.81593E-02-3.61717E-05 7.59699E-03 1.32481E-03 7.47874E-03-8.32041E-02
 -1      1987 5.47283E-02 8.59173E-03-3.96171E-03-1.50913E-03 9.46711E-03-8.31625E-02
 -1      1988-5.54402E-03 1.73301E-03 1.12113E-02 1.20310E-03 5.89356E-03-6.19999E-02
 -1      1989 2.48381E-02 9.69083E-04-8.58331E-03-2.97175E-03 7.93610E-03-6.82166E-02
 -1      1990 6.90586E-03-2.83466E-03-8.49725E-03 2.37071E-03 7.87361E-03-9.27909E-02
 -1      1991 0.00000E+00 0.00000E+00 0.00000E+00 0.00000E+00 0.00000E+00 0.00000E+00
 -1      1992-6.23329E-01-3.02287E-02-3.48000E-02 1.42688E-02-5.85436E-03-3.86296E-02
 -1      1993-6.90373E-01-2.42897E-02-1.38820E-02 1.17282E-02 2.32193E-02-6.86817E-02
 -1      1994-6.57324E-01-2.91067E-03 6.96120E-03 5.84633E-03 2.64517E-02-7.85947E-02
 -1      1995-7.60629E-01 1.95509E-02 2.05627E-02 1.59020E-02 1.87530E-02-8.47341E-02
 -1      1996-8.55508E-01 2.51541E-03-3.81064E-02 2.88511E-02 1.66816E-02-9.59429E-02
 -1      1997-8.23638E-01 4.95348E-04 2.14545E-02 1.11104E-02 2.29697E-02-9.43096E-02
 -1      1998-8.41693E-01 2.82926E-03 4.84615E-02 7.40246E-03 2.09948E-02-7.81819E-02
 -1      1999-9.21292E-01-1.67208E-02 1.38989E-02 2.39269E-03 1.74574E-02-9.36099E-02
 -1      2000-1.02816E+00 5.93555E-03 5.06803E-02 3.80175E-03 2.69460E-02-9.19784E-02
 -1      2001-1.06165E+00 3.91376E-03 5.73097E-02 5.78985E-03 4.09334E-02-5.91645E-02
 -1      2002 0.00000E+00 0.00000E+00 0.00000E+00 0.00000E+00 0.00000E+00 0.00000E+00
 -1      2003-1.09065E+00-1.18529E-02 4.56259E-02 9.12435E-03 2.20348E-02-9.40653E-02
 -1      2004-6.21983E-01-1.70970E-02 3.03930E-02-6.80686E-03 3.33584E-02-1.46797E-01
 -1      2005 0.00000E+00 0.00000E+00 0.00000E+00 0.00000E+00 0.00000E+00 0.00000E+00
 -1      2006-1.33647E+00-6.06166E-02-1.65562E-02 1.06562E-02 2.40772E-02-7.88850E-02
 -1      2007-7.59048E-01-6.92810E-02-5.97673E-02-3.62051E-02 6.85862E-02-1.48815E-01
 -1      2008-9.74968E-01-7.40151E-02-2.18325E-02-3.18797E-02 4.78219E-02-1.19969E-01
 -1      2009-7.28252E-01-2.68956E-02-1.19399E-02-3.67246E-03 7.14974E-02-1.26294E-01
 -1      2010 0.00000E+00 0.00000E+00 0.00000E+00 0.00000E+00 0.00000E+00 0.00000E+00
 -1      2011-1.33598E+00-3.28364E-02 2.00389E-02 5.90303E-03 3.59512E-02-9.24615E-02
 -1      2012-7.32141E-01-4.76933E-02-5.04491E-02-3.29351E-03 5.64407E-02-1.19103E-01
 -1      2013-1.52748E+00-1.10470E-01-1.69510E-03-2.69076E-03 2.73864E-02-7.47262E-02
 -1      2014-8.91415E-01-1.14151E-01-5.62916E-02 2.59238E-03 3.49573E-02-1.03859E-01
 -1      2015-1.18216E+00-2.83554E-02 3.87057E-02 4.96710E-03 3.04331E-02-8.95742E-02
 -1      2016-6.44888E-01 2.16653E-02 3.07891E-02 1.53430E-03 3.79946E-02-1.38315E-01
 -1      2017-7.77779E-01 2.10405E-02 2.44825E-03-4.42777E-03 7.15157E-02-1.29622E-01
 -1      2018-1.65225E+00-4.56520E-02-2.27584E-02-1.17456E-05 1.60791E-02-4.01213E-02
 -1      2019-1.55866E+00-7.67633E-03-1.27803E-02 2.71907E-02 1.81352E-02-4.29508E-02
 -1      2020-1.10610E+00-1.87785E-02-1.89506E-02-2.01148E-03 5.97382E-02-1.17827E-01
 -1      2021-6.63251E-01-3.75745E-03-1.81407E-02-1.01209E-02 8.79161E-02-1.76812E-01
 -1      2022 0.00000E+00 0.00000E+00 0.00000E+00 0.00000E+00 0.00000E+00 0.00000E+00
 -1      2023-1.70686E+00-5.02025E-03 3.27913E-02 4.46703E-02 1.24710E-02-4.34061E-02
 -1      2024-1.02312E+00 2.75615E-02 4.20136E-02 9.90028E-03 5.94923E-02-1.31635E-01
 -1      2025-6.93092E-01 2.86063E-02 1.94871E-02-9.79470E-03 4.97443E-02-1.46068E-01
 -1      2026-1.97354E+00-1.52067E-02 6.52319E-02-9.35789E-03 9.36056E-03-3.12864E-02
 -1      2027-1.42757E+00-8.41830E-03 5.23832E-02-8.90334E-05 4.73768E-02-8.71148E-02
 -1      2028-7.74714E-01 5.10636E-03 7.38239E-02-2.24769E-02 3.95871E-02-1.29929E-01
 -1      2029-1.93321E+00-1.22515E-02 4.46797E-02-9.50746E-03 7.16460E-02-7.98315E-02
 -1      2030-1.02194E+00-4.52334E-02 5.24065E-02-1.67544E-02 1.00458E-01-7.07870E-02
 -1      2031-5.20720E-01-3.36406E-02 4.99455E-02 2.16835E-02 4.36509E-02-7.26876E-02
 -1      2032-1.54265E+00-1.42376E-02 4.41306E-02 7.25387E-03 1.46410E-01-1.08139E-01
 -1      2033-9.54706E-01-2.91136E-02 3.54190E-02 7.23251E-03 6.71273E-02-6.76454E-02
 -1      2034-3.69936E-01-5.81456E-02 1.85504E-03 1.13960E-02 1.18843E-01-1.48068E-01
 -1      2035-1.93179E+00-6.24770E-02-5.67346E-02 2.29783E-02 6.70628E-02-9.41638E-02
 -1      2036-1.16733E+00-1.40467E-02 4.62182E-02 2.20632E-02 1.07840E-01-1.16190E-01
 -1      2037-3.34827E-01-2.55173E-02 3.91713E-03 2.64356E-02 1.14080E-01-1.18530E-01
 -1      2038-1.75502E+00 3.02128E-02 9.36013E-02 2.11018E-03 1.42167E-02-6.86358E-02
 -1      2039-1.00327E+00-5.70194E-02-6.97949E-02 1.40391E-02 7.75155E-02-1.27245E-01
 -1      2040-2.59194E-01 2.51981E-03 3.36180E-02 2.59461E-02 1.14530E-01-1.20674E-01
 -1      2041-1.49542E+00-1.03461E-02-3.84577E-02 2.47815E-02 9.58016E-02-1.27410E-01
 -1      2042-2.22393E+00-6.24020E-02-3.71095E-02 9.22463E-03 5.13463E-03-2.87806E-02
 -1      2043-5.70866E-01 7.43105E-02 8.25828E-02 2.97301E-02 9.17367E-02-1.37522E-01
 -1      2044 0.00000E+00 0.00000E+00 0.00000E+00 0.00000E+00 0.00000E+00 0.00000E+00
 -1      2045-1.02816E+00 6.92507E-02-1.79954E-02-5.57637E-03 7.45230E-02-1.99507E-01
 -1      2046-4.19539E-01 9.78181E-02 1.05690E-01 9.60137E-03 1.12273E-01-1.97397E-01
 -1      2047-1.87736E+00 1.36836E-03-3.29760E-03-1.96735E-02 3.88564E-02-7.54745E-02
 -1      2048-1.02361E+00 1.19052E-01 8.28851E-03 1.73895E-02 1.47395E-01-2.04233E-01
 -1      2049-3.70357E-01-4.56085E-03 3.04750E-02 8.31891E-03 1.08107E-01-2.51961E-01
 -1      2050 0.00000E+00 0.00000E+00 0.00000E+00 0.00000E+00 0.00000E+00 0.00000E+00
 -1      2051 0.00000E+00 0.00000E+00 0.00000E+00 0.00000E+00 0.00000E+00 0.00000E+00
 -1      2052 0.00000E+00 0.00000E+00 0.00000E+00 0.00000E+00 0.00000E+00 0.00000E+00
 -1      2053-1.96706E+00-1.37971E-02-4.34441E-03 1.77485E-03 7.34577E-02-6.83642E-02
 -1      2054-1.26108E+00 4.91541E-03-7.89874E-02 3.31659E-02 1.35445E-01-1.29176E-01
 -1      2055-6.55195E-01-2.56719E-02 6.79044E-03 3.56806E-02 1.48153E-01-1.90117E-01
 -1      2056-1.21425E+00-2.39462E-02-7.36111E-02-1.39423E-02 6.65704E-02-1.08891E-01
 -1      2057-2.05846E+00-8.20104E-03 1.01696E-01 5.97418E-03 9.48845E-02-1.14545E-01
 -1      2058-8.73823E-01-1.82177E-01-1.20476E-01-2.47396E-02 1.16411E-01-6.90966E-02
 -1      2059-1.42420E+00 3.95982E-02 3.95305E-02-6.11340E-02 8.72849E-02-1.05004E-01
 -1      2060-2.22544E+00-1.23349E-03 1.47767E-01 1.50276E-03 2.22706E-02-6.95670E-02
 -1      2061-5.97916E-01-4.59125E-02-8.14909E-03 2.43438E-03 7.24371E-02-1.37794E-01
 -1      2062 0.00000E+00 0.00000E+00 0.00000E+00 0.00000E+00 0.00000E+00 0.00000E+00
 -1      2063-1.12751E+00-3.66786E-02 1.76720E-02 1.32062E-02 7.12194E-02-1.11210E-01
 -1      2064-2.09833E+00-6.99355E-02 1.10470E-02-1.72906E-02 3.34833E-02-7.51607E-02
 -1      2065-3.49204E-01 2.61999E-02 8.31930E-02 2.88569E-02 6.48624E-02-1.68083E-01
 -1      2066 0.00000E+00 0.00000E+00 0.00000E+00 0.00000E+00 0.00000E+00 0.00000E+00
 -1      2067-1.35299E+00 4.16376E-03 4.64842E-02 2.65565E-02 7.33722E-02-1.19398E-01
 -1      2068-2.67501E+00-1.82876E-01-8.43001E-02-6.34570E-02-1.10126E-02-5.10095E-02
 -1      2069-4.53366E-01-3.92065E-02-3.41824E-02 1.59857E-02 1.02197E-01-7.99226E-02
 -1      2070-9.90644E-01-3.16765E-02 3.94895E-02 2.53732E-02 6.68136E-02-1.33403E-01
 -1      2071-1.86483E+00 5.34836E-02-7.12538E-03 1.89142E-02 8.37915E-02-4.67179E-02
 -1      2072 5.57156E-02-6.44611E-03 6.28394E-02-2.87849E-03 8.98329E-02-1.17410E-01
 -1      2073 0.00000E+00 0.00000E+00 0.00000E+00 0.00000E+00 0.00000E+00 0.00000E+00
 -1      2074-1.94894E+00-5.46250E-03-9.11354E-02 1.82000E-02 1.70310E-01-5.83885E-02
 -1      2075-9.81839E-01-4.99559E-02 3.80559E-02 4.20179E-02 1.25530E-01-1.30041E-01
 -1      2076-2.80558E+00-1.10480E-01-5.48326E-02 1.41637E-03 3.33456E-02-7.47255E-02
 -1      2077-1.56703E+00 5.07512E-02 4.77644E-02-3.83877E-02 1.29566E-01-1.30453E-01
 -1      2078-8.88465E-01-1.42530E-02 3.87176E-02-1.74325E-03 7.52495E-02-7.73438E-02
 -1      2079-2.50468E+00-3.42467E-02 3.59816E-02 4.03989E-02 8.45261E-02-7.19821E-02
 -1      2080-7.60637E-01 4.99804E-02 8.36068E-02 1.10058E-02 5.32641E-02-1.10427E-01
 -1      2081 1.68635E-01 8.21428E-03 1.02379E-01-3.13272E-02 4.04568E-02-2.03506E-01
 -1      2082-1.80531E+00-7.90906E-02 1.11455E-02 2.34918E-02 1.37389E-01-1.23544E-01
 -1      2083-2.84494E+00-1.01110E-01-7.44151E-02 4.88899E-02 3.99868E-02-1.20280E-01
 -1      2084-9.45642E-01 6.75719E-02 1.62980E-02 2.50375E-03 8.90003E-02-9.04661E-02
 -1      2085 5.24018E-01 2.46561E-02-2.30718E-02-4.34899E-03 7.20744E-02-6.36594E-02
 -1      2086-1.74961E+00 6.11109E-03 4.69399E-02-3.08720E-02 1.41225E-01-1.26211E-01
 -1      2087 0.00000E+00 0.00000E+00 0.00000E+00 0.00000E+00 0.00000E+00 0.00000E+00
 -1      2088 0.00000E+00 0.00000E+00 0.00000E+00 0.00000E+00 0.00000E+00 0.00000E+00
 -1      2089-2.73205E+00-4.31069E-02 7.11026E-02 1.48287E-02 2.60458E-02-5.27882E-02
 -1      2090-5.73726E-01 8.66737E-03 2.65364E-02-3.09027E-03 7.80146E-02-1.49120E-01
 -1      2091 3.18551E-01 1.13500E-01 9.60869E-02 4.01977E-03 1.25359E-01-1.15926E-01
 -1      2092-1.80866E+00-5.66740E-02 2.08776E-02 4.59945E-03 9.40135E-02-1.58513E-01
 -1      2093 4.64824E-02 2.41234E-02 3.79914E-02-3.56549E-02 1.01783E-01-1.07760E-01
 -1      2094 0.00000E+00 0.00000E+00 0.00000E+00 0.00000E+00 0.00000E+00 0.00000E+00
 -1      2095-2.94165E+00-8.67245E-02 9.84595E-03 9.68220E-03 2.10325E-02-1.11212E-01
 -1      2096-1.32640E+00-8.61362E-02-1.61390E-02 1.80463E-02 1.11260E-01-1.51694E-01
 -1      2097 4.03674E-03-9.19326E-03 3.83698E-02-2.91033E-02 1.01677E-01-1.18977E-01
 -1      2098-1.90483E+00-6.22495E-02 3.50512E-02 4.97992E-02 5.21167E-02-1.94126E-01
 -1      2099-2.69987E+00-3.80068E-02 4.46113E-02 4.62044E-02 2.75632E-02-1.03179E-01
 -1      2100-9.97447E-01 3.17220E-02 6.55755E-02-1.10073E-02 5.28507E-02-1.57146E-01
 -1      2101-6.83485E-02 9.12825E-02 2.89242E-02-5.91879E-02 1.73946E-01-1.04482E-01
 -1      2102-1.98497E+00-1.93224E-01-5.33059E-02 2.90704E-02 6.12841E-02-1.67517E-01
 -1      2103 8.29585E-01-2.04358E-02-7.97381E-02-7.95144E-03 9.14383E-02-1.60949E-01
 -1      2104-1.86314E+00 9.88726E-02 1.52690E-01 1.03700E-01 1.14350E-01-7.05280E-02
 -1      2105-3.11669E+00-3.41653E-02-8.47222E-02 5.89072E-02 2.04973E-02-6.27454E-02
 -1      2106-7.35681E-01-7.87766E-03 3.13309E-02 9.45285E-03 8.73782E-02-1.50959E-01
 -1      2107-1.43315E+00-4.18758E-02 5.88307E-02 3.64368E-02 6.03967E-02-1.21691E-01
 -1      2108-1.81096E-01-1.04095E-01 1.63259E-02 1.74497E-03 1.54283E-01-1.80866E-01
 -1      2109 1.16746E+00 4.85286E-02-4.20762E-02 3.04306E-02 2.23739E-02-1.47977E-01
 -1      2110-2.31779E+00-1.30448E-01 1.50737E-04 6.70947E-02 1.43615E-01-5.18613E-02
 -1      2111-2.97033E+00-2.37337E-02 1.22352E-02 5.62372E-02 1.04027E-01-6.86902E-02
 -1      2112-1.97438E+00 9.41349E-02 5.63616E-02 6.30505E-02 6.61463E-02-1.08392E-01
 -1      2113 0.00000E+00 0.00000E+00 0.00000E+00 0.00000E+00 0.00000E+00 0.00000E+00
 -1      2114-1.11413E+00 8.97772E-03 1.14860E-01-2.72059E-02 3.02956E-02-1.69471E-01
 -1      2115 1.34900E-01 5.01170E-02 6.66935E-02 5.90302E-03 1.40463E-01-1.70768E-01
 -1      2116-3.28523E+00-1.05182E-01 3.40856E-02 5.28728E-02 1.81377E-02-7.53465E-02
 -1      2117-4.43053E-01-1.99565E-02 5.29523E-02-3.93444E-03 1.88840E-01-1.73686E-01
 -1      2118 3.58929E-01 4.86577E-02-4.35561E-02 1.48324E-02 1.60989E-01-1.62014E-01
 -1      2119-1.31116E+00-3.57901E-02 4.67876E-02 5.10953E-02 7.31277E-02-1.56481E-01
 -1      2120-2.08058E+00 3.21423E-02 1.12115E-01 7.57094E-02 1.11755E-01-9.52586E-02
 -1      2121 1.26024E+00 3.47217E-02-2.80113E-02-2.69078E-02 1.31511E-01-2.47018E-01
 -1      2122-3.11275E+00-4.61207E-03 1.98485E-01 5.57668E-02-5.59997E-04-9.64220E-02
 -1      2123-2.72017E-01-2.12876E-02 2.07858E-02-5.77316E-03 1.50848E-01-1.85005E-01
 -1      2124 4.97947E-01 5.22306E-03 1.26275E-02-3.24101E-02 1.42384E-01-1.41943E-01
 -1      2125-1.60696E+00-2.96521E-02 8.28275E-02 7.74705E-03 7.64225E-02-1.30989E-01
 -1      2126-3.28592E+00-8.68907E-02 6.96319E-02 2.04491E-02 4.52974E-02-9.02328E-02
 -1      2127 0.00000E+00 0.00000E+00 0.00000E+00 0.00000E+00 0.00000E+00 0.00000E+00
 -1      2128-1.69193E-01-1.01944E-01 2.07704E-02 1.36755E-02 1.35997E-01-4.13073E-02
 -1      2129-1.36902E+00-5.70309E-02 1.29259E-02-5.96356E-03 4.76038E-02-1.69983E-01
 -1      2130-2.99434E+00-7.58541E-02-1.66429E-02 1.11800E-03 1.20796E-01-6.87484E-02
 -1      2131 7.98563E-01-3.15906E-02 5.33102E-02 1.58305E-02 5.91083E-02-1.00287E-01
 -1      2132 1.42236E+00-1.39625E-01-6.91466E-02 4.43752E-02 1.06997E-01-9.08828E-02
 -1      2133-2.73229E-01-4.98760E-02 7.18791E-02 1.55087E-02 1.40221E-01-1.70888E-01
 -1      2134-1.98086E+00-2.01652E-02-3.46516E-02 2.25813E-02 1.20155E-01-1.44031E-01
 -1      2135 1.09782E+00 3.72054E-02-9.20380E-02 3.85411E-02 9.09958E-02-4.74839E-02
 -1      2136-3.96688E+00-8.83714E-02-3.60973E-02-5.34410E-02 4.51615E-02-3.36655E-02
 -1      2137-9.92188E-01 6.03185E-02 2.01618E-01 2.05934E-02 2.00800E-01-1.09638E-01
 -1      2138 6.45992E-02 8.27050E-04-3.81126E-02 2.85571E-02 1.46409E-01-1.51831E-01
 -1      2139 1.09762E+00 7.07752E-02-4.53556E-02-9.18040E-03 2.69757E-01-1.06825E-01
 -1      2140 1.62929E+00 6.45137E-02-1.56608E-01-2.86755E-03 1.79944E-01-2.75983E-02
 -1      2141-1.46331E+00 1.01305E-01 1.79582E-01 5.22894E-02 1.72914E-01-8.82598E-02
 -1      2142-2.76085E+00-2.29693E-02-5.16120E-02 5.08880E-03 7.17559E-02-9.19958E-02
 -1      2143-2.16738E-01 1.50699E-01 1.57898E-01 1.44902E-02 1.62765E-01-1.54255E-01
 -1      2144 1.02211E+00-6.82528E-03-1.23695E-01-3.85091E-02 2.20340E-01-9.28081E-02
 -1      2145 1.88889E+00 7.10809E-02-1.57484E-01-6.93402E-02 2.41122E-01 3.44745E-02
 -1      2146-1.11349E+00 1.40655E-01 2.72408E-01 1.16250E-02 2.51644E-01-8.48573E-03
 -1      2147-3.02889E+00-2.08097E-01-1.18924E-01-2.96750E-02 1.59260E-01-4.26359E-02
 -1      2148 1.01058E+00-4.71085E-02-1.40825E-01-2.48575E-02 1.92108E-01-1.33008E-04
 -1      2149 2.32443E+00 5.25241E-02-1.01472E-01-4.50569E-02 2.21685E-01 3.19766E-02
 -1      2150 0.00000E+00 0.00000E+00 0.00000E+00 0.00000E+00 0.00000E+00 0.00000E+00
 -1      2151 0.00000E+00 0.00000E+00 0.00000E+00 0.00000E+00 0.00000E+00 0.00000E+00
 -1      2152-1.65543E-01 9.75385E-03 5.00583E-02 2.90924E-02 1.94815E-01-5.70052E-02
 -1      2153-1.44399E+00-1.74061E-01-1.81174E-01-1.65114E-02 2.57896E-01 2.77313E-02
 -1      2154-3.18075E+00-3.42734E-01-1.61639E-01-1.90139E-01 1.29721E-01-3.50765E-02
 -1      2155 2.38773E-02 1.40742E-01 5.81329E-01-7.31406E-02 2.82174E-01 3.74916E-02
 -1      2156 7.68216E-01 1.80569E-01 3.31701E-01 5.47868E-03 1.87207E-01 6.49626E-03
 -1      2157 2.02730E+00 2.09856E-01 2.37947E-01 1.70462E-02 1.92124E-01-1.48143E-02
 -1      2158 1.75064E+00 4.91353E-01 5.12186E-01 3.15335E-01 8.41665E-02 9.04565E-02
 -1      2159-6.58670E-01-9.44830E-02 6.72341E-03-1.89042E-01 1.83024E-01 1.59226E-01
 -1      2160-2.21633E+00-2.25401E-01-6.02078E-01-3.45403E-01-1.23443E-02 1.25610E-01
 -1      2161-3.17725E+00-1.39251E+00-1.18064E+00-3.72608E-01 6.10417E-02-1.62266E-01
 -1      2162 6.25313E-01 1.02210E-01 2.58278E-01 1.40324E-01 1.41189E-01 2.59292E-01
 -1      2163-8.24651E-01-3.13921E-01-3.43697E-01-1.75130E-01 1.94824E-02 1.01730E-01
 -1      2164-1.92798E+00-1.10417E+00-1.13405E+00-3.11853E-01 3.50616E-02 4.69765E-02
 -1      2165 1.32224E-01 8.01707E-02 1.70325E-01 1.29758E-02 6.34428E-02 1.23435E-01
 -1      2166 1.41435E+00 8.65650E-01 7.45198E-01 3.35905E-01-1.02625E-01 7.17340E-02
 -1      2167 1.64275E+00 9.57394E-01 9.47381E-01 3.03600E-01 2.23107E-02 1.69344E-03
 -1      2168-1.17969E+00-9.25615E-01-8.58965E-01-1.81062E-01-3.28832E-02-6.36873E-02
 -1      2169 1.77026E-01 4.54709E-02 6.91847E-02 6.99366E-02-2.31921E-02 4.62221E-02
 -1      2170 0.00000E+00 0.00000E+00 0.00000E+00 0.00000E+00 0.00000E+00 0.00000E+00
 -1      2171 0.00000E+00 0.00000E+00 0.00000E+00 0.00000E+00 0.00000E+00 0.00000E+00
 -1      2172 0.00000E+00 0.00000E+00 0.00000E+00 0.00000E+00 0.00000E+00 0.00000E+00
 -1      2173 0.00000E+00 0.00000E+00 0.00000E+00 0.00000E+00 0.00000E+00 0.00000E+00
 -1      2174 0.00000E+00 0.00000E+00 0.00000E+00 0.00000E+00 0.00000E+00 0.00000E+00
 -1      2175 0.00000E+00 0.00000E+00 0.00000E+00 0.00000E+00 0.00000E+00 0.00000E+00
 -1      2176 0.00000E+00 0.00000E+00 0.00000E+00 0.00000E+00 0.00000E+00 0.00000E+00
 -1      2177 0.00000E+00 0.00000E+00 0.00000E+00 0.00000E+00 0.00000E+00 0.00000E+00
 -1      2178 0.00000E+00 0.00000E+00 0.00000E+00 0.00000E+00 0.00000E+00 0.00000E+00
 -1      2179 0.00000E+00 0.00000E+00 0.00000E+00 0.00000E+00 0.00000E+00 0.00000E+00
 -1      2180 0.00000E+00 0.00000E+00 0.00000E+00 0.00000E+00 0.00000E+00 0.00000E+00
 -1      2181 0.00000E+00 0.00000E+00 0.00000E+00 0.00000E+00 0.00000E+00 0.00000E+00
 -1      2182 0.00000E+00 0.00000E+00 0.00000E+00 0.00000E+00 0.00000E+00 0.00000E+00
 -1      2183 0.00000E+00 0.00000E+00 0.00000E+00 0.00000E+00 0.00000E+00 0.00000E+00
 -1      2184 0.00000E+00 0.00000E+00 0.00000E+00 0.00000E+00 0.00000E+00 0.00000E+00
 -1      2185 0.00000E+00 0.00000E+00 0.00000E+00 0.00000E+00 0.00000E+00 0.00000E+00
 -1      2186 0.00000E+00 0.00000E+00 0.00000E+00 0.00000E+00 0.00000E+00 0.00000E+00
 -1      2187 0.00000E+00 0.00000E+00 0.00000E+00 0.00000E+00 0.00000E+00 0.00000E+00
 -1      2188-7.45025E-03-2.40661E-04 1.68916E-02-2.17079E-03-5.53933E-03-1.48308E-02
 -1      2189 7.37354E-03 7.18453E-04-1.48421E-02-4.84458E-05 3.90770E-03-1.67134E-02
 -1      2190-1.06940E-02-1.06233E-03 1.38619E-02-4.57205E-04-1.05221E-02-2.52809E-02
 -1      2191-8.72763E-03 7.46148E-04 1.49620E-02-9.14438E-04-6.36755E-03-2.32179E-02
 -1      2192-1.13162E-02-6.65529E-04 9.33990E-03-1.55148E-03-1.11043E-02-3.23825E-02
 -1      2193 5.86243E-03-4.64624E-04-1.27416E-02 2.00324E-04 1.77388E-03-1.86884E-02
 -1      2194 1.50628E-03-5.16203E-04-8.38880E-03-1.78087E-04 1.72986E-03-2.59356E-02
 -1      2195 6.88523E-03 3.66643E-03-2.49495E-02 3.79305E-04-3.74819E-03-1.20406E-02
 -1      2196 9.16954E-03 5.73822E-04-1.09786E-02-5.87173E-04 6.15912E-05-2.09280E-02
 -1      2197-3.97286E-03-4.45672E-04-6.01429E-03-1.10913E-03-9.02748E-03-3.21133E-02
 -1      2198-5.28713E-03 7.78034E-04 8.75417E-03 5.75815E-04-2.95473E-03-2.78444E-02
 -1      2199 9.00830E-03 1.57452E-03-2.28419E-02 1.02249E-03-4.91702E-03-1.90456E-02
 -1      2200 9.79743E-03 5.92937E-03-1.64640E-02-3.69433E-05-3.72049E-03-1.59539E-02
 -1      2201 8.24332E-03 9.19255E-05-1.05598E-02-9.96557E-04-8.07514E-04-2.61570E-02
 -1      2202 3.14612E-03 2.73012E-03 2.38307E-03-8.09521E-04 7.83030E-04-2.81060E-02
 -1      2203 3.89718E-03 3.30905E-03 5.96967E-03 2.97111E-04-2.78705E-03-3.01539E-02
 -1      2204-1.24386E-03-2.42059E-03 5.31994E-03 1.25765E-03-3.39956E-04-2.88875E-02
 -1      2205-1.39587E-03-5.73151E-04 7.93552E-03-8.25086E-05 1.97008E-03-3.04366E-02
 -1      2206 4.19478E-03 2.69275E-04 1.87885E-03 3.11240E-04-1.36220E-03-3.07918E-02
 -1      2207 1.86684E-03-2.82388E-03-1.60738E-02 1.57710E-04-4.13351E-03-2.95391E-02
 -1      2208 7.60738E-03 4.90874E-03-2.20704E-02 1.71355E-03-3.92763E-03-1.76582E-02
 -1      2209 1.74387E-03-1.29076E-03-1.87081E-02-1.64005E-03-6.63243E-03-2.86279E-02
 -1      2210 3.60953E-03-2.86546E-04-3.79821E-03 4.18241E-04 5.36894E-03-2.77407E-02
 -1      2211-5.69702E-03 3.49636E-04 1.90107E-02-1.45714E-03-2.41021E-03-1.63802E-02
 -1      2212-2.43814E-03 3.49833E-04 1.11676E-02 9.92957E-04 6.48217E-03-3.24616E-02
 -1      2213-8.55938E-04 1.21481E-03 6.34612E-03-2.89784E-04 1.66099E-03-2.70780E-02
 -1      2214-7.01330E-03-5.80999E-04 1.63429E-02-7.52967E-05 1.09752E-03-2.23302E-02
 -1      2215-5.28967E-03-6.25977E-04 2.43346E-02 3.81265E-04 6.64459E-03-1.90200E-02
 -1      2216-1.02578E-02-3.49539E-03 2.33911E-02 8.22082E-05 2.58517E-03-1.38043E-02
 -1      2217-8.47287E-03-3.01491E-03 2.28790E-02-2.54952E-03 5.50295E-04-1.28316E-02
 -1      2218-1.19967E-02-4.16897E-03 1.75325E-02-5.24196E-04 3.79661E-03-2.42064E-02
 -1      2219-4.45652E-04 4.00232E-03 1.91948E-02-1.09250E-03 2.64682E-03-2.97165E-02
 -1      2220-9.66110E-03-2.80598E-03 2.18449E-02 1.32498E-04 2.19830E-03-1.81189E-02
 -1      2221-2.52111E-03 2.50317E-03 2.01344E-02-3.63843E-04 4.03773E-03-2.67185E-02
 -1      2222 5.23613E-02-3.13369E-02 4.23984E-02-9.16831E-03 7.97998E-03-1.22956E-01
 -1      2223-1.61160E-01-1.06191E-01-9.99854E-02-1.45381E-02-1.40073E-02-1.37491E-01
 -1      2224 2.86470E-02-1.53296E-03-4.54488E-02 3.06396E-03 7.82553E-04-1.46617E-01
 -1      2225-1.11479E-01 6.85447E-02 1.21356E-02-2.63604E-02-4.60890E-02-1.29523E-01
 -1      2226-2.20337E-01-2.31566E-01-4.47690E-01-3.86701E-02-1.93586E-02-5.30413E-03
 -1      2227 2.52630E-02 2.15870E-04-4.57071E-02-3.65345E-02 1.46088E-02-1.19525E-01
 -1      2228-8.91216E-03-1.12877E-02-1.06365E-02 5.03882E-03-1.92162E-03-1.13572E-01
 -1      2229 1.11112E-02-1.17539E-02-8.74697E-03-2.05278E-03 5.23318E-03-1.27117E-01
 -1      2230-7.82891E-03 2.34799E-03 6.96034E-03-8.71697E-04-2.55629E-03-9.92676E-02
 -1      2231-2.88591E-01 2.23786E-02 2.62358E-02 3.12054E-02 3.39849E-03-1.58043E-01
 -1      2232-4.44252E-01-5.99815E-02-3.25035E-02-1.37720E-02 1.28344E-02-1.07485E-01
 -1      2233 0.00000E+00 0.00000E+00 0.00000E+00 0.00000E+00 0.00000E+00 0.00000E+00
 -1      2234 3.69717E-01-7.21215E-02-1.77619E-01-2.40197E-02-1.35876E-02-2.38482E-01
 -1      2235-1.22961E-01-1.25823E-01-1.17127E-01-1.74648E-02 4.13642E-03-1.22322E-01
 -1      2236-2.15228E-02-1.03013E-02-3.48452E-02-2.52125E-02-2.59901E-02-1.53723E-01
 -1      2237-1.59113E-02-2.38379E-03 2.50119E-03 5.38340E-04-2.13556E-03-5.80710E-02
 -1      2238-3.58938E-01-4.50022E-02-3.06797E-02-2.51543E-03 7.29371E-03-1.21224E-01
 -1      2239-2.60551E-01-1.83013E-02-1.52942E-02 3.42951E-03-1.38297E-02-1.20169E-01
 -1      2240-8.79534E-02-2.30730E-02-2.13573E-02 3.72530E-03 2.18213E-03-1.20735E-01
 -1      2241-1.77950E-01 2.96136E-03 2.27248E-02 2.27455E-03-4.57773E-03-1.19814E-01
 -1      2242 8.63868E-01 8.17311E-03-2.36239E-02 1.15254E-02 5.56819E-03-7.54246E-02
 -1      2243 9.91745E-02 4.16303E-03 9.71838E-04-4.92132E-03-1.84466E-03-1.19852E-01
 -1      2244-9.91648E-02-3.91339E-03-7.14993E-03-6.21768E-04 8.07681E-04-1.14466E-01
 -1      2245-1.34327E+00-6.32308E-02-5.47398E-03-4.62231E-02-3.59497E-02-1.24538E-01
 -1      2246 7.47067E-01-6.05806E-02-2.64157E-02 3.20000E-02 1.37820E-02-8.42051E-02
 -1      2247 2.71235E-01-7.72039E-04-2.72908E-02 1.26734E-02-4.76581E-03-1.17971E-01
 -1      2248-7.54658E-01-4.12692E-02-1.21037E-01-1.54675E-02-1.10417E-02-1.09543E-01
 -1      2249-1.19636E+00-4.97047E-02-1.18203E-02-8.41868E-03 1.46695E-02-1.59653E-01
 -1      2250 1.50394E-01 1.34573E-02 8.73335E-03-1.33153E-03-1.43399E-03-1.05273E-01
 -1      2251 9.67630E-01 4.00784E-02 2.76133E-04 5.06278E-03 1.79603E-02-1.48888E-01
 -1      2252 1.18974E+00 1.04867E-01 6.60860E-02 2.93630E-04-1.11604E-02-1.09389E-01
 -1      2253-7.05424E-01 1.24822E-03 2.88641E-02-4.09975E-02 1.73840E-03-1.29361E-01
 -1      2254-1.44423E+00-2.96879E-02 5.26101E-02 1.91695E-02 4.46396E-02-1.41279E-01
 -1      2255 2.61270E-01 2.38006E-02 1.25360E-02-9.81629E-05-2.27870E-03-1.13968E-01
 -1      2256-8.41378E-01-3.65029E-03 2.22290E-02 1.26732E-02-5.36798E-03-1.29467E-01
 -1      2257 3.55079E-02 1.93443E-03-1.89187E-03-1.44651E-03 2.77161E-03-6.66167E-02
 -1      2258 4.80630E-02 4.24267E-04-8.28072E-03 1.47028E-03-1.85388E-03-7.34518E-02
 -1      2259-1.45590E+00-1.95377E-01-1.41105E-01-5.24842E-02 3.54163E-03-1.80373E-01
 -1      2260-1.45948E+00-1.71044E-01-1.05677E-01 1.41690E-02-9.72542E-02-5.27378E-02
 -1      2261 1.53060E+00 9.06836E-02 2.89899E-02-3.54538E-02-2.67411E-02-2.26517E-02
 -1      2262-9.92983E-01-2.73764E-02-1.07833E-01 1.65105E-04-4.19636E-02-9.04238E-02
 -1      2263 8.86247E-01 3.03056E-02 1.54259E-02 1.95751E-02 2.34602E-02-1.45615E-01
 -1      2264 4.28425E-01 3.50928E-02 5.92732E-02-1.20009E-02 4.06322E-03-1.18445E-01
 -1      2265 3.47925E-01 1.14073E-03 6.30724E-03-1.70429E-03 4.18923E-03-1.07138E-01
 -1      2266-5.40504E-01 1.28573E-02 4.66503E-02 1.11491E-03 1.56711E-02-1.29716E-01
 -1      2267 1.58404E+00 1.34180E-01 1.05785E-01 1.35941E-02 2.39166E-02-1.04919E-01
 -1      2268-4.38429E-01-2.91858E-03 1.69990E-02-9.54939E-03-8.23419E-03-1.08897E-01
 -1      2269 1.57001E+00 2.58262E-01 1.58571E-01 7.60253E-02 4.26476E-02-1.18102E-01
 -1      2270 1.86314E+00 4.41217E-01 3.10686E-01-7.60176E-02-6.82962E-02-1.06894E-01
 -1      2271-4.65747E-02-2.59950E-03 8.76153E-03 4.08455E-04 1.05930E-03-6.97180E-02
 -1      2272-6.11610E-01-7.28599E-03 7.09144E-02 2.50794E-02-3.41660E-03-1.38934E-01
 -1      2273-1.15924E+00-1.71890E-02-1.52778E-02 1.81065E-02 2.83226E-03-8.99723E-02
 -1      2274 7.07675E-01 3.11531E-02 1.31198E-02 4.98826E-03 1.06348E-02-1.25911E-01
 -1      2275-5.58907E-01 3.68663E-02 7.28153E-03 3.34228E-03-3.60732E-03-1.35045E-01
 -1      2276-3.96030E-01-1.26815E-02-8.21591E-04 4.57516E-04-5.13531E-03-1.07345E-01
 -1      2277 7.52034E-01-3.07241E-02-4.28874E-02 3.14477E-02 1.17477E-02-1.08871E-01
 -1      2278-8.07101E-02-5.28791E-02-5.47995E-02 3.97973E-03-2.33092E-03 7.31297E-03
 -1      2279 8.57123E-02 7.40334E-02 6.83932E-02 1.38674E-02 5.75195E-03 9.80669E-03
 -1      2280-5.14657E-01 6.38380E-04 1.94472E-02-3.22914E-03 2.19246E-03-1.27312E-01
 -1      2281 1.20520E+00 1.43998E-01 1.72610E-01 5.08703E-03-2.38556E-02-1.10627E-01
 -1      2282 4.93590E-01 4.14798E-02 2.60303E-02 3.90259E-03 5.31865E-03-1.15684E-01
 -1      2283 4.72738E-01 7.80496E-03-1.75060E-02-8.41247E-03 5.07344E-04-1.16871E-01
 -1      2284-2.62040E-01 8.50555E-03 1.46409E-02-1.45867E-03 5.88239E-03-1.26179E-01
 -1      2285-4.59594E-01 1.03199E-02 3.38085E-02 9.81309E-03 6.20478E-03-1.08085E-01
 -1      2286-1.22632E-01-1.07332E-02-6.36672E-04-2.43022E-03-1.24924E-03-1.12181E-01
 -1      2287-1.42688E+00-5.41062E-02-9.39050E-02 1.08771E-02-2.50692E-02-8.81816E-02
 -1      2288-1.33960E+00-5.69636E-02-1.08316E-01-2.33544E-02 3.77409E-02-1.19882E-01
 -1      2289-4.94700E-01-1.26573E-02 2.68223E-02 5.07154E-03 1.63384E-02-1.26849E-01
 -1      2290-1.12399E-01 1.76805E-02-3.28183E-02 1.06465E-02-1.12779E-02-1.55232E-01
 -1      2291-4.06462E-01-2.24164E-02-4.59010E-02 4.10792E-03-4.94060E-03-9.98742E-02
 -1      2292 5.63247E-01 3.00159E-02 3.87837E-02 4.95289E-03-1.76487E-02-1.06233E-01
 -1      2293-1.16364E+00-5.72626E-02-1.85832E-02-1.22243E-02 1.70218E-02-8.00820E-02
 -1      2294 3.79693E-01 1.09719E-02 1.11010E-02-8.17831E-03 4.48282E-03-1.22277E-01
 -1      2295 1.02423E+00 1.94489E-02-2.90532E-02 4.09995E-03 4.60864E-03-1.11953E-01
 -1      2296 1.10159E+00-5.00577E-02-7.11761E-02-3.70925E-02 6.70335E-02-1.24414E-01
 -1      2297 2.56068E-01-2.17392E-02-3.37499E-02 4.21400E-03 4.95257E-03-1.24963E-01
 -1      2298-5.19252E-01 2.57441E-02 4.32308E-02 9.94619E-03-4.69117E-03-1.10540E-01
 -1      2299 4.98452E-02 3.34845E-02 3.32760E-02-2.20016E-03-2.74396E-04 6.01645E-03
 -1      2300-8.33599E-03-6.07836E-04 8.94502E-03-1.67387E-03 3.13736E-03-4.59574E-02
 -1      2301-5.32171E-01 6.08031E-03 9.34208E-03 4.10923E-03-3.54469E-03-1.17965E-01
 -1      2302 1.58332E+00 1.06677E-01 7.84767E-02 2.31912E-02 8.03090E-03-1.57615E-01
 -1      2303 1.34346E+00 2.39020E-02 6.98950E-02-1.15726E-02-1.12256E-02-1.25444E-01
 -1      2304 5.74168E-01-4.56185E-03-8.23169E-03-2.71295E-03-1.57882E-02-1.03522E-01
 -1      2305 1.63979E+00-7.43501E-02-7.17278E-02 3.27895E-03 5.40464E-02-1.39706E-01
 -1      2306-7.87356E-01-7.58099E-02-6.02287E-02 8.10266E-03-2.41322E-02-1.02986E-01
 -1      2307 0.00000E+00 0.00000E+00 0.00000E+00 0.00000E+00 0.00000E+00 0.00000E+00
 -1      2308 8.17186E-01 1.08632E-02-4.21622E-02-9.07284E-03 2.49634E-03-1.16953E-01
 -1      2309 0.00000E+00 0.00000E+00 0.00000E+00 0.00000E+00 0.00000E+00 0.00000E+00
 -1      2310 0.00000E+00 0.00000E+00 0.00000E+00 0.00000E+00 0.00000E+00 0.00000E+00
 -1      2311 1.77691E-02 1.00407E-03-7.92419E-03 2.52459E-04-1.72594E-03-3.53452E-02
 -1      2312-2.18834E-01-1.41868E-02-9.83735E-03 5.45160E-03 5.38339E-03-1.09027E-01
 -1      2313 2.79610E-01 7.09507E-03 3.95512E-03-1.87714E-03-4.13048E-03-1.04478E-01
 -1      2314 8.76760E-02-2.38029E-03-1.41299E-02-2.80325E-04 3.90878E-03-8.77163E-02
 -1      2315-1.81270E-01-1.59866E-02-1.76729E-02-3.93703E-03-6.69231E-04-1.20571E-01
 -1      2316 9.30153E-01 5.92532E-02 4.22768E-02 4.23157E-04 3.60564E-04-7.98169E-02
 -1      2317-1.11761E+00 2.32382E-03 3.37169E-03-1.57374E-03-8.00859E-03-9.53278E-02
 -1      2318 6.65373E-01 1.73406E-02 1.33220E-02-7.66038E-03-8.96451E-03-1.42141E-01
 -1      2319-4.62897E-01-6.40704E-03 4.90093E-03-6.27875E-04-1.24452E-02-1.03654E-01
 -1      2320 3.11739E-01 5.05124E-03-5.86000E-03 5.70532E-03 3.89532E-05-9.82872E-02
 -1      2321-1.83070E+00-9.17759E-01-7.25306E-01-2.20705E-01 5.00205E-03-3.70427E-02
 -1      2322 1.03388E+00 5.87237E-02 5.98173E-02 1.86835E-02-2.46250E-03-1.29039E-01
 -1      2323 1.11048E+00 1.41906E-02 2.56618E-03 1.94145E-02-8.04037E-04-7.60985E-02
 -1      2324-9.96640E-01-1.73634E-02-6.24619E-03-4.89374E-03 1.30804E-02-9.62773E-02
 -1      2325-1.26382E+00 6.23696E-03 3.16592E-02-4.96537E-03 1.48959E-02-8.44444E-02
 -1      2326 7.31566E-02 5.14509E-03-5.83471E-03 1.42397E-04-3.86385E-03-1.07955E-01
 -1      2327 1.72946E+00 9.16495E-02 8.86557E-02 3.08413E-02 3.64346E-02-8.28563E-02
 -1      2328 6.87706E-01-2.56984E-02 1.41470E-02-1.35112E-03 1.65689E-02-1.33063E-01
 -1      2329-6.06990E-01-1.22229E-02 1.75061E-03-1.60288E-02-1.98594E-02-1.17470E-01
 -1      2330-3.42031E-01-1.54409E-02-1.49127E-02-3.39888E-03 3.98896E-03-1.06102E-01
 -1      2331-1.05961E+00 1.45691E-02 3.39554E-02-5.59740E-04 6.82493E-03-1.05516E-01
 -1      2332 0.00000E+00 0.00000E+00 0.00000E+00 0.00000E+00 0.00000E+00 0.00000E+00
 -1      2333 3.97541E-01-1.06047E-02-6.59608E-03 5.15549E-03 6.58403E-04-1.04720E-01
 -1      2334-7.77601E-02-2.12453E-03 1.07953E-02-4.62236E-03-3.84242E-03-7.59879E-02
 -1      2335 9.75891E-01-5.12498E-02-8.40900E-02 2.16099E-03 2.43024E-02-8.08412E-02
 -1      2336-1.51946E+00-7.83102E-02-2.91511E-02-5.44272E-03 1.69977E-02-1.07979E-01
 -1      2337-1.26622E+00-4.03228E-03-6.54554E-02-1.76947E-02-4.85652E-03-1.01259E-01
 -1      2338 2.47528E+00 6.46725E-02-7.88212E-02 2.28719E-02 3.64967E-02-1.05087E-01
 -1      2339 7.01070E-01 5.75778E-02 4.28035E-02 9.83107E-03-5.32692E-03-9.25330E-02
 -1      2340 7.55765E-01 2.49629E-02 7.18567E-03 2.75241E-02-1.82788E-02-1.49823E-01
 -1      2341-1.62310E+00-2.67797E-02-3.31984E-04-5.60819E-03-3.23469E-03-1.15094E-01
 -1      2342-5.26259E-01-2.48984E-01-2.89385E-01 6.89491E-02-4.28324E-02 7.21008E-02
 -1      2343 1.35361E+00 1.15030E-01 1.30841E-02 1.11840E-02-2.25409E-02-1.13777E-01
 -1      2344 7.08364E-01-3.48252E-03-2.16300E-02-7.12227E-03-7.72505E-03-1.10984E-01
 -1      2345 9.33438E-01 7.16497E-02 2.37946E-02-9.29500E-03 1.93338E-02-1.58320E-01
 -1      2346 1.21373E+00 2.19039E-03-9.33202E-02 8.09254E-03 1.72875E-02-1.26733E-01
 -1      2347-2.30505E+00-6.97760E-01-4.89399E-01 1.86131E-02-7.29734E-02-2.18711E-01
 -1      2348-1.60359E+00-1.20441E-01-1.20460E-01 2.21453E-02 2.67535E-02-1.38893E-01
 -1      2349 3.29330E-02 8.74903E-03-9.93931E-03-5.17200E-03 3.54177E-03-1.31559E-01
 -1      2350-3.35295E-01 1.77824E-02 3.22085E-02-3.92332E-03-1.47977E-02-1.57421E-01
 -1      2351 2.12782E+00 4.03779E-02-5.15869E-02 2.42248E-02-8.34995E-02-5.97479E-02
 -1      2352-2.35910E+00-1.35740E-01 7.87780E-02 8.23870E-03-1.76604E-02-1.50318E-01
 -1      2353 2.05906E+00 2.55163E-03-1.12094E-02 3.86238E-03-7.77196E-02-2.83548E-02
 -1      2354 1.49681E+00-1.85682E-02-3.21345E-02 4.76063E-03-3.35810E-03-1.00719E-01
 -1      2355-1.19484E+00-2.73756E-02 4.44207E-03-1.34393E-02-7.47219E-03-1.26154E-01
 -1      2356-1.77820E-01-3.23192E-03 3.06399E-03-5.19524E-03 1.07066E-04-1.18553E-01
 -1      2357-1.31654E+00-1.30579E-02 1.19714E-02 1.20964E-02-3.13214E-03-1.00531E-01
 -1      2358 1.64281E+00-3.04121E-02-8.38822E-02 1.14309E-02-6.73814E-04-7.15772E-02
 -1      2359 0.00000E+00 0.00000E+00 0.00000E+00 0.00000E+00 0.00000E+00 0.00000E+00
 -1      2360-2.40801E+00-6.86597E-02-2.84790E-02-1.17656E-02-1.50926E-02-9.99716E-02
 -1      2361 8.15598E-02-1.60727E-03-1.10239E-02-4.04153E-03-2.87165E-05-1.39470E-01
 -1      2362 9.00575E-01 2.52601E-02-1.38306E-02-9.16979E-04-1.45663E-02-7.83568E-02
 -1      2363-1.25565E-01 2.33686E-03 1.40136E-02 2.14112E-04 1.09715E-03-6.82216E-02
 -1      2364-7.03434E-02-4.69054E-03-7.19473E-04-1.99309E-03 7.96041E-04-1.06519E-01
 -1      2365 2.46253E+00 1.17328E-01 4.37524E-03-2.21640E-02-1.64773E-03-4.95486E-02
 -1      2366 8.59053E-02-6.39471E-03-1.73943E-02-1.66949E-04-9.83396E-03-1.60573E-01
 -1      2367 5.71537E-02-1.07724E-02-1.24927E-02 3.20125E-04 4.49870E-05-1.20775E-01
 -1      2368-1.56709E+00-8.54474E-02-4.96192E-02 5.88027E-03 5.52086E-03-3.13319E-02
 -1      2369 3.19094E-01-1.04628E-02-8.46486E-02 5.21359E-03 2.15498E-02-9.66185E-02
 -1      2370-3.14608E-01-1.12728E-02-7.67246E-03-2.20469E-03 1.39359E-03-9.98869E-02
 -1      2371-5.49114E-02 9.81137E-03 8.88696E-03 4.96084E-05-3.41898E-03-1.28766E-01
 -1      2372 2.03277E+00 9.90886E-01 9.00980E-01-5.64190E-02 2.78497E-02-1.49703E-01
 -1      2373-3.96766E-02-9.78479E-03-3.83317E-02-5.57228E-03-2.30667E-02-1.02782E-01
 -1      2374 1.80041E-02 1.10439E-03-9.07363E-03-9.49608E-04 4.52751E-03-3.50703E-02
 -1      2375 5.05953E-02 2.60552E-02-3.15405E-03-1.74496E-02-2.05106E-02-1.01331E-01
 -1      2376 2.45260E-02-3.21602E-02-5.46934E-02-6.33126E-03 2.05775E-02-9.77186E-02
 -1      2377-1.06584E-02 1.74721E-03 1.42416E-03 1.15433E-03 1.59490E-03-1.17698E-01
 -1      2378-1.57306E+00-2.31798E-02-3.82501E-02 1.58319E-02 5.03365E-03-1.50678E-01
 -1      2379 1.91230E-01-6.78110E-03 2.37414E-02-2.61823E-02 7.93767E-02 7.65879E-02
 -1      2380-1.53700E+00 8.53734E-03 1.46905E-02-1.38356E-03 1.13221E-02-1.15848E-01
 -1      2381-1.95255E+00-1.12665E-02-2.84973E-02-1.76722E-02 2.02171E-02-1.31142E-01
 -1      2382-5.81906E-01-1.33454E-02 8.60832E-03 2.41703E-03 1.08596E-02-7.80723E-02
 -1      2383 1.76440E+00 1.14169E-01 7.72410E-02-1.36062E-02 2.29174E-02-6.35675E-02
 -1      2384 1.56486E-01-9.24064E-03-3.21546E-02 1.16763E-02-7.72547E-03-1.30298E-01
 -1      2385-1.35349E+00-7.29322E-04-3.75535E-02-6.83494E-03 6.33806E-03-9.53022E-02
 -1      2386 1.63897E-01 1.83970E-03-5.49543E-03-7.65065E-04 2.00922E-03-9.12881E-02
 -1      2387-8.59793E-01-9.06712E-02-1.55234E-02-1.26314E-02 5.17216E-02-1.15458E-01
 -1      2388-1.39740E+00 6.53583E-02 1.23821E-01-5.12820E-03 1.55919E-02-7.67974E-02
 -1      2389 2.21993E-01 3.04527E-02 6.47556E-02 2.40766E-03-3.38213E-02-1.90925E-01
 -1      2390 0.00000E+00 0.00000E+00 0.00000E+00 0.00000E+00 0.00000E+00 0.00000E+00
 -1      2391-7.30644E-01-1.20218E-02 5.20915E-03 3.38636E-03-4.22196E-03-9.69415E-02
 -1      2392-1.01986E+00-4.88498E-02-4.27960E-02 5.79639E-03 8.89372E-03-9.78779E-02
 -1      2393-7.93203E-01-4.70096E-01-4.66598E-01-4.02339E-02-5.57859E-04 4.16520E-02
 -1      2394 1.16634E+00 4.07480E-02 3.14814E-02-9.76867E-03 1.67256E-03-7.67082E-02
 -1      2395 1.94677E-01 1.87852E-04-8.09886E-03-4.19044E-03 1.99881E-03-1.17154E-01
 -1      2396 1.08628E+00 1.21107E-02-1.81398E-02 1.15133E-03 1.62511E-02-6.84613E-02
 -1      2397-1.63919E+00 3.16261E-02 1.24644E-01-1.09181E-02 2.54080E-02-1.09214E-01
 -1      2398 1.41177E+00 4.16188E-03-2.89209E-03-4.15708E-03-1.05582E-02-8.04023E-02
 -1      2399 2.81668E+00 2.32673E-01-1.50510E-03-1.48055E-02 1.38502E-02-1.08210E-01
 -1      2400 3.21895E-03 2.05666E-02 8.64009E-03-3.81946E-03-6.96097E-03-1.68427E-01
 -1      2401-1.01477E-01-1.22965E-03-1.39531E-03 5.08235E-03-1.33753E-02-1.38750E-01
 -1      2402-2.05312E+00 1.46962E-02-2.14521E-02-1.78428E-03 1.72385E-02-1.57148E-01
 -1      2403 0.00000E+00 0.00000E+00 0.00000E+00 0.00000E+00 0.00000E+00 0.00000E+00
 -1      2404 2.69170E-01-1.47682E-03-1.04156E-02-2.27984E-03 4.28518E-02-9.08987E-02
 -1      2405 2.65032E-03-1.83931E-04-4.42107E-03 2.58566E-04-5.19959E-03-4.29552E-02
 -1      2406-9.28510E-01-8.53119E-02-5.58710E-03-4.48461E-03 6.10996E-02-1.84827E-01
 -1      2407 2.31928E+00 9.54851E-01 9.03313E-01 2.80298E-01-3.54581E-02-8.95458E-02
 -1      2408-7.41182E-01-1.48895E-02-2.73926E-03 1.17197E-03-1.19433E-02-8.21665E-02
 -1      2409 4.05348E-01-1.12479E-03-5.53747E-03 5.46391E-03 3.49980E-03-1.03319E-01
 -1      2410 1.46097E+00 5.64490E-02 3.99710E-05 8.97371E-03 5.95304E-03-6.04122E-02
 -1      2411-8.72311E-01-1.53828E-02 1.24200E-03-5.73594E-03-3.13741E-03-8.31929E-02
 -1      2412-1.80754E-01 2.28052E-02-4.39255E-02-1.63790E-02 2.84780E-03-1.31373E-01
 -1      2413 1.42671E+00 4.68749E-02-1.99987E-02-8.07197E-03 3.66335E-02-6.72697E-02
 -1      2414 1.22741E+00 4.84324E-02 1.41083E-02-1.05782E-02 1.71497E-02-7.76242E-02
 -1      2415 1.09650E-01 2.10872E-02-1.07622E-02-3.53308E-03 3.30665E-03-1.25150E-01
 -1      2416 0.00000E+00 0.00000E+00 0.00000E+00 0.00000E+00 0.00000E+00 0.00000E+00
 -1      2417 1.22544E+00 1.83317E-03-1.78174E-02 1.52678E-02-1.44661E-02-8.67938E-02
 -1      2418-1.36456E-02 7.96351E-03 8.98275E-03 5.77451E-03-5.98702E-03-1.37513E-01
 -1      2419-2.05572E+00-5.16937E-02-5.71742E-02-5.97817E-03 3.05392E-02-6.04841E-02
 -1      2420 1.21265E-01-4.18722E-04-1.47443E-02 4.47380E-03-2.49680E-03-6.72175E-02
 -1      2421-3.95465E-01-3.17153E-03 5.43274E-03-9.48772E-03 8.84182E-04-1.02724E-01
 -1      2422 3.94750E-02 3.19596E-03-1.16862E-02 2.29152E-03-5.36574E-03-4.70275E-02
 -1      2423-1.60573E+00-4.13978E-02 5.94852E-03-5.34835E-03 1.39133E-03-9.27891E-02
 -1      2424 1.21097E-01-1.35864E-02-1.97974E-02-2.35904E-03-1.20766E-02-1.37274E-01
 -1      2425-3.92371E-02-3.62010E-03 1.12127E-02-1.02866E-03 5.74677E-04-3.65780E-02
 -1      2426 8.62486E-01-5.19116E-03-3.16004E-02-1.07317E-02 3.00767E-02-9.85081E-02
 -1      2427 8.93248E-02-5.88734E-02-7.46069E-02-1.11962E-02 1.13166E-03-1.39821E-01
 -1      2428 1.75685E-02-2.93877E-02-3.20547E-02 1.51155E-04-8.76912E-03-1.28194E-01
 -1      2429-1.21778E+00-3.65334E-02-1.48552E-02-3.82394E-03-8.50268E-03-1.00282E-01
 -1      2430 2.25095E-01 3.12593E-02-1.20214E-02 1.26818E-02 2.02704E-02-1.14820E-01
 -1      2431-1.14568E+00-1.49042E-02-1.41191E-02-1.53716E-02-6.73248E-03-7.51271E-02
 -1      2432 2.45258E+00 2.87574E-02-4.20278E-03 3.53660E-02-6.91759E-03-8.53403E-02
 -1      2433-1.21172E+00 1.29090E-02 5.77806E-02 4.25071E-03-2.06939E-03-1.12030E-01
 -1      2434 2.75419E-01 9.76440E-03-4.19054E-04 1.87830E-03 5.01396E-03-8.51177E-02
 -1      2435-1.14447E-01-8.50647E-02-9.28410E-02-6.85331E-03 3.87088E-03 2.00179E-02
 -1      2436-4.17547E-02 1.01818E-03 9.44844E-03-2.09332E-03-4.75704E-03-1.17128E-01
 -1      2437-2.35100E-01-3.36965E-03 3.81869E-03 5.08562E-04 2.44444E-03-9.24048E-02
 -1      2438-3.86805E-02-5.86127E-02-4.44034E-02 2.58316E-02-9.37301E-04-1.19806E-01
 -1      2439 2.24572E+00 1.94590E-01 3.49919E-02-1.66364E-02 2.75239E-02-1.22596E-01
 -1      2440 9.83474E-03-1.42120E-02-1.50440E-02 2.47906E-03 5.47820E-03-1.20032E-01
 -1      2441 9.90478E-01 1.59575E-02-9.16187E-03-1.27641E-02-4.88833E-04-1.16755E-01
 -1      2442 1.40508E-01 3.22042E-02 2.43027E-02 1.62268E-02 1.32011E-02-1.05837E-01
 -1      2443-9.27795E-02-1.56592E-02-7.58624E-02-2.15952E-02-3.21370E-02-2.05922E-01
 -1      2444-1.55048E+00-6.82463E-02-6.31994E-02 1.18635E-02-3.70812E-02-9.55977E-02
 -1      2445 7.68461E-01 3.94439E-02 1.37180E-02 9.58056E-03-6.50406E-03-1.02903E-01
 -1      2446 2.00527E+00 4.24310E-02 5.93532E-02-1.14588E-02 1.18055E-02-7.51043E-02
 -1      2447-5.69202E-01-2.15341E-02-7.34664E-03 1.49689E-02 2.00184E-02-1.15918E-01
 -1      2448-4.56683E-02 6.67077E-02 1.03622E-01 2.35847E-03-5.96026E-02-1.59866E-01
 -1      2449 0.00000E+00 0.00000E+00 0.00000E+00 0.00000E+00 0.00000E+00 0.00000E+00
 -1      2450 5.17932E-02-8.11275E-03-6.30691E-03 1.53074E-03 3.59201E-03-1.26143E-01
 -1      2451-1.29750E-01-2.53648E-02-1.27670E-02-1.21727E-02-1.82246E-02-1.39663E-01
 -1      2452 1.61567E+00-4.18016E-03-5.01400E-02-8.06189E-03-1.18210E-02-6.74950E-02
 -1      2453-8.13539E-01-1.70446E-02-2.71848E-03-7.71358E-04-1.77084E-03-7.89823E-02
 -1      2454-4.22470E-02-1.17290E-03 1.37378E-02 4.16414E-03 4.71668E-03-4.81906E-02
 -1      2455-2.26777E-03-5.18561E-03-2.59174E-03 3.53424E-04 3.57854E-04-7.74696E-02
 -1      2456 1.88296E-01 2.14048E-02 2.62654E-02 2.02302E-04 8.46760E-03-1.33164E-01
 -1      2457-4.80009E-01 2.88631E-04 8.22530E-03 8.95060E-04-9.76450E-03-7.38162E-02
 -1      2458-8.22832E-01-3.33557E-02 9.26105E-03 9.64544E-03 5.82790E-03-6.76421E-02
 -1      2459 1.89560E-01 2.99509E-03-5.93365E-04-4.28024E-03 2.88102E-03-9.35048E-02
 -1      2460-5.92037E-02-3.01761E-03 1.30005E-02-1.60854E-03-7.38685E-04-4.22409E-02
 -1      2461-1.51796E-02 4.00449E-04 1.27097E-02-1.18979E-03-2.72516E-03-3.07518E-02
 -1      2462 0.00000E+00 0.00000E+00 0.00000E+00 0.00000E+00 0.00000E+00 0.00000E+00
 -1      2463 6.88378E-01 3.11855E-03 1.38014E-02-3.13625E-03-2.90869E-03-7.78733E-02
 -1      2464 0.00000E+00 0.00000E+00 0.00000E+00 0.00000E+00 0.00000E+00 0.00000E+00
 -1      2465-2.46356E+00-1.86567E-01-1.07196E-01-2.83120E-02 2.84923E-02-1.13132E-01
 -1      2466 7.12710E-03-1.30047E-03 4.11747E-03 3.91646E-06-4.67080E-03-1.38272E-01
 -1      2467-7.19577E-01-2.21233E-02-4.75405E-03-4.11780E-03-1.66940E-02-8.25707E-02
 -1      2468-2.42382E-01-2.29592E-02 4.77460E-02-7.01456E-04 2.68664E-02-1.39916E-01
 -1      2469-9.77465E-01-2.50923E-02 2.46095E-02-7.79394E-03 1.07311E-02-1.04460E-01
 -1      2470-2.14083E+00-1.68003E-01-1.95229E-01 1.51417E-02-9.99918E-03-8.79242E-02
 -1      2471 3.74324E-03-1.97680E-03-9.12549E-03 2.39827E-05-8.09059E-04-1.14783E-01
 -1      2472 9.96342E-02-5.07273E-02-5.82815E-02-3.53485E-04-6.52054E-03-1.20434E-01
 -1      2473 1.62009E-01 1.06510E-02 2.64593E-03-2.22419E-05 3.54741E-03-1.20447E-01
 -1      2474 9.27653E-01 2.91485E-02 4.30494E-03 6.91835E-03-5.03582E-04-8.95597E-02
 -1      2475 1.66794E+00 7.05430E-01 5.86288E-01-1.07339E-01-6.05600E-02-1.24177E-01
 -1      2476 7.96691E-01-7.43564E-02-1.30567E-01 2.73628E-02 8.03620E-02-1.39046E-01
 -1      2477-8.67425E-03 7.16476E-02 8.60870E-02 6.25619E-04-3.17881E-02-1.59614E-01
 -1      2478 4.60168E-02-2.81612E-02-2.77802E-02 9.53336E-04 9.56902E-03-1.48544E-01
 -1      2479-2.17103E-01-3.36189E-02-1.71396E-02-3.85686E-03-2.05648E-02-1.31807E-01
 -1      2480-2.38258E-01-7.83073E-03 3.08253E-02-3.39691E-03 1.63501E-02-1.26893E-01
 -1      2481-3.40887E-01 1.66405E-02 4.65126E-04-1.34819E-02-3.26631E-02-1.31406E-01
 -1      2482-2.63465E-01-1.84811E-02-2.73390E-02 2.39693E-03-1.81861E-02-1.57656E-01
 -1      2483-2.57354E+00-5.50894E-02 5.64486E-02 1.45400E-02-1.48938E-02-8.54111E-02
 -1      2484 5.96124E-01 1.41907E-02 3.61640E-03 5.41318E-03 4.20502E-02-1.48750E-01
 -1      2485-6.98132E-02 1.67007E-03 6.95068E-03 1.59571E-03-3.98419E-03-1.32432E-01
 -1      2486-5.81936E-03-2.75620E-02-3.57032E-02 7.78532E-03-2.81430E-02-1.29096E-01
 -1      2487-1.64653E+00-4.03080E-02 5.24504E-03-6.04605E-03 7.98592E-03-7.99162E-02
 -1      2488 1.29147E+00 4.90106E-02 3.90093E-02-6.32985E-03 1.31798E-03-9.31129E-02
 -1      2489 1.02064E+00 5.72477E-02 5.31342E-02 3.61124E-03 1.70550E-02-8.49756E-02
 -1      2490 4.27021E-03-6.65771E-04 3.68821E-04-1.69365E-03 2.31452E-03-9.30020E-02
 -1      2491 0.00000E+00 0.00000E+00 0.00000E+00 0.00000E+00 0.00000E+00 0.00000E+00
 -1      2492 7.36002E-02 1.39979E-02 4.32748E-03-9.88726E-04 1.69260E-03-1.13662E-01
 -1      2493-1.13450E+00-2.44039E-02-3.16835E-02-4.38533E-04-7.83961E-03-9.52491E-02
 -1      2494 4.35684E-01 1.76822E-02 1.09008E-03 1.25691E-03-5.65295E-03-8.29833E-02
 -1      2495-2.15485E+00-4.84625E-02 1.27387E-02-2.52168E-02 1.44780E-02-1.11979E-01
 -1      2496-1.65132E+00-7.03598E-02-1.15841E-02-1.67069E-03-2.85876E-02-1.03129E-01
 -1      2497-3.09514E-01-5.94102E-03-1.80925E-03-9.59161E-03 1.55836E-03-8.40009E-02
 -1      2498-2.83475E-01-2.38339E-02-3.70131E-02 2.07135E-02-3.09503E-02-1.01811E-01
 -1      2499 1.56712E-02-5.68275E-03 3.87677E-03 1.40000E-03-2.78113E-03-1.36524E-01
 -1      2500-1.22215E+00-6.37838E-02-3.24629E-02 1.16031E-03 1.57469E-02-8.28510E-02
 -1      2501-1.87116E+00-4.94104E-02-5.91529E-03-1.37336E-02-2.00371E-02-7.87113E-02
 -1      2502 7.04846E-01 3.13804E-02 6.03124E-03 1.71600E-02-6.64621E-04-6.36139E-02
 -1      2503 0.00000E+00 0.00000E+00 0.00000E+00 0.00000E+00 0.00000E+00 0.00000E+00
 -1      2504-2.19532E-01 2.73057E-03 7.68099E-03-6.24628E-03-6.58908E-03-1.26531E-01
 -1      2505-1.68771E-01-9.01634E-05 1.01034E-02-1.22020E-02-1.20143E-02-1.33293E-01
 -1      2506 7.41103E-01 3.04412E-02 7.78718E-03 7.25404E-03-9.77086E-03-1.02413E-01
 -1      2507-2.62981E-01 5.42839E-03 4.70119E-02 8.61776E-03 3.27016E-02-1.46711E-01
 -1      2508 3.81008E-01-2.63518E-04-1.72092E-03 2.94234E-03 4.59867E-03-8.37785E-02
 -1      2509-3.98859E-02-2.81798E-03 7.34401E-03-2.49856E-03-5.60910E-03-5.61325E-02
 -1      2510 2.29624E+00 6.90132E-02 5.17423E-02 1.98032E-02 1.81637E-02-1.32393E-01
 -1      2511-1.62926E+00 6.09998E-03 2.20364E-02 5.50603E-03 1.66308E-02-7.85791E-02
 -1      2512 5.51776E-02-1.05251E-02-4.76143E-02-1.58776E-02 5.91421E-02-1.15508E-01
 -1      2513 2.20412E+00 1.26658E-01 1.19963E-01-4.06579E-03-1.44868E-02-6.82668E-02
 -1      2514 2.57751E-01 2.00082E-04-5.78227E-02 9.21942E-03-2.11140E-03-1.93067E-01
 -1      2515 1.93462E-01 4.76195E-03-7.93313E-03 7.56102E-03 6.28241E-04-7.96523E-02
 -1      2516-1.56422E-01-2.55831E-02 1.84936E-02 8.42126E-03 4.01306E-03-1.23799E-01
 -1      2517-1.57366E+00-7.27365E-02 3.65781E-02-2.75544E-02-2.40987E-02-9.04913E-02
 -1      2518-1.54695E-03 2.19269E-03 9.41504E-03-5.89516E-06-1.04747E-03-3.62296E-02
 -1      2519 2.07889E+00 8.48673E-02 4.38803E-03 4.21580E-02 3.32502E-02-8.55511E-02
 -1      2520 1.67559E+00 9.22324E-02 7.62867E-02 2.48489E-02-7.85294E-03-8.57958E-02
 -1      2521 0.00000E+00 0.00000E+00 0.00000E+00 0.00000E+00 0.00000E+00 0.00000E+00
 -1      2522 1.03444E-02 8.98628E-04-4.44348E-03-2.20635E-04-5.86517E-03-7.09673E-02
 -1      2523-5.00980E-02-3.92519E-02-6.66890E-02-1.26813E-02-4.03129E-02-1.18290E-01
 -1      2524 1.86509E+00 7.07893E-02-2.63971E-02-2.76318E-04-7.51081E-03-1.08735E-01
 -1      2525 2.02196E+00 8.99874E-02 6.86533E-02 2.74863E-02-8.11838E-03-7.70871E-02
 -1      2526-1.89995E+00-7.82899E-03 6.68844E-02 2.38016E-02 6.39105E-03-8.62102E-02
 -1      2527 7.13480E-01 1.40303E-01 1.12146E-01 2.98688E-02 9.93361E-02-1.78456E-01
 -1      2528 4.58361E-01-1.37882E-02-1.66057E-02-2.87242E-03-1.17939E-02-1.14341E-01
 -1      2529-9.88940E-02-6.90304E-02-7.64025E-02-2.80857E-03 1.28197E-03 3.50265E-02
 -1      2530 3.51851E-01 2.91137E-02 1.60026E-02 1.35019E-02-4.81153E-02-1.30372E-01
 -1      2531 2.52118E-01 7.85236E-03 1.92060E-03 7.53641E-03-6.57133E-04-1.00242E-01
 -1      2532 3.00316E+00 5.68616E-01 3.53343E-01-6.40364E-02-2.27703E-02-2.01006E-01
 -1      2533 5.19903E-01 2.53164E-03-6.21973E-03-3.20599E-03-3.48333E-04-8.30351E-02
 -1      2534 1.64584E-02 3.82861E-03-1.64998E-02 1.68926E-03-4.28906E-03-2.22053E-02
 -1      2535 8.74746E-01 3.88750E-02 4.19975E-03 9.86093E-03-1.65926E-02-9.03999E-02
 -1      2536 2.95627E-02 9.49956E-03-6.32267E-03-2.73959E-02-9.18765E-02 1.16046E-01
 -1      2537 4.84757E-01 5.68947E-02 2.01433E-02 4.22406E-03-1.81556E-02-1.43457E-01
 -1      2538-2.96321E+00-1.65831E-01 1.69992E-02-8.40842E-02 3.23276E-02-1.72401E-01
 -1      2539-1.94179E+00-4.73343E-02-1.08066E-02-1.24191E-02 6.91197E-03-8.30521E-02
 -1      2540 2.65796E+00 9.01706E-02 4.39593E-02-1.43956E-02-2.58595E-02-5.10111E-02
 -1      2541-1.01545E+00-4.26571E-02 4.54228E-03-4.72267E-03 1.79728E-03-7.07688E-02
 -1      2542-4.83569E-01-1.33278E-02 2.33332E-03 7.64573E-04 8.37309E-04-7.81333E-02
 -1      2543-1.80799E-01-1.14609E-03 1.23745E-02 1.52497E-03-3.07538E-03-7.58386E-02
 -1      2544-1.80619E-01 1.33626E-03 1.15315E-02 6.74393E-03 4.67102E-03-9.09526E-02
 -1      2545 0.00000E+00 0.00000E+00 0.00000E+00 0.00000E+00 0.00000E+00 0.00000E+00
 -1      2546-7.21122E-01-2.97574E-03 5.57153E-03-5.25581E-03-1.46962E-02-9.91398E-02
 -1      2547-2.07325E-01-3.01174E-04 1.54786E-03-1.54180E-03 1.32085E-02-1.20024E-01
 -1      2548-2.04889E-01-8.37235E-04 2.94993E-02-1.09245E-03 9.42414E-04-1.51359E-01
 -1      2549 0.00000E+00 0.00000E+00 0.00000E+00 0.00000E+00 0.00000E+00 0.00000E+00
 -1      2550-1.94086E+00-5.46536E-02 4.93139E-02-2.55901E-02-7.68757E-02-5.26549E-02
 -1      2551 6.07834E-03-2.62935E-04-2.35639E-03 6.01459E-04-1.47948E-03-9.47688E-02
 -1      2552-1.26566E-01 5.74547E-04-7.93905E-03-1.77421E-03 8.56799E-03-1.28882E-01
 -1      2553 1.02870E-01 4.87406E-03-9.71382E-03 2.84339E-03 4.43450E-04-5.09089E-02
 -1      2554 1.33860E+00 3.01215E-02-4.13595E-04 4.24322E-03-1.64116E-02-1.12879E-01
 -1      2555-2.04169E+00-1.39118E-01-2.36785E-02 1.67255E-04 3.69409E-03-1.09574E-01
 -1      2556 2.40439E+00 8.93434E-02 6.72323E-02 1.58775E-03-1.44174E-02-8.34603E-02
 -1      2557-2.37889E+00-3.65762E-02 5.11638E-02-3.43808E-02-3.32998E-02-7.07488E-02
 -1      2558 1.27026E-02-4.21613E-03-5.12373E-03-1.62751E-03-4.33863E-03-1.35608E-01
 -1      2559 8.79826E-01-8.45764E-04-1.04102E-02-4.04339E-03 2.82924E-03-8.14727E-02
 -1      2560-2.43078E-02 4.34901E-03-1.28610E-02-7.32343E-05-1.26143E-02-1.40572E-01
 -1      2561 0.00000E+00 0.00000E+00 0.00000E+00 0.00000E+00 0.00000E+00 0.00000E+00
 -1      2562-2.50435E-01-3.55694E-02-2.42808E-02 1.27702E-02 1.41931E-01-9.87796E-02
 -1      2563-3.38656E-01-2.58134E-02 8.62054E-03 1.81958E-02 2.31345E-02-1.25774E-01
 -1      2564 1.12741E+00 6.42342E-02 2.85106E-02 9.61330E-03-8.72462E-03-7.21555E-02
 -1      2565-2.04157E+00-4.10396E-02-5.02120E-02-3.39962E-03-4.26525E-02-1.04269E-01
 -1      2566-5.98038E-02 8.72792E-02 6.35688E-02-9.00768E-03-9.57175E-02-1.46006E-01
 -1      2567 1.40343E-01 7.85928E-02 7.39933E-02-2.98317E-02-7.84994E-03-1.20122E-01
 -1      2568-3.75733E-01-6.98682E-03 8.07305E-03 2.45367E-03 4.79131E-03-9.46176E-02
 -1      2569 2.29228E-01-2.28849E-02-1.49281E-03 4.73736E-03-1.54664E-02-1.24512E-01
 -1      2570-7.75818E-02-3.12998E-02 3.08699E-02 4.74828E-03 2.15211E-02-1.40636E-01
 -1      2571-2.40004E-01-1.46983E-02-3.84162E-03-3.70575E-03-8.17019E-03-1.13063E-01
 -1      2572 1.21565E-01 2.42508E-03-1.07111E-02 3.80937E-03-2.61315E-03-7.05540E-02
 -1      2573 2.03692E+00 4.55927E-02 3.43668E-03 2.30280E-02 2.85209E-02-7.36762E-02
 -1      2574 2.53031E+00 3.85940E-02-3.14974E-03 3.85725E-03 6.55119E-03-1.00666E-01
 -1      2575-1.16527E+00 5.44965E-02 1.04867E-01-1.54982E-02-2.07963E-02-6.80331E-02
 -1      2576 1.65534E+00 4.51221E-02 2.14420E-03-1.54352E-02-4.27414E-02-1.28168E-01
 -1      2577 5.36229E-01-1.39196E-03-1.18177E-02-1.01683E-02 2.32848E-03-9.37882E-02
 -1      2578-1.66166E+00-8.67990E-02-8.16053E-03-1.12492E-02 2.20778E-02-6.50129E-02
 -1      2579 1.38715E+00 5.66164E-02 5.69800E-02 4.11069E-03-3.89987E-03-8.54115E-02
 -1      2580 1.30960E+00 1.38895E-01 1.64223E-01 2.63770E-03-3.44326E-02-1.18627E-01
 -1      2581 1.86212E-01-1.04861E-01-1.91989E-01 5.13909E-03-5.18316E-02-3.45969E-02
 -1      2582 3.37003E-01-4.76427E-03 2.36753E-02 9.60179E-05-2.20434E-02-1.65869E-01
 -1      2583-1.94313E+00-2.47171E-02 5.08186E-02 2.97450E-02 5.30230E-02-7.30012E-02
 -1      2584-1.99638E-01 2.18960E-02 2.74284E-02 1.96244E-03 4.72788E-03-1.30890E-01
 -1      2585 4.84832E-01-5.97925E-03-1.24896E-02-4.43807E-03-2.23774E-03-8.91127E-02
 -1      2586 5.70282E-01 5.98940E-03 8.83711E-03 7.08068E-03-3.57827E-03-9.71931E-02
 -1      2587 1.10194E+00 4.38241E-02 1.04281E-02-1.07677E-03 1.26476E-02-7.42818E-02
 -1      2588-6.72613E-01-1.18284E-02 2.48523E-02 8.57399E-03 2.30671E-03-7.91602E-02
 -1      2589 1.05742E-01 2.39286E-02-4.81512E-03-3.43345E-02-5.34081E-03-1.04074E-01
 -1      2590 1.59956E+00-1.71216E-02 1.13260E-02-2.43604E-04-5.07407E-02-8.79148E-02
 -1      2591 1.80465E+00 4.52416E-02 7.44416E-02-7.22156E-05-9.66125E-03-1.08140E-01
 -1      2592 8.88610E-01-2.71687E-02 4.99076E-02-1.27274E-02 5.85807E-02-1.41404E-01
 -1      2593-7.68890E-01-2.10481E-03 3.44986E-02-4.91933E-03 2.08865E-02-1.03016E-01
 -1      2594 3.57320E-03 2.10111E-03 2.43276E-03-5.65259E-04 5.52773E-03-7.04969E-02
 -1      2595 4.44480E-01-1.65807E-03-1.71320E-02 2.55614E-02 5.17422E-02-1.77555E-01
 -1      2596-2.94420E+00-4.02895E-01-1.02416E-01-5.76992E-03-5.43062E-02-1.76843E-01
 -1      2597 2.07607E+00 7.85935E-02 1.15719E-02 6.94032E-03 2.43813E-02-8.16622E-02
 -1      2598-2.16991E+00-3.01742E-02-5.00198E-03 1.34381E-02 4.70122E-02-5.92488E-02
 -1      2599 1.93563E+00 5.04832E-02-3.17619E-02 2.04735E-02-2.55049E-02-7.41206E-02
 -1      2600 1.37130E+00-1.09904E-02-3.12470E-02 4.23644E-03-4.50538E-02-5.57692E-02
 -1      2601-1.07679E+00-6.23972E-02-7.09084E-02-1.53218E-02-1.40442E-02-9.33408E-02
 -1      2602 5.32833E-02-8.57692E-04-9.43830E-03-4.66930E-04 7.00968E-03-9.16444E-02
 -1      2603-3.28897E-03 1.95097E-02 2.15182E-02-4.67776E-03 9.05349E-03-1.36875E-01
 -1      2604 2.23615E+00 1.97780E-02-3.59208E-02 4.16965E-02 1.41762E-02-7.47402E-02
 -1      2605 3.97881E-01 3.86389E-02 2.83145E-02-1.04733E-02-9.88128E-02-8.93306E-02
 -1      2606 3.59833E-01-1.44171E-02-7.40520E-03 5.62483E-03-2.64578E-02-1.31950E-01
 -1      2607-2.20765E-01-2.01706E-03 1.78193E-03-4.10606E-03-9.83670E-04-1.22501E-01
 -1      2608 1.76032E-01-1.27025E-02-8.03944E-02 4.68937E-03-6.93416E-03-1.64809E-01
 -1      2609-1.26807E+00-1.45227E-02 3.39867E-02 3.44210E-03 1.19673E-02-8.11532E-02
 -1      2610-5.89706E-02 3.04108E-02 3.37927E-03 8.58040E-03 3.38050E-03-1.23127E-01
 -1      2611-4.96977E-01-1.21458E-02-1.58211E-02 3.17087E-04 1.16987E-02-8.36535E-02
 -1      2612 2.08398E+00-5.62292E-03-4.17152E-02 7.58518E-03 2.31667E-02-8.21042E-02
 -1      2613-1.13764E-01-3.98433E-03 1.28858E-02 3.42895E-03 4.05540E-03-6.47270E-02
 -1      2614-1.94346E+00-5.49493E-02-7.32304E-03 2.83953E-03-1.88574E-02-8.66793E-02
 -1      2615 1.39079E+00 1.10391E-01 1.64513E-01 1.23639E-02-3.04536E-02-9.01743E-02
 -1      2616-2.89430E-01-8.99090E-03 1.65745E-02-4.99765E-03-1.48475E-02-1.35131E-01
 -1      2617-2.66697E+00-5.56127E-02 3.31579E-02 1.52780E-02-5.11913E-05-7.54141E-02
 -1      2618 1.84412E-01-1.94839E-02-3.81218E-02-8.72566E-03 4.63477E-02-1.52757E-01
 -1      2619-9.29504E-01-4.76902E-01-5.24056E-01 9.48608E-02-2.12512E-02 1.90801E-02
 -1      2620-6.73366E-01-1.69387E-02-3.97582E-02 4.93977E-03-2.52887E-03-1.29505E-01
 -1      2621 7.34321E-01 3.60172E-02-5.71400E-03-4.28100E-04 5.54370E-03-9.20768E-02
 -1      2622 1.03103E-01 5.16743E-02 5.98694E-02 1.45942E-03-3.75541E-03 9.04835E-04
 -1      2623-2.90093E+00-1.23204E-01-3.31608E-02-2.19517E-02 4.83228E-03-8.26925E-02
 -1      2624 2.13475E+00 3.32117E-02-1.28829E-02 8.51545E-03-2.15080E-02-9.19164E-02
 -1      2625-7.63374E-01-8.37563E-03 3.59360E-02-7.77303E-03-1.95636E-03-9.84211E-02
 -1      2626 2.97053E-01-1.10733E-03-5.34782E-02-2.22530E-02-6.38517E-02-9.80477E-02
 -1      2627-2.39414E+00-1.01442E-01-7.11203E-02-1.53565E-02 6.15466E-02-7.54400E-02
 -1      2628-8.00549E-02-1.86803E-03 4.95792E-03 3.34488E-05-2.53376E-03-1.05324E-01
 -1      2629 1.08589E-01-3.21724E-02 1.85303E-02-9.37199E-03 4.22673E-02-1.64445E-01
 -1      2630 6.76043E-01 2.42869E-01 2.92499E-01-1.14088E-02-4.28364E-02-1.79181E-02
 -1      2631-2.23675E+00-5.04996E-01-5.43480E-01 1.63447E-01-6.92125E-02-5.39006E-03
 -1      2632 4.54286E-01 1.11689E-02-4.68342E-04-4.64670E-03 4.50780E-03-8.68917E-02
 -1      2633-6.73389E-01 2.34067E-03 1.37483E-02 1.60651E-03-3.43284E-02-1.29902E-01
 -1      2634-1.99383E+00-3.91013E-02 5.58974E-02-1.93845E-02 7.50052E-03-9.40876E-02
 -1      2635-4.21284E-01-1.16747E-03-5.10075E-03-3.63974E-03-1.23209E-02-1.16459E-01
 -1      2636 0.00000E+00 0.00000E+00 0.00000E+00 0.00000E+00 0.00000E+00 0.00000E+00
 -1      2637 1.42256E-01-1.39541E-02-1.20215E-02 4.80571E-04 7.70822E-03-1.30681E-01
 -1      2638 5.81333E-01 6.81466E-03 4.87483E-02 1.22592E-02 4.93125E-03-9.65546E-02
 -1      2639 8.25210E-03-8.05588E-04-2.20486E-03-1.19293E-03 1.83054E-04-5.36832E-02
 -1      2640 3.82403E-03-7.44300E-04-4.43671E-03-5.32245E-04 1.27904E-03-3.31066E-02
 -1      2641-7.20264E-01-8.46884E-03 1.38319E-02-8.47006E-03-3.66234E-03-7.98038E-02
 -1      2642 7.41589E-01 2.67907E-02-6.50702E-04-1.79996E-03 3.51347E-03-7.92704E-02
 -1      2643-9.04989E-01-3.86805E-02 1.00759E-02-1.76919E-02-2.64066E-03-8.16988E-02
 -1      2644 2.72308E-01-3.67410E-02-3.41251E-02-4.48063E-03-1.27832E-02-1.12478E-01
 -1      2645 5.00754E-01 2.57691E-02-8.55845E-02 7.88379E-03-7.54475E-02-1.95571E-01
 -1      2646 4.98563E-01-5.85777E-02-9.74712E-02-9.04693E-03-9.96033E-03-1.66734E-01
 -1      2647-1.80247E-02 8.66890E-04 1.46128E-02-1.59704E-03-7.62895E-03-2.26704E-02
 -1      2648-4.48912E-01-4.43345E-03-1.03684E-02-2.22605E-03 2.67875E-02-1.15487E-01
 -1      2649 5.23442E-02 3.56239E-03-7.51487E-03 1.68100E-03-6.35538E-05-4.82506E-02
 -1      2650 3.39246E-02-1.13809E-02-1.20732E-02 4.35741E-03-9.84965E-04-1.49788E-01
 -1      2651 1.10534E+00 4.48767E-02 2.01553E-02 1.70339E-03 9.12706E-03-7.70609E-02
 -1      2652 0.00000E+00 0.00000E+00 0.00000E+00 0.00000E+00 0.00000E+00 0.00000E+00
 -1      2653-1.10153E+00-3.56515E-02-6.08101E-03 3.41138E-03 3.22334E-03-1.10806E-01
 -1      2654-1.56532E-01-1.48631E-03-9.44625E-04-1.52778E-03-7.37517E-03-1.33571E-01
 -1      2655-2.29663E-01-1.49000E-02-3.41613E-04-5.17563E-04-3.06586E-03-1.01677E-01
 -1      2656-1.19345E-02-4.32055E-04 1.75859E-02 5.25795E-04 4.83955E-03-3.10500E-02
 -1      2657-1.01669E+00-3.29858E-02-1.24792E-01-6.47868E-02-5.13002E-02-1.97668E-01
 -1      2658-5.31168E-02-3.40780E-03 9.93672E-03-1.20860E-03-6.52821E-04-7.44749E-02
 -1      2659-1.51178E-01-6.53968E-03 8.40691E-03-8.41120E-03-6.35530E-03-7.85706E-02
 -1      2660 1.88856E-01 1.40216E-01 1.19872E-01-5.92990E-03-2.25965E-02-1.17668E-01
 -1      2661 1.73509E-01-5.91778E-03 4.27308E-03-1.25907E-03 1.15463E-02-1.26453E-01
 -1      2662-2.41461E+00-5.22589E-01-4.41975E-01-2.66349E-01 1.46221E-02-1.08439E-01
 -1      2663 2.99609E+00 6.35793E-02 2.98896E-02 4.99058E-03-4.96858E-03-7.70335E-02
 -1      2664-1.04301E+00-5.70367E-02-1.53705E-02-3.16113E-03 2.27880E-02-7.38364E-02
 -1      2665 1.25466E+00 5.63968E-02 4.60116E-02 2.20061E-02-2.40352E-02-1.04104E-01
 -1      2666 3.37363E+00 3.82516E-01 5.37696E-02 7.82413E-02 8.24540E-04-1.03229E-01
 -1      2667-2.74297E-01-4.31189E-02-2.95762E-02 3.41835E-03-1.29231E-02-1.31767E-01
 -1      2668-4.73935E-01 4.87305E-03 4.18592E-02-7.36693E-03 4.43340E-02-1.24653E-01
 -1      2669 5.06138E-01 3.56863E-03 1.09281E-02 1.73873E-02-1.17531E-02-1.04139E-01
 -1      2670 5.29021E-01 1.69219E-02-3.81141E-03 7.54385E-03 2.04086E-02-1.13388E-01
 -1      2671 1.16351E-01 8.96002E-02 1.63318E-01 2.55277E-02 6.80466E-02-1.24003E-01
 -1      2672-2.93761E+00-8.99535E-02-3.08589E-02 2.39049E-02-1.99601E-02-5.78458E-02
 -1      2673-3.33332E+00-9.11992E-02 2.30483E-03 5.45709E-03-2.13892E-02-7.92091E-02
 -1      2674 3.43378E-01 4.49253E-03-4.57712E-03 3.57858E-03-4.22303E-03-1.20671E-01
 -1      2675-4.95362E-01-1.87673E-02-1.64569E-02-1.23805E-02 9.70807E-03-8.40964E-02
 -1      2676-3.85172E-01-2.49746E-02-4.17063E-02 1.28621E-02 5.34753E-02-1.26467E-01
 -1      2677-3.18063E+00-7.53244E-02 4.29955E-02 5.03246E-03-1.98965E-02-5.00816E-02
 -1      2678-1.09496E-01-5.09590E-02-2.11656E-01-3.02575E-02-1.15564E-02-1.22911E-01
 -1      2679-6.94205E-01-2.63587E-02-3.58322E-03-1.38726E-02-2.98814E-02-1.24901E-01
 -1      2680 1.32425E-01 3.23988E-02 3.17626E-02 1.78238E-02-2.19688E-02-1.34688E-01
 -1      2681-9.41771E-01-1.38857E-02 1.72387E-02-8.12469E-03-2.02200E-02-7.84668E-02
 -1      2682 1.53602E-01 4.82774E-04-7.11293E-04 4.76716E-03-1.22411E-03-1.09636E-01
 -1      2683 6.05845E-01-3.95990E-03 2.06374E-02-4.51642E-03 1.16617E-02-1.40217E-01
 -1      2684 2.47668E+00 2.47994E-02-1.25579E-01-2.07424E-02 1.23005E-02-6.94749E-02
 -1      2685-3.19417E+00-1.65915E-01-9.74090E-02-4.73504E-03 5.40448E-02-7.80372E-02
 -1      2686 0.00000E+00 0.00000E+00 0.00000E+00 0.00000E+00 0.00000E+00 0.00000E+00
 -1      2687 0.00000E+00 0.00000E+00 0.00000E+00 0.00000E+00 0.00000E+00 0.00000E+00
 -1      2688 2.65618E-02-5.87733E-04-1.77569E-03-1.61075E-04 3.81132E-03-1.22454E-01
 -1      2689 2.07010E+00 9.09409E-02 1.58536E-02-1.96944E-02 4.02679E-02-9.97745E-02
 -1      2690 3.60124E-01 1.91791E-02-1.21323E-02-4.09023E-03 7.13156E-03-1.07424E-01
 -1      2691-2.12491E-01-5.18101E-03-3.87600E-03-4.45008E-03 5.71824E-03-1.31798E-01
 -1      2692 2.36429E-01 9.64004E-04-1.39526E-02 4.42499E-03 1.72933E-02-1.46131E-01
 -1      2693 8.59016E-01 1.98737E-02-1.39660E-02 7.58134E-03 1.60054E-02-1.01122E-01
 -1      2694 7.11934E-02 3.88604E-03-2.27210E-03 2.44983E-03-4.81103E-04-9.93615E-02
 -1      2695 2.15602E+00 5.53496E-02 1.87349E-02-1.26998E-02-1.66823E-02-5.74589E-02
 -1      2696 2.50825E-01 9.84397E-03 2.60342E-03-6.29787E-03 6.25032E-03-9.13554E-02
 -1      2697 1.76763E+00 3.92664E-02 4.79393E-02 9.25226E-03-9.88063E-03-7.83815E-02
 -1      2698 1.55370E-01-2.49260E-02-4.21160E-02-2.00130E-03 1.10393E-02-1.18451E-01
 -1      2699 1.70381E-01-5.70325E-04-8.63205E-03 9.42443E-04-3.08505E-03-1.18921E-01
 -1      2700-1.56442E+00-3.05814E-02 1.82457E-02 1.31114E-02 3.87257E-02-9.38426E-02
 -1      2701-6.50546E-01-3.95237E-02 2.93945E-02 1.49725E-02-2.12275E-02-1.13426E-01
 -1      2702-1.79499E-01 5.77526E-02-5.25533E-03-3.24272E-02-5.26697E-03-1.26521E-01
 -1      2703 1.07186E+00 2.29917E-02-3.62707E-02-6.49611E-04-8.74361E-03-9.44169E-02
 -1      2704 2.71248E+00 8.68474E-02-5.74810E-03-2.10453E-03 2.78224E-02-1.22575E-01
 -1      2705-8.80738E-01-4.01669E-02-8.71506E-03-4.21232E-03 3.67344E-03-1.15249E-01
 -1      2706 5.56237E-01 1.40536E-03-6.68487E-03 9.65702E-03 1.03546E-03-7.18771E-02
 -1      2707 3.25091E-01 4.77163E-02 7.23751E-02-8.65214E-03-5.64027E-02-8.99445E-02
 -1      2708-5.92863E-02-1.00981E-02-1.75990E-02 2.21542E-03 5.54447E-04-1.19211E-01
 -1      2709-2.58022E-01-1.32614E-02-2.26687E-03-1.93634E-03-4.00960E-03-8.03612E-02
 -1      2710 1.08597E+00 6.19979E-02 1.33421E-02 1.17971E-02 3.00509E-02-1.34151E-01
 -1      2711-8.91208E-01 7.11546E-03 1.25516E-02 6.89793E-03 6.16756E-02-1.67054E-01
 -1      2712 5.39326E-02 3.50752E-03-2.99074E-03 1.20575E-03 9.85860E-04-8.23414E-02
 -1      2713 1.93569E+00 9.49854E-02 7.13047E-02-2.24599E-02 3.44503E-02-1.30679E-01
 -1      2714-8.05241E-01 5.68823E-03 8.00511E-02-1.03072E-02 3.53176E-03-9.77966E-02
 -1      2715-1.42370E+00-1.90524E-02 1.09314E-02 4.67929E-03 1.35401E-02-1.02281E-01
 -1      2716 5.30659E-01 2.15512E-02 6.91728E-02 9.86630E-03-1.42027E-02-1.09063E-01
 -1      2717 5.74784E-02-1.14739E-03-6.30017E-03 1.34785E-03 6.05905E-03-1.08850E-01
 -1      2718-2.68555E-02-3.69559E-02-3.51310E-02-2.73454E-02 2.76591E-03-1.33729E-01
 -1      2719-2.83286E-01-7.79852E-03-3.31848E-02 1.60508E-03 4.32919E-03-1.18705E-01
 -1      2720 1.07479E+00 2.25182E-02 1.45244E-04 1.85417E-02 8.22861E-03-1.80039E-01
 -1      2721-1.71745E-01-5.70483E-02-1.13453E-01 3.32000E-02 2.17120E-02-1.74348E-01
 -1      2722-2.55389E+00-1.09529E-01-2.19816E-02 3.75658E-03-2.92866E-02-5.59039E-02
 -1      2723-1.98408E+00-2.96042E-02-3.29842E-03 2.18276E-02-1.31566E-02-4.28689E-02
 -1      2724 3.11656E-01 1.27729E-02-6.54971E-03-1.39157E-02 1.54948E-02-1.61530E-01
 -1      2725 1.38797E+00 1.06483E-01 5.02666E-02 1.07012E-02-6.64489E-03-5.78856E-02
 -1      2726-3.64930E-01-2.07651E-02-3.26503E-03-9.42560E-03 2.23442E-03-7.78608E-02
 -1      2727-9.36601E-02 2.14370E-02 8.13602E-03 1.33285E-03 5.16732E-03-1.25271E-01
 -1      2728-5.39240E-01 5.43695E-02 8.77999E-02 1.80345E-02-3.45538E-03-1.24348E-01
 -1      2729 1.08494E+00 3.70993E-02-8.97939E-03 7.90145E-03-1.84036E-02-8.84291E-02
 -1      2730 7.11543E-01 4.64781E-01 4.17084E-01 7.46563E-02-2.74395E-02-2.93201E-02
 -1      2731-4.49703E-01-2.38981E-02 2.40051E-02-5.84526E-03 3.00629E-02-1.23626E-01
 -1      2732 2.19875E+00 7.47748E-02 1.33208E-02 1.03249E-02-2.59553E-02-8.61915E-02
 -1      2733 4.41750E-01 2.70480E-02 2.03443E-02 4.42575E-03-9.10004E-02-7.48566E-02
 -1      2734-5.30084E-01 4.77882E-02 8.54840E-02-1.35154E-02 6.06601E-02-1.81617E-01
 -1      2735-3.28930E-01-2.25159E-02-2.03571E-02-2.94054E-03 2.24778E-02-9.55225E-02
 -1      2736-6.09652E-01-8.23581E-03-2.21416E-02-9.28237E-03-2.42448E-02-1.49145E-01
 -1      2737-3.85778E-02 4.84819E-04-6.89847E-03 3.89217E-04 9.05116E-03-1.34758E-01
 -1      2738 5.30956E-01 3.30244E-02 6.87095E-03-4.27060E-03 1.53027E-03-7.34806E-02
 -1      2739 0.00000E+00 0.00000E+00 0.00000E+00 0.00000E+00 0.00000E+00 0.00000E+00
 -1      2740 4.64907E-01 2.37234E-01 2.34716E-01 8.70166E-02-1.04548E-03 6.75055E-02
 -1      2741 1.51948E-01 5.71316E-03-1.95447E-04 4.33062E-03-5.87450E-03-1.09641E-01
 -1      2742 0.00000E+00 0.00000E+00 0.00000E+00 0.00000E+00 0.00000E+00 0.00000E+00
 -1      2743 1.52803E+00 3.68781E-02 2.09829E-02-1.73142E-02 3.62576E-02-1.06515E-01
 -1      2744 2.06118E+00 6.25951E-02 3.35234E-02 2.56217E-02-3.64125E-04-6.99012E-02
 -1      2745 1.85210E-01 8.70968E-03 1.12567E-03-1.11233E-03 1.31351E-03-7.50766E-02
 -1      2746 3.06121E+00 9.61721E-02 6.98344E-02 4.55720E-02-3.13628E-02-9.36332E-02
 -1      2747-5.78848E-01-1.77921E-01-1.59916E-01 3.26821E-02-8.12474E-02-7.52094E-02
 -1      2748-2.26557E+00-1.00142E+00-8.91538E-01 6.17186E-02-1.45695E-02-2.47955E-01
 -1      2749 1.49242E+00 3.94679E-03-4.45239E-02 8.06465E-03-3.15678E-02-8.24091E-02
 -1      2750-3.07834E+00-6.68958E-01-2.14508E-01-1.62084E-01-1.67761E-02-2.53092E-01
 -1      2751 0.00000E+00 0.00000E+00 0.00000E+00 0.00000E+00 0.00000E+00 0.00000E+00
 -1      2752 9.01902E-01 3.29019E-02 1.30333E-03-8.55613E-03 2.04738E-02-9.20959E-02
 -1      2753-4.38739E-01 1.86206E-02-1.44499E-02-1.60642E-02-3.20621E-03-1.17551E-01
 -1      2754 0.00000E+00 0.00000E+00 0.00000E+00 0.00000E+00 0.00000E+00 0.00000E+00
 -1      2755-1.76752E+00-1.89975E-02-2.90615E-02-1.54183E-02-1.28204E-03-3.67617E-02
 -1      2756 1.52107E+00 4.32495E-02 1.97997E-02 1.26789E-02 4.88812E-03-5.62890E-02
 -1      2757 2.89221E+00 2.32599E-01-3.70232E-02 1.30350E-02-1.29694E-01-1.26536E-02
 -1      2758 6.66961E-01 2.89453E-02 2.66331E-02-7.60166E-03 2.24555E-02-1.40561E-01
 -1      2759-7.87966E-01-2.27749E-02 4.16423E-02-1.26254E-02 3.30590E-02-1.44773E-01
 -1      2760-1.74687E+00-9.08770E-02-1.37098E-02-1.53304E-02-5.16898E-03-5.79517E-02
 -1      2761 3.95764E-01 2.82287E-02 1.24224E-02-5.27566E-03-1.29292E-02-1.24719E-01
 -1      2762-1.16243E-01-2.14708E-04 1.71634E-02 1.24400E-03-4.06601E-05-5.04519E-02
 -1      2763-2.97571E-01-1.16964E-02-7.60881E-04 3.13358E-03 1.16330E-03-7.29017E-02
 -1      2764-4.01783E-01 4.37746E-03 1.56443E-02 6.52023E-03 3.18337E-02-1.32010E-01
 -1      2765 9.00534E-01 3.63563E-02 1.91297E-02 3.42582E-03-6.11511E-02-8.89958E-02
 -1      2766-1.05480E+00-2.84455E-02 1.89334E-02 1.21232E-02 1.84073E-03-5.67894E-02
 -1      2767 9.16848E-01 1.30877E-02-7.74728E-03 6.12344E-03-1.33853E-02-6.68220E-02
 -1      2768-1.98623E+00-7.05196E-02 6.43571E-03-3.66286E-03 2.24623E-02-6.73249E-02
 -1      2769 2.86180E+00 1.79469E-02-1.08180E-01-8.26529E-04-2.31022E-02-5.67328E-02
 -1      2770 3.11928E+00 9.33897E-02-2.40519E-02 3.60762E-02 1.45910E-03-8.11500E-02
 -1      2771-2.16539E+00-7.46156E-02-5.44171E-02-3.85803E-02-2.81128E-02-1.21687E-01
 -1      2772-2.18140E-02-5.37055E-03-5.62567E-03-1.04357E-03-4.69704E-04-1.14605E-01
 -1      2773-6.74295E-01-1.94993E-02-1.83177E-03-5.26701E-03-6.40610E-03-9.57161E-02
 -1      2774 1.61666E-01-1.04466E-03-1.27147E-02 2.30067E-03-1.48740E-03-1.20397E-01
 -1      2775-1.10307E-01 8.76430E-04 1.04097E-02-5.62795E-03 1.31463E-02-1.37049E-01
 -1      2776 6.54809E-01 2.21393E-02-4.22914E-03-7.70397E-03-3.85760E-03-8.39651E-02
 -1      2777 3.49824E-01-2.01861E-02 4.69180E-03 5.25316E-03-1.57716E-02-1.30604E-01
 -1      2778-1.73397E-01 2.02632E-03 2.37338E-03-2.20509E-03-4.11470E-03-1.28991E-01
 -1      2779-2.86431E-01-1.03984E-02 5.13226E-02-2.64628E-02-6.75014E-02-1.45306E-01
 -1      2780-1.58180E+00-2.61302E-02 1.08898E-02-3.32537E-03 4.32497E-03-9.80596E-02
 -1      2781 2.68764E+00 1.07616E-01-1.30231E-02-1.92211E-02 9.93904E-03-9.21354E-02
 -1      2782-1.47432E+00-4.50197E-03-1.52413E-02 1.70188E-02 3.56562E-02-9.66000E-02
 -1      2783-4.04814E-01-8.75951E-03-1.25055E-02-2.30549E-02 1.39129E-02-8.07619E-02
 -1      2784 0.00000E+00 0.00000E+00 0.00000E+00 0.00000E+00 0.00000E+00 0.00000E+00
 -1      2785-2.29132E+00-7.85338E-02 2.28885E-02 1.12095E-02-1.64307E-02-6.59070E-02
 -1      2786 5.39649E-01 4.72966E-02 4.45316E-02-2.18463E-03-4.55011E-02-1.25985E-01
 -1      2787-4.72708E-01 2.01752E-02 6.28506E-02 1.11434E-02-1.45858E-02-1.40662E-01
 -1      2788 2.83000E-01 3.01413E-03-1.44875E-02-5.15711E-03 1.52996E-03-7.11392E-02
 -1      2789 3.66552E-01 1.14908E-02 4.64039E-03-2.57001E-03-9.16281E-04-7.32884E-02
 -1      2790-1.04412E+00-7.17855E-02-2.77631E-02 4.41547E-04 9.95421E-03-4.94952E-02
 -1      2791 6.17591E-02 1.36351E-01 9.14060E-02 5.14649E-03 5.17533E-02-2.33652E-01
 -1      2792 7.58823E-03-3.59415E-03-8.80464E-03 2.70489E-03-2.32372E-03-6.13408E-02
 -1      2793-5.87933E-02-4.67556E-04 1.12241E-02 2.45029E-04-2.40182E-04-1.22042E-01
 -1      2794-9.80127E-03-5.16660E-04 1.93916E-02-6.24061E-04 1.60956E-03-2.19041E-02
 -1      2795-5.59904E-01-6.73084E-02-7.41958E-02-2.77031E-03 2.48048E-02-1.11093E-01
 -1      2796-3.18133E+00-1.74404E-01-1.87349E-02-4.18665E-03 1.37784E-02-1.41615E-02
 -1      2797 2.63466E+00 2.73973E-02-1.05064E-01 3.93987E-02-7.98322E-02-7.17355E-02
 -1      2798 2.58047E+00 5.11273E-01 3.97923E-01-1.92309E-01-9.29782E-02 3.50911E-02
 -1      2799-2.09201E+00-8.87471E-02-1.89478E-02 1.32739E-02-3.63233E-03-3.78880E-02
 -1      2800-5.70505E-01 2.48891E-03 1.71988E-02-4.67649E-04-5.23003E-03-9.33010E-02
 -1      2801 4.66432E-01 1.88575E-02 3.82860E-02 4.08660E-03 2.98418E-02-1.46344E-01
 -1      2802-3.93367E-02-2.66246E-03 3.36166E-03 1.63098E-03 4.12144E-03-9.21924E-02
 -1      2803-2.73022E-02 1.21372E-03 8.69148E-04-2.87629E-03-1.00860E-02-9.68047E-02
 -1      2804-3.41548E-01 2.87069E-02 4.88504E-02-1.62962E-02 5.32965E-04-1.23042E-01
 -1      2805 8.16792E-01-3.06968E-02 9.27600E-03-2.84436E-02 3.94008E-02-1.73720E-01
 -1      2806-2.23505E+00-1.34277E-01 2.64905E-02 2.35016E-02-3.75921E-02-7.27626E-02
 -1      2807-3.69829E-01-1.09659E-02 6.31337E-03-1.01196E-02 2.16795E-03-1.16697E-01
 -1      2808 1.18076E+00 8.13577E-02 4.92775E-02 1.62870E-02 1.03477E-02-9.62378E-02
 -1      2809 8.53961E-02 2.04895E-02 1.73307E-02 6.22122E-04-8.14304E-04-1.25879E-01
 -1      2810 1.52350E+00 5.24037E-02 3.03300E-02 5.52506E-04 1.54022E-02-6.36202E-02
 -1      2811-1.17060E-02 8.05541E-04 7.64941E-03-3.43771E-04-7.10356E-03-3.99948E-02
 -1      2812 1.00613E-01 2.51547E-03-1.29503E-02 4.96814E-03-2.42774E-03-4.69210E-02
 -1      2813 1.10007E+00 1.05972E-02-1.00839E-01 2.61442E-02-8.86909E-02-1.55008E-01
 -1      2814 1.95802E+00 5.22725E-02 1.79901E-02-5.18576E-04 8.19337E-03-9.25710E-02
 -1      2815-2.55167E+00-1.25769E-01-9.07038E-04-1.91141E-02 3.80823E-02-1.36347E-01
 -1      2816-1.54878E+00-7.12875E-02-2.74258E-02 1.77117E-02 8.33364E-03-8.39407E-02
 -1      2817 7.16402E-01 3.58418E-02 9.87209E-03 1.95069E-03-7.62091E-03-6.79266E-02
 -1      2818 1.70772E+00 7.14859E-02 7.73952E-03-9.47086E-03-2.50621E-02-8.38893E-02
 -1      2819-3.49265E-01-8.13101E-02-7.45474E-02 8.13722E-04 1.62939E-02-1.97042E-01
 -1      2820 1.64456E-01 1.54145E-02 1.57518E-02 2.68336E-03-5.21374E-03-1.20016E-01
 -1      2821 1.09565E-01 1.41945E-03-7.34070E-02-1.82653E-02-4.47158E-02-1.67394E-01
 -1      2822-5.40958E-01 4.13222E-02 4.44220E-02 1.16514E-02-1.09840E-02-1.63184E-01
 -1      2823 6.64101E-02 3.19287E-03-1.02949E-02-2.19022E-03 6.14251E-03-4.69094E-02
 -1      2824-1.93958E-01 1.28857E-02 1.82047E-02 1.10003E-02 7.54596E-02-1.32733E-01
 -1      2825-4.04724E-01 1.66418E-02 2.61308E-02-7.86988E-05 2.59517E-03-1.17404E-01
 -1      2826 7.35768E-02 1.28413E-03-1.06801E-02 3.69101E-03-7.30619E-03-6.38387E-02
 -1      2827 4.68018E-02 3.88750E-03-6.38985E-03-8.58344E-04-7.20640E-03-9.59811E-02
 -1      2828-1.17598E+00-2.64611E-02-9.03686E-03-5.11016E-04-2.35134E-03-7.98898E-02
 -1      2829-6.53125E-01-5.31776E-03 1.30857E-02 1.10020E-02 1.84409E-02-9.98162E-02
 -1      2830 8.64724E-01 4.30424E-02 5.74627E-02 1.61684E-02-3.02119E-02-1.36696E-01
 -1      2831-1.20202E-01 7.30536E-02 6.04309E-02-1.09090E-02-3.29751E-02-1.31984E-01
 -1      2832 2.58013E-01 1.26422E-02 2.76757E-03 4.60795E-04 7.79540E-03-8.03497E-02
 -1      2833-2.80795E+00-1.52466E-01-1.07564E-01-4.11426E-02-2.27311E-03-9.72445E-02
 -1      2834 1.84327E+00 6.29646E-02-3.14067E-03-2.55740E-02-6.82992E-03-1.11949E-01
 -1      2835-1.23518E+00 2.65468E-02 1.37995E-02-1.64227E-03 9.62422E-03-6.28117E-02
 -1      2836 2.49578E-01-2.01364E-02-3.54516E-02-1.46968E-03-7.91243E-03-1.29452E-01
 -1      2837 1.97292E+00 8.72385E-02 2.14723E-02 5.47977E-03-6.22514E-02-7.09992E-02
 -1      2838 2.41136E+00 7.94019E-02 2.48329E-02 7.96805E-03 1.97167E-02-6.62458E-02
 -1      2839 2.52011E+00 2.76567E-01 1.48601E-01 1.02894E-01 7.51348E-02-6.97100E-02
 -1      2840-3.17354E+00-6.90744E-01-2.60903E-01 6.14793E-02-4.07172E-02-1.48773E-01
 -1      2841-1.11900E+00-9.55745E-02-6.21657E-02 1.43537E-02-6.87428E-02-1.74130E-01
 -1      2842-5.00010E-01-3.53168E-01-3.25196E-01-5.78241E-02 1.09891E-03 5.99907E-03
 -1      2843 6.69042E-01-2.36523E-02-6.66064E-02-1.16626E-02-6.88397E-03-1.50333E-01
 -1      2844-4.61878E-01-8.04403E-03 9.47577E-03-8.03930E-03 3.12637E-02-1.21267E-01
 -1      2845-1.17807E+00-1.03366E-02 3.10546E-02-1.61177E-02-2.59897E-03-8.68774E-02
 -1      2846 4.65275E-03-9.14083E-03-2.44141E-02-1.52457E-03-1.74775E-02-1.24112E-01
 -1      2847-8.87342E-01-2.86079E-02-1.17167E-02-4.26093E-02 1.32459E-02-1.73045E-01
 -1      2848 1.19544E-03-1.40880E-04 2.87161E-03-2.36936E-04 4.52546E-03-3.95566E-02
 -1      2849 2.61960E+00 3.21175E-02-6.52921E-02 2.37486E-02-1.19264E-02-4.00593E-02
 -1      2850-2.85867E+00-1.44662E+00-1.14426E+00-7.73293E-02-3.46539E-02-3.57626E-01
 -1      2851-4.55324E-01-1.14108E-02 2.97223E-03 6.08395E-03 1.15795E-02-9.59793E-02
 -1      2852 0.00000E+00 0.00000E+00 0.00000E+00 0.00000E+00 0.00000E+00 0.00000E+00
 -1      2853 2.98589E+00 6.94030E-02 1.76547E-02 1.16670E-03-1.30781E-02-1.11861E-01
 -1      2854 0.00000E+00 0.00000E+00 0.00000E+00 0.00000E+00 0.00000E+00 0.00000E+00
 -1      2855 0.00000E+00 0.00000E+00 0.00000E+00 0.00000E+00 0.00000E+00 0.00000E+00
 -1      2856-1.88927E-01 1.36690E-02 1.36865E-02 4.84560E-03 9.20614E-05-1.20747E-01
 -1      2857 4.71607E-01 2.65943E-01 2.10189E-01 1.82678E-02-7.97001E-03 4.92760E-02
 -1      2858-7.30568E-02 1.08868E-02 1.51009E-02-2.05281E-03-5.75997E-03-1.42555E-01
 -1      2859 0.00000E+00 0.00000E+00 0.00000E+00 0.00000E+00 0.00000E+00 0.00000E+00
 -1      2860 6.77540E-01 7.35478E-02 6.52051E-02 5.29466E-03-7.09553E-03-1.10970E-01
 -1      2861-2.46243E+00-1.58301E-01-8.04235E-02 7.09023E-03-6.32221E-03-1.06781E-01
 -1      2862-2.30208E+00-1.03520E-01 3.82593E-04-3.67709E-04 1.48108E-02-1.01744E-01
 -1      2863-2.30436E+00-1.18239E-01 5.79947E-02 1.68083E-02 3.23677E-02-1.10302E-01
 -1      2864 4.09716E-01 1.26759E-02-2.38335E-03-2.22807E-03 1.16944E-02-9.19736E-02
 -1      2865-1.45484E+00-2.37354E-02-1.18234E-02 1.05066E-02-1.21894E-02-1.00159E-01
 -1      2866-5.00484E-01-3.17547E-01-3.45062E-01-2.14789E-02 1.08684E-02 9.56597E-02
 -1      2867-5.79953E-01-5.50068E-03-3.87668E-02-6.33471E-03-2.35239E-02-8.34158E-02
 -1      2868 1.29390E+00 4.78430E-01 4.46135E-01-9.51583E-03-3.37151E-03-4.20076E-02
 -1      2869 1.40243E-01 8.31416E-03 4.73079E-03 2.81782E-03 6.86350E-03-1.26107E-01
 -1      2870-1.73908E+00-1.73980E-02 2.40030E-02 2.14985E-03-8.69569E-02-1.41001E-01
 -1      2871 1.34176E-01 2.80741E-03 1.55711E-02 2.58767E-03 1.92297E-03-1.27131E-01
 -1      2872-2.09845E+00-6.96270E-02 3.37944E-03 2.09591E-02 2.17131E-02-8.84194E-02
 -1      2873 5.02375E-03 1.74224E-03-2.44477E-03 3.26433E-03-1.16014E-02-1.40442E-01
 -1      2874 1.20765E-01 8.05901E-03 1.08367E-02 3.72977E-03-4.25267E-03-1.19373E-01
 -1      2875-7.48430E-02-2.67322E-03 1.43547E-02-2.70130E-04-7.67341E-04-3.92059E-02
 -1      2876 2.97370E+00 1.22787E-01-6.13850E-03 4.47680E-02-7.70972E-03-9.79951E-02
 -1      2877-5.30497E-01-2.15329E-02 2.53268E-03-1.02558E-03-2.85788E-03-7.36884E-02
 -1      2878 3.32885E-01 3.42504E-02-2.43440E-02 3.60385E-03-1.46048E-02-1.37451E-01
 -1      2879-2.98219E-01-2.17595E-02-1.69273E-02 1.97949E-03 1.34251E-02-1.26685E-01
 -1      2880-2.15289E+00-1.18326E-01-5.31076E-02 3.80011E-04 1.18518E-02-6.21051E-02
 -1      2881 9.88147E-01 2.03887E-03 1.07168E-01-2.35509E-02 2.50486E-02-9.55260E-02
 -1      2882 0.00000E+00 0.00000E+00 0.00000E+00 0.00000E+00 0.00000E+00 0.00000E+00
 -1      2883 1.60991E+00 3.86834E-02-3.38398E-02 1.13445E-02 1.60176E-02-1.09422E-01
 -1      2884-1.00042E+00 1.68133E-02-5.62304E-02 7.09185E-03-7.53000E-02-1.77390E-01
 -1      2885-3.23739E-01-2.43160E-02-7.54516E-04-2.25048E-03 7.78416E-03-1.11422E-01
 -1      2886 1.05257E+00 1.50379E-02-2.99910E-03 4.47990E-03-1.65706E-02-7.57785E-02
 -1      2887 9.17659E-01 2.61696E-02-1.47899E-02 2.73263E-02-2.77813E-02-1.44954E-01
 -1      2888-6.63812E-01-4.68261E-02 2.65314E-03 8.66782E-03-5.49771E-02-1.52024E-01
 -1      2889-3.37049E-01-1.51575E-02-2.04422E-03 9.24205E-03 5.60500E-03-7.96704E-02
 -1      2890 1.07427E-01 2.54067E-03 7.02399E-03 2.28931E-03 2.17473E-04-1.14885E-01
 -1      2891 1.50969E+00-8.03287E-04-3.23150E-02 9.94549E-03 3.05832E-02-1.01086E-01
 -1      2892 4.38848E-01-4.75886E-03 3.21748E-02-2.54218E-03-7.41747E-04-8.42083E-02
 -1      2893-2.37023E+00-8.41878E-02 4.79339E-02-6.25152E-03-7.14385E-02-9.56804E-02
 -1      2894-2.28995E+00-6.78491E-02 6.02359E-02 9.27688E-03 4.40173E-02-6.18770E-02
 -1      2895-4.22641E-01-1.12277E-02 1.56233E-03-3.70886E-03-4.43181E-03-9.16113E-02
 -1      2896 2.84521E-01 7.34553E-02 5.54089E-02-4.34319E-02-5.62151E-02 9.58729E-02
 -1      2897 1.97854E+00 5.58800E-02 1.41381E-02-2.32248E-02-6.48738E-03-7.55396E-02
 -1      2898 1.47150E+00 6.57513E-02 1.98490E-02 1.91317E-02 6.41790E-03-6.95498E-02
 -1      2899-1.28960E+00-1.29066E-02 2.38528E-02-5.27039E-02-7.52296E-02-1.80931E-01
 -1      2900 6.34823E-01 7.68625E-03-8.16663E-03-3.23049E-02 1.42562E-02-1.21073E-01
 -1      2901 0.00000E+00 0.00000E+00 0.00000E+00 0.00000E+00 0.00000E+00 0.00000E+00
 -1      2902 1.72056E+00 1.39897E-01 2.07428E-02 7.12622E-03-5.82999E-02-1.50059E-01
 -1      2903 2.23019E+00 6.75335E-02-1.25778E-01 7.80280E-04 8.13566E-02-2.69904E-02
 -1      2904 1.47763E+00 2.68336E-02-3.35864E-03-1.16204E-02 1.42936E-02-7.94654E-02
 -1      2905 2.27475E+00-1.07368E-01-1.02343E-01 1.88433E-02 1.88624E-02-5.82982E-02
 -1      2906-8.58794E-01-1.07817E-01-6.21671E-02-1.63576E-02-7.61927E-03-9.99614E-02
 -1      2907 2.29926E-01 1.13941E-01 1.07838E-01 6.70235E-03 2.00985E-02 5.80774E-02
 -1      2908 4.67469E-01-3.34942E-02-4.64365E-02 8.39769E-03-1.65850E-02-9.84776E-02
 -1      2909-3.05121E+00-1.63377E-01 5.39194E-02-3.45665E-02 5.62090E-02-1.36965E-01
 -1      2910 3.14566E-01 2.24381E-02 2.74754E-02 1.99282E-03-8.19553E-03-1.18692E-01
 -1      2911 0.00000E+00 0.00000E+00 0.00000E+00 0.00000E+00 0.00000E+00 0.00000E+00
 -1      2912 2.95336E-01 1.58777E-02 7.64678E-03 7.47853E-03-2.76617E-02-1.27716E-01
 -1      2913-2.99619E+00-1.13578E-01-5.09712E-02-1.28929E-02-1.07647E-03-5.17203E-02
 -1      2914-2.22871E+00-1.49911E-01-4.13824E-02 1.28056E-02 1.87065E-02-6.92647E-02
 -1      2915 1.62672E+00 1.97184E-02-2.09923E-02 1.39618E-02 1.62920E-02-6.26590E-02
 -1      2916 2.54462E+00 5.57737E-02 1.41406E-02 7.31964E-03 1.74905E-02-5.83175E-02
 -1      2917 1.20608E-02-6.45108E-03-3.87186E-03-7.81659E-04-6.21872E-04-1.04794E-01
 -1      2918 4.61669E-01 2.66656E-02 1.85022E-02 1.70974E-02-2.95641E-02-1.14026E-01
 -1      2919 0.00000E+00 0.00000E+00 0.00000E+00 0.00000E+00 0.00000E+00 0.00000E+00
 -1      2920-1.95215E-02-2.83558E-03 5.93980E-03-1.27285E-03 7.61401E-04-6.49354E-02
 -1      2921 0.00000E+00 0.00000E+00 0.00000E+00 0.00000E+00 0.00000E+00 0.00000E+00
 -1      2922-6.36403E-01-1.11993E-02 2.73960E-03-6.78174E-03-1.21458E-03-6.49433E-02
 -1      2923 0.00000E+00 0.00000E+00 0.00000E+00 0.00000E+00 0.00000E+00 0.00000E+00
 -1      2924 1.31224E+00 1.48175E-02-3.58766E-02 4.02910E-03-2.60248E-02-8.69698E-02
 -1      2925 1.22345E+00 3.70750E-02 2.60220E-03 3.25568E-03-7.78898E-03-1.17178E-01
 -1      2926 2.07037E+00 9.60364E-02-2.32533E-02-2.49789E-02 1.79679E-02-5.20126E-02
 -1      2927 2.88941E-02 2.67147E-03-2.01113E-02 4.11840E-03-6.84338E-03-2.83934E-02
 -1      2928 0.00000E+00 0.00000E+00 0.00000E+00 0.00000E+00 0.00000E+00 0.00000E+00
 -1      2929 6.64548E-01 1.67513E-02-4.95882E-03 1.09014E-02 6.50055E-03-7.70724E-02
 -1      2930 4.65372E-01 2.18320E-03-1.66727E-02 1.47897E-02 2.71166E-02-1.37826E-01
 -1      2931 3.58725E-01 8.16293E-02-1.40223E-02-4.71944E-02-6.17597E-02-6.30755E-02
 -1      2932 1.54978E+00-2.71604E-02-6.39775E-02 1.75277E-02-1.67326E-02-7.87195E-02
 -1      2933-3.90027E-01-3.36015E-02-1.24515E-02-1.84104E-03-4.94370E-03-1.16595E-01
 -1      2934 1.05572E-02-6.02195E-04-1.43188E-02-2.71192E-04-7.49227E-03-4.09676E-02
 -1      2935 3.70976E-01 4.53084E-03-3.51030E-02 2.10298E-02 2.99926E-02-1.15596E-01
 -1      2936-1.16030E+00-1.46465E-01-7.54809E-02-6.56231E-03-3.00488E-02-1.54142E-01
 -1      2937 6.95461E-01 1.87718E-02 2.79855E-03 1.08617E-02 8.61736E-04-1.05190E-01
 -1      2938 1.30971E+00 8.16492E-03 4.74392E-02 3.57092E-02 4.00999E-02-1.12117E-01
 -1      2939 2.11217E+00 1.84014E-02-1.12432E-02 2.74059E-02-3.59823E-02-8.93656E-02
 -1      2940-2.32784E-02-5.34231E-03-3.74256E-03 1.60613E-03-2.60096E-03-7.59556E-02
 -1      2941-7.35293E-01-8.24006E-02-1.20473E-01-1.11116E-03-6.91648E-02-9.20098E-02
 -1      2942-2.30942E-01-8.58363E-03 1.40406E-03-8.23915E-03-4.57322E-03-9.39612E-02
 -1      2943-1.35495E+00-5.81244E-02-1.20923E-02 9.58341E-03 1.59940E-01-6.21755E-02
 -1      2944 9.87206E-01 2.20759E-02-6.44229E-02-1.77056E-03 6.45705E-02-1.52235E-01
 -1      2945 0.00000E+00 0.00000E+00 0.00000E+00 0.00000E+00 0.00000E+00 0.00000E+00
 -1      2946 1.83795E+00 8.96713E-02 8.41406E-03 3.41076E-02-3.01822E-03-6.96257E-02
 -1      2947 2.39429E+00 5.41546E-02-5.34584E-02 3.98466E-02-6.54609E-03-8.08003E-02
 -1      2948-3.28802E-01-5.00053E-03 1.41390E-02-2.42512E-03 6.66512E-03-1.23099E-01
 -1      2949-9.90177E-01 1.79023E-02 2.78787E-02-1.36096E-02-2.69300E-02-1.21161E-01
 -1      2950-1.09510E+00-1.48324E-01-2.63060E-01-2.50332E-02 1.31806E-02-1.09499E-01
 -1      2951-1.24132E+00-2.68592E-01-3.31767E-01-1.88037E-02-6.20398E-03-1.20300E-01
 -1      2952-6.22263E-02 5.03329E-03 1.51739E-02 5.59859E-04-2.13298E-03-9.77262E-02
 -1      2953 1.82365E-01 4.20701E-03-1.41286E-02 4.96818E-03-2.74352E-03-5.85463E-02
 -1      2954 1.49062E-01-5.53481E-04 5.40528E-03 9.61793E-03-8.38863E-03-1.39323E-01
 -1      2955-1.26923E+00-2.15497E-02-3.20555E-03-4.30392E-03-2.92565E-02-7.43168E-02
 -1      2956 8.88076E-01 8.20742E-02 3.53355E-02-1.12745E-02-5.01752E-02-1.60281E-01
 -1      2957-7.88689E-02-4.01244E-03 1.44773E-02 3.41009E-03 1.28635E-03-4.34859E-02
 -1      2958-1.42276E+00-9.07625E-02 8.02448E-03 2.45080E-02 6.36985E-02-1.83724E-01
 -1      2959 5.97337E-01 2.31775E-02 6.67899E-03 7.11759E-03-7.77122E-03-6.29378E-02
 -1      2960-1.18977E+00-9.73675E-02-2.18591E-01-1.63596E-02-2.34727E-02-1.88938E-01
 -1      2961-7.09225E-01-2.05405E-02-9.24647E-03-8.56134E-04-9.90517E-03-6.33905E-02
 -1      2962-1.31896E-01-6.53251E-03-1.21166E-02 1.97001E-03 9.87617E-03-1.35615E-01
 -1      2963 3.02556E+00 1.65316E-01-5.30053E-03 1.75942E-02 2.16267E-02-8.85163E-02
 -1      2964-1.09855E+00-9.18702E-02-4.93754E-02-1.13690E-03 4.53531E-03-8.27604E-02
 -1      2965 0.00000E+00 0.00000E+00 0.00000E+00 0.00000E+00 0.00000E+00 0.00000E+00
 -1      2966-1.54518E+00-3.08228E-02 2.72570E-02-6.59539E-03 1.35344E-02-7.41116E-02
 -1      2967 3.70113E-01-2.91123E-02-7.87688E-02-7.14911E-03 3.89964E-02-1.26623E-01
 -1      2968 3.40218E-01 7.12343E-02 4.46126E-02 1.16152E-02-7.30640E-03-8.71025E-02
 -1      2969 1.95967E+00 8.56231E-02 2.72641E-02 1.86445E-02 1.25121E-02-7.42477E-02
 -1      2970-1.07513E+00-4.93545E-02 4.64872E-03-1.30642E-02 6.45196E-04-7.54616E-02
 -1      2971 1.00609E+00 6.47489E-03-3.17739E-02 1.54244E-02-7.79120E-03-7.93604E-02
 -1      2972 1.71586E+00 9.21131E-02 5.88172E-02-4.22571E-04-2.58557E-02-5.99469E-02
 -1      2973-1.73836E-01-1.44007E-02-1.66269E-02 3.92217E-03 1.52075E-03-1.14690E-01
 -1      2974-5.29508E-01 3.99746E-02 3.22486E-02-2.27357E-02-2.59491E-02-1.45707E-01
 -1      2975 7.29425E-01-1.69261E-03-5.48416E-02-5.01362E-03-7.21930E-03-9.07531E-02
 -1      2976-4.13631E-01-1.11593E-02 9.47537E-04-6.38747E-03-2.92776E-03-6.23760E-02
 -1      2977-1.34905E-02-2.26941E-03 1.64099E-02-1.18251E-03-1.86646E-03-1.52816E-02
 -1      2978 3.54126E-02 3.50603E-03-1.03644E-02 9.15229E-04 1.08318E-03-2.93714E-02
 -1      2979-2.63017E+00-9.06885E-02 1.28308E-02 2.01779E-02 1.95762E-02-8.11846E-02
 -1      2980 2.07770E+00 1.03355E-01 4.98981E-02 2.51433E-03 3.32487E-02-6.54155E-02
 -1      2981 2.40657E+00 6.92696E-02 1.35635E-02 3.99199E-03-7.86491E-04-1.48578E-01
 -1      2982-9.65205E-02-7.60003E-03-1.05276E-03 6.18731E-04 5.46202E-03-1.24724E-01
 -1      2983-1.14881E+00-4.00780E-01-3.70526E-01-5.14839E-02-1.62700E-02-4.45426E-02
 -1      2984-3.04679E+00-6.64178E-02 3.34573E-02 2.16088E-02-2.17359E-03-4.43465E-02
 -1      2985-1.53969E-01 1.65585E-02 1.26317E-02 9.75530E-04-3.06256E-04-1.21292E-01
 -1      2986-1.00184E+00 4.57963E-02 1.05217E-01 2.61614E-02-7.56489E-02-1.86565E-01
 -1      2987-2.68977E+00-7.60100E-02 7.40362E-02 3.80240E-02-4.42357E-02-1.36063E-01
 -1      2988-3.00415E+00-6.28204E-02 4.16628E-02-2.25769E-02 5.14632E-02-5.71771E-02
 -1      2989-1.14403E-01-5.08264E-04 1.46649E-02-4.75692E-03 4.58317E-04-4.53566E-02
 -1      2990-1.71294E-01-7.22058E-03 8.65982E-03 3.26603E-03-4.93833E-05-6.67692E-02
 -1      2991 0.00000E+00 0.00000E+00 0.00000E+00 0.00000E+00 0.00000E+00 0.00000E+00
 -1      2992 5.85349E-01 2.70005E-03-4.35750E-02 4.77789E-03-1.80613E-02-1.29872E-01
 -1      2993-4.73495E-01-7.76759E-03 8.17245E-03-1.17256E-03 4.23141E-03-7.10041E-02
 -1      2994-4.41900E-01-1.99286E-03 1.04031E-02 4.33747E-03-9.90258E-03-1.14171E-01
 -1      2995-1.85976E-01 3.66204E-03-2.14551E-02 3.79733E-03 1.01993E-02-1.42494E-01
 -1      2996-1.45033E+00-6.14251E-02-1.44251E-02-1.12589E-02 2.33434E-02-7.47439E-02
 -1      2997-4.96618E-01-3.43376E-02-2.67156E-02-3.25998E-03 4.08109E-02-1.24726E-01
 -1      2998-1.09781E+00-5.88695E-01-6.03674E-01 3.24305E-02-4.78478E-02 4.25342E-02
 -1      2999 3.47321E+00 1.22515E-01 1.68225E-02-2.04911E-02-1.98763E-02-8.74241E-02
 -1      3000-7.05272E-02-5.85740E-03 5.49488E-03-1.87677E-03-5.52756E-04-8.73743E-02
 -1      3001 2.33462E+00 1.40364E-01 6.34499E-02-8.29909E-03 4.78454E-02-1.04181E-01
 -1      3002-1.91199E+00 4.67213E-02 3.84421E-02 1.99928E-02-1.56094E-02-7.25740E-02
 -1      3003-3.89099E-01 4.35272E-02 7.79511E-02 2.13932E-02 5.72072E-02-1.79031E-01
 -1      3004 3.37340E+00 7.99950E-01 3.32705E-01 1.66759E-01-5.76498E-02-1.42170E-01
 -1      3005-6.06612E-01 1.72257E-02 3.00973E-02 3.67902E-02 5.27280E-04-1.50253E-01
 -1      3006-6.22469E-01-2.43407E-02-2.96010E-02 5.07431E-03-6.17560E-03-7.48404E-02
 -1      3007-1.62386E+00-2.41194E-02-1.04621E-02 5.75695E-04 3.23455E-04-1.10448E-01
 -1      3008-5.92067E-01-1.88405E-02 2.35513E-02 2.51107E-02 2.44519E-02-1.03727E-01
 -1      3009-1.12086E+00-7.77024E-03 2.78096E-02 7.79095E-03 1.97604E-02-4.94998E-02
 -1      3010 2.04023E-01 6.82600E-02 7.73205E-02 3.15709E-03 1.96514E-03-1.19779E-01
 -1      3011-3.07079E+00-1.69622E-01-9.27293E-02 1.14562E-01-7.33501E-02-2.20031E-02
 -1      3012 1.14065E+00 1.36989E-01 1.69111E-01 2.04648E-02 1.34799E-02-9.07621E-02
 -1      3013 2.30127E-01 4.01313E-02 2.35011E-02-3.57238E-03 8.55991E-03-1.34559E-01
 -1      3014-1.82726E-01-7.73910E-03-2.71467E-03-2.30770E-03-2.09055E-03-7.62594E-02
 -1      3015-2.81833E-02 2.95761E-03 1.69084E-04-2.21868E-03-8.90735E-03-1.25249E-01
 -1      3016-2.44649E+00-1.19413E-01-7.95038E-02 1.50874E-03 8.16391E-03-1.10274E-01
 -1      3017-1.22880E+00-5.43516E-02-1.10296E-02 9.01080E-03 6.70769E-03-8.77096E-02
 -1      3018-3.27864E+00-1.41841E-01-5.09694E-02-4.31160E-02 3.57808E-03-7.50276E-02
 -1      3019-3.27319E-02-4.10185E-03 1.47277E-02 1.24982E-03 2.96734E-03-2.27014E-02
 -1      3020-4.90325E-01 1.88496E-02-2.56323E-02-1.42564E-02-2.68248E-02-1.11536E-01
 -1      3021 5.86512E-01 3.30320E-02 2.92819E-02-7.81901E-03 2.60589E-03-9.87613E-02
 -1      3022-2.14896E+00 7.20814E-02 7.07346E-02-4.09557E-03-1.77569E-02-8.05878E-02
 -1      3023 2.04767E-01-6.18765E-03 7.46738E-03-1.32802E-03 2.02469E-02-1.26615E-01
 -1      3024-6.75911E-01-2.35415E-02 7.95784E-03 4.96018E-03-9.51876E-03-7.79556E-02
 -1      3025-1.00403E-01-8.19695E-02-1.12722E-02 1.89772E-03-3.52262E-02-1.38865E-01
 -1      3026-9.45500E-02-6.98493E-02-3.89834E-02 3.21630E-02-3.63172E-02-1.02238E-01
 -1      3027-1.28719E+00-3.28632E-02 1.78690E-02-1.23123E-02 5.91051E-03-6.28386E-02
 -1      3028 7.80234E-01 4.06990E-03-1.80615E-02 7.57582E-03-3.31288E-03-7.35663E-02
 -1      3029-1.17954E-01-7.75976E-02-7.74398E-02 5.78759E-04-1.10631E-03 8.50251E-03
 -1      3030-1.56216E-01-4.72768E-04 3.47494E-03-5.52653E-03-1.25386E-02-1.32465E-01
 -1      3031-6.66991E-01-1.73195E-02 2.98815E-02-2.78192E-04 8.94294E-03-8.80184E-02
 -1      3032 6.47404E-01 1.80238E-01 8.41514E-02-1.31327E-02-5.72584E-02-1.26749E-01
 -1      3033 1.57808E+00 8.08457E-02-6.01087E-02 1.68461E-02 1.11020E-01-7.86542E-02
 -1      3034 1.49164E-01 1.36236E-02 8.92815E-03 1.34551E-04-2.86455E-02-1.38003E-01
 -1      3035 1.69553E-01-7.38181E-03 6.77649E-03 2.10116E-04-4.42281E-03-1.21926E-01
 -1      3036 2.49992E+00 4.46915E-02-2.35982E-02-8.20432E-03 3.02916E-02-7.07442E-02
 -1      3037-8.71452E-01 1.02329E-01 1.08548E-01 1.26382E-02-3.07273E-02-6.50069E-02
 -1      3038-3.34964E+00-1.02703E-01-3.08436E-03-1.38964E-02-5.02835E-03-4.78537E-02
 -1      3039 6.97292E-01 2.10468E-02-1.02252E-02-4.50280E-03 1.38906E-02-1.05728E-01
 -1      3040 1.30749E-01 8.79535E-04-1.41443E-02-1.73546E-03 1.91193E-03-6.06701E-02
 -1      3041 3.21036E-01 3.21074E-02 5.32648E-02 1.73832E-02-1.77052E-02-1.27301E-01
 -1      3042 1.63044E+00 6.91601E-02 3.19758E-02 9.14828E-03-2.11854E-02-5.75547E-02
 -1      3043-9.15483E-01-2.43259E-02 5.75619E-02-4.29935E-03-3.97359E-02-1.50853E-01
 -1      3044-2.75919E+00-7.50027E-02 8.62742E-03 3.84746E-02 4.32174E-02-1.36664E-01
 -1      3045 1.89787E-02-1.33810E-03-4.79926E-03-1.97038E-03-1.06678E-02-1.25107E-01
 -1      3046 4.18553E-03 1.89720E-03 2.11730E-03 1.39802E-03-2.85727E-03-4.37728E-02
 -1      3047 2.35843E-01 3.19422E-03 2.42486E-03-7.73763E-04-9.20284E-03-1.32479E-01
 -1      3048 1.18147E+00-4.39842E-03-8.15777E-02 5.93869E-03 1.23542E-02-1.73556E-01
 -1      3049-4.98073E-02-4.26977E-02-5.22064E-02-3.53487E-02-1.46767E-02-2.02006E-01
 -3
    1PSTEP                         3           1           1          
  100CL  101 1.000000000        3049                     0    1           1
 -4  ERROR       1    1
 -5  STR(%)      1    1    0    0
 -1         1 0.00000E+00
 -1         2 0.00000E+00
 -1         3 0.00000E+00
 -1         4 0.00000E+00
 -1         5 0.00000E+00
 -1         6 0.00000E+00
 -1         7 0.00000E+00
 -1         8 0.00000E+00
 -1         9 0.00000E+00
 -1        10 0.00000E+00
 -1        11 0.00000E+00
 -1        12 0.00000E+00
 -1        13 0.00000E+00
 -1        14 0.00000E+00
 -1        15 0.00000E+00
 -1        16 0.00000E+00
 -1        17 0.00000E+00
 -1        18 0.00000E+00
 -1        19 0.00000E+00
 -1        20 0.00000E+00
 -1        21 0.00000E+00
 -1        22 0.00000E+00
 -1        23 0.00000E+00
 -1        24 0.00000E+00
 -1        25 0.00000E+00
 -1        26 0.00000E+00
 -1        27 0.00000E+00
 -1        28 0.00000E+00
 -1        29 0.00000E+00
 -1        30 0.00000E+00
 -1        31 0.00000E+00
 -1        32 0.00000E+00
 -1        33 0.00000E+00
 -1        34 0.00000E+00
 -1        35 0.00000E+00
 -1        36 0.00000E+00
 -1        37 0.00000E+00
 -1        38 0.00000E+00
 -1        39 0.00000E+00
 -1        40 0.00000E+00
 -1        41 0.00000E+00
 -1        42 0.00000E+00
 -1        43 0.00000E+00
 -1        44 0.00000E+00
 -1        45 0.00000E+00
 -1        46 0.00000E+00
 -1        47 0.00000E+00
 -1        48 0.00000E+00
 -1        49 0.00000E+00
 -1        50 0.00000E+00
 -1        51 0.00000E+00
 -1        52 0.00000E+00
 -1        53 0.00000E+00
 -1        54 0.00000E+00
 -1        55 0.00000E+00
 -1        56 0.00000E+00
 -1        57 0.00000E+00
 -1        58 0.00000E+00
 -1        59 0.00000E+00
 -1        60 0.00000E+00
 -1        61 0.00000E+00
 -1        62 0.00000E+00
 -1        63 0.00000E+00
 -1        64 0.00000E+00
 -1        65 0.00000E+00
 -1        66 0.00000E+00
 -1        67 0.00000E+00
 -1        68 0.00000E+00
 -1        69 0.00000E+00
 -1        70 0.00000E+00
 -1        71 0.00000E+00
 -1        72 0.00000E+00
 -1        73 0.00000E+00
 -1        74 0.00000E+00
 -1        75 0.00000E+00
 -1        76 0.00000E+00
 -1        77 0.00000E+00
 -1        78 0.00000E+00
 -1        79 0.00000E+00
 -1        80 0.00000E+00
 -1        81 0.00000E+00
 -1        82 0.00000E+00
 -1        83 0.00000E+00
 -1        84 0.00000E+00
 -1        85 0.00000E+00
 -1        86 0.00000E+00
 -1        87 0.00000E+00
 -1        88 0.00000E+00
 -1        89 0.00000E+00
 -1        90 0.00000E+00
 -1        91 0.00000E+00
 -1        92 0.00000E+00
 -1        93 0.00000E+00
 -1        94 0.00000E+00
 -1        95 0.00000E+00
 -1        96 0.00000E+00
 -1        97 0.00000E+00
 -1        98 0.00000E+00
 -1        99 0.00000E+00
 -1       100 0.00000E+00
 -1       101 0.00000E+00
 -1       102 0.00000E+00
 -1       103 0.00000E+00
 -1       104 0.00000E+00
 -1       105 0.00000E+00
 -1       106 0.00000E+00
 -1       107 0.00000E+00
 -1       108 0.00000E+00
 -1       109 0.00000E+00
 -1       110 0.00000E+00
 -1       111 0.00000E+00
 -1       112 0.00000E+00
 -1       113 0.00000E+00
 -1       114 0.00000E+00
 -1       115 0.00000E+00
 -1       116 0.00000E+00
 -1       117 0.00000E+00
 -1       118 0.00000E+00
 -1       119 0.00000E+00
 -1       120 0.00000E+00
 -1       121 0.00000E+00
 -1       122 0.00000E+00
 -1       123 0.00000E+00
 -1       124 0.00000E+00
 -1       125 0.00000E+00
 -1       126 0.00000E+00
 -1       127 0.00000E+00
 -1       128 0.00000E+00
 -1       129 0.00000E+00
 -1       130 0.00000E+00
 -1       131 0.00000E+00
 -1       132 0.00000E+00
 -1       133 0.00000E+00
 -1       134 0.00000E+00
 -1       135 0.00000E+00
 -1       136 0.00000E+00
 -1       137 0.00000E+00
 -1       138 0.00000E+00
 -1       139 0.00000E+00
 -1       140 0.00000E+00
 -1       141 0.00000E+00
 -1       142 0.00000E+00
 -1       143 0.00000E+00
 -1       144 0.00000E+00
 -1       145 0.00000E+00
 -1       146 0.00000E+00
 -1       147 0.00000E+00
 -1       148 0.00000E+00
 -1       149 0.00000E+00
 -1       150 0.00000E+00
 -1       151 0.00000E+00
 -1       152 0.00000E+00
 -1       153 0.00000E+00
 -1       154 0.00000E+00
 -1       155 0.00000E+00
 -1       156 0.00000E+00
 -1       157 0.00000E+00
 -1       158 0.00000E+00
 -1       159 0.00000E+00
 -1       160 0.00000E+00
 -1       161 0.00000E+00
 -1       162 0.00000E+00
 -1       163 0.00000E+00
 -1       164 0.00000E+00
 -1       165 0.00000E+00
 -1       166 0.00000E+00
 -1       167 0.00000E+00
 -1       168 0.00000E+00
 -1       169 0.00000E+00
 -1       170 0.00000E+00
 -1       171 0.00000E+00
 -1       172 0.00000E+00
 -1       173 0.00000E+00
 -1       174 0.00000E+00
 -1       175 0.00000E+00
 -1       176 0.00000E+00
 -1       177 0.00000E+00
 -1       178 0.00000E+00
 -1       179 0.00000E+00
 -1       180 0.00000E+00
 -1       181 0.00000E+00
 -1       182 0.00000E+00
 -1       183 0.00000E+00
 -1       184 0.00000E+00
 -1       185 0.00000E+00
 -1       186 0.00000E+00
 -1       187 0.00000E+00
 -1       188 0.00000E+00
 -1       189 0.00000E+00
 -1       190 0.00000E+00
 -1       191 0.00000E+00
 -1       192 0.00000E+00
 -1       193 0.00000E+00
 -1       194 0.00000E+00
 -1       195 0.00000E+00
 -1       196 0.00000E+00
 -1       197 0.00000E+00
 -1       198 0.00000E+00
 -1       199 0.00000E+00
 -1       200 0.00000E+00
 -1       201 0.00000E+00
 -1       202 0.00000E+00
 -1       203 0.00000E+00
 -1       204 0.00000E+00
 -1       205 0.00000E+00
 -1       206 0.00000E+00
 -1       207 0.00000E+00
 -1       208 0.00000E+00
 -1       209 0.00000E+00
 -1       210 0.00000E+00
 -1       211 0.00000E+00
 -1       212 0.00000E+00
 -1       213 0.00000E+00
 -1       214 0.00000E+00
 -1       215 0.00000E+00
 -1       216 0.00000E+00
 -1       217 0.00000E+00
 -1       218 0.00000E+00
 -1       219 0.00000E+00
 -1       220 0.00000E+00
 -1       221 0.00000E+00
 -1       222 0.00000E+00
 -1       223 0.00000E+00
 -1       224 0.00000E+00
 -1       225 0.00000E+00
 -1       226 0.00000E+00
 -1       227 0.00000E+00
 -1       228 0.00000E+00
 -1       229 0.00000E+00
 -1       230 0.00000E+00
 -1       231 0.00000E+00
 -1       232 0.00000E+00
 -1       233 0.00000E+00
 -1       234 0.00000E+00
 -1       235 0.00000E+00
 -1       236 0.00000E+00
 -1       237 0.00000E+00
 -1       238 0.00000E+00
 -1       239 0.00000E+00
 -1       240 0.00000E+00
 -1       241 0.00000E+00
 -1       242 0.00000E+00
 -1       243 0.00000E+00
 -1       244 0.00000E+00
 -1       245 0.00000E+00
 -1       246 0.00000E+00
 -1       247 0.00000E+00
 -1       248 0.00000E+00
 -1       249 0.00000E+00
 -1       250 0.00000E+00
 -1       251 0.00000E+00
 -1       252 0.00000E+00
 -1       253 0.00000E+00
 -1       254 0.00000E+00
 -1       255 0.00000E+00
 -1       256 0.00000E+00
 -1       257 0.00000E+00
 -1       258 0.00000E+00
 -1       259 0.00000E+00
 -1       260 0.00000E+00
 -1       261 0.00000E+00
 -1       262 0.00000E+00
 -1       263 0.00000E+00
 -1       264 0.00000E+00
 -1       265 0.00000E+00
 -1       266 0.00000E+00
 -1       267 0.00000E+00
 -1       268 0.00000E+00
 -1       269 0.00000E+00
 -1       270 0.00000E+00
 -1       271 0.00000E+00
 -1       272 0.00000E+00
 -1       273 0.00000E+00
 -1       274 0.00000E+00
 -1       275 0.00000E+00
 -1       276 0.00000E+00
 -1       277 0.00000E+00
 -1       278 0.00000E+00
 -1       279 0.00000E+00
 -1       280 0.00000E+00
 -1       281 0.00000E+00
 -1       282 0.00000E+00
 -1       283 0.00000E+00
 -1       284 0.00000E+00
 -1       285 0.00000E+00
 -1       286 0.00000E+00
 -1       287 0.00000E+00
 -1       288 0.00000E+00
 -1       289 0.00000E+00
 -1       290 0.00000E+00
 -1       291 0.00000E+00
 -1       292 0.00000E+00
 -1       293 0.00000E+00
 -1       294 0.00000E+00
 -1       295 0.00000E+00
 -1       296 0.00000E+00
 -1       297 0.00000E+00
 -1       298 0.00000E+00
 -1       299 0.00000E+00
 -1       300 0.00000E+00
 -1       301 0.00000E+00
 -1       302 0.00000E+00
 -1       303 0.00000E+00
 -1       304 0.00000E+00
 -1       305 0.00000E+00
 -1       306 0.00000E+00
 -1       307 0.00000E+00
 -1       308 0.00000E+00
 -1       309 0.00000E+00
 -1       310 0.00000E+00
 -1       311 0.00000E+00
 -1       312 0.00000E+00
 -1       313 0.00000E+00
 -1       314 0.00000E+00
 -1       315 0.00000E+00
 -1       316 0.00000E+00
 -1       317 0.00000E+00
 -1       318 0.00000E+00
 -1       319 0.00000E+00
 -1       320 0.00000E+00
 -1       321 0.00000E+00
 -1       322 0.00000E+00
 -1       323 0.00000E+00
 -1       324 0.00000E+00
 -1       325 0.00000E+00
 -1       326 0.00000E+00
 -1       327 0.00000E+00
 -1       328 0.00000E+00
 -1       329 0.00000E+00
 -1       330 0.00000E+00
 -1       331 0.00000E+00
 -1       332 0.00000E+00
 -1       333 0.00000E+00
 -1       334 0.00000E+00
 -1       335 0.00000E+00
 -1       336 0.00000E+00
 -1       337 0.00000E+00
 -1       338 0.00000E+00
 -1       339 0.00000E+00
 -1       340 0.00000E+00
 -1       341 0.00000E+00
 -1       342 0.00000E+00
 -1       343 0.00000E+00
 -1       344 0.00000E+00
 -1       345 0.00000E+00
 -1       346 0.00000E+00
 -1       347 0.00000E+00
 -1       348 0.00000E+00
 -1       349 0.00000E+00
 -1       350 0.00000E+00
 -1       351 0.00000E+00
 -1       352 0.00000E+00
 -1       353 0.00000E+00
 -1       354 0.00000E+00
 -1       355 0.00000E+00
 -1       356 0.00000E+00
 -1       357 0.00000E+00
 -1       358 0.00000E+00
 -1       359 0.00000E+00
 -1       360 0.00000E+00
 -1       361 0.00000E+00
 -1       362 0.00000E+00
 -1       363 0.00000E+00
 -1       364 0.00000E+00
 -1       365 0.00000E+00
 -1       366 0.00000E+00
 -1       367 0.00000E+00
 -1       368 0.00000E+00
 -1       369 0.00000E+00
 -1       370 0.00000E+00
 -1       371 0.00000E+00
 -1       372 0.00000E+00
 -1       373 0.00000E+00
 -1       374 0.00000E+00
 -1       375 0.00000E+00
 -1       376 0.00000E+00
 -1       377 0.00000E+00
 -1       378 0.00000E+00
 -1       379 0.00000E+00
 -1       380 0.00000E+00
 -1       381 0.00000E+00
 -1       382 0.00000E+00
 -1       383 0.00000E+00
 -1       384 0.00000E+00
 -1       385 0.00000E+00
 -1       386 0.00000E+00
 -1       387 0.00000E+00
 -1       388 0.00000E+00
 -1       389 0.00000E+00
 -1       390 0.00000E+00
 -1       391 0.00000E+00
 -1       392 0.00000E+00
 -1       393 0.00000E+00
 -1       394 0.00000E+00
 -1       395 0.00000E+00
 -1       396 0.00000E+00
 -1       397 0.00000E+00
 -1       398 0.00000E+00
 -1       399 0.00000E+00
 -1       400 0.00000E+00
 -1       401 0.00000E+00
 -1       402 0.00000E+00
 -1       403 0.00000E+00
 -1       404 0.00000E+00
 -1       405 0.00000E+00
 -1       406 0.00000E+00
 -1       407 0.00000E+00
 -1       408 0.00000E+00
 -1       409 0.00000E+00
 -1       410 0.00000E+00
 -1       411 0.00000E+00
 -1       412 0.00000E+00
 -1       413 0.00000E+00
 -1       414 0.00000E+00
 -1       415 0.00000E+00
 -1       416 0.00000E+00
 -1       417 0.00000E+00
 -1       418 0.00000E+00
 -1       419 0.00000E+00
 -1       420 0.00000E+00
 -1       421 0.00000E+00
 -1       422 0.00000E+00
 -1       423 0.00000E+00
 -1       424 0.00000E+00
 -1       425 0.00000E+00
 -1       426 0.00000E+00
 -1       427 0.00000E+00
 -1       428 0.00000E+00
 -1       429 0.00000E+00
 -1       430 0.00000E+00
 -1       431 0.00000E+00
 -1       432 0.00000E+00
 -1       433 0.00000E+00
 -1       434 0.00000E+00
 -1       435 0.00000E+00
 -1       436 0.00000E+00
 -1       437 0.00000E+00
 -1       438 0.00000E+00
 -1       439 0.00000E+00
 -1       440 0.00000E+00
 -1       441 0.00000E+00
 -1       442 0.00000E+00
 -1       443 0.00000E+00
 -1       444 0.00000E+00
 -1       445 0.00000E+00
 -1       446 0.00000E+00
 -1       447 0.00000E+00
 -1       448 0.00000E+00
 -1       449 0.00000E+00
 -1       450 0.00000E+00
 -1       451 0.00000E+00
 -1       452 0.00000E+00
 -1       453 0.00000E+00
 -1       454 0.00000E+00
 -1       455 0.00000E+00
 -1       456 0.00000E+00
 -1       457 0.00000E+00
 -1       458 0.00000E+00
 -1       459 0.00000E+00
 -1       460 0.00000E+00
 -1       461 0.00000E+00
 -1       462 0.00000E+00
 -1       463 0.00000E+00
 -1       464 0.00000E+00
 -1       465 0.00000E+00
 -1       466 0.00000E+00
 -1       467 0.00000E+00
 -1       468 0.00000E+00
 -1       469 0.00000E+00
 -1       470 0.00000E+00
 -1       471 0.00000E+00
 -1       472 0.00000E+00
 -1       473 0.00000E+00
 -1       474 0.00000E+00
 -1       475 0.00000E+00
 -1       476 0.00000E+00
 -1       477 0.00000E+00
 -1       478 0.00000E+00
 -1       479 0.00000E+00
 -1       480 0.00000E+00
 -1       481 0.00000E+00
 -1       482 0.00000E+00
 -1       483 0.00000E+00
 -1       484 0.00000E+00
 -1       485 0.00000E+00
 -1       486 0.00000E+00
 -1       487 0.00000E+00
 -1       488 0.00000E+00
 -1       489 0.00000E+00
 -1       490 0.00000E+00
 -1       491 0.00000E+00
 -1       492 0.00000E+00
 -1       493 0.00000E+00
 -1       494 0.00000E+00
 -1       495 0.00000E+00
 -1       496 0.00000E+00
 -1       497 0.00000E+00
 -1       498 0.00000E+00
 -1       499 0.00000E+00
 -1       500 0.00000E+00
 -1       501 0.00000E+00
 -1       502 0.00000E+00
 -1       503 0.00000E+00
 -1       504 0.00000E+00
 -1       505 0.00000E+00
 -1       506 0.00000E+00
 -1       507 0.00000E+00
 -1       508 0.00000E+00
 -1       509 0.00000E+00
 -1       510 0.00000E+00
 -1       511 0.00000E+00
 -1       512 0.00000E+00
 -1       513 0.00000E+00
 -1       514 0.00000E+00
 -1       515 0.00000E+00
 -1       516 0.00000E+00
 -1       517 0.00000E+00
 -1       518 0.00000E+00
 -1       519 0.00000E+00
 -1       520 0.00000E+00
 -1       521 0.00000E+00
 -1       522 0.00000E+00
 -1       523 0.00000E+00
 -1       524 0.00000E+00
 -1       525 0.00000E+00
 -1       526 0.00000E+00
 -1       527 0.00000E+00
 -1       528 0.00000E+00
 -1       529 0.00000E+00
 -1       530 0.00000E+00
 -1       531 0.00000E+00
 -1       532 0.00000E+00
 -1       533 0.00000E+00
 -1       534 0.00000E+00
 -1       535 0.00000E+00
 -1       536 0.00000E+00
 -1       537 0.00000E+00
 -1       538 0.00000E+00
 -1       539 0.00000E+00
 -1       540 0.00000E+00
 -1       541 0.00000E+00
 -1       542 0.00000E+00
 -1       543 0.00000E+00
 -1       544 0.00000E+00
 -1       545 0.00000E+00
 -1       546 0.00000E+00
 -1       547 0.00000E+00
 -1       548 0.00000E+00
 -1       549 0.00000E+00
 -1       550 0.00000E+00
 -1       551 0.00000E+00
 -1       552 0.00000E+00
 -1       553 0.00000E+00
 -1       554 0.00000E+00
 -1       555 0.00000E+00
 -1       556 0.00000E+00
 -1       557 0.00000E+00
 -1       558 0.00000E+00
 -1       559 0.00000E+00
 -1       560 0.00000E+00
 -1       561 0.00000E+00
 -1       562 0.00000E+00
 -1       563 0.00000E+00
 -1       564 0.00000E+00
 -1       565 0.00000E+00
 -1       566 0.00000E+00
 -1       567 0.00000E+00
 -1       568 0.00000E+00
 -1       569 0.00000E+00
 -1       570 0.00000E+00
 -1       571 0.00000E+00
 -1       572 0.00000E+00
 -1       573 0.00000E+00
 -1       574 0.00000E+00
 -1       575 0.00000E+00
 -1       576 0.00000E+00
 -1       577 0.00000E+00
 -1       578 0.00000E+00
 -1       579 0.00000E+00
 -1       580 0.00000E+00
 -1       581 0.00000E+00
 -1       582 0.00000E+00
 -1       583 0.00000E+00
 -1       584 0.00000E+00
 -1       585 0.00000E+00
 -1       586 0.00000E+00
 -1       587 0.00000E+00
 -1       588 0.00000E+00
 -1       589 0.00000E+00
 -1       590 0.00000E+00
 -1       591 0.00000E+00
 -1       592 0.00000E+00
 -1       593 0.00000E+00
 -1       594 0.00000E+00
 -1       595 0.00000E+00
 -1       596 0.00000E+00
 -1       597 0.00000E+00
 -1       598 0.00000E+00
 -1       599 0.00000E+00
 -1       600 0.00000E+00
 -1       601 0.00000E+00
 -1       602 0.00000E+00
 -1       603 0.00000E+00
 -1       604 0.00000E+00
 -1       605 0.00000E+00
 -1       606 0.00000E+00
 -1       607 0.00000E+00
 -1       608 0.00000E+00
 -1       609 0.00000E+00
 -1       610 0.00000E+00
 -1       611 0.00000E+00
 -1       612 0.00000E+00
 -1       613 0.00000E+00
 -1       614 0.00000E+00
 -1       615 0.00000E+00
 -1       616 0.00000E+00
 -1       617 0.00000E+00
 -1       618 0.00000E+00
 -1       619 0.00000E+00
 -1       620 0.00000E+00
 -1       621 0.00000E+00
 -1       622 0.00000E+00
 -1       623 0.00000E+00
 -1       624 0.00000E+00
 -1       625 0.00000E+00
 -1       626 0.00000E+00
 -1       627 0.00000E+00
 -1       628 0.00000E+00
 -1       629 0.00000E+00
 -1       630 0.00000E+00
 -1       631 0.00000E+00
 -1       632 0.00000E+00
 -1       633 0.00000E+00
 -1       634 0.00000E+00
 -1       635 0.00000E+00
 -1       636 0.00000E+00
 -1       637 0.00000E+00
 -1       638 0.00000E+00
 -1       639 0.00000E+00
 -1       640 0.00000E+00
 -1       641 0.00000E+00
 -1       642 0.00000E+00
 -1       643 0.00000E+00
 -1       644 0.00000E+00
 -1       645 0.00000E+00
 -1       646 0.00000E+00
 -1       647 0.00000E+00
 -1       648 0.00000E+00
 -1       649 0.00000E+00
 -1       650 0.00000E+00
 -1       651 0.00000E+00
 -1       652 0.00000E+00
 -1       653 0.00000E+00
 -1       654 0.00000E+00
 -1       655 0.00000E+00
 -1       656 0.00000E+00
 -1       657 0.00000E+00
 -1       658 0.00000E+00
 -1       659 0.00000E+00
 -1       660 0.00000E+00
 -1       661 0.00000E+00
 -1       662 0.00000E+00
 -1       663 0.00000E+00
 -1       664 0.00000E+00
 -1       665 0.00000E+00
 -1       666 0.00000E+00
 -1       667 0.00000E+00
 -1       668 0.00000E+00
 -1       669 0.00000E+00
 -1       670 0.00000E+00
 -1       671 0.00000E+00
 -1       672 0.00000E+00
 -1       673 0.00000E+00
 -1       674 0.00000E+00
 -1       675 0.00000E+00
 -1       676 0.00000E+00
 -1       677 0.00000E+00
 -1       678 0.00000E+00
 -1       679 0.00000E+00
 -1       680 0.00000E+00
 -1       681 0.00000E+00
 -1       682 0.00000E+00
 -1       683 0.00000E+00
 -1       684 0.00000E+00
 -1       685 0.00000E+00
 -1       686 0.00000E+00
 -1       687 0.00000E+00
 -1       688 0.00000E+00
 -1       689 0.00000E+00
 -1       690 0.00000E+00
 -1       691 0.00000E+00
 -1       692 0.00000E+00
 -1       693 0.00000E+00
 -1       694 0.00000E+00
 -1       695 0.00000E+00
 -1       696 0.00000E+00
 -1       697 0.00000E+00
 -1       698 0.00000E+00
 -1       699 0.00000E+00
 -1       700 0.00000E+00
 -1       701 0.00000E+00
 -1       702 0.00000E+00
 -1       703 0.00000E+00
 -1       704 0.00000E+00
 -1       705 0.00000E+00
 -1       706 0.00000E+00
 -1       707 0.00000E+00
 -1       708 0.00000E+00
 -1       709 0.00000E+00
 -1       710 0.00000E+00
 -1       711 0.00000E+00
 -1       712 0.00000E+00
 -1       713 0.00000E+00
 -1       714 0.00000E+00
 -1       715 0.00000E+00
 -1       716 0.00000E+00
 -1       717 0.00000E+00
 -1       718 0.00000E+00
 -1       719 0.00000E+00
 -1       720 0.00000E+00
 -1       721 0.00000E+00
 -1       722 0.00000E+00
 -1       723 0.00000E+00
 -1       724 0.00000E+00
 -1       725 0.00000E+00
 -1       726 0.00000E+00
 -1       727 0.00000E+00
 -1       728 0.00000E+00
 -1       729 0.00000E+00
 -1       730 0.00000E+00
 -1       731 0.00000E+00
 -1       732 0.00000E+00
 -1       733 0.00000E+00
 -1       734 0.00000E+00
 -1       735 0.00000E+00
 -1       736 0.00000E+00
 -1       737 0.00000E+00
 -1       738 0.00000E+00
 -1       739 0.00000E+00
 -1       740 0.00000E+00
 -1       741 0.00000E+00
 -1       742 0.00000E+00
 -1       743 0.00000E+00
 -1       744 0.00000E+00
 -1       745 0.00000E+00
 -1       746 0.00000E+00
 -1       747 0.00000E+00
 -1       748 0.00000E+00
 -1       749 0.00000E+00
 -1       750 0.00000E+00
 -1       751 0.00000E+00
 -1       752 0.00000E+00
 -1       753 0.00000E+00
 -1       754 0.00000E+00
 -1       755 0.00000E+00
 -1       756 0.00000E+00
 -1       757 0.00000E+00
 -1       758 0.00000E+00
 -1       759 0.00000E+00
 -1       760 0.00000E+00
 -1       761 0.00000E+00
 -1       762 0.00000E+00
 -1       763 0.00000E+00
 -1       764 0.00000E+00
 -1       765 0.00000E+00
 -1       766 0.00000E+00
 -1       767 0.00000E+00
 -1       768 0.00000E+00
 -1       769 0.00000E+00
 -1       770 0.00000E+00
 -1       771 0.00000E+00
 -1       772 0.00000E+00
 -1       773 0.00000E+00
 -1       774 0.00000E+00
 -1       775 0.00000E+00
 -1       776 0.00000E+00
 -1       777 0.00000E+00
 -1       778 0.00000E+00
 -1       779 0.00000E+00
 -1       780 0.00000E+00
 -1       781 0.00000E+00
 -1       782 0.00000E+00
 -1       783 0.00000E+00
 -1       784 0.00000E+00
 -1       785 0.00000E+00
 -1       786 0.00000E+00
 -1       787 0.00000E+00
 -1       788 0.00000E+00
 -1       789 0.00000E+00
 -1       790 0.00000E+00
 -1       791 0.00000E+00
 -1       792 0.00000E+00
 -1       793 0.00000E+00
 -1       794 0.00000E+00
 -1       795 0.00000E+00
 -1       796 0.00000E+00
 -1       797 0.00000E+00
 -1       798 0.00000E+00
 -1       799 0.00000E+00
 -1       800 0.00000E+00
 -1       801 0.00000E+00
 -1       802 0.00000E+00
 -1       803 0.00000E+00
 -1       804 0.00000E+00
 -1       805 0.00000E+00
 -1       806 0.00000E+00
 -1       807 0.00000E+00
 -1       808 0.00000E+00
 -1       809 0.00000E+00
 -1       810 0.00000E+00
 -1       811 0.00000E+00
 -1       812 0.00000E+00
 -1       813 0.00000E+00
 -1       814 0.00000E+00
 -1       815 0.00000E+00
 -1       816 0.00000E+00
 -1       817 0.00000E+00
 -1       818 0.00000E+00
 -1       819 0.00000E+00
 -1       820 0.00000E+00
 -1       821 0.00000E+00
 -1       822 0.00000E+00
 -1       823 0.00000E+00
 -1       824 0.00000E+00
 -1       825 0.00000E+00
 -1       826 0.00000E+00
 -1       827 0.00000E+00
 -1       828 0.00000E+00
 -1       829 0.00000E+00
 -1       830 0.00000E+00
 -1       831 0.00000E+00
 -1       832 0.00000E+00
 -1       833 0.00000E+00
 -1       834 0.00000E+00
 -1       835 0.00000E+00
 -1       836 0.00000E+00
 -1       837 0.00000E+00
 -1       838 0.00000E+00
 -1       839 0.00000E+00
 -1       840 0.00000E+00
 -1       841 0.00000E+00
 -1       842 0.00000E+00
 -1       843 0.00000E+00
 -1       844 0.00000E+00
 -1       845 0.00000E+00
 -1       846 0.00000E+00
 -1       847 0.00000E+00
 -1       848 0.00000E+00
 -1       849 0.00000E+00
 -1       850 0.00000E+00
 -1       851 0.00000E+00
 -1       852 0.00000E+00
 -1       853 0.00000E+00
 -1       854 0.00000E+00
 -1       855 0.00000E+00
 -1       856 0.00000E+00
 -1       857 0.00000E+00
 -1       858 0.00000E+00
 -1       859 0.00000E+00
 -1       860 0.00000E+00
 -1       861 0.00000E+00
 -1       862 0.00000E+00
 -1       863 0.00000E+00
 -1       864 0.00000E+00
 -1       865 0.00000E+00
 -1       866 0.00000E+00
 -1       867 0.00000E+00
 -1       868 0.00000E+00
 -1       869 0.00000E+00
 -1       870 0.00000E+00
 -1       871 0.00000E+00
 -1       872 0.00000E+00
 -1       873 0.00000E+00
 -1       874 0.00000E+00
 -1       875 0.00000E+00
 -1       876 0.00000E+00
 -1       877 0.00000E+00
 -1       878 0.00000E+00
 -1       879 0.00000E+00
 -1       880 0.00000E+00
 -1       881 0.00000E+00
 -1       882 0.00000E+00
 -1       883 0.00000E+00
 -1       884 0.00000E+00
 -1       885 0.00000E+00
 -1       886 0.00000E+00
 -1       887 0.00000E+00
 -1       888 0.00000E+00
 -1       889 0.00000E+00
 -1       890 0.00000E+00
 -1       891 0.00000E+00
 -1       892 0.00000E+00
 -1       893 0.00000E+00
 -1       894 0.00000E+00
 -1       895 0.00000E+00
 -1       896 0.00000E+00
 -1       897 0.00000E+00
 -1       898 0.00000E+00
 -1       899 0.00000E+00
 -1       900 0.00000E+00
 -1       901 0.00000E+00
 -1       902 0.00000E+00
 -1       903 0.00000E+00
 -1       904 0.00000E+00
 -1       905 0.00000E+00
 -1       906 0.00000E+00
 -1       907 0.00000E+00
 -1       908 0.00000E+00
 -1       909 0.00000E+00
 -1       910 0.00000E+00
 -1       911 0.00000E+00
 -1       912 0.00000E+00
 -1       913 0.00000E+00
 -1       914 0.00000E+00
 -1       915 0.00000E+00
 -1       916 0.00000E+00
 -1       917 0.00000E+00
 -1       918 0.00000E+00
 -1       919 0.00000E+00
 -1       920 0.00000E+00
 -1       921 0.00000E+00
 -1       922 0.00000E+00
 -1       923 0.00000E+00
 -1       924 0.00000E+00
 -1       925 0.00000E+00
 -1       926 0.00000E+00
 -1       927 0.00000E+00
 -1       928 0.00000E+00
 -1       929 0.00000E+00
 -1       930 0.00000E+00
 -1       931 0.00000E+00
 -1       932 0.00000E+00
 -1       933 0.00000E+00
 -1       934 0.00000E+00
 -1       935 0.00000E+00
 -1       936 0.00000E+00
 -1       937 0.00000E+00
 -1       938 0.00000E+00
 -1       939 0.00000E+00
 -1       940 0.00000E+00
 -1       941 0.00000E+00
 -1       942 0.00000E+00
 -1       943 0.00000E+00
 -1       944 0.00000E+00
 -1       945 0.00000E+00
 -1       946 0.00000E+00
 -1       947 0.00000E+00
 -1       948 0.00000E+00
 -1       949 0.00000E+00
 -1       950 0.00000E+00
 -1       951 0.00000E+00
 -1       952 0.00000E+00
 -1       953 0.00000E+00
 -1       954 0.00000E+00
 -1       955 0.00000E+00
 -1       956 0.00000E+00
 -1       957 0.00000E+00
 -1       958 0.00000E+00
 -1       959 0.00000E+00
 -1       960 0.00000E+00
 -1       961 0.00000E+00
 -1       962 0.00000E+00
 -1       963 0.00000E+00
 -1       964 0.00000E+00
 -1       965 0.00000E+00
 -1       966 0.00000E+00
 -1       967 0.00000E+00
 -1       968 0.00000E+00
 -1       969 0.00000E+00
 -1       970 0.00000E+00
 -1       971 0.00000E+00
 -1       972 0.00000E+00
 -1       973 0.00000E+00
 -1       974 0.00000E+00
 -1       975 0.00000E+00
 -1       976 0.00000E+00
 -1       977 0.00000E+00
 -1       978 0.00000E+00
 -1       979 0.00000E+00
 -1       980 0.00000E+00
 -1       981 0.00000E+00
 -1       982 0.00000E+00
 -1       983 0.00000E+00
 -1       984 0.00000E+00
 -1       985 0.00000E+00
 -1       986 0.00000E+00
 -1       987 0.00000E+00
 -1       988 0.00000E+00
 -1       989 0.00000E+00
 -1       990 0.00000E+00
 -1       991 0.00000E+00
 -1       992 0.00000E+00
 -1       993 0.00000E+00
 -1       994 0.00000E+00
 -1       995 0.00000E+00
 -1       996 0.00000E+00
 -1       997 0.00000E+00
 -1       998 0.00000E+00
 -1       999 0.00000E+00
 -1      1000 0.00000E+00
 -1      1001 0.00000E+00
 -1      1002 0.00000E+00
 -1      1003 0.00000E+00
 -1      1004 0.00000E+00
 -1      1005 0.00000E+00
 -1      1006 0.00000E+00
 -1      1007 0.00000E+00
 -1      1008 0.00000E+00
 -1      1009 0.00000E+00
 -1      1010 0.00000E+00
 -1      1011 0.00000E+00
 -1      1012 0.00000E+00
 -1      1013 0.00000E+00
 -1      1014 0.00000E+00
 -1      1015 0.00000E+00
 -1      1016 0.00000E+00
 -1      1017 0.00000E+00
 -1      1018 0.00000E+00
 -1      1019 0.00000E+00
 -1      1020 0.00000E+00
 -1      1021 0.00000E+00
 -1      1022 0.00000E+00
 -1      1023 0.00000E+00
 -1      1024 0.00000E+00
 -1      1025 0.00000E+00
 -1      1026 0.00000E+00
 -1      1027 0.00000E+00
 -1      1028 0.00000E+00
 -1      1029 0.00000E+00
 -1      1030 0.00000E+00
 -1      1031 0.00000E+00
 -1      1032 0.00000E+00
 -1      1033 0.00000E+00
 -1      1034 0.00000E+00
 -1      1035 0.00000E+00
 -1      1036 0.00000E+00
 -1      1037 0.00000E+00
 -1      1038 0.00000E+00
 -1      1039 0.00000E+00
 -1      1040 0.00000E+00
 -1      1041 0.00000E+00
 -1      1042 0.00000E+00
 -1      1043 0.00000E+00
 -1      1044 0.00000E+00
 -1      1045 0.00000E+00
 -1      1046 0.00000E+00
 -1      1047 0.00000E+00
 -1      1048 0.00000E+00
 -1      1049 0.00000E+00
 -1      1050 0.00000E+00
 -1      1051 0.00000E+00
 -1      1052 0.00000E+00
 -1      1053 0.00000E+00
 -1      1054 0.00000E+00
 -1      1055 0.00000E+00
 -1      1056 0.00000E+00
 -1      1057 0.00000E+00
 -1      1058 0.00000E+00
 -1      1059 0.00000E+00
 -1      1060 0.00000E+00
 -1      1061 0.00000E+00
 -1      1062 0.00000E+00
 -1      1063 0.00000E+00
 -1      1064 0.00000E+00
 -1      1065 0.00000E+00
 -1      1066 0.00000E+00
 -1      1067 0.00000E+00
 -1      1068 0.00000E+00
 -1      1069 0.00000E+00
 -1      1070 0.00000E+00
 -1      1071 0.00000E+00
 -1      1072 0.00000E+00
 -1      1073 0.00000E+00
 -1      1074 0.00000E+00
 -1      1075 0.00000E+00
 -1      1076 0.00000E+00
 -1      1077 0.00000E+00
 -1      1078 0.00000E+00
 -1      1079 0.00000E+00
 -1      1080 0.00000E+00
 -1      1081 0.00000E+00
 -1      1082 0.00000E+00
 -1      1083 0.00000E+00
 -1      1084 0.00000E+00
 -1      1085 0.00000E+00
 -1      1086 0.00000E+00
 -1      1087 0.00000E+00
 -1      1088 0.00000E+00
 -1      1089 0.00000E+00
 -1      1090 0.00000E+00
 -1      1091 0.00000E+00
 -1      1092 0.00000E+00
 -1      1093 0.00000E+00
 -1      1094 0.00000E+00
 -1      1095 0.00000E+00
 -1      1096 0.00000E+00
 -1      1097 0.00000E+00
 -1      1098 0.00000E+00
 -1      1099 0.00000E+00
 -1      1100 0.00000E+00
 -1      1101 0.00000E+00
 -1      1102 0.00000E+00
 -1      1103 0.00000E+00
 -1      1104 0.00000E+00
 -1      1105 0.00000E+00
 -1      1106 0.00000E+00
 -1      1107 0.00000E+00
 -1      1108 0.00000E+00
 -1      1109 0.00000E+00
 -1      1110 0.00000E+00
 -1      1111 0.00000E+00
 -1      1112 0.00000E+00
 -1      1113 0.00000E+00
 -1      1114 0.00000E+00
 -1      1115 0.00000E+00
 -1      1116 0.00000E+00
 -1      1117 0.00000E+00
 -1      1118 0.00000E+00
 -1      1119 0.00000E+00
 -1      1120 0.00000E+00
 -1      1121 0.00000E+00
 -1      1122 0.00000E+00
 -1      1123 0.00000E+00
 -1      1124 0.00000E+00
 -1      1125 0.00000E+00
 -1      1126 0.00000E+00
 -1      1127 0.00000E+00
 -1      1128 0.00000E+00
 -1      1129 0.00000E+00
 -1      1130 0.00000E+00
 -1      1131 0.00000E+00
 -1      1132 0.00000E+00
 -1      1133 0.00000E+00
 -1      1134 0.00000E+00
 -1      1135 0.00000E+00
 -1      1136 0.00000E+00
 -1      1137 0.00000E+00
 -1      1138 0.00000E+00
 -1      1139 0.00000E+00
 -1      1140 0.00000E+00
 -1      1141 0.00000E+00
 -1      1142 0.00000E+00
 -1      1143 0.00000E+00
 -1      1144 0.00000E+00
 -1      1145 0.00000E+00
 -1      1146 0.00000E+00
 -1      1147 0.00000E+00
 -1      1148 0.00000E+00
 -1      1149 0.00000E+00
 -1      1150 0.00000E+00
 -1      1151 0.00000E+00
 -1      1152 0.00000E+00
 -1      1153 0.00000E+00
 -1      1154 0.00000E+00
 -1      1155 0.00000E+00
 -1      1156 0.00000E+00
 -1      1157 0.00000E+00
 -1      1158 0.00000E+00
 -1      1159 0.00000E+00
 -1      1160 0.00000E+00
 -1      1161 0.00000E+00
 -1      1162 0.00000E+00
 -1      1163 0.00000E+00
 -1      1164 0.00000E+00
 -1      1165 0.00000E+00
 -1      1166 0.00000E+00
 -1      1167 0.00000E+00
 -1      1168 0.00000E+00
 -1      1169 0.00000E+00
 -1      1170 0.00000E+00
 -1      1171 0.00000E+00
 -1      1172 0.00000E+00
 -1      1173 0.00000E+00
 -1      1174 0.00000E+00
 -1      1175 0.00000E+00
 -1      1176 0.00000E+00
 -1      1177 0.00000E+00
 -1      1178 0.00000E+00
 -1      1179 0.00000E+00
 -1      1180 0.00000E+00
 -1      1181 0.00000E+00
 -1      1182 0.00000E+00
 -1      1183 0.00000E+00
 -1      1184 0.00000E+00
 -1      1185 0.00000E+00
 -1      1186 0.00000E+00
 -1      1187 0.00000E+00
 -1      1188 0.00000E+00
 -1      1189 0.00000E+00
 -1      1190 0.00000E+00
 -1      1191 0.00000E+00
 -1      1192 0.00000E+00
 -1      1193 0.00000E+00
 -1      1194 0.00000E+00
 -1      1195 0.00000E+00
 -1      1196 0.00000E+00
 -1      1197 0.00000E+00
 -1      1198 0.00000E+00
 -1      1199 0.00000E+00
 -1      1200 0.00000E+00
 -1      1201 0.00000E+00
 -1      1202 0.00000E+00
 -1      1203 0.00000E+00
 -1      1204 0.00000E+00
 -1      1205 0.00000E+00
 -1      1206 0.00000E+00
 -1      1207 0.00000E+00
 -1      1208 0.00000E+00
 -1      1209 0.00000E+00
 -1      1210 0.00000E+00
 -1      1211 0.00000E+00
 -1      1212 0.00000E+00
 -1      1213 0.00000E+00
 -1      1214 0.00000E+00
 -1      1215 0.00000E+00
 -1      1216 0.00000E+00
 -1      1217 0.00000E+00
 -1      1218 0.00000E+00
 -1      1219 0.00000E+00
 -1      1220 0.00000E+00
 -1      1221 0.00000E+00
 -1      1222 0.00000E+00
 -1      1223 0.00000E+00
 -1      1224 0.00000E+00
 -1      1225 0.00000E+00
 -1      1226 0.00000E+00
 -1      1227 0.00000E+00
 -1      1228 0.00000E+00
 -1      1229 0.00000E+00
 -1      1230 0.00000E+00
 -1      1231 0.00000E+00
 -1      1232 0.00000E+00
 -1      1233 0.00000E+00
 -1      1234 0.00000E+00
 -1      1235 0.00000E+00
 -1      1236 0.00000E+00
 -1      1237 0.00000E+00
 -1      1238 0.00000E+00
 -1      1239 0.00000E+00
 -1      1240 0.00000E+00
 -1      1241 0.00000E+00
 -1      1242 0.00000E+00
 -1      1243 0.00000E+00
 -1      1244 0.00000E+00
 -1      1245 0.00000E+00
 -1      1246 0.00000E+00
 -1      1247 0.00000E+00
 -1      1248 0.00000E+00
 -1      1249 0.00000E+00
 -1      1250 0.00000E+00
 -1      1251 0.00000E+00
 -1      1252 0.00000E+00
 -1      1253 0.00000E+00
 -1      1254 0.00000E+00
 -1      1255 0.00000E+00
 -1      1256 0.00000E+00
 -1      1257 0.00000E+00
 -1      1258 0.00000E+00
 -1      1259 0.00000E+00
 -1      1260 0.00000E+00
 -1      1261 0.00000E+00
 -1      1262 0.00000E+00
 -1      1263 0.00000E+00
 -1      1264 0.00000E+00
 -1      1265 0.00000E+00
 -1      1266 0.00000E+00
 -1      1267 0.00000E+00
 -1      1268 0.00000E+00
 -1      1269 0.00000E+00
 -1      1270 0.00000E+00
 -1      1271 0.00000E+00
 -1      1272 0.00000E+00
 -1      1273 0.00000E+00
 -1      1274 0.00000E+00
 -1      1275 0.00000E+00
 -1      1276 0.00000E+00
 -1      1277 0.00000E+00
 -1      1278 0.00000E+00
 -1      1279 0.00000E+00
 -1      1280 0.00000E+00
 -1      1281 0.00000E+00
 -1      1282 0.00000E+00
 -1      1283 0.00000E+00
 -1      1284 0.00000E+00
 -1      1285 0.00000E+00
 -1      1286 0.00000E+00
 -1      1287 0.00000E+00
 -1      1288 0.00000E+00
 -1      1289 0.00000E+00
 -1      1290 0.00000E+00
 -1      1291 0.00000E+00
 -1      1292 0.00000E+00
 -1      1293 0.00000E+00
 -1      1294 0.00000E+00
 -1      1295 0.00000E+00
 -1      1296 0.00000E+00
 -1      1297 0.00000E+00
 -1      1298 0.00000E+00
 -1      1299 0.00000E+00
 -1      1300 0.00000E+00
 -1      1301 0.00000E+00
 -1      1302 0.00000E+00
 -1      1303 0.00000E+00
 -1      1304 0.00000E+00
 -1      1305 0.00000E+00
 -1      1306 0.00000E+00
 -1      1307 0.00000E+00
 -1      1308 0.00000E+00
 -1      1309 0.00000E+00
 -1      1310 0.00000E+00
 -1      1311 0.00000E+00
 -1      1312 0.00000E+00
 -1      1313 0.00000E+00
 -1      1314 0.00000E+00
 -1      1315 0.00000E+00
 -1      1316 0.00000E+00
 -1      1317 0.00000E+00
 -1      1318 0.00000E+00
 -1      1319 0.00000E+00
 -1      1320 0.00000E+00
 -1      1321 0.00000E+00
 -1      1322 0.00000E+00
 -1      1323 0.00000E+00
 -1      1324 0.00000E+00
 -1      1325 0.00000E+00
 -1      1326 0.00000E+00
 -1      1327 0.00000E+00
 -1      1328 0.00000E+00
 -1      1329 0.00000E+00
 -1      1330 0.00000E+00
 -1      1331 0.00000E+00
 -1      1332 0.00000E+00
 -1      1333 0.00000E+00
 -1      1334 0.00000E+00
 -1      1335 0.00000E+00
 -1      1336 0.00000E+00
 -1      1337 0.00000E+00
 -1      1338 0.00000E+00
 -1      1339 0.00000E+00
 -1      1340 0.00000E+00
 -1      1341 0.00000E+00
 -1      1342 0.00000E+00
 -1      1343 0.00000E+00
 -1      1344 0.00000E+00
 -1      1345 0.00000E+00
 -1      1346 0.00000E+00
 -1      1347 0.00000E+00
 -1      1348 0.00000E+00
 -1      1349 0.00000E+00
 -1      1350 0.00000E+00
 -1      1351 0.00000E+00
 -1      1352 0.00000E+00
 -1      1353 0.00000E+00
 -1      1354 0.00000E+00
 -1      1355 0.00000E+00
 -1      1356 0.00000E+00
 -1      1357 0.00000E+00
 -1      1358 0.00000E+00
 -1      1359 0.00000E+00
 -1      1360 0.00000E+00
 -1      1361 0.00000E+00
 -1      1362 0.00000E+00
 -1      1363 0.00000E+00
 -1      1364 0.00000E+00
 -1      1365 0.00000E+00
 -1      1366 0.00000E+00
 -1      1367 0.00000E+00
 -1      1368 0.00000E+00
 -1      1369 0.00000E+00
 -1      1370 0.00000E+00
 -1      1371 0.00000E+00
 -1      1372 0.00000E+00
 -1      1373 0.00000E+00
 -1      1374 0.00000E+00
 -1      1375 0.00000E+00
 -1      1376 0.00000E+00
 -1      1377 0.00000E+00
 -1      1378 0.00000E+00
 -1      1379 0.00000E+00
 -1      1380 0.00000E+00
 -1      1381 0.00000E+00
 -1      1382 0.00000E+00
 -1      1383 0.00000E+00
 -1      1384 0.00000E+00
 -1      1385 0.00000E+00
 -1      1386 0.00000E+00
 -1      1387 0.00000E+00
 -1      1388 0.00000E+00
 -1      1389 0.00000E+00
 -1      1390 0.00000E+00
 -1      1391 0.00000E+00
 -1      1392 0.00000E+00
 -1      1393 0.00000E+00
 -1      1394 0.00000E+00
 -1      1395 0.00000E+00
 -1      1396 0.00000E+00
 -1      1397 0.00000E+00
 -1      1398 0.00000E+00
 -1      1399 0.00000E+00
 -1      1400 0.00000E+00
 -1      1401 0.00000E+00
 -1      1402 0.00000E+00
 -1      1403 0.00000E+00
 -1      1404 0.00000E+00
 -1      1405 0.00000E+00
 -1      1406 0.00000E+00
 -1      1407 0.00000E+00
 -1      1408 0.00000E+00
 -1      1409 0.00000E+00
 -1      1410 0.00000E+00
 -1      1411 0.00000E+00
 -1      1412 0.00000E+00
 -1      1413 0.00000E+00
 -1      1414 0.00000E+00
 -1      1415 0.00000E+00
 -1      1416 0.00000E+00
 -1      1417 0.00000E+00
 -1      1418 0.00000E+00
 -1      1419 0.00000E+00
 -1      1420 0.00000E+00
 -1      1421 0.00000E+00
 -1      1422 0.00000E+00
 -1      1423 0.00000E+00
 -1      1424 0.00000E+00
 -1      1425 0.00000E+00
 -1      1426 0.00000E+00
 -1      1427 0.00000E+00
 -1      1428 0.00000E+00
 -1      1429 0.00000E+00
 -1      1430 0.00000E+00
 -1      1431 0.00000E+00
 -1      1432 0.00000E+00
 -1      1433 0.00000E+00
 -1      1434 0.00000E+00
 -1      1435 0.00000E+00
 -1      1436 0.00000E+00
 -1      1437 0.00000E+00
 -1      1438 0.00000E+00
 -1      1439 0.00000E+00
 -1      1440 0.00000E+00
 -1      1441 0.00000E+00
 -1      1442 0.00000E+00
 -1      1443 0.00000E+00
 -1      1444 0.00000E+00
 -1      1445 0.00000E+00
 -1      1446 0.00000E+00
 -1      1447 0.00000E+00
 -1      1448 0.00000E+00
 -1      1449 0.00000E+00
 -1      1450 0.00000E+00
 -1      1451 0.00000E+00
 -1      1452 0.00000E+00
 -1      1453 0.00000E+00
 -1      1454 0.00000E+00
 -1      1455 0.00000E+00
 -1      1456 0.00000E+00
 -1      1457 0.00000E+00
 -1      1458 0.00000E+00
 -1      1459 0.00000E+00
 -1      1460 0.00000E+00
 -1      1461 0.00000E+00
 -1      1462 0.00000E+00
 -1      1463 0.00000E+00
 -1      1464 0.00000E+00
 -1      1465 0.00000E+00
 -1      1466 0.00000E+00
 -1      1467 0.00000E+00
 -1      1468 0.00000E+00
 -1      1469 0.00000E+00
 -1      1470 0.00000E+00
 -1      1471 0.00000E+00
 -1      1472 0.00000E+00
 -1      1473 0.00000E+00
 -1      1474 0.00000E+00
 -1      1475 0.00000E+00
 -1      1476 0.00000E+00
 -1      1477 0.00000E+00
 -1      1478 0.00000E+00
 -1      1479 0.00000E+00
 -1      1480 0.00000E+00
 -1      1481 0.00000E+00
 -1      1482 0.00000E+00
 -1      1483 0.00000E+00
 -1      1484 0.00000E+00
 -1      1485 0.00000E+00
 -1      1486 0.00000E+00
 -1      1487 0.00000E+00
 -1      1488 0.00000E+00
 -1      1489 0.00000E+00
 -1      1490 0.00000E+00
 -1      1491 0.00000E+00
 -1      1492 0.00000E+00
 -1      1493 0.00000E+00
 -1      1494 0.00000E+00
 -1      1495 0.00000E+00
 -1      1496 0.00000E+00
 -1      1497 0.00000E+00
 -1      1498 0.00000E+00
 -1      1499 0.00000E+00
 -1      1500 0.00000E+00
 -1      1501 0.00000E+00
 -1      1502 0.00000E+00
 -1      1503 0.00000E+00
 -1      1504 0.00000E+00
 -1      1505 0.00000E+00
 -1      1506 0.00000E+00
 -1      1507 0.00000E+00
 -1      1508 0.00000E+00
 -1      1509 0.00000E+00
 -1      1510 0.00000E+00
 -1      1511 0.00000E+00
 -1      1512 0.00000E+00
 -1      1513 0.00000E+00
 -1      1514 0.00000E+00
 -1      1515 0.00000E+00
 -1      1516 0.00000E+00
 -1      1517 0.00000E+00
 -1      1518 0.00000E+00
 -1      1519 0.00000E+00
 -1      1520 0.00000E+00
 -1      1521 0.00000E+00
 -1      1522 0.00000E+00
 -1      1523 0.00000E+00
 -1      1524 0.00000E+00
 -1      1525 0.00000E+00
 -1      1526 0.00000E+00
 -1      1527 0.00000E+00
 -1      1528 0.00000E+00
 -1      1529 0.00000E+00
 -1      1530 0.00000E+00
 -1      1531 0.00000E+00
 -1      1532 0.00000E+00
 -1      1533 0.00000E+00
 -1      1534 0.00000E+00
 -1      1535 0.00000E+00
 -1      1536 0.00000E+00
 -1      1537 0.00000E+00
 -1      1538 0.00000E+00
 -1      1539 0.00000E+00
 -1      1540 0.00000E+00
 -1      1541 0.00000E+00
 -1      1542 0.00000E+00
 -1      1543 0.00000E+00
 -1      1544 0.00000E+00
 -1      1545 0.00000E+00
 -1      1546 0.00000E+00
 -1      1547 0.00000E+00
 -1      1548 0.00000E+00
 -1      1549 0.00000E+00
 -1      1550 0.00000E+00
 -1      1551 0.00000E+00
 -1      1552 0.00000E+00
 -1      1553 0.00000E+00
 -1      1554 0.00000E+00
 -1      1555 0.00000E+00
 -1      1556 0.00000E+00
 -1      1557 0.00000E+00
 -1      1558 0.00000E+00
 -1      1559 0.00000E+00
 -1      1560 0.00000E+00
 -1      1561 0.00000E+00
 -1      1562 0.00000E+00
 -1      1563 0.00000E+00
 -1      1564 0.00000E+00
 -1      1565 0.00000E+00
 -1      1566 0.00000E+00
 -1      1567 0.00000E+00
 -1      1568 0.00000E+00
 -1      1569 0.00000E+00
 -1      1570 0.00000E+00
 -1      1571 0.00000E+00
 -1      1572 0.00000E+00
 -1      1573 0.00000E+00
 -1      1574 0.00000E+00
 -1      1575 0.00000E+00
 -1      1576 0.00000E+00
 -1      1577 0.00000E+00
 -1      1578 0.00000E+00
 -1      1579 0.00000E+00
 -1      1580 0.00000E+00
 -1      1581 0.00000E+00
 -1      1582 0.00000E+00
 -1      1583 0.00000E+00
 -1      1584 0.00000E+00
 -1      1585 0.00000E+00
 -1      1586 0.00000E+00
 -1      1587 0.00000E+00
 -1      1588 0.00000E+00
 -1      1589 0.00000E+00
 -1      1590 0.00000E+00
 -1      1591 0.00000E+00
 -1      1592 0.00000E+00
 -1      1593 0.00000E+00
 -1      1594 0.00000E+00
 -1      1595 0.00000E+00
 -1      1596 0.00000E+00
 -1      1597 0.00000E+00
 -1      1598 0.00000E+00
 -1      1599 0.00000E+00
 -1      1600 0.00000E+00
 -1      1601 0.00000E+00
 -1      1602 0.00000E+00
 -1      1603 0.00000E+00
 -1      1604 0.00000E+00
 -1      1605 0.00000E+00
 -1      1606 0.00000E+00
 -1      1607 0.00000E+00
 -1      1608 0.00000E+00
 -1      1609 0.00000E+00
 -1      1610 0.00000E+00
 -1      1611 0.00000E+00
 -1      1612 0.00000E+00
 -1      1613 0.00000E+00
 -1      1614 0.00000E+00
 -1      1615 0.00000E+00
 -1      1616 0.00000E+00
 -1      1617 0.00000E+00
 -1      1618 0.00000E+00
 -1      1619 0.00000E+00
 -1      1620 0.00000E+00
 -1      1621 0.00000E+00
 -1      1622 0.00000E+00
 -1      1623 0.00000E+00
 -1      1624 0.00000E+00
 -1      1625 0.00000E+00
 -1      1626 0.00000E+00
 -1      1627 0.00000E+00
 -1      1628 0.00000E+00
 -1      1629 0.00000E+00
 -1      1630 0.00000E+00
 -1      1631 0.00000E+00
 -1      1632 0.00000E+00
 -1      1633 0.00000E+00
 -1      1634 0.00000E+00
 -1      1635 0.00000E+00
 -1      1636 0.00000E+00
 -1      1637 0.00000E+00
 -1      1638 0.00000E+00
 -1      1639 0.00000E+00
 -1      1640 0.00000E+00
 -1      1641 0.00000E+00
 -1      1642 0.00000E+00
 -1      1643 0.00000E+00
 -1      1644 0.00000E+00
 -1      1645 0.00000E+00
 -1      1646 0.00000E+00
 -1      1647 0.00000E+00
 -1      1648 0.00000E+00
 -1      1649 0.00000E+00
 -1      1650 0.00000E+00
 -1      1651 0.00000E+00
 -1      1652 0.00000E+00
 -1      1653 0.00000E+00
 -1      1654 0.00000E+00
 -1      1655 0.00000E+00
 -1      1656 0.00000E+00
 -1      1657 0.00000E+00
 -1      1658 0.00000E+00
 -1      1659 0.00000E+00
 -1      1660 0.00000E+00
 -1      1661 0.00000E+00
 -1      1662 0.00000E+00
 -1      1663 0.00000E+00
 -1      1664 0.00000E+00
 -1      1665 0.00000E+00
 -1      1666 0.00000E+00
 -1      1667 0.00000E+00
 -1      1668 0.00000E+00
 -1      1669 0.00000E+00
 -1      1670 0.00000E+00
 -1      1671 0.00000E+00
 -1      1672 0.00000E+00
 -1      1673 0.00000E+00
 -1      1674 0.00000E+00
 -1      1675 0.00000E+00
 -1      1676 0.00000E+00
 -1      1677 0.00000E+00
 -1      1678 0.00000E+00
 -1      1679 0.00000E+00
 -1      1680 0.00000E+00
 -1      1681 0.00000E+00
 -1      1682 0.00000E+00
 -1      1683 0.00000E+00
 -1      1684 0.00000E+00
 -1      1685 0.00000E+00
 -1      1686 0.00000E+00
 -1      1687 0.00000E+00
 -1      1688 0.00000E+00
 -1      1689 0.00000E+00
 -1      1690 0.00000E+00
 -1      1691 0.00000E+00
 -1      1692 0.00000E+00
 -1      1693 0.00000E+00
 -1      1694 0.00000E+00
 -1      1695 0.00000E+00
 -1      1696 0.00000E+00
 -1      1697 0.00000E+00
 -1      1698 0.00000E+00
 -1      1699 0.00000E+00
 -1      1700 0.00000E+00
 -1      1701 0.00000E+00
 -1      1702 0.00000E+00
 -1      1703 0.00000E+00
 -1      1704 0.00000E+00
 -1      1705 0.00000E+00
 -1      1706 0.00000E+00
 -1      1707 0.00000E+00
 -1      1708 0.00000E+00
 -1      1709 0.00000E+00
 -1      1710 0.00000E+00
 -1      1711 0.00000E+00
 -1      1712 0.00000E+00
 -1      1713 0.00000E+00
 -1      1714 0.00000E+00
 -1      1715 0.00000E+00
 -1      1716 0.00000E+00
 -1      1717 0.00000E+00
 -1      1718 0.00000E+00
 -1      1719 0.00000E+00
 -1      1720 0.00000E+00
 -1      1721 0.00000E+00
 -1      1722 0.00000E+00
 -1      1723 0.00000E+00
 -1      1724 0.00000E+00
 -1      1725 0.00000E+00
 -1      1726 0.00000E+00
 -1      1727 0.00000E+00
 -1      1728 0.00000E+00
 -1      1729 0.00000E+00
 -1      1730 0.00000E+00
 -1      1731 0.00000E+00
 -1      1732 0.00000E+00
 -1      1733 0.00000E+00
 -1      1734 0.00000E+00
 -1      1735 0.00000E+00
 -1      1736 0.00000E+00
 -1      1737 0.00000E+00
 -1      1738 0.00000E+00
 -1      1739 0.00000E+00
 -1      1740 0.00000E+00
 -1      1741 0.00000E+00
 -1      1742 0.00000E+00
 -1      1743 0.00000E+00
 -1      1744 0.00000E+00
 -1      1745 0.00000E+00
 -1      1746 0.00000E+00
 -1      1747 0.00000E+00
 -1      1748 0.00000E+00
 -1      1749 0.00000E+00
 -1      1750 0.00000E+00
 -1      1751 0.00000E+00
 -1      1752 0.00000E+00
 -1      1753 0.00000E+00
 -1      1754 0.00000E+00
 -1      1755 0.00000E+00
 -1      1756 0.00000E+00
 -1      1757 0.00000E+00
 -1      1758 0.00000E+00
 -1      1759 0.00000E+00
 -1      1760 0.00000E+00
 -1      1761 0.00000E+00
 -1      1762 0.00000E+00
 -1      1763 0.00000E+00
 -1      1764 0.00000E+00
 -1      1765 0.00000E+00
 -1      1766 0.00000E+00
 -1      1767 0.00000E+00
 -1      1768 0.00000E+00
 -1      1769 0.00000E+00
 -1      1770 0.00000E+00
 -1      1771 0.00000E+00
 -1      1772 0.00000E+00
 -1      1773 0.00000E+00
 -1      1774 0.00000E+00
 -1      1775 0.00000E+00
 -1      1776 0.00000E+00
 -1      1777 0.00000E+00
 -1      1778 0.00000E+00
 -1      1779 0.00000E+00
 -1      1780 0.00000E+00
 -1      1781 0.00000E+00
 -1      1782 0.00000E+00
 -1      1783 0.00000E+00
 -1      1784 0.00000E+00
 -1      1785 0.00000E+00
 -1      1786 0.00000E+00
 -1      1787 0.00000E+00
 -1      1788 0.00000E+00
 -1      1789 0.00000E+00
 -1      1790 0.00000E+00
 -1      1791 0.00000E+00
 -1      1792 0.00000E+00
 -1      1793 0.00000E+00
 -1      1794 0.00000E+00
 -1      1795 0.00000E+00
 -1      1796 0.00000E+00
 -1      1797 0.00000E+00
 -1      1798 0.00000E+00
 -1      1799 0.00000E+00
 -1      1800 0.00000E+00
 -1      1801 0.00000E+00
 -1      1802 0.00000E+00
 -1      1803 0.00000E+00
 -1      1804 0.00000E+00
 -1      1805 0.00000E+00
 -1      1806 0.00000E+00
 -1      1807 0.00000E+00
 -1      1808 0.00000E+00
 -1      1809 0.00000E+00
 -1      1810 0.00000E+00
 -1      1811 0.00000E+00
 -1      1812 0.00000E+00
 -1      1813 0.00000E+00
 -1      1814 0.00000E+00
 -1      1815 0.00000E+00
 -1      1816 0.00000E+00
 -1      1817 0.00000E+00
 -1      1818 0.00000E+00
 -1      1819 0.00000E+00
 -1      1820 0.00000E+00
 -1      1821 0.00000E+00
 -1      1822 0.00000E+00
 -1      1823 0.00000E+00
 -1      1824 0.00000E+00
 -1      1825 0.00000E+00
 -1      1826 0.00000E+00
 -1      1827 0.00000E+00
 -1      1828 0.00000E+00
 -1      1829 0.00000E+00
 -1      1830 0.00000E+00
 -1      1831 0.00000E+00
 -1      1832 0.00000E+00
 -1      1833 0.00000E+00
 -1      1834 0.00000E+00
 -1      1835 0.00000E+00
 -1      1836 0.00000E+00
 -1      1837 0.00000E+00
 -1      1838 0.00000E+00
 -1      1839 0.00000E+00
 -1      1840 0.00000E+00
 -1      1841 0.00000E+00
 -1      1842 0.00000E+00
 -1      1843 0.00000E+00
 -1      1844 0.00000E+00
 -1      1845 0.00000E+00
 -1      1846 0.00000E+00
 -1      1847 0.00000E+00
 -1      1848 0.00000E+00
 -1      1849 0.00000E+00
 -1      1850 0.00000E+00
 -1      1851 0.00000E+00
 -1      1852 0.00000E+00
 -1      1853 0.00000E+00
 -1      1854 0.00000E+00
 -1      1855 0.00000E+00
 -1      1856 0.00000E+00
 -1      1857 0.00000E+00
 -1      1858 0.00000E+00
 -1      1859 0.00000E+00
 -1      1860 0.00000E+00
 -1      1861 0.00000E+00
 -1      1862 0.00000E+00
 -1      1863 0.00000E+00
 -1      1864 0.00000E+00
 -1      1865 0.00000E+00
 -1      1866 0.00000E+00
 -1      1867 0.00000E+00
 -1      1868 0.00000E+00
 -1      1869 0.00000E+00
 -1      1870 0.00000E+00
 -1      1871 0.00000E+00
 -1      1872 0.00000E+00
 -1      1873 0.00000E+00
 -1      1874 0.00000E+00
 -1      1875 0.00000E+00
 -1      1876 0.00000E+00
 -1      1877 0.00000E+00
 -1      1878 0.00000E+00
 -1      1879 0.00000E+00
 -1      1880 0.00000E+00
 -1      1881 0.00000E+00
 -1      1882 0.00000E+00
 -1      1883 0.00000E+00
 -1      1884 0.00000E+00
 -1      1885 0.00000E+00
 -1      1886 0.00000E+00
 -1      1887 0.00000E+00
 -1      1888 0.00000E+00
 -1      1889 0.00000E+00
 -1      1890 0.00000E+00
 -1      1891 0.00000E+00
 -1      1892 0.00000E+00
 -1      1893 0.00000E+00
 -1      1894 0.00000E+00
 -1      1895 0.00000E+00
 -1      1896 0.00000E+00
 -1      1897 0.00000E+00
 -1      1898 0.00000E+00
 -1      1899 0.00000E+00
 -1      1900 0.00000E+00
 -1      1901 0.00000E+00
 -1      1902 0.00000E+00
 -1      1903 0.00000E+00
 -1      1904 0.00000E+00
 -1      1905 0.00000E+00
 -1      1906 0.00000E+00
 -1      1907 0.00000E+00
 -1      1908 0.00000E+00
 -1      1909 0.00000E+00
 -1      1910 0.00000E+00
 -1      1911 0.00000E+00
 -1      1912 0.00000E+00
 -1      1913 0.00000E+00
 -1      1914 0.00000E+00
 -1      1915 0.00000E+00
 -1      1916 0.00000E+00
 -1      1917 0.00000E+00
 -1      1918 0.00000E+00
 -1      1919 0.00000E+00
 -1      1920 0.00000E+00
 -1      1921 0.00000E+00
 -1      1922 0.00000E+00
 -1      1923 0.00000E+00
 -1      1924 0.00000E+00
 -1      1925 0.00000E+00
 -1      1926 0.00000E+00
 -1      1927 0.00000E+00
 -1      1928 0.00000E+00
 -1      1929 0.00000E+00
 -1      1930 0.00000E+00
 -1      1931 0.00000E+00
 -1      1932 0.00000E+00
 -1      1933 0.00000E+00
 -1      1934 0.00000E+00
 -1      1935 0.00000E+00
 -1      1936 0.00000E+00
 -1      1937 0.00000E+00
 -1      1938 0.00000E+00
 -1      1939 0.00000E+00
 -1      1940 0.00000E+00
 -1      1941 0.00000E+00
 -1      1942 0.00000E+00
 -1      1943 0.00000E+00
 -1      1944 0.00000E+00
 -1      1945 0.00000E+00
 -1      1946 0.00000E+00
 -1      1947 0.00000E+00
 -1      1948 0.00000E+00
 -1      1949 0.00000E+00
 -1      1950 0.00000E+00
 -1      1951 0.00000E+00
 -1      1952 0.00000E+00
 -1      1953 0.00000E+00
 -1      1954 0.00000E+00
 -1      1955 0.00000E+00
 -1      1956 0.00000E+00
 -1      1957 0.00000E+00
 -1      1958 0.00000E+00
 -1      1959 0.00000E+00
 -1      1960 0.00000E+00
 -1      1961 0.00000E+00
 -1      1962 0.00000E+00
 -1      1963 0.00000E+00
 -1      1964 0.00000E+00
 -1      1965 0.00000E+00
 -1      1966 0.00000E+00
 -1      1967 0.00000E+00
 -1      1968 0.00000E+00
 -1      1969 0.00000E+00
 -1      1970 0.00000E+00
 -1      1971 0.00000E+00
 -1      1972 0.00000E+00
 -1      1973 0.00000E+00
 -1      1974 0.00000E+00
 -1      1975 0.00000E+00
 -1      1976 0.00000E+00
 -1      1977 0.00000E+00
 -1      1978 0.00000E+00
 -1      1979 0.00000E+00
 -1      1980 0.00000E+00
 -1      1981 0.00000E+00
 -1      1982 0.00000E+00
 -1      1983 0.00000E+00
 -1      1984 0.00000E+00
 -1      1985 0.00000E+00
 -1      1986 0.00000E+00
 -1      1987 0.00000E+00
 -1      1988 0.00000E+00
 -1      1989 0.00000E+00
 -1      1990 0.00000E+00
 -1      1991 0.00000E+00
 -1      1992 0.00000E+00
 -1      1993 0.00000E+00
 -1      1994 0.00000E+00
 -1      1995 0.00000E+00
 -1      1996 0.00000E+00
 -1      1997 0.00000E+00
 -1      1998 0.00000E+00
 -1      1999 0.00000E+00
 -1      2000 0.00000E+00
 -1      2001 0.00000E+00
 -1      2002 0.00000E+00
 -1      2003 0.00000E+00
 -1      2004 0.00000E+00
 -1      2005 0.00000E+00
 -1      2006 0.00000E+00
 -1      2007 0.00000E+00
 -1      2008 0.00000E+00
 -1      2009 0.00000E+00
 -1      2010 0.00000E+00
 -1      2011 0.00000E+00
 -1      2012 0.00000E+00
 -1      2013 0.00000E+00
 -1      2014 0.00000E+00
 -1      2015 0.00000E+00
 -1      2016 0.00000E+00
 -1      2017 0.00000E+00
 -1      2018 0.00000E+00
 -1      2019 0.00000E+00
 -1      2020 0.00000E+00
 -1      2021 0.00000E+00
 -1      2022 0.00000E+00
 -1      2023 0.00000E+00
 -1      2024 0.00000E+00
 -1      2025 0.00000E+00
 -1      2026 0.00000E+00
 -1      2027 0.00000E+00
 -1      2028 0.00000E+00
 -1      2029 0.00000E+00
 -1      2030 0.00000E+00
 -1      2031 0.00000E+00
 -1      2032 0.00000E+00
 -1      2033 0.00000E+00
 -1      2034 0.00000E+00
 -1      2035 0.00000E+00
 -1      2036 0.00000E+00
 -1      2037 0.00000E+00
 -1      2038 0.00000E+00
 -1      2039 0.00000E+00
 -1      2040 0.00000E+00
 -1      2041 0.00000E+00
 -1      2042 0.00000E+00
 -1      2043 0.00000E+00
 -1      2044 0.00000E+00
 -1      2045 0.00000E+00
 -1      2046 0.00000E+00
 -1      2047 0.00000E+00
 -1      2048 0.00000E+00
 -1      2049 0.00000E+00
 -1      2050 0.00000E+00
 -1      2051 0.00000E+00
 -1      2052 0.00000E+00
 -1      2053 0.00000E+00
 -1      2054 0.00000E+00
 -1      2055 0.00000E+00
 -1      2056 0.00000E+00
 -1      2057 0.00000E+00
 -1      2058 0.00000E+00
 -1      2059 0.00000E+00
 -1      2060 0.00000E+00
 -1      2061 0.00000E+00
 -1      2062 0.00000E+00
 -1      2063 0.00000E+00
 -1      2064 0.00000E+00
 -1      2065 0.00000E+00
 -1      2066 0.00000E+00
 -1      2067 0.00000E+00
 -1      2068 0.00000E+00
 -1      2069 0.00000E+00
 -1      2070 0.00000E+00
 -1      2071 0.00000E+00
 -1      2072 0.00000E+00
 -1      2073 0.00000E+00
 -1      2074 0.00000E+00
 -1      2075 0.00000E+00
 -1      2076 0.00000E+00
 -1      2077 0.00000E+00
 -1      2078 0.00000E+00
 -1      2079 0.00000E+00
 -1      2080 0.00000E+00
 -1      2081 0.00000E+00
 -1      2082 0.00000E+00
 -1      2083 0.00000E+00
 -1      2084 0.00000E+00
 -1      2085 0.00000E+00
 -1      2086 0.00000E+00
 -1      2087 0.00000E+00
 -1      2088 0.00000E+00
 -1      2089 0.00000E+00
 -1      2090 0.00000E+00
 -1      2091 0.00000E+00
 -1      2092 0.00000E+00
 -1      2093 0.00000E+00
 -1      2094 0.00000E+00
 -1      2095 0.00000E+00
 -1      2096 0.00000E+00
 -1      2097 0.00000E+00
 -1      2098 0.00000E+00
 -1      2099 0.00000E+00
 -1      2100 0.00000E+00
 -1      2101 0.00000E+00
 -1      2102 0.00000E+00
 -1      2103 0.00000E+00
 -1      2104 0.00000E+00
 -1      2105 0.00000E+00
 -1      2106 0.00000E+00
 -1      2107 0.00000E+00
 -1      2108 0.00000E+00
 -1      2109 0.00000E+00
 -1      2110 0.00000E+00
 -1      2111 0.00000E+00
 -1      2112 0.00000E+00
 -1      2113 0.00000E+00
 -1      2114 0.00000E+00
 -1      2115 0.00000E+00
 -1      2116 0.00000E+00
 -1      2117 0.00000E+00
 -1      2118 0.00000E+00
 -1      2119 0.00000E+00
 -1      2120 0.00000E+00
 -1      2121 0.00000E+00
 -1      2122 0.00000E+00
 -1      2123 0.00000E+00
 -1      2124 0.00000E+00
 -1      2125 0.00000E+00
 -1      2126 0.00000E+00
 -1      2127 0.00000E+00
 -1      2128 0.00000E+00
 -1      2129 0.00000E+00
 -1      2130 0.00000E+00
 -1      2131 0.00000E+00
 -1      2132 0.00000E+00
 -1      2133 0.00000E+00
 -1      2134 0.00000E+00
 -1      2135 0.00000E+00
 -1      2136 0.00000E+00
 -1      2137 0.00000E+00
 -1      2138 0.00000E+00
 -1      2139 0.00000E+00
 -1      2140 0.00000E+00
 -1      2141 0.00000E+00
 -1      2142 0.00000E+00
 -1      2143 0.00000E+00
 -1      2144 0.00000E+00
 -1      2145 0.00000E+00
 -1      2146 0.00000E+00
 -1      2147 0.00000E+00
 -1      2148 0.00000E+00
 -1      2149 0.00000E+00
 -1      2150 0.00000E+00
 -1      2151 0.00000E+00
 -1      2152 0.00000E+00
 -1      2153 0.00000E+00
 -1      2154 0.00000E+00
 -1      2155 0.00000E+00
 -1      2156 0.00000E+00
 -1      2157 0.00000E+00
 -1      2158 0.00000E+00
 -1      2159 0.00000E+00
 -1      2160 0.00000E+00
 -1      2161 0.00000E+00
 -1      2162 0.00000E+00
 -1      2163 0.00000E+00
 -1      2164 0.00000E+00
 -1      2165 0.00000E+00
 -1      2166 0.00000E+00
 -1      2167 0.00000E+00
 -1      2168 0.00000E+00
 -1      2169 0.00000E+00
 -1      2170 0.00000E+00
 -1      2171 0.00000E+00
 -1      2172 0.00000E+00
 -1      2173 0.00000E+00
 -1      2174 0.00000E+00
 -1      2175 0.00000E+00
 -1      2176 0.00000E+00
 -1      2177 0.00000E+00
 -1      2178 0.00000E+00
 -1      2179 0.00000E+00
 -1      2180 0.00000E+00
 -1      2181 0.00000E+00
 -1      2182 0.00000E+00
 -1      2183 0.00000E+00
 -1      2184 0.00000E+00
 -1      2185 0.00000E+00
 -1      2186 0.00000E+00
 -1      2187 0.00000E+00
 -1      2188 0.00000E+00
 -1      2189 0.00000E+00
 -1      2190 0.00000E+00
 -1      2191 0.00000E+00
 -1      2192 0.00000E+00
 -1      2193 0.00000E+00
 -1      2194 0.00000E+00
 -1      2195 0.00000E+00
 -1      2196 0.00000E+00
 -1      2197 0.00000E+00
 -1      2198 0.00000E+00
 -1      2199 0.00000E+00
 -1      2200 0.00000E+00
 -1      2201 0.00000E+00
 -1      2202 0.00000E+00
 -1      2203 0.00000E+00
 -1      2204 0.00000E+00
 -1      2205 0.00000E+00
 -1      2206 0.00000E+00
 -1      2207 0.00000E+00
 -1      2208 0.00000E+00
 -1      2209 0.00000E+00
 -1      2210 0.00000E+00
 -1      2211 0.00000E+00
 -1      2212 0.00000E+00
 -1      2213 0.00000E+00
 -1      2214 0.00000E+00
 -1      2215 0.00000E+00
 -1      2216 0.00000E+00
 -1      2217 0.00000E+00
 -1      2218 0.00000E+00
 -1      2219 0.00000E+00
 -1      2220 0.00000E+00
 -1      2221 0.00000E+00
 -1      2222 0.00000E+00
 -1      2223 0.00000E+00
 -1      2224 0.00000E+00
 -1      2225 0.00000E+00
 -1      2226 0.00000E+00
 -1      2227 0.00000E+00
 -1      2228 0.00000E+00
 -1      2229 0.00000E+00
 -1      2230 0.00000E+00
 -1      2231 0.00000E+00
 -1      2232 0.00000E+00
 -1      2233 0.00000E+00
 -1      2234 0.00000E+00
 -1      2235 0.00000E+00
 -1      2236 0.00000E+00
 -1      2237 0.00000E+00
 -1      2238 0.00000E+00
 -1      2239 0.00000E+00
 -1      2240 0.00000E+00
 -1      2241 0.00000E+00
 -1      2242 0.00000E+00
 -1      2243 0.00000E+00
 -1      2244 0.00000E+00
 -1      2245 0.00000E+00
 -1      2246 0.00000E+00
 -1      2247 0.00000E+00
 -1      2248 0.00000E+00
 -1      2249 0.00000E+00
 -1      2250 0.00000E+00
 -1      2251 0.00000E+00
 -1      2252 0.00000E+00
 -1      2253 0.00000E+00
 -1      2254 0.00000E+00
 -1      2255 0.00000E+00
 -1      2256 0.00000E+00
 -1      2257 0.00000E+00
 -1      2258 0.00000E+00
 -1      2259 0.00000E+00
 -1      2260 0.00000E+00
 -1      2261 0.00000E+00
 -1      2262 0.00000E+00
 -1      2263 0.00000E+00
 -1      2264 0.00000E+00
 -1      2265 0.00000E+00
 -1      2266 0.00000E+00
 -1      2267 0.00000E+00
 -1      2268 0.00000E+00
 -1      2269 0.00000E+00
 -1      2270 0.00000E+00
 -1      2271 0.00000E+00
 -1      2272 0.00000E+00
 -1      2273 0.00000E+00
 -1      2274 0.00000E+00
 -1      2275 0.00000E+00
 -1      2276 0.00000E+00
 -1      2277 0.00000E+00
 -1      2278 0.00000E+00
 -1      2279 0.00000E+00
 -1      2280 0.00000E+00
 -1      2281 0.00000E+00
 -1      2282 0.00000E+00
 -1      2283 0.00000E+00
 -1      2284 0.00000E+00
 -1      2285 0.00000E+00
 -1      2286 0.00000E+00
 -1      2287 0.00000E+00
 -1      2288 0.00000E+00
 -1      2289 0.00000E+00
 -1      2290 0.00000E+00
 -1      2291 0.00000E+00
 -1      2292 0.00000E+00
 -1      2293 0.00000E+00
 -1      2294 0.00000E+00
 -1      2295 0.00000E+00
 -1      2296 0.00000E+00
 -1      2297 0.00000E+00
 -1      2298 0.00000E+00
 -1      2299 0.00000E+00
 -1      2300 0.00000E+00
 -1      2301 0.00000E+00
 -1      2302 0.00000E+00
 -1      2303 0.00000E+00
 -1      2304 0.00000E+00
 -1      2305 0.00000E+00
 -1      2306 0.00000E+00
 -1      2307 0.00000E+00
 -1      2308 0.00000E+00
 -1      2309 0.00000E+00
 -1      2310 0.00000E+00
 -1      2311 0.00000E+00
 -1      2312 0.00000E+00
 -1      2313 0.00000E+00
 -1      2314 0.00000E+00
 -1      2315 0.00000E+00
 -1      2316 0.00000E+00
 -1      2317 0.00000E+00
 -1      2318 0.00000E+00
 -1      2319 0.00000E+00
 -1      2320 0.00000E+00
 -1      2321 0.00000E+00
 -1      2322 0.00000E+00
 -1      2323 0.00000E+00
 -1      2324 0.00000E+00
 -1      2325 0.00000E+00
 -1      2326 0.00000E+00
 -1      2327 0.00000E+00
 -1      2328 0.00000E+00
 -1      2329 0.00000E+00
 -1      2330 0.00000E+00
 -1      2331 0.00000E+00
 -1      2332 0.00000E+00
 -1      2333 0.00000E+00
 -1      2334 0.00000E+00
 -1      2335 0.00000E+00
 -1      2336 0.00000E+00
 -1      2337 0.00000E+00
 -1      2338 0.00000E+00
 -1      2339 0.00000E+00
 -1      2340 0.00000E+00
 -1      2341 0.00000E+00
 -1      2342 0.00000E+00
 -1      2343 0.00000E+00
 -1      2344 0.00000E+00
 -1      2345 0.00000E+00
 -1      2346 0.00000E+00
 -1      2347 0.00000E+00
 -1      2348 0.00000E+00
 -1      2349 0.00000E+00
 -1      2350 0.00000E+00
 -1      2351 0.00000E+00
 -1      2352 0.00000E+00
 -1      2353 0.00000E+00
 -1      2354 0.00000E+00
 -1      2355 0.00000E+00
 -1      2356 0.00000E+00
 -1      2357 0.00000E+00
 -1      2358 0.00000E+00
 -1      2359 0.00000E+00
 -1      2360 0.00000E+00
 -1      2361 0.00000E+00
 -1      2362 0.00000E+00
 -1      2363 0.00000E+00
 -1      2364 0.00000E+00
 -1      2365 0.00000E+00
 -1      2366 0.00000E+00
 -1      2367 0.00000E+00
 -1      2368 0.00000E+00
 -1      2369 0.00000E+00
 -1      2370 0.00000E+00
 -1      2371 0.00000E+00
 -1      2372 0.00000E+00
 -1      2373 0.00000E+00
 -1      2374 0.00000E+00
 -1      2375 0.00000E+00
 -1      2376 0.00000E+00
 -1      2377 0.00000E+00
 -1      2378 0.00000E+00
 -1      2379 0.00000E+00
 -1      2380 0.00000E+00
 -1      2381 0.00000E+00
 -1      2382 0.00000E+00
 -1      2383 0.00000E+00
 -1      2384 0.00000E+00
 -1      2385 0.00000E+00
 -1      2386 0.00000E+00
 -1      2387 0.00000E+00
 -1      2388 0.00000E+00
 -1      2389 0.00000E+00
 -1      2390 0.00000E+00
 -1      2391 0.00000E+00
 -1      2392 0.00000E+00
 -1      2393 0.00000E+00
 -1      2394 0.00000E+00
 -1      2395 0.00000E+00
 -1      2396 0.00000E+00
 -1      2397 0.00000E+00
 -1      2398 0.00000E+00
 -1      2399 0.00000E+00
 -1      2400 0.00000E+00
 -1      2401 0.00000E+00
 -1      2402 0.00000E+00
 -1      2403 0.00000E+00
 -1      2404 0.00000E+00
 -1      2405 0.00000E+00
 -1      2406 0.00000E+00
 -1      2407 0.00000E+00
 -1      2408 0.00000E+00
 -1      2409 0.00000E+00
 -1      2410 0.00000E+00
 -1      2411 0.00000E+00
 -1      2412 0.00000E+00
 -1      2413 0.00000E+00
 -1      2414 0.00000E+00
 -1      2415 0.00000E+00
 -1      2416 0.00000E+00
 -1      2417 0.00000E+00
 -1      2418 0.00000E+00
 -1      2419 0.00000E+00
 -1      2420 0.00000E+00
 -1      2421 0.00000E+00
 -1      2422 0.00000E+00
 -1      2423 0.00000E+00
 -1      2424 0.00000E+00
 -1      2425 0.00000E+00
 -1      2426 0.00000E+00
 -1      2427 0.00000E+00
 -1      2428 0.00000E+00
 -1      2429 0.00000E+00
 -1      2430 0.00000E+00
 -1      2431 0.00000E+00
 -1      2432 0.00000E+00
 -1      2433 0.00000E+00
 -1      2434 0.00000E+00
 -1      2435 0.00000E+00
 -1      2436 0.00000E+00
 -1      2437 0.00000E+00
 -1      2438 0.00000E+00
 -1      2439 0.00000E+00
 -1      2440 0.00000E+00
 -1      2441 0.00000E+00
 -1      2442 0.00000E+00
 -1      2443 0.00000E+00
 -1      2444 0.00000E+00
 -1      2445 0.00000E+00
 -1      2446 0.00000E+00
 -1      2447 0.00000E+00
 -1      2448 0.00000E+00
 -1      2449 0.00000E+00
 -1      2450 0.00000E+00
 -1      2451 0.00000E+00
 -1      2452 0.00000E+00
 -1      2453 0.00000E+00
 -1      2454 0.00000E+00
 -1      2455 0.00000E+00
 -1      2456 0.00000E+00
 -1      2457 0.00000E+00
 -1      2458 0.00000E+00
 -1      2459 0.00000E+00
 -1      2460 0.00000E+00
 -1      2461 0.00000E+00
 -1      2462 0.00000E+00
 -1      2463 0.00000E+00
 -1      2464 0.00000E+00
 -1      2465 0.00000E+00
 -1      2466 0.00000E+00
 -1      2467 0.00000E+00
 -1      2468 0.00000E+00
 -1      2469 0.00000E+00
 -1      2470 0.00000E+00
 -1      2471 0.00000E+00
 -1      2472 0.00000E+00
 -1      2473 0.00000E+00
 -1      2474 0.00000E+00
 -1      2475 0.00000E+00
 -1      2476 0.00000E+00
 -1      2477 0.00000E+00
 -1      2478 0.00000E+00
 -1      2479 0.00000E+00
 -1      2480 0.00000E+00
 -1      2481 0.00000E+00
 -1      2482 0.00000E+00
 -1      2483 0.00000E+00
 -1      2484 0.00000E+00
 -1      2485 0.00000E+00
 -1      2486 0.00000E+00
 -1      2487 0.00000E+00
 -1      2488 0.00000E+00
 -1      2489 0.00000E+00
 -1      2490 0.00000E+00
 -1      2491 0.00000E+00
 -1      2492 0.00000E+00
 -1      2493 0.00000E+00
 -1      2494 0.00000E+00
 -1      2495 0.00000E+00
 -1      2496 0.00000E+00
 -1      2497 0.00000E+00
 -1      2498 0.00000E+00
 -1      2499 0.00000E+00
 -1      2500 0.00000E+00
 -1      2501 0.00000E+00
 -1      2502 0.00000E+00
 -1      2503 0.00000E+00
 -1      2504 0.00000E+00
 -1      2505 0.00000E+00
 -1      2506 0.00000E+00
 -1      2507 0.00000E+00
 -1      2508 0.00000E+00
 -1      2509 0.00000E+00
 -1      2510 0.00000E+00
 -1      2511 0.00000E+00
 -1      2512 0.00000E+00
 -1      2513 0.00000E+00
 -1      2514 0.00000E+00
 -1      2515 0.00000E+00
 -1      2516 0.00000E+00
 -1      2517 0.00000E+00
 -1      2518 0.00000E+00
 -1      2519 0.00000E+00
 -1      2520 0.00000E+00
 -1      2521 0.00000E+00
 -1      2522 0.00000E+00
 -1      2523 0.00000E+00
 -1      2524 0.00000E+00
 -1      2525 0.00000E+00
 -1      2526 0.00000E+00
 -1      2527 0.00000E+00
 -1      2528 0.00000E+00
 -1      2529 0.00000E+00
 -1      2530 0.00000E+00
 -1      2531 0.00000E+00
 -1      2532 0.00000E+00
 -1      2533 0.00000E+00
 -1      2534 0.00000E+00
 -1      2535 0.00000E+00
 -1      2536 0.00000E+00
 -1      2537 0.00000E+00
 -1      2538 0.00000E+00
 -1      2539 0.00000E+00
 -1      2540 0.00000E+00
 -1      2541 0.00000E+00
 -1      2542 0.00000E+00
 -1      2543 0.00000E+00
 -1      2544 0.00000E+00
 -1      2545 0.00000E+00
 -1      2546 0.00000E+00
 -1      2547 0.00000E+00
 -1      2548 0.00000E+00
 -1      2549 0.00000E+00
 -1      2550 0.00000E+00
 -1      2551 0.00000E+00
 -1      2552 0.00000E+00
 -1      2553 0.00000E+00
 -1      2554 0.00000E+00
 -1      2555 0.00000E+00
 -1      2556 0.00000E+00
 -1      2557 0.00000E+00
 -1      2558 0.00000E+00
 -1      2559 0.00000E+00
 -1      2560 0.00000E+00
 -1      2561 0.00000E+00
 -1      2562 0.00000E+00
 -1      2563 0.00000E+00
 -1      2564 0.00000E+00
 -1      2565 0.00000E+00
 -1      2566 0.00000E+00
 -1      2567 0.00000E+00
 -1      2568 0.00000E+00
 -1      2569 0.00000E+00
 -1      2570 0.00000E+00
 -1      2571 0.00000E+00
 -1      2572 0.00000E+00
 -1      2573 0.00000E+00
 -1      2574 0.00000E+00
 -1      2575 0.00000E+00
 -1      2576 0.00000E+00
 -1      2577 0.00000E+00
 -1      2578 0.00000E+00
 -1      2579 0.00000E+00
 -1      2580 0.00000E+00
 -1      2581 0.00000E+00
 -1      2582 0.00000E+00
 -1      2583 0.00000E+00
 -1      2584 0.00000E+00
 -1      2585 0.00000E+00
 -1      2586 0.00000E+00
 -1      2587 0.00000E+00
 -1      2588 0.00000E+00
 -1      2589 0.00000E+00
 -1      2590 0.00000E+00
 -1      2591 0.00000E+00
 -1      2592 0.00000E+00
 -1      2593 0.00000E+00
 -1      2594 0.00000E+00
 -1      2595 0.00000E+00
 -1      2596 0.00000E+00
 -1      2597 0.00000E+00
 -1      2598 0.00000E+00
 -1      2599 0.00000E+00
 -1      2600 0.00000E+00
 -1      2601 0.00000E+00
 -1      2602 0.00000E+00
 -1      2603 0.00000E+00
 -1      2604 0.00000E+00
 -1      2605 0.00000E+00
 -1      2606 0.00000E+00
 -1      2607 0.00000E+00
 -1      2608 0.00000E+00
 -1      2609 0.00000E+00
 -1      2610 0.00000E+00
 -1      2611 0.00000E+00
 -1      2612 0.00000E+00
 -1      2613 0.00000E+00
 -1      2614 0.00000E+00
 -1      2615 0.00000E+00
 -1      2616 0.00000E+00
 -1      2617 0.00000E+00
 -1      2618 0.00000E+00
 -1      2619 0.00000E+00
 -1      2620 0.00000E+00
 -1      2621 0.00000E+00
 -1      2622 0.00000E+00
 -1      2623 0.00000E+00
 -1      2624 0.00000E+00
 -1      2625 0.00000E+00
 -1      2626 0.00000E+00
 -1      2627 0.00000E+00
 -1      2628 0.00000E+00
 -1      2629 0.00000E+00
 -1      2630 0.00000E+00
 -1      2631 0.00000E+00
 -1      2632 0.00000E+00
 -1      2633 0.00000E+00
 -1      2634 0.00000E+00
 -1      2635 0.00000E+00
 -1      2636 0.00000E+00
 -1      2637 0.00000E+00
 -1      2638 0.00000E+00
 -1      2639 0.00000E+00
 -1      2640 0.00000E+00
 -1      2641 0.00000E+00
 -1      2642 0.00000E+00
 -1      2643 0.00000E+00
 -1      2644 0.00000E+00
 -1      2645 0.00000E+00
 -1      2646 0.00000E+00
 -1      2647 0.00000E+00
 -1      2648 0.00000E+00
 -1      2649 0.00000E+00
 -1      2650 0.00000E+00
 -1      2651 0.00000E+00
 -1      2652 0.00000E+00
 -1      2653 0.00000E+00
 -1      2654 0.00000E+00
 -1      2655 0.00000E+00
 -1      2656 0.00000E+00
 -1      2657 0.00000E+00
 -1      2658 0.00000E+00
 -1      2659 0.00000E+00
 -1      2660 0.00000E+00
 -1      2661 0.00000E+00
 -1      2662 0.00000E+00
 -1      2663 0.00000E+00
 -1      2664 0.00000E+00
 -1      2665 0.00000E+00
 -1      2666 0.00000E+00
 -1      2667 0.00000E+00
 -1      2668 0.00000E+00
 -1      2669 0.00000E+00
 -1      2670 0.00000E+00
 -1      2671 0.00000E+00
 -1      2672 0.00000E+00
 -1      2673 0.00000E+00
 -1      2674 0.00000E+00
 -1      2675 0.00000E+00
 -1      2676 0.00000E+00
 -1      2677 0.00000E+00
 -1      2678 0.00000E+00
 -1      2679 0.00000E+00
 -1      2680 0.00000E+00
 -1      2681 0.00000E+00
 -1      2682 0.00000E+00
 -1      2683 0.00000E+00
 -1      2684 0.00000E+00
 -1      2685 0.00000E+00
 -1      2686 0.00000E+00
 -1      2687 0.00000E+00
 -1      2688 0.00000E+00
 -1      2689 0.00000E+00
 -1      2690 0.00000E+00
 -1      2691 0.00000E+00
 -1      2692 0.00000E+00
 -1      2693 0.00000E+00
 -1      2694 0.00000E+00
 -1      2695 0.00000E+00
 -1      2696 0.00000E+00
 -1      2697 0.00000E+00
 -1      2698 0.00000E+00
 -1      2699 0.00000E+00
 -1      2700 0.00000E+00
 -1      2701 0.00000E+00
 -1      2702 0.00000E+00
 -1      2703 0.00000E+00
 -1      2704 0.00000E+00
 -1      2705 0.00000E+00
 -1      2706 0.00000E+00
 -1      2707 0.00000E+00
 -1      2708 0.00000E+00
 -1      2709 0.00000E+00
 -1      2710 0.00000E+00
 -1      2711 0.00000E+00
 -1      2712 0.00000E+00
 -1      2713 0.00000E+00
 -1      2714 0.00000E+00
 -1      2715 0.00000E+00
 -1      2716 0.00000E+00
 -1      2717 0.00000E+00
 -1      2718 0.00000E+00
 -1      2719 0.00000E+00
 -1      2720 0.00000E+00
 -1      2721 0.00000E+00
 -1      2722 0.00000E+00
 -1      2723 0.00000E+00
 -1      2724 0.00000E+00
 -1      2725 0.00000E+00
 -1      2726 0.00000E+00
 -1      2727 0.00000E+00
 -1      2728 0.00000E+00
 -1      2729 0.00000E+00
 -1      2730 0.00000E+00
 -1      2731 0.00000E+00
 -1      2732 0.00000E+00
 -1      2733 0.00000E+00
 -1      2734 0.00000E+00
 -1      2735 0.00000E+00
 -1      2736 0.00000E+00
 -1      2737 0.00000E+00
 -1      2738 0.00000E+00
 -1      2739 0.00000E+00
 -1      2740 0.00000E+00
 -1      2741 0.00000E+00
 -1      2742 0.00000E+00
 -1      2743 0.00000E+00
 -1      2744 0.00000E+00
 -1      2745 0.00000E+00
 -1      2746 0.00000E+00
 -1      2747 0.00000E+00
 -1      2748 0.00000E+00
 -1      2749 0.00000E+00
 -1      2750 0.00000E+00
 -1      2751 0.00000E+00
 -1      2752 0.00000E+00
 -1      2753 0.00000E+00
 -1      2754 0.00000E+00
 -1      2755 0.00000E+00
 -1      2756 0.00000E+00
 -1      2757 0.00000E+00
 -1      2758 0.00000E+00
 -1      2759 0.00000E+00
 -1      2760 0.00000E+00
 -1      2761 0.00000E+00
 -1      2762 0.00000E+00
 -1      2763 0.00000E+00
 -1      2764 0.00000E+00
 -1      2765 0.00000E+00
 -1      2766 0.00000E+00
 -1      2767 0.00000E+00
 -1      2768 0.00000E+00
 -1      2769 0.00000E+00
 -1      2770 0.00000E+00
 -1      2771 0.00000E+00
 -1      2772 0.00000E+00
 -1      2773 0.00000E+00
 -1      2774 0.00000E+00
 -1      2775 0.00000E+00
 -1      2776 0.00000E+00
 -1      2777 0.00000E+00
 -1      2778 0.00000E+00
 -1      2779 0.00000E+00
 -1      2780 0.00000E+00
 -1      2781 0.00000E+00
 -1      2782 0.00000E+00
 -1      2783 0.00000E+00
 -1      2784 0.00000E+00
 -1      2785 0.00000E+00
 -1      2786 0.00000E+00
 -1      2787 0.00000E+00
 -1      2788 0.00000E+00
 -1      2789 0.00000E+00
 -1      2790 0.00000E+00
 -1      2791 0.00000E+00
 -1      2792 0.00000E+00
 -1      2793 0.00000E+00
 -1      2794 0.00000E+00
 -1      2795 0.00000E+00
 -1      2796 0.00000E+00
 -1      2797 0.00000E+00
 -1      2798 0.00000E+00
 -1      2799 0.00000E+00
 -1      2800 0.00000E+00
 -1      2801 0.00000E+00
 -1      2802 0.00000E+00
 -1      2803 0.00000E+00
 -1      2804 0.00000E+00
 -1      2805 0.00000E+00
 -1      2806 0.00000E+00
 -1      2807 0.00000E+00
 -1      2808 0.00000E+00
 -1      2809 0.00000E+00
 -1      2810 0.00000E+00
 -1      2811 0.00000E+00
 -1      2812 0.00000E+00
 -1      2813 0.00000E+00
 -1      2814 0.00000E+00
 -1      2815 0.00000E+00
 -1      2816 0.00000E+00
 -1      2817 0.00000E+00
 -1      2818 0.00000E+00
 -1      2819 0.00000E+00
 -1      2820 0.00000E+00
 -1      2821 0.00000E+00
 -1      2822 0.00000E+00
 -1      2823 0.00000E+00
 -1      2824 0.00000E+00
 -1      2825 0.00000E+00
 -1      2826 0.00000E+00
 -1      2827 0.00000E+00
 -1      2828 0.00000E+00
 -1      2829 0.00000E+00
 -1      2830 0.00000E+00
 -1      2831 0.00000E+00
 -1      2832 0.00000E+00
 -1      2833 0.00000E+00
 -1      2834 0.00000E+00
 -1      2835 0.00000E+00
 -1      2836 0.00000E+00
 -1      2837 0.00000E+00
 -1      2838 0.00000E+00
 -1      2839 0.00000E+00
 -1      2840 0.00000E+00
 -1      2841 0.00000E+00
 -1      2842 0.00000E+00
 -1      2843 0.00000E+00
 -1      2844 0.00000E+00
 -1      2845 0.00000E+00
 -1      2846 0.00000E+00
 -1      2847 0.00000E+00
 -1      2848 0.00000E+00
 -1      2849 0.00000E+00
 -1      2850 0.00000E+00
 -1      2851 0.00000E+00
 -1      2852 0.00000E+00
 -1      2853 0.00000E+00
 -1      2854 0.00000E+00
 -1      2855 0.00000E+00
 -1      2856 0.00000E+00
 -1      2857 0.00000E+00
 -1      2858 0.00000E+00
 -1      2859 0.00000E+00
 -1      2860 0.00000E+00
 -1      2861 0.00000E+00
 -1      2862 0.00000E+00
 -1      2863 0.00000E+00
 -1      2864 0.00000E+00
 -1      2865 0.00000E+00
 -1      2866 0.00000E+00
 -1      2867 0.00000E+00
 -1      2868 0.00000E+00
 -1      2869 0.00000E+00
 -1      2870 0.00000E+00
 -1      2871 0.00000E+00
 -1      2872 0.00000E+00
 -1      2873 0.00000E+00
 -1      2874 0.00000E+00
 -1      2875 0.00000E+00
 -1      2876 0.00000E+00
 -1      2877 0.00000E+00
 -1      2878 0.00000E+00
 -1      2879 0.00000E+00
 -1      2880 0.00000E+00
 -1      2881 0.00000E+00
 -1      2882 0.00000E+00
 -1      2883 0.00000E+00
 -1      2884 0.00000E+00
 -1      2885 0.00000E+00
 -1      2886 0.00000E+00
 -1      2887 0.00000E+00
 -1      2888 0.00000E+00
 -1      2889 0.00000E+00
 -1      2890 0.00000E+00
 -1      2891 0.00000E+00
 -1      2892 0.00000E+00
 -1      2893 0.00000E+00
 -1      2894 0.00000E+00
 -1      2895 0.00000E+00
 -1      2896 0.00000E+00
 -1      2897 0.00000E+00
 -1      2898 0.00000E+00
 -1      2899 0.00000E+00
 -1      2900 0.00000E+00
 -1      2901 0.00000E+00
 -1      2902 0.00000E+00
 -1      2903 0.00000E+00
 -1      2904 0.00000E+00
 -1      2905 0.00000E+00
 -1      2906 0.00000E+00
 -1      2907 0.00000E+00
 -1      2908 0.00000E+00
 -1      2909 0.00000E+00
 -1      2910 0.00000E+00
 -1      2911 0.00000E+00
 -1      2912 0.00000E+00
 -1      2913 0.00000E+00
 -1      2914 0.00000E+00
 -1      2915 0.00000E+00
 -1      2916 0.00000E+00
 -1      2917 0.00000E+00
 -1      2918 0.00000E+00
 -1      2919 0.00000E+00
 -1      2920 0.00000E+00
 -1      2921 0.00000E+00
 -1      2922 0.00000E+00
 -1      2923 0.00000E+00
 -1      2924 0.00000E+00
 -1      2925 0.00000E+00
 -1      2926 0.00000E+00
 -1      2927 0.00000E+00
 -1      2928 0.00000E+00
 -1      2929 0.00000E+00
 -1      2930 0.00000E+00
 -1      2931 0.00000E+00
 -1      2932 0.00000E+00
 -1      2933 0.00000E+00
 -1      2934 0.00000E+00
 -1      2935 0.00000E+00
 -1      2936 0.00000E+00
 -1      2937 0.00000E+00
 -1      2938 0.00000E+00
 -1      2939 0.00000E+00
 -1      2940 0.00000E+00
 -1      2941 0.00000E+00
 -1      2942 0.00000E+00
 -1      2943 0.00000E+00
 -1      2944 0.00000E+00
 -1      2945 0.00000E+00
 -1      2946 0.00000E+00
 -1      2947 0.00000E+00
 -1      2948 0.00000E+00
 -1      2949 0.00000E+00
 -1      2950 0.00000E+00
 -1      2951 0.00000E+00
 -1      2952 0.00000E+00
 -1      2953 0.00000E+00
 -1      2954 0.00000E+00
 -1      2955 0.00000E+00
 -1      2956 0.00000E+00
 -1      2957 0.00000E+00
 -1      2958 0.00000E+00
 -1      2959 0.00000E+00
 -1      2960 0.00000E+00
 -1      2961 0.00000E+00
 -1      2962 0.00000E+00
 -1      2963 0.00000E+00
 -1      2964 0.00000E+00
 -1      2965 0.00000E+00
 -1      2966 0.00000E+00
 -1      2967 0.00000E+00
 -1      2968 0.00000E+00
 -1      2969 0.00000E+00
 -1      2970 0.00000E+00
 -1      2971 0.00000E+00
 -1      2972 0.00000E+00
 -1      2973 0.00000E+00
 -1      2974 0.00000E+00
 -1      2975 0.00000E+00
 -1      2976 0.00000E+00
 -1      2977 0.00000E+00
 -1      2978 0.00000E+00
 -1      2979 0.00000E+00
 -1      2980 0.00000E+00
 -1      2981 0.00000E+00
 -1      2982 0.00000E+00
 -1      2983 0.00000E+00
 -1      2984 0.00000E+00
 -1      2985 0.00000E+00
 -1      2986 0.00000E+00
 -1      2987 0.00000E+00
 -1      2988 0.00000E+00
 -1      2989 0.00000E+00
 -1      2990 0.00000E+00
 -1      2991 0.00000E+00
 -1      2992 0.00000E+00
 -1      2993 0.00000E+00
 -1      2994 0.00000E+00
 -1      2995 0.00000E+00
 -1      2996 0.00000E+00
 -1      2997 0.00000E+00
 -1      2998 0.00000E+00
 -1      2999 0.00000E+00
 -1      3000 0.00000E+00
 -1      3001 0.00000E+00
 -1      3002 0.00000E+00
 -1      3003 0.00000E+00
 -1      3004 0.00000E+00
 -1      3005 0.00000E+00
 -1      3006 0.00000E+00
 -1      3007 0.00000E+00
 -1      3008 0.00000E+00
 -1      3009 0.00000E+00
 -1      3010 0.00000E+00
 -1      3011 0.00000E+00
 -1      3012 0.00000E+00
 -1      3013 0.00000E+00
 -1      3014 0.00000E+00
 -1      3015 0.00000E+00
 -1      3016 0.00000E+00
 -1      3017 0.00000E+00
 -1      3018 0.00000E+00
 -1      3019 0.00000E+00
 -1      3020 0.00000E+00
 -1      3021 0.00000E+00
 -1      3022 0.00000E+00
 -1      3023 0.00000E+00
 -1      3024 0.00000E+00
 -1      3025 0.00000E+00
 -1      3026 0.00000E+00
 -1      3027 0.00000E+00
 -1      3028 0.00000E+00
 -1      3029 0.00000E+00
 -1      3030 0.00000E+00
 -1      3031 0.00000E+00
 -1      3032 0.00000E+00
 -1      3033 0.00000E+00
 -1      3034 0.00000E+00
 -1      3035 0.00000E+00
 -1      3036 0.00000E+00
 -1      3037 0.00000E+00
 -1      3038 0.00000E+00
 -1      3039 0.00000E+00
 -1      3040 0.00000E+00
 -1      3041 0.00000E+00
 -1      3042 0.00000E+00
 -1      3043 0.00000E+00
 -1      3044 0.00000E+00
 -1      3045 0.00000E+00
 -1      3046 0.00000E+00
 -1      3047 0.00000E+00
 -1      3048 0.00000E+00
 -1      3049 0.00000E+00
 -3
 9999
