    1C
    1UUSER                                                              
    1UDATE              01.july.2020                                    
    1UTIME              22:58:51                                        
    1UHOST                                                              
    1UPGM               CalculiX                                        
    1UVERSION           Version 2.15                             
    1UCOMPILETIME       Sa 15. Dez 15:34:34 CET 2018                    
    1UDIR                                                               
    1UDBN                                                               
    1UMAT    1STEEL                                                     
    2C                          9675                                     1
 -1         1 9.97758E+01 1.68855E-01-5.22889E-01
 -1         2 1.00349E+02-5.03438E-02-3.85673E-01
 -1         3 9.99212E+01-3.91505E-01-3.89139E-01
 -1         4 2.67860E+01-1.29834E-01-5.55018E-01
 -1         5 2.61856E+01 5.34058E-08-4.58948E-01
 -1         6 2.66224E+01 4.02111E-01-4.76040E-01
 -1         7-1.57568E-01 9.78272E+00-4.68050E-01
 -1         8 6.00993E-02 1.03509E+01-4.18313E-01
 -1         9 4.16129E-01 9.92225E+00-4.80280E-01
 -1        10 3.35400E+01 1.04378E+01-3.84163E-01
 -1        11 3.39053E+01 9.99213E+00-4.16868E-01
 -1        12 3.31973E+01 9.99216E+00-5.40790E-01
 -1        13 6.28543E+00-1.34334E-01-4.17589E-01
 -1        14 6.80831E+00-8.79295E-02-5.11586E-01
 -1        15 6.63201E+00-5.39967E-01 1.75391E-02
 -1        16 1.26642E+01-3.69233E-01 1.39750E-01
 -1        17 1.33559E+01-8.69344E-02-5.03518E-01
 -1        18 1.33503E+01-5.42664E-01-6.49979E-03
 -1        19 1.97591E+01-5.28534E-01-3.49374E-02
 -1        20 2.00925E+01-6.43990E-02-5.49068E-01
 -1        21 2.02747E+01-5.21734E-01-5.20635E-02
 -1        22 2.64009E+01-5.24394E-01-5.31851E-02
 -1        23 2.69154E+01-5.28520E-01-6.98749E-02
 -1        24 2.74758E+01 2.79500E-01-2.94743E-01
 -1        25 5.28959E+01-4.24594E-01-3.49374E-02
 -1        26 5.33050E+01-2.29536E-03-5.55685E-01
 -1        27 5.34809E+01-5.03203E-01-8.81568E-02
 -1        28 5.97343E+01-5.20442E-01-3.49374E-02
 -1        29 5.98522E+01 4.88792E-04-5.32537E-01
 -1        30 6.03441E+01-3.90981E-01-1.92371E-01
 -1        31 6.57473E+01 1.90688E-01-2.39438E-01
 -1        32 6.65845E+01-2.88985E-02-5.33092E-01
 -1        33 6.63725E+01-5.15658E-01-4.92503E-02
 -1        34 6.68903E+01-5.36530E-01-6.98749E-02
 -1        35 7.28383E+01-2.78923E-01-3.07475E-01
 -1        36 7.33474E+01-3.30723E-03-5.45420E-01
 -1        37 7.33680E+01-5.32645E-01-3.46471E-02
 -1        38 7.39993E+01-2.80419E-01-1.59909E-01
 -1        39-4.58196E-01-1.82154E-01 1.83295E-01
 -1        40 2.39761E-02-1.07434E-02-5.16571E-01
 -1        41-7.98237E-02-4.97935E-01-1.21825E-01
 -1        42 1.25140E+01 1.39750E-01-3.24249E-01
 -1        43 1.93032E+01 1.04813E-01-3.60312E-01
 -1        44 3.31906E+01-3.67455E-01-3.67797E-01
 -1        45 3.25177E+01 2.62031E-01-3.25943E-01
 -1        46 3.34487E+01 6.40210E-02-5.41276E-01
 -1        47 3.36840E+01-5.06351E-01 4.57764E-08
 -1        48 3.42586E+01 2.44563E-01-2.35965E-01
 -1        49 3.99840E+01-4.64907E-01-1.57138E-01
 -1        50 3.94095E+01 1.39750E-01-4.16379E-01
 -1        51 4.01492E+01 6.54108E-02-5.36375E-01
 -1        52 4.09169E+01 2.09625E-01-2.42507E-01
 -1        53 4.76572E+01 5.34058E-08-1.91151E-01
 -1        54 4.66751E+01-4.73567E-01-1.61649E-01
 -1        55 4.65004E+01 1.00599E-01-5.33039E-01
 -1        56 5.26560E+01 1.39750E-01-3.79923E-01
 -1        57 5.41712E+01 3.93047E-01-2.88032E-01
 -1        58 5.91892E+01 1.39750E-01-3.28144E-01
 -1        59 6.08930E+01 2.62031E-01-2.87345E-01
 -1        60 7.25196E+01 2.09625E-01-3.37612E-01
 -1        61 7.41504E+01 3.49375E-01-2.72775E-01
 -1        62 7.99502E+01-4.61509E-01-1.55764E-01
 -1        63 7.92176E+01 2.09625E-01-3.49947E-01
 -1        64 8.01235E+01 6.44646E-02-5.40192E-01
 -1        65 8.09324E+01 2.44563E-01-2.33271E-01
 -1        66 8.67142E+01-5.33376E-01-1.74601E-02
 -1        67 8.62797E+01-1.22466E-01-4.42637E-01
 -1        68 8.68556E+01 1.31128E-01-5.27161E-01
 -1        69 8.72795E+01-3.17682E-01-1.07072E-01
 -1        70 8.76602E+01 6.98751E-02-2.06784E-01
 -1        71 9.25699E+01-2.79546E-01 5.26905E-08
 -1        72 9.24590E+01 1.39750E-01-2.98866E-01
 -1        73 9.31746E+01 1.00525E-01-5.34177E-01
 -1        74 9.34182E+01-4.78592E-01-1.04567E-01
 -1        75 9.41891E+01 5.34058E-08-2.78016E-01
 -1        76 9.91618E+01 1.39750E-01-3.15602E-01
 -1        77 7.42579E+00 3.23172E-01-3.33432E-01
 -1        78 6.84775E+00 7.43021E-01-2.57113E-01
 -1        79 2.57616E+01-2.74067E-01 2.27094E-01
 -1        80 2.56358E+01 3.84313E-01-2.42139E-01
 -1        81 4.69560E+01 6.77207E-01-3.39310E-01
 -1        82 6.02323E+01 8.05850E-01-2.12156E-01
 -1        83 9.33530E+01 1.02408E+00 2.09625E-01
 -1        84 2.79500E-01 6.76392E-01-3.39905E-01
 -1        85 1.03604E+00 6.30970E-01-1.64213E-01
 -1        86 1.00845E+00 6.98751E-02-1.98064E-01
 -1        87 5.81127E+00 1.39750E-01-3.07678E-01
 -1        88 6.14900E+00 1.03611E+00-1.43836E-01
 -1        89 1.22957E+01 8.08119E-01-9.07214E-02
 -1        90 1.42190E+01 2.62031E-01-2.90073E-01
 -1        91 1.36256E+01 8.78517E-01-1.69081E-01
 -1        92 1.87269E+01 2.78913E-01-1.04461E-01
 -1        93 1.95650E+01 8.12716E-01-2.69509E-01
 -1        94 3.30159E+01 8.93831E-01-1.39838E-01
 -1        95 3.88014E+01 4.90793E-01-1.46476E-01
 -1        96 3.99685E+01 1.04307E+00 1.39750E-01
 -1        97 4.03179E+01 6.78499E-01-3.33270E-01
 -1        98 4.57837E+01 1.39750E-01-2.94839E-01
 -1        99 4.62572E+01 8.26862E-01-2.53890E-01
 -1       100 4.66765E+01 1.07121E+00 4.19250E-01
 -1       101 4.76981E+01 6.54148E-01-1.29430E-01
 -1       102 5.35242E+01 7.80593E-01-2.22666E-01
 -1       103 6.60319E+01 8.96258E-01-1.72898E-01
 -1       104 7.98671E+01 8.99257E-01-1.23196E-01
 -1       105 8.66450E+01 1.02673E+00 2.09625E-01
 -1       106 8.69245E+01 6.74239E-01-3.40979E-01
 -1       107 8.77815E+01 7.03673E-01-1.04671E-01
 -1       108 9.29338E+01 8.26354E-01-2.54513E-01
 -1       109 9.44225E+01 6.79817E-01-1.09740E-01
 -1       110 9.97815E+01 6.91357E-01-3.16373E-01
 -1       111 1.29967E+01 8.04419E-01-2.61916E-01
 -1       112 2.02638E+01 8.27691E-01-2.36620E-01
 -1       113 2.08841E+01 2.00891E-01-2.65842E-01
 -1       114 2.64128E+01 9.86179E-01-1.17042E-01
 -1       115 2.69718E+01 8.05470E-01-2.59890E-01
 -1       116 5.28255E+01 8.38500E-01-2.50355E-01
 -1       117 6.68005E+01 8.38500E-01-2.07792E-01
 -1       118 6.75575E+01 2.00891E-01-2.63079E-01
 -1       119 7.30892E+01 9.82871E-01-1.15689E-01
 -1       120 8.03562E+01 8.02721E-01-2.62724E-01
 -1       121 8.56360E+01 3.49375E-01-2.52047E-01
 -1       122 6.73296E-02 4.85568E+00-5.19605E-01
 -1       123 8.59289E-01 4.96113E+00-3.03968E-01
 -1       124 4.19250E-01 4.02678E+00-1.53583E-01
 -1       125 5.62910E+00 4.46766E+00-1.85373E-01
 -1       126 6.65338E+00 4.92891E+00-5.62355E-01
 -1       127 6.28875E+00 4.22661E+00-2.65592E-01
 -1       128 6.95256E+00 4.05972E+00-1.23738E-01
 -1       129 1.24978E+01 4.68163E+00-2.71406E-01
 -1       130 1.34440E+01 4.96288E+00-5.58870E-01
 -1       131 1.29967E+01 4.22189E+00-2.64496E-01
 -1       132 1.35557E+01 4.15270E+00-1.83244E-01
 -1       133 1.91467E+01 4.61175E+00-2.90148E-01
 -1       134 2.02638E+01 4.20086E+00-2.41515E-01
 -1       135 1.97048E+01 4.22089E+00-2.61873E-01
 -1       136 2.66224E+01 4.05400E+00-7.07380E-02
 -1       137 2.65000E+01 4.90556E+00-5.61372E-01
 -1       138 2.71115E+01 4.21517E+00-2.71085E-01
 -1       139 3.30509E+01 4.15125E+00-1.71604E-01
 -1       140 3.34630E+01 4.96168E+00-5.37011E-01
 -1       141 3.38195E+01 4.19250E+00-2.57455E-01
 -1       142 3.42390E+01 4.96113E+00-2.91431E-01
 -1       143 3.93186E+01 4.60687E+00-3.18002E-01
 -1       144 4.08356E+01 4.96113E+00-3.13399E-01
 -1       145 4.01781E+01 4.17871E+00-1.82989E-01
 -1       146 4.66765E+01 3.95066E+00 4.19250E-01
 -1       147 4.74619E+01 4.71656E+00-3.41408E-01
 -1       148 4.73054E+01 3.86249E+00-8.09391E-02
 -1       149 5.23045E+01 4.46727E+00-1.87279E-01
 -1       150 5.33296E+01 4.92943E+00-5.62931E-01
 -1       151 5.29652E+01 4.22509E+00-2.65464E-01
 -1       152 5.35242E+01 4.10135E+00-1.43110E-01
 -1       153 5.91725E+01 4.68163E+00-2.73729E-01
 -1       154 6.01200E+01 4.96362E+00-5.58002E-01
 -1       155 5.93937E+01 3.73663E+00 1.25963E-03
 -1       156 6.02323E+01 4.15066E+00-1.84758E-01
 -1       157 6.61009E+01 4.40669E+00-3.00797E-01
 -1       158 6.69712E+01 5.03100E+00-5.39652E-01
 -1       159 6.68005E+01 4.05959E+00-9.25237E-02
 -1       160 7.29495E+01 4.34748E+00-3.31730E-01
 -1       161 7.34227E+01 4.93251E+00-5.42789E-01
 -1       162 7.32290E+01 3.91537E+00 5.13381E-01
 -1       163 7.42176E+01 4.96113E+00-3.00452E-01
 -1       164 7.97274E+01 4.15347E+00-1.70758E-01
 -1       165 8.07042E+01 4.85631E+00-3.68572E-01
 -1       166 8.04960E+01 4.19250E+00-2.55882E-01
 -1       167 8.66450E+01 3.99528E+00 2.09625E-01
 -1       168 8.68387E+01 4.92570E+00-5.31045E-01
 -1       169 8.71691E+01 3.99709E+00-1.53921E-01
 -1       170 8.76074E+01 4.96113E+00-2.76452E-01
 -1       171-1.71303E-01 4.22427E+00 3.49375E-01
 -1       172-4.68315E-01 4.98672E+00-1.61309E-01
 -1       173 7.55296E+00 4.68163E+00-2.85954E-01
 -1       174 1.29451E+01 5.10087E+00-5.05136E-01
 -1       175 1.41285E+01 4.79517E+00-3.30044E-01
 -1       176 2.02968E+01 5.03100E+00-5.42362E-01
 -1       177 1.96785E+01 5.10087E+00-5.26430E-01
 -1       178 2.08827E+01 4.80391E+00-2.87016E-01
 -1       179 2.58147E+01 4.69909E+00-3.18616E-01
 -1       180 2.70656E+01 4.92619E+00-5.01238E-01
 -1       181 2.76660E+01 4.61175E+00-2.48746E-01
 -1       182 3.25452E+01 4.70783E+00-3.26947E-01
 -1       183 4.00072E+01 5.02759E+00-5.64728E-01
 -1       184 4.63970E+01 4.35088E+00-3.42374E-01
 -1       185 4.56010E+01 4.46859E+00-1.79129E-01
 -1       186 4.66729E+01 4.99547E+00-5.63825E-01
 -1       187 5.42270E+01 4.68163E+00-2.83930E-01
 -1       188 5.96193E+01 5.10087E+00-5.07847E-01
 -1       189 6.08329E+01 4.69909E+00-3.24808E-01
 -1       190 6.53745E+01 5.03100E+00 4.57764E-08
 -1       191 6.61574E+01 4.96113E+00-4.54128E-01
 -1       192 6.75550E+01 4.80391E+00-2.85013E-01
 -1       193 7.24901E+01 4.69909E+00-3.21437E-01
 -1       194 7.99777E+01 5.02781E+00-5.66140E-01
 -1       195 7.91283E+01 4.59428E+00-2.84881E-01
 -1       196 8.63655E+01 4.34825E+00-3.40323E-01
 -1       197 8.57213E+01 4.57681E+00-2.52412E-01
 -1       198 9.30735E+01 4.35192E+00-3.42874E-01
 -1       199 9.22765E+01 4.46834E+00-1.81101E-01
 -1       200 9.25864E+01 5.24063E+00-3.41665E-01
 -1       201 9.33530E+01 3.99794E+00 2.09625E-01
 -1       202 9.33472E+01 4.99555E+00-5.64083E-01
 -1       203 9.41372E+01 4.71656E+00-3.38585E-01
 -1       204 9.97815E+01 4.35728E+00-3.44231E-01
 -1       205 9.90175E+01 4.46165E+00-1.90061E-01
 -1       206 1.00005E+02 4.93051E+00-5.62144E-01
 -1       207 5.34251E+00 5.03100E+00 3.14688E-02
 -1       208 7.51806E+00 5.46772E+00-2.84388E-01
 -1       209 1.38352E+01 5.58399E+00-3.32156E-01
 -1       210 1.90232E+01 5.31050E+00-2.53482E-01
 -1       211 2.75471E+01 5.36291E+00-2.67079E-01
 -1       212 5.26120E+01 5.24063E+00-3.50864E-01
 -1       213 5.41300E+01 5.36291E+00-3.33090E-01
 -1       214 6.08241E+01 5.31050E+00-2.99521E-01
 -1       215 7.92208E+01 5.26683E+00-3.33437E-01
 -1       216 8.59035E+01 5.25809E+00-3.42442E-01
 -1       217 9.86857E+01 5.03100E+00 2.19116E-02
 -1       218 6.14900E+00 5.31050E+00-4.37594E-01
 -1       219 6.84775E+00 5.76840E+00-2.55114E-01
 -1       220 1.20298E+01 5.03100E+00 1.12722E-02
 -1       221 1.43403E+01 5.41531E+00-2.48348E-01
 -1       222 2.53745E+01 5.03100E+00 4.57764E-08
 -1       223 2.56358E+01 5.41531E+00-2.40938E-01
 -1       224 4.03528E+01 5.63735E+00-3.48096E-01
 -1       225 4.75948E+01 5.39784E+00-2.34586E-01
 -1       226 5.35242E+01 5.77100E+00-2.55644E-01
 -1       227 5.87014E+01 5.03100E+00 6.40313E-03
 -1       228 7.20412E+01 5.03100E+00 4.57764E-08
 -1       229 7.24013E+01 5.40910E+00-2.13329E-01
 -1       230 8.03213E+01 5.63968E+00-3.50283E-01
 -1       231 8.70293E+01 5.63634E+00-3.47214E-01
 -1       232 9.42695E+01 5.39784E+00-2.32247E-01
 -1       233 9.98863E+01 5.52013E+00-3.91042E-01
 -1       234 1.00394E+02 5.44885E+00-1.53832E-02
 -1       235 1.00507E+02 4.92619E+00-8.68524E-02
 -1       236 2.79500E-01 5.70277E+00-3.37980E-01
 -1       237 1.02238E+00 5.66070E+00-1.60542E-01
 -1       238 1.28637E+01 5.64457E+00-3.11001E-01
 -1       239 1.95650E+01 5.83888E+00-2.67456E-01
 -1       240 2.02638E+01 5.85628E+00-2.31685E-01
 -1       241 2.08607E+01 5.50266E+00-2.54783E-01
 -1       242 2.63429E+01 5.94754E+00-1.52912E-01
 -1       243 2.68320E+01 5.71092E+00-3.26930E-01
 -1       244 3.25617E+01 5.93937E+00-1.14735E-01
 -1       245 3.23338E+01 5.41531E+00-2.50625E-01
 -1       246 3.33304E+01 5.59000E+00-3.93243E-01
 -1       247 3.42874E+01 5.66111E+00-1.71528E-01
 -1       248 3.88014E+01 5.52077E+00-1.45048E-01
 -1       249 3.99685E+01 6.06170E+00 2.09625E-01
 -1       250 4.09928E+01 5.66088E+00-1.65436E-01
 -1       251 4.55624E+01 5.34544E+00-1.98628E-01
 -1       252 4.62572E+01 5.85556E+00-2.50856E-01
 -1       253 4.61175E+01 5.31050E+00-4.28634E-01
 -1       254 4.66765E+01 6.09315E+00 4.19250E-01
 -1       255 5.93359E+01 5.57989E+00-2.93420E-01
 -1       256 6.02323E+01 5.83835E+00-2.06515E-01
 -1       257 6.62415E+01 5.84043E+00-2.67759E-01
 -1       258 6.67306E+01 6.00139E+00-6.56950E-02
 -1       259 6.75360E+01 5.50266E+00-2.52920E-01
 -1       260 7.42577E+01 5.66123E+00-1.75915E-01
 -1       261 7.35085E+01 5.71085E+00-3.27085E-01
 -1       262 7.98671E+01 5.92361E+00-1.21501E-01
 -1       263 8.09633E+01 5.66106E+00-1.70114E-01
 -1       264 8.66450E+01 6.04876E+00 2.09625E-01
 -1       265 8.77491E+01 5.73166E+00-1.01664E-01
 -1       266 9.33530E+01 6.04612E+00 2.09625E-01
 -1       267 9.94671E+01 5.93085E+00-1.88441E-01
 -1       268 6.14900E+00 6.06601E+00-1.39970E-01
 -1       269 1.34160E+01 6.11119E+00 4.98359E-01
 -1       270 3.31208E+01 5.99709E+00-1.08027E-01
 -1       271 5.28255E+01 5.86950E+00-2.46842E-01
 -1       272 5.97034E+01 5.98744E+00-1.38507E-01
 -1       273 9.28639E+01 6.05978E+00-1.44678E-01
 -1       274 4.19250E-01 9.08700E+00-1.76349E-01
 -1       275 8.91377E-01 9.92225E+00-2.86810E-01
 -1       276 1.31365E+01 9.37557E+00-3.38333E-01
 -1       277 1.34715E+01 9.92834E+00-5.66028E-01
 -1       278 1.36256E+01 9.14174E+00-1.60327E-01
 -1       279 1.41820E+01 9.81744E+00-2.95956E-01
 -1       280 1.95650E+01 9.37346E+00-2.95573E-01
 -1       281 2.01956E+01 1.00466E+01-5.23292E-01
 -1       282 2.01939E+01 9.08234E+00-7.87799E-02
 -1       283 3.30509E+01 9.17885E+00-1.74886E-01
 -1       284 3.38894E+01 8.89076E+00-8.43509E-02
 -1       285 4.66765E+01 8.97247E+00 4.19250E-01
 -1       286 4.68813E+01 9.88785E+00-5.23896E-01
 -1       287 4.72355E+01 9.08375E+00-1.84704E-01
 -1       288 6.61018E+01 9.92225E+00-4.36524E-01
 -1       289 6.71499E+01 9.22670E+00-2.23818E-01
 -1       290 6.59444E+01 8.88846E+00-2.49087E-02
 -1       291 7.97274E+01 9.18107E+00-1.74107E-01
 -1       292 8.01204E+01 9.99174E+00-5.26561E-01
 -1       293 8.05659E+01 8.89051E+00-8.47456E-02
 -1       294 8.07004E+01 9.50734E+00-2.95116E-01
 -1       295 9.23022E+01 9.42841E+00-1.75076E-01
 -1       296 9.32133E+01 9.64357E+00-4.84380E-01
 -1       297 9.33530E+01 9.08435E+00 4.57764E-08
 -1       298 9.39120E+01 9.08375E+00-1.83234E-01
 -1       299 6.80810E+00 1.01408E+01-5.09502E-01
 -1       300 6.95256E+00 9.08739E+00-1.27149E-01
 -1       301 6.28567E+00 1.02251E+01-4.16098E-01
 -1       302 7.48426E+00 9.81744E+00-3.07782E-01
 -1       303 1.23711E+01 9.48673E+00-1.97133E-01
 -1       304 1.30586E+01 1.02252E+01-4.58835E-01
 -1       305 1.94253E+01 9.92225E+00-4.32575E-01
 -1       306 1.88333E+01 9.52047E+00-1.69396E-01
 -1       307 2.08799E+01 9.81744E+00-2.83862E-01
 -1       308 2.66224E+01 9.08336E+00-7.87191E-02
 -1       309 2.58148E+01 9.73009E+00-3.19759E-01
 -1       310 2.66546E+01 1.00438E+01-5.36523E-01
 -1       311 2.69019E+01 9.43754E+00-3.66051E-01
 -1       312 2.76240E+01 9.78250E+00-2.64838E-01
 -1       313 3.25178E+01 9.73009E+00-3.31695E-01
 -1       314 3.98288E+01 9.27637E+00-2.25633E-01
 -1       315 3.91579E+01 9.62528E+00-2.95519E-01
 -1       316 3.98677E+01 1.01416E+01-5.10846E-01
 -1       317 4.04926E+01 9.02602E+00-1.57328E-01
 -1       318 4.03891E+01 1.01883E+01-4.13880E-01
 -1       319 4.08638E+01 9.92225E+00-3.00015E-01
 -1       320 4.55192E+01 9.35445E+00-1.09716E-01
 -1       321 4.56687E+01 9.99213E+00-1.95097E-01
 -1       322 4.64681E+01 1.02729E+01-4.68710E-01
 -1       323 4.63970E+01 9.37720E+00-3.44293E-01
 -1       324 4.76882E+01 9.71263E+00-2.56275E-01
 -1       325 5.36989E+01 9.11969E+00-1.51540E-01
 -1       326 5.23416E+01 9.49097E+00-1.91224E-01
 -1       327 5.29610E+01 1.02274E+01-4.18444E-01
 -1       328 5.34840E+01 1.01401E+01-5.08091E-01
 -1       329 5.41583E+01 9.81744E+00-3.04993E-01
 -1       330 6.03371E+01 9.13964E+00-1.45269E-01
 -1       331 5.90470E+01 9.48475E+00-1.98932E-01
 -1       332 5.97339E+01 1.02262E+01-4.60859E-01
 -1       333 6.02168E+01 9.92599E+00-5.47222E-01
 -1       334 6.08561E+01 9.81744E+00-2.93103E-01
 -1       335 6.68710E+01 1.00467E+01-5.21564E-01
 -1       336 6.75540E+01 9.81744E+00-2.80944E-01
 -1       337 7.35784E+01 9.43806E+00-3.64794E-01
 -1       338 7.32290E+01 8.83903E+00 2.79500E-01
 -1       339 7.34708E+01 1.00584E+01-5.32611E-01
 -1       340 7.24902E+01 9.73009E+00-3.22629E-01
 -1       341 7.43342E+01 9.74756E+00-2.42447E-01
 -1       342 7.91982E+01 9.69516E+00-3.28480E-01
 -1       343 8.09268E+01 1.01467E+01-1.13615E-01
 -1       344 8.11857E+01 9.64275E+00-1.83066E-01
 -1       345 8.65818E+01 9.95421E+00-5.63037E-01
 -1       346 8.65052E+01 9.27967E+00-2.25070E-01
 -1       347 8.59037E+01 9.69516E+00-3.40080E-01
 -1       348 8.71691E+01 9.02577E+00-1.57289E-01
 -1       349 8.70620E+01 1.01876E+01-4.11692E-01
 -1       350 8.75391E+01 9.92225E+00-2.95911E-01
 -1       351 9.23422E+01 9.99213E+00-1.99146E-01
 -1       352 9.32416E+01 1.01837E+01-5.00527E-01
 -1       353 9.41619E+01 9.79997E+00-3.01153E-01
 -1       354 9.97815E+01 9.38371E+00-3.46357E-01
 -1       355 9.90175E+01 9.48989E+00-1.93092E-01
 -1       356 9.96363E+01 1.02295E+01-4.20754E-01
 -1       357 1.00163E+02 9.97760E+00-5.00118E-01
 -1       358 2.57511E+01 1.02804E+01 6.98751E-02
 -1       359 2.61333E+01 1.02587E+01-3.24216E-01
 -1       360 4.75019E+01 1.01956E+01-1.38213E-01
 -1       361 7.24269E+01 1.02853E+01 6.98751E-02
 -1       362 7.28098E+01 1.02625E+01-3.27159E-01
 -1       363-5.52790E-01 1.00296E+01 3.40641E-08
 -1       364 6.89644E+00 1.05593E+01 6.98816E-02
 -1       365 1.25226E+01 1.03632E+01 1.39750E-01
 -1       366 1.32541E+01 1.05745E+01 3.50055E-02
 -1       367 1.93952E+01 1.04430E+01 1.39750E-01
 -1       368 2.00546E+01 1.05798E+01-9.11299E-02
 -1       369 2.66555E+01 1.05752E+01-5.67679E-02
 -1       370 3.23047E+01 1.01348E+01-7.54459E-02
 -1       371 3.30780E+01 1.05488E+01 3.56752E-02
 -1       372 3.90722E+01 1.01182E+01-1.46484E-01
 -1       373 3.97791E+01 1.05595E+01 1.14261E-06
 -1       374 4.61175E+01 1.04664E+01 4.57764E-08
 -1       375 4.67979E+01 1.05534E+01-9.00549E-02
 -1       376 5.26857E+01 1.04161E+01 6.98751E-02
 -1       377 5.39400E+01 1.03813E+01 3.79972E-01
 -1       378 5.91978E+01 1.03670E+01 1.39750E-01
 -1       379 5.99272E+01 1.05750E+01 3.50243E-02
 -1       380 6.59006E+01 1.03827E+01 1.39750E-01
 -1       381 6.66962E+01 1.05667E+01-9.05050E-02
 -1       382 7.33305E+01 1.05873E+01-6.97669E-02
 -1       383 7.95178E+01 1.04945E+01 4.57764E-08
 -1       384 8.01003E+01 1.05234E+01-1.90798E-01
 -1       385 8.64897E+01 1.05364E+01-8.90864E-02
 -1       386 9.27940E+01 1.04709E+01 4.57764E-08
 -1       387 9.34736E+01 1.05519E+01-8.92516E-02
 -1       388 9.91353E+01 1.03370E+01 1.74688E-01
 -1       389 5.33401E+01 1.06111E+01 3.27272E-05
 -1       390 9.98275E+01 1.05512E+01 1.39750E-01
 -1       391 3.31747E+01-5.45018E-01 1.14285E-01
 -1       392 9.97109E+01-4.77020E-01 2.44563E-01
 -1       393 1.00253E+02-4.62816E-01 1.27483E-01
 -1       394 9.00404E-01-2.66074E-01 4.19250E-01
 -1       395 5.69681E+00-2.13570E-01 6.98751E-02
 -1       396 3.24595E+01-2.86281E-01 2.27094E-01
 -1       397 4.57935E+01-2.67911E-01 1.22281E-01
 -1       398 7.24357E+01-2.76996E-01 2.27094E-01
 -1       399 8.59517E+01-3.40092E-01 4.57764E-08
 -1       400 9.43443E+01-2.21657E-01 4.89125E-01
 -1       401 9.90870E+01-2.62409E-01 1.39750E-01
 -1       402 7.55691E+00-2.62098E-01 4.40365E-01
 -1       403 7.88665E+00-1.98208E-02-2.04558E-02
 -1       404 1.18369E+01 5.76469E-01-5.02334E-02
 -1       405 1.91689E+01-3.04491E-01 1.39750E-01
 -1       406 3.90369E+01-2.41437E-01 4.54188E-01
 -1       407 3.92777E+01-3.36301E-01 4.57764E-08
 -1       408 5.23715E+01-2.18006E-01 6.98751E-02
 -1       409 5.41274E+01-3.28268E-01 3.31906E-01
 -1       410 5.45582E+01-1.82287E-02-1.88125E-02
 -1       411 5.91455E+01-2.93906E-01 1.39750E-01
 -1       412 5.84206E+01 3.07118E-03 2.79500E-01
 -1       413 7.46234E+01 3.13091E-03 6.36987E-03
 -1       414 7.91336E+01-2.89147E-01 2.27094E-01
 -1       415 1.00441E+02 3.49095E-01 1.04813E-01
 -1       416 1.69146E+00 4.71656E-01 3.45756E-02
 -1       417 5.45025E+00 7.01630E-01-7.24949E-02
 -1       418 5.22146E+00-3.16896E-02 5.74049E-01
 -1       419 8.27988E+00 4.89125E-01 1.92073E-02
 -1       420 2.51953E+01 6.30551E-01-1.11544E-02
 -1       421 2.79493E+01 6.78473E-04 1.38019E-03
 -1       422 2.80597E+01 7.33688E-01-3.62619E-02
 -1       423 2.84263E+01 3.49375E-01 9.00252E-02
 -1       424 3.17986E+01 4.19250E-01-4.85621E-02
 -1       425 4.16717E+01 4.71656E-01 2.59088E-02
 -1       426 4.12139E+01 7.04065E-01-8.13321E-02
 -1       427 4.54187E+01 7.18471E-01-6.17076E-02
 -1       428 4.52231E+01-6.71668E-03 6.82617E-01
 -1       429 4.83078E+01 5.41531E-01 2.19049E-03
 -1       430 5.21267E+01 6.70083E-01-8.30643E-02
 -1       431 5.16277E+01 7.33688E-01 4.24349E-02
 -1       432 5.49874E+01 2.79500E-01 4.61595E-02
 -1       433 5.88347E+01 4.89125E-01-1.76127E-01
 -1       434 5.85552E+01 1.11800E+00 2.96751E-01
 -1       435 6.54003E+01-8.76319E-02 3.33829E-01
 -1       436 6.49562E+01 2.87360E-01 1.29966E-01
 -1       437 7.19411E+01 5.42455E-01-6.60382E-02
 -1       438 7.45956E+01 7.80791E-01-3.79821E-02
 -1       439 7.50909E+01 3.66844E-01 9.28494E-02
 -1       440 7.86464E+01 5.42848E-01-7.80440E-02
 -1       441 8.83445E+01 4.71656E-01 2.86003E-02
 -1       442 9.20953E+01 7.01174E-01-6.61752E-02
 -1       443 9.18716E+01-2.67833E-02 5.73121E-01
 -1       444 9.88028E+01 7.02232E-01-7.78992E-02
 -1       445 9.83030E+01 7.33688E-01 4.01620E-02
 -1       446-9.65163E-02 9.07902E-01 2.79500E-01
 -1       447 4.95237E+00 7.33688E-01 4.47282E-02
 -1       448 2.17687E+01 4.89125E-01 6.96767E-02
 -1       449 2.12855E+01 8.05072E-01-9.83454E-03
 -1       450 4.49197E+01 6.63813E-01 3.69034E-02
 -1       451 5.47108E+01 7.74393E-01-4.17467E-03
 -1       452 6.17491E+01 4.89125E-01 6.08370E-02
 -1       453 6.13309E+01 9.58852E-01 1.25269E-01
 -1       454 9.15938E+01 6.63813E-01 3.45789E-02
 -1       455 7.40675E+00 1.22540E+00-3.72171E-02
 -1       456 7.82600E+00 8.50915E-01-6.09602E-03
 -1       457 1.45456E+01 9.78924E-01 1.00983E-01
 -1       458 1.49636E+01 5.06594E-01 3.57473E-02
 -1       459 1.83233E+01 6.98750E-01 2.22630E-02
 -1       460 1.90060E+01 9.45321E-01-3.69688E-02
 -1       461 2.08228E+01 1.21452E+00-2.28794E-02
 -1       462 2.57489E+01 1.09923E+00-1.30315E-02
 -1       463 2.73211E+01 1.20249E+00 1.63756E-02
 -1       464 3.19438E+01 1.08096E+00 1.89737E-01
 -1       465 3.46580E+01 1.11800E+00 3.30058E-01
 -1       466 3.49728E+01 5.06594E-01 2.23150E-02
 -1       467 4.06673E+01 1.23704E+00-3.62713E-02
 -1       468 4.59777E+01 1.29622E+00-1.40393E-02
 -1       469 4.73753E+01 1.22628E+00-4.11482E-02
 -1       470 5.40833E+01 1.22482E+00-3.58155E-02
 -1       471 5.92540E+01 1.17094E+00-1.47803E-02
 -1       472 6.07214E+01 1.12682E+00-8.14694E-02
 -1       473 6.52633E+01 8.43132E-01 1.48525E-02
 -1       474 6.75342E+01 1.12383E+00-2.64910E-02
 -1       475 6.84064E+01 5.15328E-01 6.95414E-02
 -1       476 7.24254E+01 1.10348E+00-1.68534E-02
 -1       477 7.39277E+01 1.28978E+00 5.72996E-03
 -1       478 7.92383E+01 9.08375E-01-1.21074E-01
 -1       479 8.14889E+01 1.23898E+00 5.09670E-01
 -1       480 8.16462E+01 5.06594E-01 2.49583E-02
 -1       481 8.60161E+01 1.16562E+00-7.72526E-02
 -1       482 8.51066E+01 6.48135E-01-7.40453E-04
 -1       483 8.73438E+01 1.23696E+00-3.60016E-02
 -1       484 9.40518E+01 1.22616E+00-4.00130E-02
 -1       485 9.96418E+01 1.17488E+00-2.30683E-02
 -1       486 1.00106E+02 8.75949E-01 1.39750E-01
 -1       487 6.98750E-01 1.22628E+00-4.21998E-02
 -1       488 6.70800E+00 9.63720E-01 6.12068E-01
 -1       489 1.27172E+01 1.29192E+00 3.78448E-03
 -1       490 1.41147E+01 1.27637E+00-2.36660E-03
 -1       491 1.93554E+01 1.39235E+00 6.34679E-02
 -1       492 2.02025E+01 1.25555E+00 1.87650E-01
 -1       493 3.27714E+01 1.31814E+00 5.52690E-02
 -1       494 3.39289E+01 1.35880E+00 9.10852E-02
 -1       495 3.94138E+01 1.46326E+00 1.84190E-01
 -1       496 5.26159E+01 1.23695E+00-1.43120E-03
 -1       497 5.33845E+01 1.13394E+00 4.26256E-01
 -1       498 6.65172E+01 1.21134E+00 1.52709E-01
 -1       499 7.84962E+01 1.24006E+00 3.74309E-01
 -1       500 7.94304E+01 1.35613E+00 9.39185E-02
 -1       501 8.06048E+01 1.36153E+00 9.14763E-02
 -1       502 9.25844E+01 1.34175E+00 1.96160E-02
 -1       503 5.72975E+00 1.44998E+00 7.72741E-02
 -1       504 2.60634E+01 1.53012E+00 1.56502E-01
 -1       505 6.58921E+01 1.58550E+00 1.56525E-01
 -1       506 7.27399E+01 1.52999E+00 1.61113E-01
 -1       507 9.91526E+01 1.76036E+00 2.55154E-01
 -1       508 2.77612E+01 4.11895E+00-3.68526E-02
 -1       509 2.75308E+01 3.57522E+00 6.45349E-02
 -1       510 1.52313E+00 4.38148E+00-1.28409E-02
 -1       511 1.04813E+00 3.44217E+00 1.53449E-01
 -1       512 6.00925E+00 3.79167E+00-3.97365E-02
 -1       513 1.27172E+01 3.73569E+00 5.16430E-04
 -1       514 1.21510E+01 4.31919E+00-9.17861E-02
 -1       515 1.99837E+01 3.80469E+00 2.73192E-01
 -1       516 1.94253E+01 3.74011E+00 4.46376E-03
 -1       517 2.08228E+01 4.00468E+00-8.32022E-02
 -1       518 2.66049E+01 3.64636E+00 4.54188E-01
 -1       519 2.57489E+01 3.95252E+00-2.53227E-02
 -1       520 3.25617E+01 3.74829E+00-4.63630E-03
 -1       521 3.18578E+01 4.15768E+00 9.29936E-02
 -1       522 3.39593E+01 3.72876E+00-1.35761E-02
 -1       523 3.46604E+01 4.08485E+00 8.20125E-02
 -1       524 3.92697E+01 3.80177E+00-4.05700E-02
 -1       525 3.87107E+01 4.18737E+00 4.64036E-03
 -1       526 3.99685E+01 3.91638E+00 4.96304E-01
 -1       527 4.59777E+01 3.80144E+00-4.54107E-02
 -1       528 5.26857E+01 3.79175E+00-3.98411E-02
 -1       529 5.88265E+01 4.31743E+00-9.32046E-02
 -1       530 6.59445E+01 3.86133E+00-2.22939E-02
 -1       531 7.24254E+01 3.95147E+00-2.74842E-02
 -1       532 7.42771E+01 4.26237E+00-1.09332E-01
 -1       533 7.42073E+01 3.74419E+00 1.18768E-02
 -1       534 7.92383E+01 3.74780E+00-6.04814E-03
 -1       535 7.85331E+01 4.15770E+00 9.04013E-02
 -1       536 8.06358E+01 3.72878E+00-1.43904E-02
 -1       537 8.13228E+01 3.88681E+00 3.02914E-01
 -1       538 8.62288E+01 3.47530E+00 2.79500E-01
 -1       539 8.57366E+01 3.92164E+00 5.56373E-03
 -1       540 9.26543E+01 3.79177E+00-3.90953E-02
 -1       541 9.48916E+01 4.38188E+00-2.86494E-03
 -1       542 9.40518E+01 3.67322E+00 1.87537E-02
 -1       543 9.99459E+01 4.01899E+00 6.98751E-02
 -1       544 9.93623E+01 3.79191E+00-3.98273E-02
 -1       545 7.58144E+00 3.44240E+00 1.72857E-01
 -1       546 8.15681E+00 4.39972E+00-8.07967E-03
 -1       547 1.18787E+01 3.88656E+00 2.89109E-01
 -1       548 1.15717E+01 4.40213E+00 3.09202E-02
 -1       549 1.41497E+01 3.93591E+00-5.35396E-02
 -1       550 1.46737E+01 4.05110E+00 1.29136E-01
 -1       551 1.49231E+01 4.61175E+00-1.60730E-02
 -1       552 1.88081E+01 4.19110E+00-2.56498E-02
 -1       553 2.14754E+01 4.25971E+00 4.20535E-03
 -1       554 2.12922E+01 5.03100E+00 4.57764E-08
 -1       555 2.50261E+01 4.33225E+00 9.82247E-03
 -1       556 2.79588E+01 5.03100E+00 4.57764E-08
 -1       557 2.82821E+01 4.61175E+00-9.74007E-03
 -1       558 3.46417E+01 5.03100E+00 1.61163E-02
 -1       559 3.50122E+01 4.57681E+00 2.15357E-02
 -1       560 4.05974E+01 3.79166E+00-4.95217E-02
 -1       561 4.14278E+01 3.77325E+00 3.10130E-01
 -1       562 4.13291E+01 5.03100E+00 3.62138E-02
 -1       563 4.17304E+01 4.36719E+00 3.04853E-02
 -1       564 4.79283E+01 4.18062E+00-4.69844E-03
 -1       565 4.83069E+01 4.52441E+00 4.68157E-03
 -1       566 5.40833E+01 3.86539E+00-5.09148E-02
 -1       567 5.47108E+01 4.01686E+00 1.16844E-01
 -1       568 5.48133E+01 5.03100E+00 1.77408E-01
 -1       569 5.85552E+01 3.91300E+00 2.90209E-01
 -1       570 5.82458E+01 4.40213E+00 2.82900E-02
 -1       571 6.08262E+01 3.93759E+00-5.01927E-02
 -1       572 6.13476E+01 4.05116E+00 1.29930E-01
 -1       573 6.12921E+01 5.03100E+00 4.57764E-08
 -1       574 6.48780E+01 4.20997E+00 1.04263E-01
 -1       575 6.76185E+01 3.95053E+00-1.63514E-02
 -1       576 6.79588E+01 5.03100E+00 4.57764E-08
 -1       577 6.82546E+01 4.61175E+00-2.26672E-02
 -1       578 7.17013E+01 4.33225E+00 7.42897E-03
 -1       579 7.47197E+01 3.98122E+00 1.34496E-01
 -1       580 7.46260E+01 5.03100E+00 5.06983E-04
 -1       581 7.52718E+01 4.36719E+00 1.03728E-01
 -1       582 8.13133E+01 5.03100E+00 2.09344E-02
 -1       583 8.16308E+01 4.29678E+00 2.71774E-02
 -1       584 8.50717E+01 4.34972E+00-3.63095E-03
 -1       585 8.81026E+01 3.77325E+00 3.17354E-01
 -1       586 8.79726E+01 4.61175E+00-1.30957E-01
 -1       587 8.84046E+01 4.36719E+00 3.28343E-02
 -1       588 1.00339E+02 4.47039E+00 1.39750E-01
 -1       589 4.94367E+00 4.36719E+00 2.81532E-02
 -1       590 3.86394E+01 5.03100E+00 6.61307E-02
 -1       591 3.84700E+01 3.77325E+00 3.24000E-01
 -1       592 5.16277E+01 4.29731E+00 3.99146E-02
 -1       593 5.20141E+01 5.03100E+00 2.67016E-02
 -1       594 8.51941E+01 5.03100E+00 1.70506E-01
 -1       595 8.81285E+01 5.03100E+00 1.60219E-01
 -1       596 9.83677E+01 4.29731E+00 2.71381E-02
 -1       597 1.46720E+00 5.03100E+00 1.65386E-01
 -1       598 8.14417E+00 5.03100E+00 1.75116E-01
 -1       599 1.46255E+01 5.03100E+00 4.57764E-08
 -1       600 1.81395E+01 4.26237E+00 1.12776E-01
 -1       601 1.84090E+01 5.03100E+00 6.21861E-01
 -1       602 3.20412E+01 5.03100E+00 4.57764E-08
 -1       603 4.49198E+01 4.36719E+00 3.56827E-02
 -1       604 4.52019E+01 5.03100E+00 1.63047E-01
 -1       605 4.81363E+01 5.03100E+00 1.67715E-01
 -1       606 7.87079E+01 5.03100E+00 4.57764E-08
 -1       607 9.15939E+01 4.36719E+00 3.33141E-02
 -1       608 9.18710E+01 5.03100E+00 1.60698E-01
 -1       609 9.48054E+01 5.03100E+00 1.70035E-01
 -1       610 1.83932E+01 5.45025E+00-1.72354E-02
 -1       611 2.84017E+01 5.38037E+00 7.65802E-02
 -1       612 4.49197E+01 5.69481E+00 3.82289E-02
 -1       613 5.18598E+01 5.71340E+00-1.22883E-02
 -1       614 6.82538E+01 5.03100E+00 6.25605E-01
 -1       615 7.18712E+01 5.66034E+00-1.19526E-02
 -1       616 8.50716E+01 5.57253E+00-2.43584E-02
 -1       617 9.20953E+01 5.73069E+00-6.31826E-02
 -1       618-9.28977E-02 5.93507E+00 2.79500E-01
 -1       619 1.82053E+00 5.72975E+00 7.06873E-02
 -1       620 8.03498E+00 5.80199E+00-1.92634E-03
 -1       621 1.22909E+01 5.95813E+00-3.52544E-02
 -1       622 1.50517E+01 5.97217E+00 1.91057E-01
 -1       623 2.12784E+01 5.83481E+00-7.42243E-03
 -1       624 2.18239E+01 5.93937E+00 1.77644E-01
 -1       625 3.50199E+01 5.76469E+00 4.02329E-02
 -1       626 4.17156E+01 5.62494E+00 4.06180E-02
 -1       627 4.78815E+01 5.80271E+00-2.76582E-02
 -1       628 4.84286E+01 5.69481E+00 4.28408E-02
 -1       629 5.47108E+01 5.80176E+00-8.03291E-04
 -1       630 5.88199E+01 5.83721E+00-2.46572E-02
 -1       631 6.82878E+01 5.99970E+00 1.61409E-01
 -1       632 7.49224E+01 5.76469E+00 2.39397E-02
 -1       633 8.16953E+01 5.76469E+00 4.24232E-02
 -1       634 8.83897E+01 5.62494E+00 4.31785E-02
 -1       635 9.15939E+01 5.69481E+00 3.59489E-02
 -1       636 9.46107E+01 5.73261E+00-5.25491E-02
 -1       637 9.51712E+01 5.72975E+00 7.61807E-02
 -1       638 5.24063E+00 6.28875E+00 3.12669E-01
 -1       639 4.95238E+00 5.76469E+00 4.73236E-02
 -1       640 7.40675E+00 6.25305E+00-3.52033E-02
 -1       641 1.15717E+01 5.65987E+00 3.21820E-02
 -1       642 1.18787E+01 6.14900E+00 3.11095E-01
 -1       643 1.42894E+01 6.12973E+00 2.09228E-02
 -1       644 1.85501E+01 6.04419E+00 1.92689E-01
 -1       645 1.90452E+01 5.97431E+00-3.45899E-02
 -1       646 2.08228E+01 6.24241E+00-2.12796E-02
 -1       647 2.54278E+01 6.12147E+00 1.18401E-01
 -1       648 2.75468E+01 6.14219E+00-1.70883E-02
 -1       649 2.83289E+01 6.04419E+00 1.81635E-01
 -1       650 3.16780E+01 6.33418E+00 5.95238E-01
 -1       651 3.40291E+01 6.26524E+00-2.77357E-02
 -1       652 3.93396E+01 6.19375E+00-7.36429E-02
 -1       653 4.07022E+01 6.33373E+00 3.89411E-02
 -1       654 4.51393E+01 6.21887E+00 3.30896E-01
 -1       655 4.73753E+01 6.25390E+00-3.89756E-02
 -1       656 5.40833E+01 6.25247E+00-3.38511E-02
 -1       657 5.83306E+01 5.48519E+00 1.39507E-02
 -1       658 5.85552E+01 6.14900E+00 3.03632E-01
 -1       659 5.92540E+01 6.22962E+00-8.37515E-03
 -1       660 6.09985E+01 6.12799E+00 4.23403E-02
 -1       661 6.17655E+01 5.86950E+00 1.14213E-01
 -1       662 6.48652E+01 5.69481E+00 7.87926E-02
 -1       663 6.56830E+01 5.97432E+00-3.80124E-02
 -1       664 6.74993E+01 6.15148E+00-2.71414E-02
 -1       665 7.24953E+01 6.11916E+00-4.28919E-02
 -1       666 7.88015E+01 6.05324E+00 5.31829E-02
 -1       667 7.94828E+01 6.24885E+00 2.82349E-02
 -1       668 8.06707E+01 6.32714E+00 3.51300E-02
 -1       669 8.51078E+01 6.21887E+00 3.35635E-01
 -1       670 8.60161E+01 6.19436E+00-7.41474E-02
 -1       671 8.73438E+01 6.26569E+00-3.27893E-02
 -1       672 9.40518E+01 6.25378E+00-3.78901E-02
 -1       673 9.85238E+01 6.19777E+00 3.11509E-01
 -1       674 9.83030E+01 5.76469E+00 4.28713E-02
 -1       675 9.99409E+01 6.02689E+00 6.86824E-02
 -1       676 6.98750E-01 6.26520E+00-3.19389E-02
 -1       677 6.70800E+00 6.14603E+00 4.42760E-01
 -1       678 1.93554E+01 6.42001E+00 6.70477E-02
 -1       679 2.02067E+01 6.28327E+00 1.89390E-01
 -1       680 3.27015E+01 6.46185E+00 1.23436E-01
 -1       681 4.59777E+01 6.32379E+00-1.10323E-02
 -1       682 5.26159E+01 6.26567E+00 1.36907E-03
 -1       683 5.33845E+01 6.15857E+00 4.23479E-01
 -1       684 6.60668E+01 6.48427E+00 1.13985E-01
 -1       685 7.39277E+01 6.31743E+00 9.17581E-03
 -1       686 7.30575E+01 5.95686E+00-1.52400E-01
 -1       687 1.27172E+01 6.38086E+00 3.34286E-02
 -1       688 2.61333E+01 6.44937E+00 1.03929E-01
 -1       689 9.23748E+01 6.47645E+00 8.35555E-02
 -1       690 9.93623E+01 6.38204E+00 3.05204E-02
 -1       691 2.63377E+01 8.69871E+00 1.73292E-01
 -1       692 2.57489E+01 9.02724E+00-4.71881E-02
 -1       693 3.21263E+01 9.05521E+00 5.29871E-02
 -1       694 3.25617E+01 8.54701E+00 8.08008E-02
 -1       695 4.74277E+01 8.59421E+00 1.13312E-01
 -1       696 9.41042E+01 8.67178E+00 5.02530E-02
 -1       697 1.43714E+00 8.80425E+00 3.20170E-01
 -1       698 6.98750E-01 8.69783E+00 1.70239E-02
 -1       699 6.00925E+00 8.82034E+00-4.30120E-02
 -1       700 6.30967E+00 9.30876E+00-2.31245E-01
 -1       701 1.27172E+01 8.76329E+00-2.72080E-03
 -1       702 1.40798E+01 8.58098E+00 1.17281E-01
 -1       703 1.45943E+01 9.14915E+00 5.13108E-02
 -1       704 1.91807E+01 8.96309E+00-2.67811E-02
 -1       705 2.74609E+01 8.88332E+00-3.44065E-02
 -1       706 3.45098E+01 9.00675E+00 1.45822E-01
 -1       707 3.45105E+01 9.64275E+00-1.86192E-01
 -1       708 4.59777E+01 8.82900E+00-4.76249E-02
 -1       709 4.81225E+01 9.38143E+00-1.25785E-03
 -1       710 5.26857E+01 8.82043E+00-4.31851E-02
 -1       711 5.93937E+01 8.76423E+00-2.04451E-03
 -1       712 6.14284E+01 9.48324E+00-4.92660E-02
 -1       713 6.07214E+01 8.55033E+00 1.20899E-01
 -1       714 6.66541E+01 8.84944E+00 2.22805E-01
 -1       715 6.75759E+01 8.82399E+00 3.56557E-02
 -1       716 6.80901E+01 9.41218E+00-3.07357E-02
 -1       717 7.41374E+01 8.87278E+00-3.09474E-02
 -1       718 7.92383E+01 8.77310E+00-6.89860E-03
 -1       719 7.87054E+01 9.01231E+00 1.70998E-01
 -1       720 8.11856E+01 9.00839E+00 1.47640E-01
 -1       721 8.66450E+01 8.95286E+00 4.35838E-01
 -1       722 9.26193E+01 8.76676E+00-2.02864E-02
 -1       723 9.47969E+01 9.38222E+00 2.57776E-04
 -1       724 9.99528E+01 9.04836E+00 6.98751E-02
 -1       725 9.93623E+01 8.82060E+00-4.32403E-02
 -1       726 1.61282E+00 9.58527E+00 2.73532E-02
 -1       727 5.43532E+00 9.20130E+00-1.00000E-02
 -1       728 4.94380E+00 9.39819E+00 2.68959E-02
 -1       729 5.70662E+00 9.64275E+00-2.62185E-01
 -1       730 7.58144E+00 8.47140E+00 1.69618E-01
 -1       731 8.11165E+00 9.48238E+00-3.70451E-02
 -1       732 1.46845E+01 9.67769E+00-1.11996E-01
 -1       733 1.52191E+01 9.43313E+00 7.80056E-02
 -1       734 2.08241E+01 9.03000E+00-6.85010E-02
 -1       735 2.13558E+01 9.44687E+00-5.11750E-02
 -1       736 2.49912E+01 9.36325E+00 1.73597E-02
 -1       737 2.82013E+01 9.22167E+00 7.72813E-02
 -1       738 3.17344E+01 9.50300E+00-4.00914E-02
 -1       739 3.49608E+01 9.32724E+00 2.35466E-02
 -1       740 3.92697E+01 8.82934E+00-4.25750E-02
 -1       741 3.86405E+01 9.27995E+00-1.30364E-02
 -1       742 4.14815E+01 9.37778E+00-2.20245E-02
 -1       743 5.42579E+01 8.47156E+00 1.70119E-01
 -1       744 5.47850E+01 9.48256E+00-3.46082E-02
 -1       745 6.51882E+01 9.04829E+00 1.40302E-01
 -1       746 6.49505E+01 9.71263E+00 7.85422E-02
 -1       747 6.56122E+01 9.67769E+00-2.36230E-01
 -1       748 7.25303E+01 8.87193E+00-4.17607E-02
 -1       749 7.18761E+01 9.36113E+00-1.94630E-02
 -1       750 7.48927E+01 9.41437E+00 1.18325E-02
 -1       751 7.83691E+01 9.36325E+00 4.40265E-03
 -1       752 8.16350E+01 9.32731E+00 2.54730E-02
 -1       753 8.59463E+01 8.82904E+00-4.39100E-02
 -1       754 8.51060E+01 9.37715E+00-7.25962E-03
 -1       755 8.81563E+01 9.37801E+00-1.94528E-02
 -1       756 1.00343E+02 9.49923E+00 1.39750E-01
 -1       757 2.82295E+01 9.78250E+00-1.94831E-03
 -1       758 3.49122E+01 9.91301E+00 1.45724E-01
 -1       759 3.83295E+01 9.99053E+00 3.49375E-01
 -1       760 4.49199E+01 9.39819E+00 3.45665E-02
 -1       761 4.48597E+01 9.89842E+00 2.79500E-01
 -1       762 8.15838E+01 9.91153E+00 1.47291E-01
 -1       763 9.15940E+01 9.39819E+00 3.21541E-02
 -1       764 9.21180E+01 1.02127E+01 4.19250E-01
 -1       765 1.00480E+02 1.02042E+01 1.39750E-01
 -1       766 5.50528E+00 1.02370E+01 3.84313E-01
 -1       767 1.17135E+01 9.32831E+00 2.06841E-02
 -1       768 1.41001E+01 1.03267E+01 3.49375E-01
 -1       769 1.88663E+01 1.02287E+01 4.89125E-01
 -1       770 1.82421E+01 9.53794E+00 8.04340E-02
 -1       771 2.16399E+01 9.99400E+00 4.90695E-01
 -1       772 3.19735E+01 1.01235E+01 5.42889E-01
 -1       773 3.43025E+01 1.02294E+01 3.37803E-02
 -1       774 4.15995E+01 9.90676E+00 1.52341E-01
 -1       775 5.16892E+01 9.32831E+00 2.70838E-02
 -1       776 5.21806E+01 1.02402E+01 3.84313E-01
 -1       777 5.83877E+01 9.32831E+00 1.87252E-02
 -1       778 6.07741E+01 1.03248E+01 3.49375E-01
 -1       779 6.82784E+01 1.00115E+01 5.06594E-01
 -1       780 7.47145E+01 1.00921E+01 6.08590E-01
 -1       781 7.87193E+01 1.01762E+01 4.54188E-01
 -1       782 8.50054E+01 9.99551E+00 3.49375E-01
 -1       783 8.82710E+01 9.90526E+00 1.53925E-01
 -1       784 9.42281E+01 1.03153E+01 1.92156E-01
 -1       785 9.83634E+01 9.32831E+00 2.50656E-02
 -1       786 1.12780E+00 1.02020E+01 5.78866E-01
 -1       787 6.00925E+00 1.04118E+01 6.98751E-02
 -1       788 7.57694E+00 1.03038E+01 3.14438E-01
 -1       789 2.07975E+01 1.03186E+01 3.49375E-01
 -1       790 2.75823E+01 1.02682E+01 3.91019E-01
 -1       791 4.09042E+01 1.03014E+01 4.54188E-01
 -1       792 6.75834E+01 1.03117E+01 1.39750E-01
 -1       793 7.41690E+01 1.03081E+01 3.49375E-01
 -1       794 8.75782E+01 1.02997E+01 4.54188E-01
 -1       795-1.41544E-01 1.05528E+01 6.98750E-02
 -1       796 3.38195E+01 1.04889E+01 1.39750E-01
 -1       797 4.03877E+01 1.04836E+01 2.79500E-01
 -1       798 8.03562E+01 1.04921E+01 2.79500E-01
 -1       799 6.00226E+01-4.71776E-01 3.91065E-01
 -1       800 2.79500E-01-2.70144E-01 8.20820E-01
 -1       801 1.41147E+01-3.44637E-01 2.79500E-01
 -1       802 2.08228E+01-3.30274E-01 2.79500E-01
 -1       803 2.75258E+01-2.82318E-01 4.19250E-01
 -1       804 4.09312E+01-2.62526E-01 4.19250E-01
 -1       805 4.62572E+01-2.62356E-01 8.29235E-01
 -1       806 4.66765E+01 4.31121E-01 1.09873E+00
 -1       807 6.10009E+01-2.46426E-01 4.19250E-01
 -1       808 6.59620E+01-3.72529E-01 2.79500E-01
 -1       809 6.74286E+01-3.02799E-01 4.19250E-01
 -1       810 7.44137E+01-2.11111E-01 4.89125E-01
 -1       811 8.10143E+01-2.26337E-01 4.89125E-01
 -1       812 9.29338E+01-2.63175E-01 8.28757E-01
 -1       813 1.22870E+00-1.99682E-02 8.31241E-01
 -1       814 1.18744E+01-6.68291E-02 4.36719E-01
 -1       815 1.45340E+01-1.03809E-01 7.04449E-01
 -1       816 1.50862E+01 3.15145E-02 6.98750E-01
 -1       817 1.83020E+01 7.81267E-02 2.79500E-01
 -1       818 1.87340E+01-9.64445E-02 6.49953E-01
 -1       819 2.11508E+01-8.02412E-02 7.73050E-01
 -1       820 2.17539E+01 3.53268E-02 6.98750E-01
 -1       821 2.83699E+01 3.11716E-02 7.34561E-01
 -1       822 3.41586E+01-2.87019E-01 4.19250E-01
 -1       823 4.15573E+01-1.70757E-02 6.82386E-01
 -1       824 4.79042E+01-1.52433E-02 8.48018E-01
 -1       825 4.76134E+01-2.48647E-01 4.19250E-01
 -1       826 5.87059E+01 1.23027E-01 9.43415E-01
 -1       827 6.17614E+01 3.41807E-02 6.98750E-01
 -1       828 6.78944E+01-7.39725E-02 7.37843E-01
 -1       829 6.84292E+01 3.80012E-02 6.98750E-01
 -1       830 7.49398E+01 1.56457E-02 7.35374E-01
 -1       831 8.56190E+01-2.06483E-01 4.71656E-01
 -1       832 8.76065E+01-2.60080E-01 4.19250E-01
 -1       833 8.82316E+01-1.50557E-02 6.82288E-01
 -1       834 9.50372E+01 4.71656E-01 4.00531E-02
 -1       835 1.55324E+01 1.00679E+00 3.31589E-01
 -1       836 2.49430E+01 5.06063E-02 4.71656E-01
 -1       837 3.17508E+01-1.91726E-02 4.19250E-01
 -1       838 3.08845E+01 3.67810E-01 5.59000E-01
 -1       839 3.77156E+01 3.78513E-01 4.48842E-01
 -1       840 3.82216E+01 6.63813E-01 4.68603E-02
 -1       841 3.83322E+01 1.99065E-02 5.93938E-01
 -1       842 5.17908E+01-1.85291E-02 5.41531E-01
 -1       843 5.77509E+01 8.38500E-01 2.42791E-01
 -1       844 6.23182E+01 5.59000E-01 2.85681E-01
 -1       845 7.16924E+01 1.24026E-02 4.19250E-01
 -1       846 7.84248E+01-2.25066E-02 4.19250E-01
 -1       847 7.76298E+01 4.61154E-01 4.16834E-01
 -1       848 8.49632E+01 3.93147E-02 4.71656E-01
 -1       849 9.84649E+01-2.11992E-02 5.41531E-01
 -1       850 4.40508E+00 7.68625E-01 2.52919E-01
 -1       851 9.13585E+00 8.73438E-01 3.59012E-01
 -1       852 8.66450E+00 8.38500E-01 1.34186E-01
 -1       853 1.10564E+01 6.98750E-01 2.44816E-01
 -1       854 1.77088E+01 9.25844E-01 2.75587E-01
 -1       855 1.74721E+01 3.32465E-01 8.38500E-01
 -1       856 2.46659E+01 6.98750E-01 1.38546E-01
 -1       857 2.84890E+01 9.78250E-01 2.12594E-01
 -1       858 2.90828E+01 7.51156E-01 3.14408E-01
 -1       859 3.11570E+01 9.78250E-01 2.55124E-01
 -1       860 4.25246E+01 9.08375E-01 3.52493E-01
 -1       861 4.21345E+01 2.79180E-01 4.00016E-01
 -1       862 4.43602E+01 4.44641E-01 3.97838E-01
 -1       863 5.49128E+01 1.25775E+00 3.35224E-01
 -1       864 5.57391E+01 7.86094E-01 3.35997E-01
 -1       865 6.47043E+01 7.68625E-01 1.28896E-01
 -1       866 6.43489E+01 2.87774E-01 9.25844E-01
 -1       867 7.12174E+01 8.82172E-01 2.19612E-01
 -1       868 7.78368E+01 1.16668E+00 4.06038E-01
 -1       869 8.44090E+01 5.59000E-01 2.52986E-01
 -1       870 9.10515E+01 7.68625E-01 2.60918E-01
 -1       871 2.48719E+00 7.68625E-01 3.46538E-01
 -1       872 2.06385E+00 1.08306E+00 2.77012E-01
 -1       873 3.57083E+01 5.59000E-01 3.21087E-01
 -1       874 3.50021E+01 1.38141E+00 7.31757E-01
 -1       875 3.59140E+01 1.04813E+00 3.65902E-01
 -1       876 3.77742E+01 1.10615E+00 3.60756E-01
 -1       877 4.20345E+01 1.08306E+00 2.73721E-01
 -1       878 4.40961E+01 9.78250E-01 3.63358E-01
 -1       879 4.91600E+01 7.68625E-01 3.49278E-01
 -1       880 4.87397E+01 1.08306E+00 2.78101E-01
 -1       881 6.23407E+01 1.06839E+00 3.78622E-01
 -1       882 6.43317E+01 1.12275E+00 4.03996E-01
 -1       883 8.23799E+01 5.59000E-01 3.24192E-01
 -1       884 8.25892E+01 1.04813E+00 3.68296E-01
 -1       885 8.44487E+01 1.10574E+00 3.59576E-01
 -1       886 8.91986E+01 9.08375E-01 3.55041E-01
 -1       887 8.87103E+01 1.08306E+00 2.74715E-01
 -1       888 1.46738E+00 1.25775E+00 3.32618E-01
 -1       889 5.17075E+00 1.18788E+00 3.09487E-01
 -1       890 8.23889E+00 1.25775E+00 3.28899E-01
 -1       891 1.11800E+01 1.22386E+00 4.40273E-01
 -1       892 1.18787E+01 1.11800E+00 3.04602E-01
 -1       893 1.83304E+01 1.38105E+00 6.93748E-01
 -1       894 1.86641E+01 1.25775E+00 2.56275E-01
 -1       895 2.13907E+01 1.25535E+00 2.76854E-01
 -1       896 2.16700E+01 1.37780E+00 6.98750E-01
 -1       897 2.23860E+01 7.86094E-01 3.11335E-01
 -1       898 2.43641E+01 1.15610E+00 4.08040E-01
 -1       899 2.49313E+01 1.35605E+00 8.38500E-01
 -1       900 2.65525E+01 1.19939E+00 4.62500E-01
 -1       901 2.80193E+01 1.25775E+00 2.75333E-01
 -1       902 3.85030E+01 1.25775E+00 3.45350E-01
 -1       903 4.14359E+01 1.25775E+00 3.13986E-01
 -1       904 4.51393E+01 1.18788E+00 3.21001E-01
 -1       905 4.81439E+01 1.25775E+00 3.36201E-01
 -1       906 5.10526E+01 6.98750E-01 2.43278E-01
 -1       907 5.11485E+01 1.22684E+00 4.43066E-01
 -1       908 5.18473E+01 1.17932E+00 3.08104E-01
 -1       909 6.16536E+01 1.37449E+00 6.98750E-01
 -1       910 6.51073E+01 1.24902E+00 8.76758E-01
 -1       911 6.80617E+01 1.25552E+00 2.77718E-01
 -1       912 6.82258E+01 1.24841E+00 8.78124E-01
 -1       913 6.90630E+01 7.51156E-01 3.05857E-01
 -1       914 7.18435E+01 1.18788E+00 2.79450E-01
 -1       915 7.32290E+01 1.18932E+00 4.57007E-01
 -1       916 7.47894E+01 1.25814E+00 3.56223E-01
 -1       917 7.55501E+01 8.65039E-01 2.71719E-01
 -1       918 8.51782E+01 1.25775E+00 3.40964E-01
 -1       919 8.81935E+01 1.32562E+00 5.09756E-01
 -1       920 9.18158E+01 1.18788E+00 3.17096E-01
 -1       921 9.48201E+01 1.25775E+00 3.40098E-01
 -1       922 9.57264E+01 7.94828E-01 3.35622E-01
 -1       923 9.77070E+01 6.98750E-01 2.52070E-01
 -1       924 9.78250E+01 1.22592E+00 4.42180E-01
 -1       925 9.85238E+01 1.16836E+00 3.04358E-01
 -1       926 1.30209E+01 1.52857E+00 5.59000E-01
 -1       927 1.34160E+01 1.16693E+00 4.44684E-01
 -1       928 1.97120E+01 1.49400E+00 4.89125E-01
 -1       929 2.78162E+01 1.77465E+00 2.55863E-01
 -1       930 3.32605E+01 9.90501E-01 6.31641E-01
 -1       931 3.45198E+01 1.76754E+00 2.60899E-01
 -1       932 4.03781E+01 1.55677E+00 4.36719E-01
 -1       933 4.10865E+01 1.79855E+00 2.41274E-01
 -1       934 5.23192E+01 1.81159E+00 3.16787E-01
 -1       935 6.00925E+01 1.17712E+00 4.50313E-01
 -1       936 6.69176E+01 1.38251E+00 4.89125E-01
 -1       937 7.44916E+01 1.77332E+00 2.56956E-01
 -1       938 7.99370E+01 9.82234E-01 6.25633E-01
 -1       939 8.11959E+01 1.76520E+00 2.62641E-01
 -1       940 8.71331E+01 1.68696E+00 5.06594E-01
 -1       941 8.77630E+01 1.79836E+00 2.42183E-01
 -1       942 9.98346E+01 1.25507E+00 5.59000E-01
 -1       943 4.09543E-01 1.54124E+00 3.49375E-01
 -1       944 9.78250E-01 1.84498E+00 2.89147E-01
 -1       945 6.19574E+00 1.76836E+00 6.98750E-01
 -1       946 5.72975E+00 1.90151E+00 3.22345E-01
 -1       947 7.54996E+00 1.98562E+00 4.69430E-01
 -1       948 1.23666E+01 1.85573E+00 3.29340E-01
 -1       949 1.40735E+01 2.07299E+00 6.28875E-01
 -1       950 1.44093E+01 1.79131E+00 2.57955E-01
 -1       951 1.85829E+01 1.84422E+00 3.67536E-01
 -1       952 1.92156E+01 1.89017E+00 3.66812E-01
 -1       953 2.07365E+01 2.06825E+00 7.69143E-01
 -1       954 2.11127E+01 1.77825E+00 2.51992E-01
 -1       955 2.53472E+01 1.90002E+00 3.47393E-01
 -1       956 2.71903E+01 1.75662E+00 7.86094E-01
 -1       957 3.18157E+01 1.81675E+00 4.30118E-01
 -1       958 3.24893E+01 1.80186E+00 3.27238E-01
 -1       959 3.89902E+01 1.79185E+00 2.49242E-01
 -1       960 4.56982E+01 1.84408E+00 2.90057E-01
 -1       961 4.70837E+01 1.54806E+00 3.49375E-01
 -1       962 4.77839E+01 1.79145E+00 2.80781E-01
 -1       963 5.28908E+01 1.73270E+00 6.98750E-01
 -1       964 5.44865E+01 1.79192E+00 2.85086E-01
 -1       965 5.90426E+01 1.85528E+00 3.31195E-01
 -1       966 6.03903E+01 1.64681E+00 6.98750E-01
 -1       967 6.10847E+01 1.77916E+00 2.49834E-01
 -1       968 6.52569E+01 1.84706E+00 3.65471E-01
 -1       969 6.62594E+01 1.67700E+00 5.59000E-01
 -1       970 6.72634E+01 1.92898E+00 8.03563E-01
 -1       971 6.77881E+01 1.77766E+00 2.52806E-01
 -1       972 7.17921E+01 1.81675E+00 4.44607E-01
 -1       973 7.22857E+01 1.84886E+00 2.79636E-01
 -1       974 7.38588E+01 1.75916E+00 7.86094E-01
 -1       975 7.87243E+01 1.80427E+00 3.37640E-01
 -1       976 8.55969E+01 1.79171E+00 2.55129E-01
 -1       977 9.23049E+01 1.91298E+00 3.33679E-01
 -1       978 9.37191E+01 1.55386E+00 5.59787E-01
 -1       979 9.95588E+01 1.73067E+00 6.98750E-01
 -1       980 6.58223E+01 2.01626E+00 4.60888E-01
 -1       981 9.41916E+01 1.99229E+00 5.05632E-01
 -1       982 9.85177E+01 1.68080E+00 4.20666E-01
 -1       983 2.71943E+01 3.34755E+00 3.85752E-01
 -1       984 2.76705E+01 2.95183E+00 4.14568E-01
 -1       985 2.83396E+01 3.64675E+00 6.99627E-01
 -1       986 3.92277E+01 3.03247E+00 5.66158E-01
 -1       987 7.38684E+01 3.34426E+00 3.80723E-01
 -1       988 7.43470E+01 2.95146E+00 4.11500E-01
 -1       989 7.47990E+01 3.23776E+00 3.97108E-01
 -1       990 8.57366E+01 2.99488E+00 4.34132E-01
 -1       991 8.51951E+01 3.77325E+00 3.35529E-01
 -1       992 8.72859E+01 3.36105E+00 2.63887E-01
 -1       993 8.79726E+01 3.05564E+00 3.76327E-01
 -1       994 4.37446E-01 3.36251E+00 8.26323E-01
 -1       995 6.32639E+00 3.53464E+00 3.49375E-01
 -1       996 5.76676E+00 3.16963E+00 3.44239E-01
 -1       997 1.27982E+01 3.18669E+00 6.46344E-01
 -1       998 1.21554E+01 3.25827E+00 2.58117E-01
 -1       999 1.34160E+01 3.85763E+00 4.47015E-01
 -1      1000 1.95363E+01 3.33970E+00 7.42422E-01
 -1      1001 1.88590E+01 3.25194E+00 2.53193E-01
 -1      1002 2.15530E+01 3.78200E+00 8.79205E-01
 -1      1003 2.11372E+01 3.18596E+00 2.75630E-01
 -1      1004 2.07529E+01 3.49961E+00 1.25367E-01
 -1      1005 2.55624E+01 3.24898E+00 2.49435E-01
 -1      1006 2.52605E+01 3.84313E+00 2.64687E-01
 -1      1007 2.58538E+01 2.91883E+00 5.59572E-01
 -1      1008 3.22390E+01 3.23714E+00 2.70592E-01
 -1      1009 3.34279E+01 3.77218E+00 6.06675E-01
 -1      1010 4.04965E+01 3.21166E+00 7.33688E-01
 -1      1011 4.62572E+01 3.50100E+00 2.79500E-01
 -1      1012 4.56982E+01 3.18358E+00 2.86678E-01
 -1      1013 4.52209E+01 3.77325E+00 3.22064E-01
 -1      1014 4.70719E+01 3.38576E+00 7.40108E-01
 -1      1015 4.77945E+01 3.23150E+00 2.43167E-01
 -1      1016 4.81285E+01 3.77325E+00 3.30209E-01
 -1      1017 5.27950E+01 3.26126E+00 5.32423E-01
 -1      1018 5.21282E+01 3.29200E+00 2.58713E-01
 -1      1019 5.33845E+01 4.05871E+00 6.13402E-01
 -1      1020 5.41096E+01 3.16386E+00 4.11203E-01
 -1      1021 5.50177E+01 3.67741E+00 8.38500E-01
 -1      1022 5.94557E+01 3.21531E+00 7.86094E-01
 -1      1023 5.88308E+01 3.25640E+00 2.56840E-01
 -1      1024 6.00925E+01 3.84742E+00 4.52535E-01
 -1      1025 6.55344E+01 3.25096E+00 2.52192E-01
 -1      1026 6.52427E+01 3.84313E+00 2.72081E-01
 -1      1027 6.80416E+01 3.77325E+00 2.57455E-01
 -1      1028 6.75866E+01 3.27101E+00 2.44925E-01
 -1      1029 7.22378E+01 3.24867E+00 2.48714E-01
 -1      1030 7.19332E+01 3.84313E+00 2.62531E-01
 -1      1031 7.25303E+01 2.92567E+00 5.61994E-01
 -1      1032 7.83097E+01 3.68040E+00 8.38500E-01
 -1      1033 7.89149E+01 3.23695E+00 2.69855E-01
 -1      1034 7.99370E+01 4.04491E+00 6.27492E-01
 -1      1035 8.04690E+01 3.24532E+00 8.38500E-01
 -1      1036 8.11952E+01 3.37827E+00 2.46133E-01
 -1      1037 9.30229E+01 3.56658E+00 6.28875E-01
 -1      1038 9.23748E+01 3.18456E+00 2.87643E-01
 -1      1039 9.41478E+01 3.26898E+00 3.24729E-01
 -1      1040 9.96352E+01 3.52370E+00 3.49375E-01
 -1      1041 9.88026E+01 3.26332E+00 2.61161E-01
 -1      1042 5.24703E+00 3.77325E+00 3.03402E-01
 -1      1043 6.70800E+00 4.06554E+00 6.10029E-01
 -1      1044 1.42021E+01 3.33066E+00 2.39109E-01
 -1      1045 1.85818E+01 3.84313E+00 2.75904E-01
 -1      1046 3.16905E+01 3.65642E+00 6.98750E-01
 -1      1047 3.10066E+01 4.01781E+00 3.03200E-01
 -1      1048 3.46941E+01 3.49365E+00 3.69167E-01
 -1      1049 5.19981E+01 3.92257E+00 3.22213E-01
 -1      1050 6.08871E+01 3.33085E+00 2.44259E-01
 -1      1051 6.68005E+01 4.11494E+00 9.11881E-01
 -1      1052 7.17931E+01 3.78303E+00 8.74315E-01
 -1      1053 7.10169E+01 4.08769E+00 2.71710E-01
 -1      1054 9.18119E+01 3.70669E+00 5.08540E-01
 -1      1055 9.86744E+01 3.92266E+00 3.19272E-01
 -1      1056 1.45382E+00 3.77325E+00 3.26025E-01
 -1      1057 2.06545E+00 3.79507E+00 4.19250E-01
 -1      1058 2.38383E+00 4.47239E+00 3.65746E-01
 -1      1059 2.84676E+00 4.05275E+00 4.67582E-01
 -1      1060 4.63273E+00 3.94794E+00 2.67384E-01
 -1      1061 8.10550E+00 3.77325E+00 3.59754E-01
 -1      1062 8.81998E+00 4.10516E+00 2.55263E-01
 -1      1063 1.08389E+01 3.96541E+00 3.48617E-01
 -1      1064 1.50414E+01 3.67723E+00 8.38500E-01
 -1      1065 1.55039E+01 4.05275E+00 2.50441E-01
 -1      1066 2.43598E+01 4.00607E+00 3.31758E-01
 -1      1067 2.85963E+01 3.99366E+00 2.40983E-01
 -1      1068 3.57053E+01 4.05275E+00 2.99657E-01
 -1      1069 4.20465E+01 3.79787E+00 4.19250E-01
 -1      1070 4.24340E+01 4.15756E+00 3.19614E-01
 -1      1071 4.87037E+01 3.91300E+00 2.79500E-01
 -1      1072 4.90011E+01 4.52382E+00 3.86239E-01
 -1      1073 4.92843E+01 4.05275E+00 3.79298E-01
 -1      1074 5.13081E+01 3.94794E+00 2.66379E-01
 -1      1075 5.56480E+01 4.01781E+00 2.99862E-01
 -1      1076 5.56903E+01 4.57861E+00 4.34932E-01
 -1      1077 5.77105E+01 4.07022E+00 2.76418E-01
 -1      1078 6.17174E+01 3.67514E+00 8.38500E-01
 -1      1079 6.21236E+01 3.96384E+00 3.12792E-01
 -1      1080 6.88864E+01 4.08769E+00 2.53709E-01
 -1      1081 6.82250E+01 3.78149E+00 8.81670E-01
 -1      1082 7.53951E+01 3.80482E+00 4.23372E-01
 -1      1083 7.78325E+01 3.91300E+00 2.96043E-01
 -1      1084 7.75179E+01 4.38466E+00 3.74750E-01
 -1      1085 8.23367E+01 4.14009E+00 2.94688E-01
 -1      1086 8.42044E+01 3.95293E+00 3.72985E-01
 -1      1087 8.88852E+01 3.98288E+00 2.94807E-01
 -1      1088 8.90065E+01 4.62233E+00 5.28614E-01
 -1      1089 9.12800E+01 3.94794E+00 2.69703E-01
 -1      1090 9.48032E+01 3.77325E+00 3.34608E-01
 -1      1091 9.55964E+01 4.00034E+00 3.01999E-01
 -1      1092 9.79835E+01 3.94794E+00 2.65404E-01
 -1      1093 4.42664E+00 4.78470E+00 7.68625E-01
 -1      1094 4.05865E+00 3.98288E+00 3.71599E-01
 -1      1095 2.90157E+01 4.59525E+00 4.34853E-01
 -1      1096 2.91446E+01 4.08769E+00 3.19434E-01
 -1      1097 3.58532E+01 4.53038E+00 4.82348E-01
 -1      1098 5.11706E+01 4.82144E+00 8.03563E-01
 -1      1099 5.07339E+01 3.98288E+00 3.69108E-01
 -1      1100 5.77847E+01 4.69559E+00 1.03650E+00
 -1      1101 6.42037E+01 4.08769E+00 3.14747E-01
 -1      1102 6.43275E+01 4.59830E+00 4.31752E-01
 -1      1103 7.56872E+01 4.59371E+00 4.36410E-01
 -1      1104 7.58188E+01 4.08769E+00 3.21803E-01
 -1      1105 9.10766E+01 4.77674E+00 7.68625E-01
 -1      1106 9.07850E+01 4.05275E+00 3.42862E-01
 -1      1107 9.57391E+01 4.53911E+00 4.15406E-01
 -1      1108 9.77747E+01 4.79184E+00 7.68625E-01
 -1      1109 9.74091E+01 3.98288E+00 3.66637E-01
 -1      1110 8.27530E+00 5.03100E+00 7.03340E-01
 -1      1111 1.56413E+01 4.60799E+00 4.21942E-01
 -1      1112 2.15856E+01 5.03100E+00 6.27137E-01
 -1      1113 2.23284E+01 4.60165E+00 4.28357E-01
 -1      1114 2.22635E+01 4.10516E+00 2.65435E-01
 -1      1115 2.50824E+01 5.03100E+00 6.28571E-01
 -1      1116 2.82597E+01 5.03100E+00 6.19979E-01
 -1      1117 3.13112E+01 4.74436E+00 2.94080E-01
 -1      1118 3.78031E+01 4.05275E+00 2.51197E-01
 -1      1119 3.78608E+01 4.61657E+00 2.76198E-01
 -1      1120 4.43578E+01 4.00034E+00 3.07995E-01
 -1      1121 4.43414E+01 4.74491E+00 8.90906E-01
 -1      1122 6.23128E+01 4.60649E+00 4.23460E-01
 -1      1123 6.15821E+01 5.03100E+00 6.28875E-01
 -1      1124 6.50775E+01 5.03100E+00 6.23627E-01
 -1      1125 6.90000E+01 4.60014E+00 4.29895E-01
 -1      1126 7.12876E+01 4.73669E+00 3.09756E-01
 -1      1127 7.17501E+01 5.03100E+00 6.28875E-01
 -1      1128 7.49036E+01 5.03100E+00 6.22621E-01
 -1      1129 7.79852E+01 4.74678E+00 2.89129E-01
 -1      1130 8.50669E+01 5.03100E+00 7.09522E-01
 -1      1131 8.82478E+01 5.03100E+00 7.17781E-01
 -1      1132 5.04513E+00 5.03100E+00 6.27707E-01
 -1      1133 1.17324E+01 5.03100E+00 6.15584E-01
 -1      1134 1.49145E+01 5.03100E+00 6.28875E-01
 -1      1135 3.17529E+01 5.03100E+00 6.28875E-01
 -1      1136 3.49391E+01 5.03100E+00 6.19083E-01
 -1      1137 3.83959E+01 5.03100E+00 7.06642E-01
 -1      1138 5.17168E+01 5.03100E+00 6.25434E-01
 -1      1139 5.84023E+01 5.03100E+00 6.15378E-01
 -1      1140 7.84204E+01 5.03100E+00 6.28875E-01
 -1      1141 8.16106E+01 5.03100E+00 6.22195E-01
 -1      1142 9.83884E+01 5.03100E+00 6.22781E-01
 -1      1143 4.69734E+00 5.29250E+00 2.61494E-01
 -1      1144 1.09431E+01 5.90444E+00 3.05498E-01
 -1      1145 1.55120E+01 5.31410E+00 4.20404E-01
 -1      1146 3.12341E+01 5.69481E+00 1.92225E-01
 -1      1147 3.52869E+01 5.28733E+00 2.56324E-01
 -1      1148 3.82216E+01 5.69481E+00 4.80012E-02
 -1      1149 4.16266E+01 5.03100E+00 6.29601E-01
 -1      1150 5.09996E+01 5.30562E+00 7.24049E-01
 -1      1151 6.23216E+01 5.59000E+00 2.83553E-01
 -1      1152 7.76854E+01 5.41702E+00 4.51764E-01
 -1      1153 8.19585E+01 5.28894E+00 2.57934E-01
 -1      1154 9.80405E+01 5.28927E+00 2.58262E-01
 -1      1155 2.40712E+00 5.79963E+00 3.23879E-01
 -1      1156 4.35823E+00 5.72975E+00 2.57607E-01
 -1      1157 9.10226E+00 5.79963E+00 3.35464E-01
 -1      1158 8.24525E+00 6.21887E+00 3.36754E-01
 -1      1159 1.56653E+01 6.09672E+00 3.78547E-01
 -1      1160 1.77612E+01 5.95684E+00 2.71250E-01
 -1      1161 2.24267E+01 5.76469E+00 3.08520E-01
 -1      1162 2.43880E+01 5.28406E+00 8.23581E-01
 -1      1163 2.45238E+01 6.07685E+00 3.28830E-01
 -1      1164 3.56731E+01 5.79963E+00 2.99899E-01
 -1      1165 4.90806E+01 5.79963E+00 3.26611E-01
 -1      1166 5.10322E+01 5.72975E+00 2.54318E-01
 -1      1167 5.57408E+01 5.81709E+00 3.35991E-01
 -1      1168 5.49217E+01 6.28875E+00 3.38945E-01
 -1      1169 5.78037E+01 6.05075E+00 3.43674E-01
 -1      1170 6.43645E+01 5.29251E+00 8.23330E-01
 -1      1171 6.90646E+01 5.78216E+00 3.05448E-01
 -1      1172 7.12222E+01 5.28714E+00 9.80923E-01
 -1      1173 7.11449E+01 5.99178E+00 2.69000E-01
 -1      1174 7.55413E+01 5.89570E+00 2.73080E-01
 -1      1175 7.83997E+01 6.21887E+00 3.38912E-01
 -1      1176 8.23464E+01 5.79963E+00 3.02478E-01
 -1      1177 9.10515E+01 5.79963E+00 2.60753E-01
 -1      1178 9.57540E+01 5.79963E+00 3.29359E-01
 -1      1179 9.77062E+01 5.72975E+00 2.51046E-01
 -1      1180 2.90844E+01 5.78216E+00 3.13856E-01
 -1      1181 6.23406E+01 6.09718E+00 3.80241E-01
 -1      1182 7.76154E+01 6.04419E+00 3.16790E-01
 -1      1183 1.53725E+00 6.21887E+00 3.35402E-01
 -1      1184 4.47200E+00 6.25427E+00 4.46515E-01
 -1      1185 2.16689E+01 6.40661E+00 6.98750E-01
 -1      1186 2.22203E+01 6.25781E+00 4.47544E-01
 -1      1187 3.09823E+01 6.22194E+00 4.38935E-01
 -1      1188 3.46580E+01 6.14900E+00 3.24551E-01
 -1      1189 3.50387E+01 6.39917E+00 7.27956E-01
 -1      1190 3.76779E+01 5.72975E+00 2.58295E-01
 -1      1191 3.78024E+01 6.26052E+00 4.39591E-01
 -1      1192 3.84313E+01 6.21887E+00 3.36091E-01
 -1      1193 4.14359E+01 6.28875E+00 3.19596E-01
 -1      1194 4.23680E+01 5.79963E+00 3.10844E-01
 -1      1195 4.43807E+01 5.72975E+00 2.42081E-01
 -1      1196 4.45104E+01 6.25706E+00 4.36408E-01
 -1      1197 4.82137E+01 6.21887E+00 3.35374E-01
 -1      1198 5.11485E+01 6.25337E+00 4.45655E-01
 -1      1199 5.18473E+01 6.20910E+00 3.14981E-01
 -1      1200 5.44861E+01 6.82068E+00 2.87210E-01
 -1      1201 6.00925E+01 6.12084E+00 5.02761E-01
 -1      1202 6.52813E+01 6.21887E+00 2.73617E-01
 -1      1203 6.43492E+01 6.15023E+00 4.04727E-01
 -1      1204 7.20164E+01 6.28485E+00 2.27733E-01
 -1      1205 7.32290E+01 6.21384E+00 4.54824E-01
 -1      1206 7.46495E+01 6.21887E+00 2.24307E-01
 -1      1207 8.14886E+01 6.27000E+00 5.04721E-01
 -1      1208 8.43028E+01 5.54943E+00 4.06704E-01
 -1      1209 8.44789E+01 6.25972E+00 4.38812E-01
 -1      1210 8.81823E+01 6.21887E+00 3.26041E-01
 -1      1211 8.90414E+01 5.79963E+00 3.13487E-01
 -1      1212 9.18158E+01 6.21887E+00 3.26800E-01
 -1      1213 9.48903E+01 6.21887E+00 3.35569E-01
 -1      1214 9.78949E+01 6.25246E+00 4.32803E-01
 -1      1215 3.66057E-01 6.53927E+00 5.06594E-01
 -1      1216 1.21571E+01 6.68288E+00 2.43183E-01
 -1      1217 1.87074E+01 6.59373E+00 2.55521E-01
 -1      1218 1.97079E+01 6.52170E+00 4.89125E-01
 -1      1219 2.65525E+01 6.22389E+00 4.60429E-01
 -1      1220 3.32605E+01 6.01767E+00 6.29810E-01
 -1      1221 3.45209E+01 6.79550E+00 2.63200E-01
 -1      1222 3.96888E+01 6.49433E+00 4.96896E-01
 -1      1223 4.10865E+01 6.82725E+00 2.44177E-01
 -1      1224 5.23193E+01 6.83894E+00 3.19801E-01
 -1      1225 5.90086E+01 6.82479E+00 3.14748E-01
 -1      1226 6.67138E+01 6.36900E+00 4.54188E-01
 -1      1227 7.28098E+01 6.56825E+00 2.05427E-01
 -1      1228 7.99370E+01 6.00933E+00 6.23688E-01
 -1      1229 8.11954E+01 6.79322E+00 2.63894E-01
 -1      1230 8.71363E+01 6.71304E+00 5.06594E-01
 -1      1231 8.77630E+01 6.82706E+00 2.45024E-01
 -1      1232 9.90128E+01 6.79245E+00 3.04292E-01
 -1      1233 9.98323E+01 6.28131E+00 5.59000E-01
 -1      1234 9.78250E-01 6.87266E+00 2.92489E-01
 -1      1235 6.21744E+00 6.76462E+00 6.98750E-01
 -1      1236 5.72975E+00 6.92806E+00 3.25743E-01
 -1      1237 6.98433E+00 6.52938E+00 7.33688E-01
 -1      1238 7.81078E+00 6.82068E+00 2.86081E-01
 -1      1239 1.27403E+01 6.81649E+00 5.33297E-01
 -1      1240 1.42631E+01 7.00057E+00 4.62605E-01
 -1      1241 1.91458E+01 6.99605E+00 4.07748E-01
 -1      1242 2.11123E+01 6.80595E+00 2.53784E-01
 -1      1243 2.53284E+01 6.85950E+00 3.64993E-01
 -1      1244 2.71946E+01 6.78602E+00 7.86094E-01
 -1      1245 2.78159E+01 6.80244E+00 2.57490E-01
 -1      1246 3.20726E+01 6.90394E+00 3.25465E-01
 -1      1247 3.89204E+01 6.82061E+00 2.58823E-01
 -1      1248 4.56982E+01 6.87176E+00 2.93465E-01
 -1      1249 4.70854E+01 6.57248E+00 3.49375E-01
 -1      1250 4.76547E+01 6.87348E+00 2.91634E-01
 -1      1251 5.28854E+01 6.76260E+00 6.98750E-01
 -1      1252 6.09388E+01 6.96368E+00 4.09900E-01
 -1      1253 6.52568E+01 6.87601E+00 3.66521E-01
 -1      1254 6.72819E+01 6.97699E+00 8.90906E-01
 -1      1255 6.77878E+01 6.80538E+00 2.54559E-01
 -1      1256 7.17916E+01 6.84775E+00 4.45217E-01
 -1      1257 7.22857E+01 6.87654E+00 2.82584E-01
 -1      1258 7.38632E+01 6.78855E+00 7.86094E-01
 -1      1259 7.44913E+01 6.80114E+00 2.58544E-01
 -1      1260 7.91632E+01 6.82945E+00 3.32008E-01
 -1      1261 7.84388E+01 6.77787E+00 4.68149E-01
 -1      1262 8.55969E+01 6.82047E+00 2.58104E-01
 -1      1263 9.23049E+01 6.94066E+00 3.36970E-01
 -1      1264 9.38006E+01 6.70775E+00 5.24063E-01
 -1      1265 9.44586E+01 6.82043E+00 2.83959E-01
 -1      1266 9.95534E+01 6.76058E+00 6.98750E-01
 -1      1267 6.58223E+01 7.04615E+00 4.68525E-01
 -1      1268 1.48146E+01 8.60775E+00 3.97887E-01
 -1      1269 1.46039E+01 8.05654E+00 3.67970E-01
 -1      1270 2.72446E+01 8.14893E+00 9.52721E-01
 -1      1271 2.78947E+01 8.44072E+00 2.32910E-01
 -1      1272 2.76705E+01 7.98055E+00 4.09496E-01
 -1      1273 3.45902E+01 8.44938E+00 2.40772E-01
 -1      1274 3.42074E+01 8.00973E+00 4.78474E-01
 -1      1275 3.92289E+01 8.05693E+00 5.65430E-01
 -1      1276 3.86102E+01 8.73621E+00 2.88903E-01
 -1      1277 3.99685E+01 8.93626E+00 4.20119E-01
 -1      1278 4.04950E+01 8.23599E+00 7.33688E-01
 -1      1279 4.14126E+01 8.80425E+00 3.07303E-01
 -1      1280 4.12961E+01 8.08411E+00 3.72018E-01
 -1      1281 4.74628E+01 8.14358E+00 4.33359E-01
 -1      1282 4.81113E+01 8.80425E+00 3.24631E-01
 -1      1283 7.38661E+01 8.37199E+00 3.76279E-01
 -1      1284 7.45942E+01 8.69334E+00 2.54657E-01
 -1      1285 7.43470E+01 7.98017E+00 4.06509E-01
 -1      1286 8.59040E+01 8.06398E+00 5.65699E-01
 -1      1287 8.52837E+01 8.73642E+00 2.87198E-01
 -1      1288 8.62812E+01 8.48885E+00 5.93938E-01
 -1      1289 8.72822E+01 8.38985E+00 2.59364E-01
 -1      1290 8.80870E+01 8.80425E+00 3.11115E-01
 -1      1291 8.77630E+01 8.13295E+00 2.92232E-01
 -1      1292 9.41292E+01 8.20321E+00 3.59996E-01
 -1      1293 9.47505E+01 8.80425E+00 3.40799E-01
 -1      1294 3.97039E-01 8.41983E+00 7.38555E-01
 -1      1295 1.11800E+00 8.25968E+00 2.39239E-01
 -1      1296 6.33670E+00 8.57577E+00 5.06594E-01
 -1      1297 5.72975E+00 8.21464E+00 2.86644E-01
 -1      1298 1.28260E+01 8.33536E+00 4.54188E-01
 -1      1299 1.21551E+01 8.28612E+00 2.56661E-01
 -1      1300 1.34160E+01 8.88218E+00 4.49251E-01
 -1      1301 1.94635E+01 8.21894E+00 5.59000E-01
 -1      1302 1.88587E+01 8.27963E+00 2.51572E-01
 -1      1303 1.98072E+01 8.70940E+00 4.19250E-01
 -1      1304 2.09101E+01 8.29931E+00 2.42074E-01
 -1      1305 2.13727E+01 8.80425E+00 2.50308E-01
 -1      1306 2.55621E+01 8.27661E+00 2.47649E-01
 -1      1307 2.49977E+01 8.68084E+00 6.98750E-01
 -1      1308 2.60679E+01 8.10316E+00 8.03563E-01
 -1      1309 2.65525E+01 9.06352E+00 8.13275E-01
 -1      1310 3.21255E+01 8.26587E+00 3.04257E-01
 -1      1311 4.56982E+01 8.21122E+00 2.83330E-01
 -1      1312 4.52371E+01 8.80425E+00 3.15926E-01
 -1      1313 4.63111E+01 8.54173E+00 5.06594E-01
 -1      1314 5.27979E+01 8.28789E+00 5.31884E-01
 -1      1315 5.21274E+01 8.32183E+00 2.56927E-01
 -1      1316 5.33845E+01 8.92510E+00 4.13826E-01
 -1      1317 5.94737E+01 8.22027E+00 6.46344E-01
 -1      1318 5.88306E+01 8.28420E+00 2.55345E-01
 -1      1319 6.00925E+01 8.87195E+00 4.54664E-01
 -1      1320 6.55341E+01 8.27864E+00 2.50533E-01
 -1      1321 6.75866E+01 8.30036E+00 2.40392E-01
 -1      1322 7.22375E+01 8.27630E+00 2.46889E-01
 -1      1323 7.19389E+01 8.87413E+00 2.60359E-01
 -1      1324 7.83617E+01 8.68629E+00 6.98750E-01
 -1      1325 7.88707E+01 8.26567E+00 2.77222E-01
 -1      1326 7.96301E+01 8.43134E+00 6.98750E-01
 -1      1327 7.99370E+01 8.90281E+00 4.38241E-01
 -1      1328 8.04652E+01 8.27413E+00 8.38500E-01
 -1      1329 8.11953E+01 8.40776E+00 2.44721E-01
 -1      1330 9.30255E+01 8.59256E+00 6.28875E-01
 -1      1331 9.23748E+01 8.21220E+00 2.84228E-01
 -1      1332 9.36567E+01 8.75358E+00 8.97076E-01
 -1      1333 9.94701E+01 8.29271E+00 5.32332E-01
 -1      1334 9.88024E+01 8.29130E+00 2.59791E-01
 -1      1335 9.98392E+01 8.79738E+00 5.59000E-01
 -1      1336-1.72766E-01 9.24934E+00 3.49375E-01
 -1      1337 5.16583E+00 8.73440E+00 4.99725E-01
 -1      1338 6.70800E+00 9.09368E+00 6.10050E-01
 -1      1339 1.20244E+01 8.94944E+00 3.01018E-01
 -1      1340 1.85775E+01 8.87267E+00 2.64555E-01
 -1      1341 3.34259E+01 8.79865E+00 6.07904E-01
 -1      1342 3.50088E+01 8.66450E+00 7.81256E-01
 -1      1343 5.19959E+01 8.95131E+00 3.16053E-01
 -1      1344 5.86983E+01 8.94716E+00 2.91467E-01
 -1      1345 6.15366E+01 8.90036E+00 3.39207E-01
 -1      1346 6.13268E+01 8.32578E+00 3.43610E-01
 -1      1347 8.16775E+01 8.66450E+00 7.99172E-01
 -1      1348 9.18213E+01 8.73845E+00 5.05327E-01
 -1      1349 9.33530E+01 9.11224E+00 6.05716E-01
 -1      1350 9.86726E+01 8.95177E+00 3.14730E-01
 -1      1351 2.25250E+00 9.22350E+00 2.70954E-01
 -1      1352 4.62516E+00 8.97894E+00 2.62153E-01
 -1      1353 8.34336E+00 8.70619E+00 8.38500E-01
 -1      1354 8.84664E+00 9.22350E+00 2.43202E-01
 -1      1355 1.11141E+01 9.03134E+00 2.83395E-01
 -1      1356 1.56727E+01 9.04881E+00 3.02812E-01
 -1      1357 1.76767E+01 8.96469E+00 3.67454E-01
 -1      1358 2.18937E+01 9.36325E+00 9.72567E-02
 -1      1359 2.16726E+01 8.67981E+00 6.98750E-01
 -1      1360 2.22670E+01 8.97023E+00 3.63192E-01
 -1      1361 2.43034E+01 8.99859E+00 3.53094E-01
 -1      1362 3.16881E+01 8.68523E+00 6.98750E-01
 -1      1363 3.13572E+01 9.08375E+00 1.87867E-01
 -1      1364 3.54443E+01 8.82825E+00 4.27647E-01
 -1      1365 3.56158E+01 9.36325E+00 2.50379E-01
 -1      1366 3.77974E+01 9.08375E+00 2.48713E-01
 -1      1367 4.22431E+01 9.01388E+00 2.92712E-01
 -1      1368 4.23036E+01 9.55703E+00 3.77186E-01
 -1      1369 4.45978E+01 8.97894E+00 2.65795E-01
 -1      1370 4.89248E+01 9.22350E+00 2.73208E-01
 -1      1371 5.13002E+01 8.97894E+00 2.61076E-01
 -1      1372 5.48437E+01 8.74288E+00 3.76756E-01
 -1      1373 5.55645E+01 9.24097E+00 2.50543E-01
 -1      1374 5.80065E+01 9.01388E+00 2.42954E-01
 -1      1375 6.22635E+01 9.24097E+00 2.62252E-01
 -1      1376 6.88890E+01 9.11869E+00 2.51482E-01
 -1      1377 6.83267E+01 8.67879E+00 6.88043E-01
 -1      1378 7.11227E+01 9.01620E+00 2.99676E-01
 -1      1379 7.56348E+01 9.55258E+00 3.99318E-01
 -1      1380 7.55523E+01 8.72152E+00 5.65917E-01
 -1      1381 7.77537E+01 8.90321E+00 3.91584E-01
 -1      1382 8.20623E+01 8.82730E+00 4.19250E-01
 -1      1383 8.24061E+01 9.18856E+00 3.09053E-01
 -1      1384 8.44585E+01 9.01388E+00 2.83703E-01
 -1      1385 8.89131E+01 9.01388E+00 2.93722E-01
 -1      1386 8.89765E+01 9.55625E+00 3.79703E-01
 -1      1387 9.12637E+01 8.83325E+00 4.46751E-01
 -1      1388 9.55973E+01 9.22350E+00 2.75475E-01
 -1      1389 9.79700E+01 8.84458E+00 4.09515E-01
 -1      1390 4.21718E+00 9.55162E+00 4.31246E-01
 -1      1391 4.05868E+00 9.01388E+00 3.69670E-01
 -1      1392 1.56354E+01 9.63661E+00 4.23095E-01
 -1      1393 1.74954E+01 9.57236E+00 4.88413E-01
 -1      1394 2.23226E+01 9.63033E+00 4.29610E-01
 -1      1395 4.42181E+01 9.52385E+00 4.04863E-01
 -1      1396 4.38399E+01 8.90906E+00 4.69740E-01
 -1      1397 5.11062E+01 9.69985E+00 1.05966E+00
 -1      1398 5.05875E+01 8.83919E+00 4.71336E-01
 -1      1399 5.75056E+01 9.11869E+00 3.23618E-01
 -1      1400 5.74385E+01 9.65374E+00 7.68625E-01
 -1      1401 5.79963E+01 9.69639E+00 2.38515E-01
 -1      1402 6.44175E+01 9.10122E+00 2.56787E-01
 -1      1403 7.75619E+01 9.52287E+00 3.95701E-01
 -1      1404 8.42024E+01 9.51600E+00 4.07407E-01
 -1      1405 9.05150E+01 8.90906E+00 4.67679E-01
 -1      1406 9.75665E+01 9.55813E+00 4.25891E-01
 -1      1407 9.72625E+01 8.83919E+00 4.69516E-01
 -1      1408 2.47646E+00 9.69406E+00 7.51440E-01
 -1      1409 4.38118E+00 9.77721E+00 8.90906E-01
 -1      1410 8.25837E+00 1.00283E+01 5.06594E-01
 -1      1411 1.08439E+01 9.68025E+00 7.68625E-01
 -1      1412 1.16610E+01 1.00192E+01 7.33688E-01
 -1      1413 1.49972E+01 9.96478E+00 3.10719E-01
 -1      1414 2.47460E+01 9.80449E+00 2.66836E-01
 -1      1415 2.89665E+01 9.13616E+00 2.73850E-01
 -1      1416 3.08702E+01 8.97894E+00 3.68558E-01
 -1      1417 3.75296E+01 9.51356E+00 4.09471E-01
 -1      1418 5.15677E+01 9.98308E+00 7.68625E-01
 -1      1419 5.49312E+01 1.00258E+01 5.06594E-01
 -1      1420 6.16706E+01 9.96257E+00 3.12345E-01
 -1      1421 6.41694E+01 9.57473E+00 4.85965E-01
 -1      1422 6.89941E+01 9.62883E+00 4.31171E-01
 -1      1423 7.10798E+01 9.70749E+00 4.29065E-01
 -1      1424 7.20139E+01 1.01623E+01 4.54188E-01
 -1      1425 9.77272E+01 9.78243E+00 8.90906E-01
 -1      1426 9.84777E+01 1.00696E+01 6.46344E-01
 -1      1427 1.84458E+01 9.99311E+00 7.88133E-01
 -1      1428 2.52332E+01 1.00802E+01 6.48161E-01
 -1      1429 5.88321E+01 1.01365E+01 7.04482E-01
 -1      1430 6.47597E+01 9.95628E+00 6.63813E-01
 -1      1431 9.49167E+01 1.00586E+01 4.19250E-01
 -1      1432 1.44641E+01 1.01130E+01 7.73603E-01
 -1      1433 2.11023E+01 1.01526E+01 7.31904E-01
 -1      1434 2.82460E+01 1.00364E+01 7.33688E-01
 -1      1435 3.90361E+01 1.03028E+01 3.84313E-01
 -1      1436 4.53262E+01 1.01285E+01 5.96516E-01
 -1      1437 4.76021E+01 1.02941E+01 4.54188E-01
 -1      1438 4.82439E+01 1.00614E+01 4.19250E-01
 -1      1439 5.44326E+01 1.01640E+01 6.32125E-01
 -1      1440 6.11406E+01 1.01104E+01 7.73167E-01
 -1      1441 6.55364E+01 1.01472E+01 6.99960E-01
 -1      1442 6.75342E+01 1.02370E+01 6.52532E-01
 -1      1443 8.56380E+01 1.02913E+01 3.49375E-01
 -1      1444 2.79500E-01 1.03908E+01 6.63506E-01
 -1      1445 6.21887E+00 1.02051E+01 1.02795E+00
 -1      1446 4.66765E+01 9.64275E+00 1.10353E+00
 -1      1447 8.09328E+01 1.02859E+01 4.89125E-01
 -1      1448 9.28861E+01 1.04140E+01 4.99494E-01
 -1      1449 9.34578E+01 1.03100E+01 7.43923E-01
 -1      1450 6.07913E+00-1.49235E-01 1.04295E+00
 -1      1451 6.77787E+00-1.24038E-01 9.04444E-01
 -1      1452 1.27871E+01-1.53103E-01 1.04247E+00
 -1      1453 1.36256E+01-1.70778E-01 8.86879E-01
 -1      1454 1.95318E+01-2.80688E-01 6.82501E-01
 -1      1455 2.01589E+01-1.14490E-01 9.65162E-01
 -1      1456 2.69019E+01-3.56442E-01 6.22398E-01
 -1      1457 3.31208E+01-2.12923E-01 8.11014E-01
 -1      1458 3.36797E+01-3.18415E-01 6.82577E-01
 -1      1459 3.98637E+01-2.37971E-01 8.32650E-01
 -1      1460 5.27556E+01-1.50346E-01 1.04290E+00
 -1      1461 5.94636E+01-1.53711E-01 1.04227E+00
 -1      1462 6.03021E+01-1.71241E-01 8.88993E-01
 -1      1463 6.69402E+01-2.46439E-01 8.28484E-01
 -1      1464 7.32290E+01-2.06839E-01 8.38500E-01
 -1      1465 7.97973E+01-2.11921E-01 8.08799E-01
 -1      1466 8.03562E+01-3.17462E-01 6.81959E-01
 -1      1467 8.66450E+01 5.34058E-08 9.90146E-01
 -1      1468 9.33530E+01 5.34058E-08 9.88202E-01
 -1      1469 1.00210E+02 1.69386E-02 6.49212E-01
 -1      1470 1.74688E+00 3.29552E-02 6.98750E-01
 -1      1471 8.20932E+00-1.83677E-02 6.98750E-01
 -1      1472 1.81137E+01 1.28202E-01 8.03563E-01
 -1      1473 3.44484E+01-8.02175E-02 7.85182E-01
 -1      1474 3.49637E+01 2.15957E-02 7.35152E-01
 -1      1475 4.84234E+01 3.60715E-02 6.98750E-01
 -1      1476 5.48823E+01-1.69001E-02 6.98750E-01
 -1      1477 5.80512E+01 1.04261E-01 6.63813E-01
 -1      1478 8.16379E+01 2.34856E-02 7.35073E-01
 -1      1479 9.50999E+01 3.92092E-02 6.98750E-01
 -1      1480 4.35621E+00 2.55558E-01 6.98750E-01
 -1      1481 8.84117E+00 2.33023E-01 9.78250E-01
 -1      1482 1.56535E+01 2.87181E-01 1.01319E+00
 -1      1483 2.23862E+01 3.01044E-01 1.01319E+00
 -1      1484 3.12036E+01 2.37153E-01 9.82955E-01
 -1      1485 5.10476E+01 2.71522E-01 5.59000E-01
 -1      1486 5.55680E+01 2.44071E-01 9.78250E-01
 -1      1487 6.23275E+01 2.89020E-01 1.01319E+00
 -1      1488 6.50123E+01 2.13595E-02 7.33688E-01
 -1      1489 6.90604E+01 3.03071E-01 1.01319E+00
 -1      1490 7.55952E+01 3.50120E-01 1.11619E+00
 -1      1491 7.81203E+01 1.78476E-01 9.52779E-01
 -1      1492 8.41986E+01 3.33131E-01 7.51156E-01
 -1      1493 8.89752E+01 2.64798E-01 9.78623E-01
 -1      1494 9.10067E+01 2.62986E-01 6.98750E-01
 -1      1495 9.77246E+01 2.56659E-01 8.73438E-01
 -1      1496-1.24954E-01 2.44563E-01 8.62461E-01
 -1      1497 3.77325E+00 9.08375E-01 4.90030E-01
 -1      1498 1.04542E+01 8.73438E-01 5.05856E-01
 -1      1499 1.10152E+01 2.69549E-01 8.03563E-01
 -1      1500 2.35326E+01 5.76759E-01 1.06710E+00
 -1      1501 2.42449E+01 3.01957E-01 7.33688E-01
 -1      1502 5.04497E+01 9.08375E-01 4.85593E-01
 -1      1503 5.75490E+01 3.18905E-01 8.73438E-01
 -1      1504 7.11943E+01 2.35868E-01 8.64703E-01
 -1      1505 8.98279E+01 1.05372E+00 6.40499E-01
 -1      1506 9.04416E+01 1.11800E+00 4.98297E-01
 -1      1507 9.70941E+01 5.11198E-01 8.72647E-01
 -1      1508 3.20030E-01 1.25686E+00 9.89337E-01
 -1      1509 1.68800E+01 1.18788E+00 5.89751E-01
 -1      1510 2.36421E+01 9.78250E-01 5.35031E-01
 -1      1511 2.99705E+01 1.18282E+00 5.91419E-01
 -1      1512 2.95240E+01 5.48252E-01 6.84055E-01
 -1      1513 3.65095E+01 8.76217E-01 6.63544E-01
 -1      1514 3.70251E+01 1.08306E+00 5.44925E-01
 -1      1515 5.69692E+01 1.24028E+00 5.64017E-01
 -1      1516 6.30617E+01 9.78250E-01 5.56805E-01
 -1      1517 6.35559E+01 1.18788E+00 5.87302E-01
 -1      1518 7.03161E+01 9.78250E-01 5.31749E-01
 -1      1519 7.69983E+01 9.78250E-01 5.25897E-01
 -1      1520 8.30666E+01 1.06559E+00 5.76609E-01
 -1      1521 8.37754E+01 1.15294E+00 5.13062E-01
 -1      1522 9.71263E+01 9.08375E-01 4.81176E-01
 -1      1523 9.86755E+00 1.25775E+00 5.95390E-01
 -1      1524 9.91207E+00 7.45942E-01 7.41455E-01
 -1      1525 6.98315E+01 7.50496E-01 7.25343E-01
 -1      1526 6.97625E+01 1.25775E+00 5.69503E-01
 -1      1527 1.66161E+00 1.37464E+00 8.38500E-01
 -1      1528 3.08028E+00 1.18788E+00 5.85879E-01
 -1      1529 3.69632E+00 1.40280E+00 6.51439E-01
 -1      1530 4.99864E+00 1.39750E+00 8.19601E-01
 -1      1531 8.34886E+00 1.35702E+00 8.38500E-01
 -1      1532 1.04812E+01 1.39750E+00 5.83064E-01
 -1      1533 1.17536E+01 1.32149E+00 9.35745E-01
 -1      1534 1.49806E+01 1.37345E+00 6.98750E-01
 -1      1535 1.63890E+01 9.78250E-01 5.54014E-01
 -1      1536 1.55079E+01 1.44241E+00 9.08375E-01
 -1      1537 1.62110E+01 1.51304E+00 7.10800E-01
 -1      1538 1.76085E+01 1.38650E+00 5.59000E-01
 -1      1539 2.01240E+01 1.00478E+00 8.20136E-01
 -1      1540 2.25680E+01 1.54576E+00 1.15294E+00
 -1      1541 2.31049E+01 1.18788E+00 5.89477E-01
 -1      1542 2.38274E+01 1.50259E+00 7.12903E-01
 -1      1543 2.83108E+01 1.39750E+00 6.98750E-01
 -1      1544 2.89199E+01 1.46157E+00 9.78250E-01
 -1      1545 3.04655E+01 1.51227E+00 7.10174E-01
 -1      1546 3.16354E+01 1.34849E+00 8.38500E-01
 -1      1547 3.59872E+01 1.60366E+00 9.08375E-01
 -1      1548 3.65446E+01 1.39750E+00 6.19911E-01
 -1      1549 3.99685E+01 9.49365E-01 6.78037E-01
 -1      1550 4.16497E+01 1.39750E+00 8.42107E-01
 -1      1551 4.50099E+01 1.38068E+00 8.38500E-01
 -1      1552 4.36258E+01 1.45526E+00 7.03105E-01
 -1      1553 4.83332E+01 1.36947E+00 8.38500E-01
 -1      1554 4.94573E+01 1.56644E+00 8.87626E-01
 -1      1555 4.97590E+01 9.78250E-01 5.60205E-01
 -1      1556 5.03722E+01 1.40243E+00 6.50185E-01
 -1      1557 5.16599E+01 1.39750E+00 8.02439E-01
 -1      1558 5.54789E+01 1.44587E+00 8.38500E-01
 -1      1559 5.64595E+01 9.31947E-01 6.22279E-01
 -1      1560 5.83094E+01 1.38424E+00 7.30739E-01
 -1      1561 6.21832E+01 1.44569E+00 9.08375E-01
 -1      1562 6.28875E+01 1.51380E+00 7.11441E-01
 -1      1563 6.91396E+01 1.51738E+00 1.06559E+00
 -1      1564 7.05039E+01 1.50169E+00 7.12231E-01
 -1      1565 7.10629E+01 1.43546E+00 7.68625E-01
 -1      1566 7.16070E+01 1.35398E+00 8.38500E-01
 -1      1567 7.51213E+01 1.36860E+00 8.38500E-01
 -1      1568 7.59577E+01 1.59622E+00 9.08375E-01
 -1      1569 7.64878E+01 8.71075E-01 6.56340E-01
 -1      1570 7.65131E+01 1.39750E+00 6.17111E-01
 -1      1571 7.73302E+01 1.53786E+00 8.61375E-01
 -1      1572 7.96920E+01 1.49896E+00 7.13434E-01
 -1      1573 8.26630E+01 1.60594E+00 9.08375E-01
 -1      1574 8.87502E+01 1.38427E+00 6.98750E-01
 -1      1575 9.16815E+01 1.38785E+00 8.38500E-01
 -1      1576 9.50047E+01 1.36501E+00 8.38500E-01
 -1      1577 9.61314E+01 1.56768E+00 8.88086E-01
 -1      1578 9.65091E+01 9.63140E-01 6.13144E-01
 -1      1579 9.70481E+01 1.40205E+00 6.48951E-01
 -1      1580 1.84306E+00 2.07071E+00 6.88294E-01
 -1      1581 5.49044E+00 2.51550E+00 7.86382E-01
 -1      1582 7.12935E+00 1.63491E+00 9.56135E-01
 -1      1583 2.04179E+01 1.53633E+00 9.43313E-01
 -1      1584 2.62913E+01 1.53128E+00 8.27686E-01
 -1      1585 3.39545E+01 1.96805E+00 8.03563E-01
 -1      1586 3.51880E+01 1.83752E+00 8.99757E-01
 -1      1587 4.18059E+01 1.95442E+00 6.70277E-01
 -1      1588 4.50661E+01 1.81675E+00 5.04674E-01
 -1      1589 4.61203E+01 1.80353E+00 9.32171E-01
 -1      1590 4.82983E+01 2.15078E+00 5.55802E-01
 -1      1591 5.36783E+01 1.55475E+00 7.68625E-01
 -1      1592 5.51053E+01 1.61055E+00 9.78250E-01
 -1      1593 5.95770E+01 1.70136E+00 6.98750E-01
 -1      1594 7.29616E+01 1.52714E+00 8.25936E-01
 -1      1595 8.05599E+01 1.85702E+00 6.28875E-01
 -1      1596 8.49943E+01 1.36417E+00 8.38500E-01
 -1      1597 9.15096E+01 2.06294E+00 6.74418E-01
 -1      1598 9.26846E+01 2.03860E+00 7.86094E-01
 -1      1599 5.35143E-01 1.78300E+00 9.13062E-01
 -1      1600 8.23977E+00 2.63764E+00 5.33376E-01
 -1      1601 2.17463E+01 2.09625E+00 5.99706E-01
 -1      1602 2.59900E+01 2.02182E+00 7.76151E-01
 -1      1603 2.84485E+01 1.89710E+00 6.82481E-01
 -1      1604 3.84324E+01 2.00805E+00 4.67132E-01
 -1      1605 3.93930E+01 1.95031E+00 6.98750E-01
 -1      1606 4.72055E+01 1.78776E+00 9.14562E-01
 -1      1607 5.15504E+01 2.02534E+00 6.85802E-01
 -1      1608 5.41171E+01 2.11076E+00 6.28875E-01
 -1      1609 5.49779E+01 2.45429E+00 5.56219E-01
 -1      1610 6.85125E+01 1.95650E+00 7.25846E-01
 -1      1611 7.26595E+01 2.01975E+00 7.74100E-01
 -1      1612 7.93835E+01 1.89376E+00 9.22261E-01
 -1      1613 8.17765E+01 2.09859E+00 6.57775E-01
 -1      1614 8.51060E+01 2.02296E+00 4.64586E-01
 -1      1615 8.85054E+01 2.24488E+00 6.72154E-01
 -1      1616 1.39750E+00 2.51550E+00 6.03718E-01
 -1      1617 1.21834E+01 2.51550E+00 7.97510E-01
 -1      1618 1.43614E+01 2.51550E+00 9.36871E-01
 -1      1619 1.50602E+01 2.09625E+00 5.80257E-01
 -1      1620 1.79799E+01 2.37575E+00 8.14979E-01
 -1      1621 1.84391E+01 2.52561E+00 5.74877E-01
 -1      1622 2.12769E+01 2.62981E+00 5.39609E-01
 -1      1623 2.52948E+01 2.46412E+00 5.66759E-01
 -1      1624 2.76630E+01 2.51550E+00 9.18564E-01
 -1      1625 2.82191E+01 2.46617E+00 5.80142E-01
 -1      1626 3.20028E+01 2.46183E+00 5.68378E-01
 -1      1627 3.12724E+01 2.27094E+00 9.43313E-01
 -1      1628 3.44896E+01 2.51550E+00 7.94624E-01
 -1      1629 3.90158E+01 2.51550E+00 9.78250E-01
 -1      1630 3.84331E+01 2.63764E+00 5.50655E-01
 -1      1631 4.11824E+01 2.51550E+00 7.84110E-01
 -1      1632 4.56620E+01 2.51550E+00 9.53911E-01
 -1      1633 4.52790E+01 2.51550E+00 6.05255E-01
 -1      1634 4.76765E+01 2.51550E+00 9.49697E-01
 -1      1635 5.21633E+01 2.51550E+00 7.88794E-01
 -1      1636 5.81197E+01 2.52357E+00 7.21145E-01
 -1      1637 5.88563E+01 2.51550E+00 8.00552E-01
 -1      1638 6.07818E+01 2.09628E+00 6.28875E-01
 -1      1639 6.16106E+01 2.27065E+00 5.66781E-01
 -1      1640 6.47389E+01 2.09625E+00 7.89375E-01
 -1      1641 6.53331E+01 2.44563E+00 5.59119E-01
 -1      1642 6.82070E+01 2.52523E+00 5.79337E-01
 -1      1643 7.19713E+01 2.46361E+00 5.67037E-01
 -1      1644 7.43314E+01 2.51550E+00 9.10903E-01
 -1      1645 7.48317E+01 2.43952E+00 5.42961E-01
 -1      1646 7.84032E+01 2.50193E+00 5.78657E-01
 -1      1647 8.11625E+01 2.51550E+00 7.91888E-01
 -1      1648 8.51407E+01 2.66028E+00 5.50387E-01
 -1      1649 8.60348E+01 1.93873E+00 9.86211E-01
 -1      1650 8.76682E+01 2.51550E+00 9.56614E-01
 -1      1651 8.80425E+01 2.51550E+00 6.07337E-01
 -1      1652 9.19555E+01 2.51550E+00 6.06967E-01
 -1      1653 9.23313E+01 2.51550E+00 9.56148E-01
 -1      1654 9.47505E+01 2.44507E+00 5.46255E-01
 -1      1655 9.43457E+01 2.51550E+00 9.47716E-01
 -1      1656 9.82233E+01 2.02138E+00 6.84423E-01
 -1      1657 9.88125E+01 2.51550E+00 7.15625E-01
 -1      1658 6.10303E+01 2.51550E+00 9.35448E-01
 -1      1659 2.49802E+01 2.93475E+00 5.69017E-01
 -1      1660 3.16715E+01 2.93475E+00 5.50573E-01
 -1      1661 3.26120E+01 2.96908E+00 7.68625E-01
 -1      1662 4.82805E+01 3.02063E+00 5.23376E-01
 -1      1663 6.14900E+01 2.93475E+00 4.40818E-01
 -1      1664 7.16529E+01 2.93475E+00 5.64446E-01
 -1      1665 9.51360E+01 2.88166E+00 6.77320E-01
 -1      1666 1.00722E+00 2.51550E+00 9.51761E-01
 -1      1667 7.29006E+00 3.09619E+00 5.59000E-01
 -1      1668 7.68452E+00 2.51550E+00 9.43635E-01
 -1      1669 1.16670E+01 3.63350E+00 7.55329E-01
 -1      1670 1.37059E+01 3.40059E+00 6.98750E-01
 -1      1671 1.48135E+01 2.93475E+00 4.37102E-01
 -1      1672 1.88743E+01 2.79154E+00 5.03619E-01
 -1      1673 1.84485E+01 3.77325E+00 8.87147E-01
 -1      1674 2.17515E+01 2.93475E+00 6.15867E-01
 -1      1675 2.51197E+01 3.78252E+00 8.76754E-01
 -1      1676 2.87407E+01 2.82656E+00 1.19299E+00
 -1      1677 3.38575E+01 3.17954E+00 9.08375E-01
 -1      1678 3.51249E+01 2.84808E+00 6.46155E-01
 -1      1679 5.43537E+01 2.51550E+00 9.41908E-01
 -1      1680 5.83079E+01 3.64456E+00 7.37902E-01
 -1      1681 6.03800E+01 3.38894E+00 6.98750E-01
 -1      1682 6.48584E+01 2.85392E+00 6.94555E-01
 -1      1683 6.51174E+01 3.77325E+00 8.84652E-01
 -1      1684 6.56740E+01 2.51550E+00 9.35379E-01
 -1      1685 6.61467E+01 3.27166E+00 7.86094E-01
 -1      1686 6.76569E+01 2.51550E+00 9.46527E-01
 -1      1687 6.82862E+01 3.07450E+00 4.92989E-01
 -1      1688 7.52978E+01 2.62031E+00 7.73872E-01
 -1      1689 7.92163E+01 2.91380E+00 6.28875E-01
 -1      1690 8.71994E+01 3.23908E+00 9.29307E-01
 -1      1691 9.82225E+01 2.93154E+00 6.59337E-01
 -1      1692 9.94135E+01 3.10051E+00 6.98750E-01
 -1      1693 4.83716E+00 3.03862E+00 7.87030E-01
 -1      1694 5.17422E+00 3.77325E+00 9.68695E-01
 -1      1695 6.96127E+00 3.54172E+00 7.09842E-01
 -1      1696 2.04018E+01 3.35416E+00 6.98750E-01
 -1      1697 3.29557E+01 3.39637E+00 6.98750E-01
 -1      1698 3.83034E+01 3.22195E+00 5.80872E-01
 -1      1699 4.16432E+01 3.63755E+00 8.38500E-01
 -1      1700 4.48067E+01 3.13065E+00 9.03058E-01
 -1      1701 4.61384E+01 3.25070E+00 9.11947E-01
 -1      1702 5.16610E+01 3.63350E+00 8.11364E-01
 -1      1703 5.36329E+01 3.53583E+00 7.11752E-01
 -1      1704 7.96272E+01 3.40474E+00 6.98750E-01
 -1      1705 8.16744E+01 3.63350E+00 7.90279E-01
 -1      1706 8.49970E+01 3.66799E+00 8.38500E-01
 -1      1707 8.61429E+01 3.29098E+00 9.19020E-01
 -1      1708 9.27583E+01 3.11549E+00 6.98750E-01
 -1      1709 9.83254E+01 3.63350E+00 7.93840E-01
 -1      1710 4.50127E+01 3.65308E+00 8.38500E-01
 -1      1711 7.30034E+01 3.50157E+00 7.68625E-01
 -1      1712 7.49479E+01 3.75630E+00 9.17488E-01
 -1      1713 7.95779E+01 3.76118E+00 1.07623E+00
 -1      1714 8.83148E+01 3.64534E+00 8.38500E-01
 -1      1715 2.84720E+00 3.44605E+00 8.63122E-01
 -1      1716 8.34612E+00 3.67462E+00 8.38500E-01
 -1      1717 9.50944E+00 3.98288E+00 5.03060E-01
 -1      1718 1.04804E+01 3.51676E+00 7.07445E-01
 -1      1719 1.00504E+01 3.84313E+00 5.67607E-01
 -1      1720 1.55821E+01 3.62241E+00 6.28875E-01
 -1      1721 1.65273E+01 3.91300E+00 5.64887E-01
 -1      1722 1.61411E+01 3.52691E+00 7.07542E-01
 -1      1723 1.72205E+01 3.66844E+00 5.55328E-01
 -1      1724 1.75295E+01 4.08769E+00 3.17082E-01
 -1      1725 2.23600E+01 3.57294E+00 6.98750E-01
 -1      1726 2.29750E+01 3.84313E+00 5.61014E-01
 -1      1727 2.91439E+01 3.56513E+00 6.98750E-01
 -1      1728 2.99632E+01 4.14010E+00 6.38456E-01
 -1      1729 3.06558E+01 3.70338E+00 5.30893E-01
 -1      1730 3.53568E+01 3.69047E+00 5.59000E-01
 -1      1731 3.59510E+01 3.50073E+00 7.68625E-01
 -1      1732 3.64731E+01 4.16508E+00 6.20168E-01
 -1      1733 3.73774E+01 3.63521E+00 5.59574E-01
 -1      1734 3.68504E+01 3.77325E+00 5.59040E-01
 -1      1735 3.83255E+01 3.67150E+00 8.38500E-01
 -1      1736 4.29796E+01 3.62554E+00 6.49311E-01
 -1      1737 4.36494E+01 3.71714E+00 6.32831E-01
 -1      1738 4.83304E+01 3.66315E+00 8.38500E-01
 -1      1739 4.94964E+01 3.45687E+00 8.46031E-01
 -1      1740 5.00295E+01 3.90216E+00 6.03620E-01
 -1      1741 5.55506E+01 3.62817E+00 6.28875E-01
 -1      1742 5.63399E+01 4.00034E+00 5.36847E-01
 -1      1743 5.71745E+01 3.53503E+00 6.98690E-01
 -1      1744 6.32013E+01 3.91300E+00 5.66012E-01
 -1      1745 6.27827E+01 3.53500E+00 7.08231E-01
 -1      1746 6.38963E+01 3.66844E+00 5.54281E-01
 -1      1747 6.89666E+01 3.58082E+00 6.98750E-01
 -1      1748 6.98712E+01 3.80819E+00 5.81235E-01
 -1      1749 7.06014E+01 3.66844E+00 5.50213E-01
 -1      1750 7.58181E+01 3.56373E+00 6.98750E-01
 -1      1751 7.64653E+01 3.77325E+00 5.74070E-01
 -1      1752 7.75025E+01 3.51962E+00 8.63927E-01
 -1      1753 7.69942E+01 3.91300E+00 5.06022E-01
 -1      1754 8.26272E+01 3.49904E+00 7.68791E-01
 -1      1755 8.32899E+01 3.90264E+00 6.05455E-01
 -1      1756 8.38615E+01 3.45440E+00 8.87008E-01
 -1      1757 8.96555E+01 3.62518E+00 6.50665E-01
 -1      1758 8.97134E+01 4.23648E+00 6.57387E-01
 -1      1759 9.13602E+01 3.69760E+00 1.01319E+00
 -1      1760 9.50020E+01 3.66723E+00 8.38500E-01
 -1      1761 9.63769E+01 3.77325E+00 5.69458E-01
 -1      1762 9.99054E+01 3.90916E+00 6.98750E-01
 -1      1763 3.22189E+00 4.35815E+00 8.83384E-01
 -1      1764 3.54946E+00 3.73831E+00 5.95836E-01
 -1      1765 1.68789E+01 4.38925E+00 8.69985E-01
 -1      1766 2.33493E+01 4.41907E+00 9.38285E-01
 -1      1767 2.38266E+01 3.68591E+00 5.64040E-01
 -1      1768 4.31075E+01 4.27298E+00 6.89263E-01
 -1      1769 5.03970E+01 4.50804E+00 1.11800E+00
 -1      1770 5.66884E+01 4.40897E+00 1.03147E+00
 -1      1771 6.35547E+01 4.39277E+00 8.68408E-01
 -1      1772 7.03103E+01 4.45138E+00 1.02549E+00
 -1      1773 7.65277E+01 4.27154E+00 6.81885E-01
 -1      1774 8.29461E+01 4.40213E+00 6.92510E-01
 -1      1775 9.65508E+01 4.28549E+00 7.45451E-01
 -1      1776 9.69000E+01 3.73831E+00 5.91550E-01
 -1      1777 9.70718E+01 4.51103E+00 1.11800E+00
 -1      1778 3.77210E+00 4.53886E+00 1.13547E+00
 -1      1779 9.07518E+00 4.70366E+00 6.28875E-01
 -1      1780 1.06073E+01 4.57864E+00 8.03563E-01
 -1      1781 3.03667E+01 4.51825E+00 1.11687E+00
 -1      1782 3.73369E+01 4.49059E+00 5.39747E-01
 -1      1783 8.44047E+01 4.73704E+00 9.95719E-01
 -1      1784 1.00339E+02 5.10087E+00 5.59000E-01
 -1      1785-1.67600E-01 4.75150E+00 8.25308E-01
 -1      1786 2.10535E+00 4.80482E+00 8.55969E-01
 -1      1787 1.11431E+01 4.79072E+00 9.08932E-01
 -1      1788 2.42970E+01 4.72576E+00 1.01319E+00
 -1      1789 3.09953E+01 4.73416E+00 1.01319E+00
 -1      1790 3.78250E+01 4.80306E+00 8.03563E-01
 -1      1791 4.23589E+01 4.74069E+00 6.98750E-01
 -1      1792 7.09712E+01 4.72779E+00 1.01319E+00
 -1      1793 7.56107E+01 4.76949E+00 9.78250E-01
 -1      1794 7.76694E+01 4.73612E+00 1.01319E+00
 -1      1795 8.23411E+01 4.73154E+00 7.68625E-01
 -1      1796 1.59022E+00 5.03100E+00 7.14500E-01
 -1      1797 1.78079E+01 4.70147E+00 1.03526E+00
 -1      1798 2.22725E+01 4.77250E+00 9.60781E-01
 -1      1799 2.89713E+01 4.76322E+00 9.60781E-01
 -1      1800 4.50806E+01 5.03100E+00 7.16188E-01
 -1      1801 4.82612E+01 5.03100E+00 7.12463E-01
 -1      1802 5.49465E+01 5.03100E+00 6.99583E-01
 -1      1803 6.43774E+01 4.76533E+00 9.25844E-01
 -1      1804 6.89468E+01 4.77032E+00 9.60781E-01
 -1      1805 9.17514E+01 5.03100E+00 7.17544E-01
 -1      1806 9.49322E+01 5.03100E+00 7.10058E-01
 -1      1807-9.93840E-02 5.41531E+00 9.23258E-01
 -1      1808 4.40341E+00 5.27471E+00 8.55969E-01
 -1      1809 8.81559E+00 5.26185E+00 9.83962E-01
 -1      1810 1.55143E+01 5.26961E+00 9.84285E-01
 -1      1811 2.23604E+01 5.32327E+00 1.01814E+00
 -1      1812 2.89533E+01 5.27912E+00 9.62899E-01
 -1      1813 3.10796E+01 5.27397E+00 6.63813E-01
 -1      1814 3.75206E+01 5.36086E+00 7.51156E-01
 -1      1815 4.42745E+01 5.32270E+00 8.90906E-01
 -1      1816 4.88195E+01 5.21679E+00 9.08875E-01
 -1      1817 5.54898E+01 5.26367E+00 9.84047E-01
 -1      1818 6.22237E+01 5.27140E+00 9.95719E-01
 -1      1819 6.90344E+01 5.32503E+00 1.01798E+00
 -1      1820 7.56274E+01 5.28112E+00 9.62801E-01
 -1      1821 9.10535E+01 5.28050E+00 8.55969E-01
 -1      1822 9.54942E+01 5.21889E+00 9.08708E-01
 -1      1823 3.73035E+00 5.77061E+00 6.56373E-01
 -1      1824 1.07696E+01 5.45682E+00 6.14808E-01
 -1      1825 1.60559E+01 5.61445E+00 5.37353E-01
 -1      1826 1.76059E+01 5.31310E+00 6.98750E-01
 -1      1827 4.38005E+01 6.14900E+00 4.93747E-01
 -1      1828 5.75899E+01 5.32112E+00 6.98750E-01
 -1      1829 7.06461E+01 5.56747E+00 5.36799E-01
 -1      1830 9.04417E+01 6.14900E+00 5.00079E-01
 -1      1831 9.70208E+01 5.64944E+00 7.61486E-01
 -1      1832 9.75410E+01 5.34911E+00 7.51156E-01
 -1      1833 9.99972E+01 5.24063E+00 1.00650E+00
 -1      1834 9.98138E+00 6.10509E+00 6.02007E-01
 -1      1835 1.68801E+01 6.21887E+00 5.91365E-01
 -1      1836 2.36414E+01 6.00925E+00 5.34049E-01
 -1      1837 3.03253E+01 6.00892E+00 5.28459E-01
 -1      1838 3.60718E+01 5.58453E+00 5.53594E-01
 -1      1839 3.63881E+01 6.25381E+00 5.55277E-01
 -1      1840 3.70427E+01 6.11406E+00 5.40958E-01
 -1      1841 5.04497E+01 5.93937E+00 4.84043E-01
 -1      1842 5.67701E+01 5.92062E+00 6.04473E-01
 -1      1843 6.30633E+01 6.00925E+00 5.55942E-01
 -1      1844 7.03154E+01 6.00925E+00 5.30812E-01
 -1      1845 7.69985E+01 6.11406E+00 5.55777E-01
 -1      1846 8.27434E+01 5.58618E+00 5.55225E-01
 -1      1847 8.28884E+01 6.21887E+00 4.96662E-01
 -1      1848 8.33241E+01 5.95798E+00 6.21564E-01
 -1      1849 9.73359E+01 6.25381E+00 4.80678E-01
 -1      1850 1.63352E+01 6.14900E+00 5.52237E-01
 -1      1851 2.98179E+01 5.61827E+00 1.07449E+00
 -1      1852 2.97899E+01 6.28875E+00 5.77741E-01
 -1      1853 5.63603E+01 6.21887E+00 5.26886E-01
 -1      1854 8.38849E+01 6.21887E+00 5.05589E-01
 -1      1855 9.66137E+01 6.07170E+00 6.33456E-01
 -1      1856 1.66435E+00 6.40810E+00 8.38500E-01
 -1      1857 3.08102E+00 6.21887E+00 5.87924E-01
 -1      1858 3.69636E+00 6.43153E+00 6.55033E-01
 -1      1859 4.99423E+00 6.42850E+00 8.10732E-01
 -1      1860 8.80425E+00 6.37362E+00 5.59000E-01
 -1      1861 9.36325E+00 6.61583E+00 8.38500E-01
 -1      1862 1.04812E+01 6.42850E+00 5.90269E-01
 -1      1863 1.17446E+01 6.35139E+00 9.35143E-01
 -1      1864 1.50389E+01 6.37736E+00 8.38500E-01
 -1      1865 1.76085E+01 6.40778E+00 5.59000E-01
 -1      1866 1.83305E+01 6.40986E+00 6.92449E-01
 -1      1867 2.01240E+01 6.03392E+00 8.13582E-01
 -1      1868 2.31057E+01 6.21887E+00 5.91603E-01
 -1      1869 2.38442E+01 6.61142E+00 8.82117E-01
 -1      1870 2.49333E+01 6.38267E+00 8.38500E-01
 -1      1871 2.83442E+01 6.41086E+00 6.98750E-01
 -1      1872 2.89282E+01 6.48821E+00 9.78250E-01
 -1      1873 3.04655E+01 6.53878E+00 7.13588E-01
 -1      1874 3.56158E+01 6.49378E+00 9.78250E-01
 -1      1875 4.16642E+01 6.42850E+00 8.27553E-01
 -1      1876 4.29446E+01 6.23634E+00 5.17452E-01
 -1      1877 4.83359E+01 6.40233E+00 8.38500E-01
 -1      1878 4.97557E+01 6.21887E+00 5.89971E-01
 -1      1879 5.03723E+01 6.43117E+00 6.53842E-01
 -1      1880 5.16834E+01 6.42850E+00 9.08175E-01
 -1      1881 5.50232E+01 6.38551E+00 8.38500E-01
 -1      1882 5.70879E+01 6.53541E+00 7.21188E-01
 -1      1883 5.83799E+01 6.31596E+00 9.15667E-01
 -1      1884 6.16517E+01 6.40330E+00 6.98750E-01
 -1      1885 6.28455E+01 6.54623E+00 7.67160E-01
 -1      1886 6.49904E+01 6.40885E+00 6.98750E-01
 -1      1887 6.82264E+01 6.27832E+00 8.74449E-01
 -1      1888 6.97803E+01 6.21887E+00 5.93339E-01
 -1      1889 7.04340E+01 6.54119E+00 7.15485E-01
 -1      1890 7.16090E+01 6.38061E+00 8.38500E-01
 -1      1891 7.51188E+01 6.39522E+00 8.38500E-01
 -1      1892 7.59593E+01 6.61897E+00 9.08375E-01
 -1      1893 7.64894E+01 5.89991E+00 6.55013E-01
 -1      1894 7.65131E+01 6.42850E+00 6.22129E-01
 -1      1895 7.83043E+01 6.38211E+00 8.38500E-01
 -1      1896 7.96895E+01 6.52669E+00 7.12832E-01
 -1      1897 8.23128E+01 6.47170E+00 6.98750E-01
 -1      1898 8.83220E+01 6.42160E+00 8.38500E-01
 -1      1899 8.96205E+01 6.23634E+00 5.19899E-01
 -1      1900 9.16787E+01 6.42317E+00 8.38500E-01
 -1      1901 9.50075E+01 6.39740E+00 8.38500E-01
 -1      1902 9.60433E+01 6.62989E+00 1.06996E+00
 -1      1903 1.80054E+00 7.19836E+00 6.86510E-01
 -1      1904 5.49291E+00 7.54650E+00 7.82211E-01
 -1      1905 8.43656E+00 6.92949E+00 6.51825E-01
 -1      1906 1.17160E+01 7.09281E+00 5.27043E-01
 -1      1907 1.36494E+01 6.54678E+00 6.98750E-01
 -1      1908 1.49042E+01 6.70800E+00 4.67895E-01
 -1      1909 2.04206E+01 6.56617E+00 9.43313E-01
 -1      1910 2.60484E+01 6.97776E+00 8.10344E-01
 -1      1911 3.38786E+01 6.83151E+00 7.86094E-01
 -1      1912 3.83843E+01 6.87308E+00 5.13825E-01
 -1      1913 4.05597E+01 6.85800E+00 7.86094E-01
 -1      1914 4.82983E+01 7.18088E+00 5.55702E-01
 -1      1915 5.38026E+01 6.66969E+00 9.57146E-01
 -1      1916 5.83901E+01 7.09488E+00 5.24089E-01
 -1      1917 5.95724E+01 6.73024E+00 6.98750E-01
 -1      1918 6.03185E+01 6.55091E+00 6.98750E-01
 -1      1919 6.62527E+01 6.70800E+00 5.59000E-01
 -1      1920 7.29590E+01 6.55587E+00 8.25466E-01
 -1      1921 8.05604E+01 6.87753E+00 6.28875E-01
 -1      1922 8.49915E+01 6.39649E+00 8.38500E-01
 -1      1923 8.61044E+01 6.85189E+00 9.15979E-01
 -1      1924 8.63957E+01 6.41625E+00 7.80108E-01
 -1      1925 9.26798E+01 7.06738E+00 7.86094E-01
 -1      1926 9.83560E+01 6.42850E+00 9.29663E-01
 -1      1927 5.82593E-01 6.87271E+00 9.12660E-01
 -1      1928 7.41484E+00 7.08781E+00 6.28875E-01
 -1      1929 1.82804E+01 6.92419E+00 6.55820E-01
 -1      1930 2.08075E+01 7.14505E+00 6.32675E-01
 -1      1931 2.84271E+01 6.99683E+00 6.75219E-01
 -1      1932 3.14106E+01 7.23206E+00 7.83006E-01
 -1      1933 3.26939E+01 7.01563E+00 6.98750E-01
 -1      1934 3.94102E+01 6.90603E+00 9.87323E-01
 -1      1935 4.50648E+01 6.84775E+00 5.05266E-01
 -1      1936 4.59938E+01 7.09102E+00 7.68625E-01
 -1      1937 4.62405E+01 6.53957E+00 9.50988E-01
 -1      1938 4.72087E+01 6.81664E+00 9.14181E-01
 -1      1939 5.15358E+01 7.16754E+00 6.70427E-01
 -1      1940 5.40775E+01 7.13068E+00 6.98750E-01
 -1      1941 5.49140E+01 7.05737E+00 4.77440E-01
 -1      1942 7.26540E+01 7.04971E+00 7.73323E-01
 -1      1943 8.51056E+01 7.05135E+00 4.65899E-01
 -1      1944 8.84225E+01 7.13589E+00 6.02816E-01
 -1      1945 9.16482E+01 6.98750E+00 5.35273E-01
 -1      1946 9.82087E+01 7.16627E+00 6.68159E-01
 -1      1947 8.24221E+00 7.70333E+00 5.40287E-01
 -1      1948 1.21858E+01 7.54650E+00 7.93011E-01
 -1      1949 1.49364E+01 7.30114E+00 5.63986E-01
 -1      1950 1.79900E+01 7.40675E+00 8.03198E-01
 -1      1951 1.85827E+01 7.69106E+00 5.11986E-01
 -1      1952 2.12769E+01 7.66019E+00 5.36159E-01
 -1      1953 2.17456E+01 7.12725E+00 5.99182E-01
 -1      1954 2.52948E+01 7.49383E+00 5.65649E-01
 -1      1955 2.76567E+01 7.54650E+00 9.12078E-01
 -1      1956 2.80898E+01 7.67153E+00 5.22590E-01
 -1      1957 3.18710E+01 7.65863E+00 5.44427E-01
 -1      1958 3.44871E+01 7.54650E+00 7.90205E-01
 -1      1959 3.90230E+01 7.54650E+00 9.78250E-01
 -1      1960 3.84326E+01 7.66839E+00 5.48843E-01
 -1      1961 4.09940E+01 7.54650E+00 9.56549E-01
 -1      1962 4.13660E+01 7.54650E+00 6.03480E-01
 -1      1963 4.18868E+01 7.49933E+00 7.16096E-01
 -1      1964 4.53476E+01 7.37033E+00 5.54941E-01
 -1      1965 5.21658E+01 7.54650E+00 7.84547E-01
 -1      1966 5.49171E+01 7.70333E+00 5.42720E-01
 -1      1967 5.88587E+01 7.54650E+00 7.95973E-01
 -1      1968 6.14900E+01 7.65050E+00 5.11359E-01
 -1      1969 6.17305E+01 7.12725E+00 5.84446E-01
 -1      1970 6.47920E+01 6.91660E+00 8.83829E-01
 -1      1971 6.51062E+01 7.61528E+00 5.72038E-01
 -1      1972 6.76508E+01 7.54650E+00 9.39803E-01
 -1      1973 6.84435E+01 7.16219E+00 6.56685E-01
 -1      1974 7.19713E+01 7.49325E+00 5.65908E-01
 -1      1975 7.13138E+01 7.20575E+00 9.08375E-01
 -1      1976 7.44671E+01 7.54650E+00 7.99746E-01
 -1      1977 7.84412E+01 7.63733E+00 5.54339E-01
 -1      1978 7.90229E+01 7.54650E+00 9.78250E-01
 -1      1979 8.11600E+01 7.54650E+00 7.87548E-01
 -1      1980 8.56897E+01 7.54650E+00 9.78250E-01
 -1      1981 8.51073E+01 7.70269E+00 5.38916E-01
 -1      1982 8.76632E+01 7.54650E+00 9.54243E-01
 -1      1983 8.81846E+01 7.82040E+00 5.06475E-01
 -1      1984 9.19555E+01 7.54650E+00 6.01319E-01
 -1      1985 9.23362E+01 7.54650E+00 9.53785E-01
 -1      1986 9.43406E+01 7.54650E+00 9.45503E-01
 -1      1987 9.47505E+01 7.47505E+00 5.45862E-01
 -1      1988 9.88033E+01 7.54650E+00 6.95815E-01
 -1      1989 1.43562E+01 7.54650E+00 9.34890E-01
 -1      1990 5.43486E+01 7.54650E+00 9.39812E-01
 -1      1991 6.10252E+01 7.54650E+00 9.33502E-01
 -1      1992 1.00223E+00 7.54650E+00 9.49474E-01
 -1      1993 1.78938E+00 7.91603E+00 6.71707E-01
 -1      1994 2.49800E+01 7.96575E+00 5.68897E-01
 -1      1995 2.56867E+01 7.54650E+00 9.60093E-01
 -1      1996 4.48762E+01 7.94689E+00 6.76487E-01
 -1      1997 4.76714E+01 7.54650E+00 9.47447E-01
 -1      1998 4.83583E+01 7.93874E+00 5.88386E-01
 -1      1999 6.07245E+01 8.14749E+00 1.16926E+00
 -1      2000 7.16526E+01 7.96575E+00 5.64240E-01
 -1      2001 7.25303E+01 7.92289E+00 6.28996E-01
 -1      2002 9.51343E+01 7.91126E+00 6.76043E-01
 -1      2003 6.10604E+00 8.15724E+00 6.98750E-01
 -1      2004 7.67945E+00 7.54650E+00 9.41503E-01
 -1      2005 7.28542E+00 8.12282E+00 5.59000E-01
 -1      2006 1.17009E+01 8.66450E+00 8.23375E-01
 -1      2007 1.83535E+01 8.66450E+00 6.98750E-01
 -1      2008 2.17505E+01 7.96575E+00 6.15289E-01
 -1      2009 2.83415E+01 8.67556E+00 7.06189E-01
 -1      2010 2.86231E+01 7.65131E+00 7.66470E-01
 -1      2011 3.25973E+01 7.94812E+00 7.33688E-01
 -1      2012 5.39565E+01 8.11752E+00 5.59000E-01
 -1      2013 5.81192E+01 7.55402E+00 7.20641E-01
 -1      2014 5.83058E+01 8.67337E+00 7.45489E-01
 -1      2015 6.50176E+01 8.66450E+00 6.98750E-01
 -1      2016 6.61353E+01 8.22506E+00 5.59000E-01
 -1      2017 6.87302E+01 7.83423E+00 1.03987E+00
 -1      2018 7.17929E+01 8.81294E+00 8.77803E-01
 -1      2019 7.50777E+01 8.26157E+00 7.25933E-01
 -1      2020 7.52972E+01 7.65131E+00 7.73806E-01
 -1      2021 7.92183E+01 7.93824E+00 6.28875E-01
 -1      2022 8.71982E+01 8.26583E+00 9.30142E-01
 -1      2023 9.82228E+01 7.96152E+00 6.59839E-01
 -1      2024 9.92225E+01 7.81151E+00 8.38500E-01
 -1      2025 6.95878E+00 8.56948E+00 7.10465E-01
 -1      2026 3.29586E+01 8.42293E+00 6.98750E-01
 -1      2027 3.80026E+01 8.01743E+00 1.03066E+00
 -1      2028 3.83282E+01 8.70328E+00 8.38500E-01
 -1      2029 4.60970E+01 8.21719E+00 9.12339E-01
 -1      2030 5.15101E+01 8.07019E+00 7.84416E-01
 -1      2031 5.18406E+01 8.80425E+00 9.75648E-01
 -1      2032 5.37193E+01 8.65487E+00 9.23512E-01
 -1      2033 6.03788E+01 8.41317E+00 6.98750E-01
 -1      2034 6.70898E+01 8.37876E+00 7.26477E-01
 -1      2035 7.29139E+01 8.62036E+00 9.82839E-01
 -1      2036 8.49769E+01 8.26258E+00 5.76708E-01
 -1      2037 9.27620E+01 8.14204E+00 6.98750E-01
 -1      2038 9.49992E+01 8.69933E+00 8.38500E-01
 -1      2039 9.83227E+01 8.66450E+00 8.02818E-01
 -1      2040 2.01240E+01 9.08500E+00 8.88511E-01
 -1      2041 4.16405E+01 8.67274E+00 8.38500E-01
 -1      2042 4.50154E+01 8.68646E+00 8.38500E-01
 -1      2043 6.38887E+01 8.69944E+00 5.49100E-01
 -1      2044 6.44397E+01 8.63003E+00 7.68625E-01
 -1      2045 7.32290E+01 9.04146E+00 7.51113E-01
 -1      2046 7.49411E+01 8.78432E+00 9.21006E-01
 -1      2047 8.49998E+01 8.70004E+00 8.38500E-01
 -1      2048 8.83120E+01 8.67956E+00 8.38500E-01
 -1      2049 1.65610E+00 8.69133E+00 8.38500E-01
 -1      2050 2.81822E+00 8.48341E+00 8.44174E-01
 -1      2051 2.93885E+00 9.08375E+00 4.99176E-01
 -1      2052 4.50429E+00 8.64758E+00 7.68625E-01
 -1      2053 3.61584E+00 8.76931E+00 5.83118E-01
 -1      2054 8.87413E+00 8.65185E+00 6.28875E-01
 -1      2055 9.60950E+00 8.85666E+00 5.50693E-01
 -1      2056 1.03946E+01 8.80425E+00 5.28951E-01
 -1      2057 1.36795E+01 8.54469E+00 7.88046E-01
 -1      2058 1.48872E+01 8.84059E+00 9.60321E-01
 -1      2059 1.60341E+01 8.46406E+00 1.01460E+00
 -1      2060 1.65269E+01 8.94400E+00 5.64512E-01
 -1      2061 2.30302E+01 9.08375E+00 5.40723E-01
 -1      2062 2.27730E+01 8.55832E+00 7.03159E-01
 -1      2063 2.93419E+01 8.55428E+00 7.01805E-01
 -1      2064 2.98536E+01 9.31783E+00 7.17455E-01
 -1      2065 3.02948E+01 8.83919E+00 5.44535E-01
 -1      2066 3.61728E+01 8.45489E+00 8.38500E-01
 -1      2067 3.65406E+01 9.03833E+00 5.75810E-01
 -1      2068 3.72731E+01 8.73438E+00 5.26607E-01
 -1      2069 4.29239E+01 8.93527E+00 5.36046E-01
 -1      2070 4.89474E+01 8.60406E+00 6.98750E-01
 -1      2071 4.96811E+01 8.52622E+00 7.10891E-01
 -1      2072 4.96957E+01 9.09724E+00 5.49983E-01
 -1      2073 5.54473E+01 8.65878E+00 8.03563E-01
 -1      2074 5.62840E+01 8.85666E+00 5.52740E-01
 -1      2075 5.76917E+01 8.65742E+00 5.93938E-01
 -1      2076 5.69720E+01 8.80425E+00 5.60330E-01
 -1      2077 6.15630E+01 8.83842E+00 9.61517E-01
 -1      2078 6.20264E+01 8.67590E+00 6.98750E-01
 -1      2079 6.26779E+01 8.52126E+00 7.71812E-01
 -1      2080 6.32008E+01 8.94400E+00 5.65653E-01
 -1      2081 6.94473E+01 8.55734E+00 7.03554E-01
 -1      2082 6.97042E+01 9.08375E+00 5.44126E-01
 -1      2083 8.28744E+01 8.45327E+00 8.42300E-01
 -1      2084 8.32031E+01 9.15148E+00 5.92146E-01
 -1      2085 8.88138E+01 8.64944E+00 6.98750E-01
 -1      2086 8.95980E+01 8.93527E+00 5.38459E-01
 -1      2087 9.55191E+01 8.65607E+00 6.28875E-01
 -1      2088 9.61197E+01 8.48061E+00 8.79914E-01
 -1      2089 9.61480E+01 9.08375E+00 4.46344E-01
 -1      2090 9.67862E+01 9.16733E+00 6.07993E-01
 -1      2091 1.68803E+01 9.41434E+00 8.71507E-01
 -1      2092 1.72012E+01 8.56418E+00 6.94358E-01
 -1      2093 2.36074E+01 8.76931E+00 5.71583E-01
 -1      2094 2.35857E+01 9.42896E+00 8.64819E-01
 -1      2095 3.05538E+01 9.40857E+00 5.45975E-01
 -1      2096 6.35562E+01 9.41784E+00 8.69910E-01
 -1      2097 7.02814E+01 8.76931E+00 5.70298E-01
 -1      2098 7.02615E+01 9.43241E+00 8.63238E-01
 -1      2099 7.61852E+01 8.89159E+00 5.17684E-01
 -1      2100 7.69651E+01 8.83919E+00 5.43528E-01
 -1      2101 7.65345E+01 9.40516E+00 7.95797E-01
 -1      2102 9.12647E+00 9.68938E+00 6.46344E-01
 -1      2103 2.42337E+01 9.75166E+00 9.43313E-01
 -1      2104 2.90099E+01 9.62398E+00 4.36200E-01
 -1      2105 3.61415E+01 9.54689E+00 1.16556E+00
 -1      2106 4.31217E+01 9.43097E+00 1.05475E+00
 -1      2107 4.91143E+01 9.66829E+00 5.96125E-01
 -1      2108 5.60083E+01 9.51288E+00 5.48625E-01
 -1      2109 7.70507E+01 9.54598E+00 1.11842E+00
 -1      2110 8.38258E+01 8.63969E+00 6.24726E-01
 -1      2111 8.97958E+01 9.42845E+00 1.05557E+00
 -1      2112 9.09134E+01 9.74619E+00 8.73438E-01
 -1      2113 9.57872E+01 9.66621E+00 5.97749E-01
 -1      2114 1.00092E+02 9.64275E+00 9.30298E-01
 -1      2115-1.10420E-01 9.71263E+00 9.27284E-01
 -1      2116 2.89273E+01 9.78889E+00 9.60781E-01
 -1      2117 3.10048E+01 9.75806E+00 1.01319E+00
 -1      2118 3.56596E+01 9.77691E+00 6.98750E-01
 -1      2119 3.79429E+01 9.86524E+00 8.47234E-01
 -1      2120 4.42724E+01 9.75905E+00 8.90906E-01
 -1      2121 5.55910E+01 9.68438E+00 1.13740E+00
 -1      2122 5.80964E+01 9.94206E+00 7.16219E-01
 -1      2123 6.23946E+01 9.75500E+00 7.33688E-01
 -1      2124 8.23324E+01 9.77407E+00 6.98750E-01
 -1      2125 8.45300E+01 9.83334E+00 8.21031E-01
 -1      2126 1.94615E+00 9.88747E+00 9.25844E-01
 -1      2127 4.89125E+00 9.98031E+00 7.68625E-01
 -1      2128 8.68754E+00 9.85468E+00 9.78250E-01
 -1      2129 1.77130E+01 9.78608E+00 9.25844E-01
 -1      2130 2.47357E+01 9.75163E+00 1.09876E+00
 -1      2131 3.50213E+01 1.00310E+01 6.63813E-01
 -1      2132 4.15011E+01 1.00684E+01 6.84317E-01
 -1      2133 4.86231E+01 9.87838E+00 9.60781E-01
 -1      2134 7.16219E+01 9.92730E+00 8.78349E-01
 -1      2135 8.16954E+01 1.00287E+01 6.63813E-01
 -1      2136 8.81746E+01 1.00665E+01 6.84098E-01
 -1      2137 9.15363E+01 9.97413E+00 7.68625E-01
 -1      2138 9.52990E+01 9.87648E+00 9.60781E-01
 -1      2139 1.21373E+01 1.02086E+01 4.54428E-01
 -1      2140 1.28570E+01 1.03021E+01 8.38500E-01
 -1      2141 2.58538E+01 1.01909E+01 8.38500E-01
 -1      2142 3.44143E+01 1.01646E+01 7.07295E-01
 -1      2143 4.60266E+01 1.03351E+01 5.75902E-01
 -1      2144 5.95335E+01 1.03035E+01 8.38500E-01
 -1      2145 6.61018E+01 1.02603E+01 8.85233E-01
 -1      2146 7.30892E+01 1.02883E+01 8.19094E-01
 -1      2147 9.99911E+01 1.02658E+01 7.46934E-01
 -1      2148 6.84775E+00 1.03284E+01 7.23116E-01
 -1      2149 1.35557E+01 1.02382E+01 8.68737E-01
 -1      2150 2.01240E+01 1.01429E+01 9.65820E-01
 -1      2151 3.30509E+01 1.02094E+01 9.10787E-01
 -1      2152 3.97589E+01 1.02563E+01 8.45073E-01
 -1      2153 4.69560E+01 1.03902E+01 6.63893E-01
 -1      2154 5.28255E+01 1.01993E+01 1.03703E+00
 -1      2155 5.33845E+01 1.01409E+01 9.21236E-01
 -1      2156 5.99528E+01 1.04426E+01 5.59000E-01
 -1      2157 6.66608E+01 1.03743E+01 6.72710E-01
 -1      2158 7.97274E+01 1.02084E+01 9.08711E-01
 -1      2159 8.65052E+01 1.03329E+01 7.42319E-01
 -1      2160 9.95020E+01 1.01996E+01 1.03656E+00
 -1      2161 2.65525E+01-8.91870E-02 9.67689E-01
 -1      2162 5.37339E+01-2.38026E-01 8.19881E-01
 -1      2163 6.58918E+01-7.27614E-02 1.13353E+00
 -1      2164 9.95429E+01-9.38014E-02 1.10961E+00
 -1      2165 7.54650E+00 2.03455E-02 1.20940E+00
 -1      2166 1.21171E+01 6.78274E-02 9.43887E-01
 -1      2167 1.41846E+01-1.83827E-02 1.16928E+00
 -1      2168 1.91982E+01-2.27449E-02 1.23476E+00
 -1      2169 2.52948E+01-1.90169E-03 8.47913E-01
 -1      2170 2.58887E+01-5.86476E-02 1.13954E+00
 -1      2171 2.76705E+01-1.26445E-02 9.78250E-01
 -1      2172 3.20028E+01 1.04229E-01 1.02303E+00
 -1      2173 3.26316E+01-8.79638E-02 1.14307E+00
 -1      2174 3.88505E+01 5.42814E-02 9.93732E-01
 -1      2175 4.15116E+01 4.94124E-01 1.29591E+00
 -1      2176 4.59465E+01 8.68140E-02 1.46207E+00
 -1      2177 4.73753E+01 1.00023E-02 1.37492E+00
 -1      2178 5.42579E+01 2.97356E-02 1.22935E+00
 -1      2179 6.12892E+01 1.08157E-01 1.05798E+00
 -1      2180 7.19632E+01 1.18665E-01 1.02225E+00
 -1      2181 7.25652E+01-6.12410E-02 1.14059E+00
 -1      2182 7.43470E+01-9.47291E-03 9.78250E-01
 -1      2183 7.86793E+01 1.01951E-01 1.02324E+00
 -1      2184 7.93081E+01-8.96185E-02 1.14360E+00
 -1      2185 8.11965E+01 1.55196E-01 1.12642E+00
 -1      2186 8.53798E+01 2.33646E-02 9.16598E-01
 -1      2187 8.59463E+01-5.68179E-02 1.21088E+00
 -1      2188 8.73438E+01 1.12134E-02 1.37671E+00
 -1      2189 8.81823E+01 4.96242E-01 1.29742E+00
 -1      2190 9.25844E+01-3.47846E-02 1.24733E+00
 -1      2191 9.40518E+01-8.76356E-03 1.31141E+00
 -1      2192 9.47544E+01 1.60440E-01 1.06314E+00
 -1      2193 2.32846E+00 2.71173E-01 9.78250E-01
 -1      2194 2.89553E+01 3.61004E-01 1.11603E+00
 -1      2195 3.56775E+01 2.72684E-01 9.79167E-01
 -1      2196 4.23022E+01 2.63463E-01 9.78928E-01
 -1      2197 4.41997E+01 3.21161E-01 1.01319E+00
 -1      2198 4.90003E+01 2.73074E-01 9.78250E-01
 -1      2199 5.12537E+01 3.15049E-01 1.11362E+00
 -1      2200 5.07313E+01 3.55824E-01 9.78250E-01
 -1      2201 7.75895E+01 3.02157E-01 1.01319E+00
 -1      2202 8.22822E+01 2.59266E-01 9.79827E-01
 -1      2203 9.56723E+01 2.74989E-01 9.78250E-01
 -1      2204 2.99001E+00 5.09174E-01 1.18788E+00
 -1      2205 3.46522E+00 6.66726E-01 8.81760E-01
 -1      2206 3.95486E+00 4.60618E-01 1.22850E+00
 -1      2207 9.70151E+00 5.20141E-01 1.18999E+00
 -1      2208 1.04632E+01 5.14757E-01 1.19360E+00
 -1      2209 1.63899E+01 5.48502E-01 1.11630E+00
 -1      2210 3.02367E+01 5.36871E-01 1.01319E+00
 -1      2211 3.73831E+01 4.64290E-01 1.23535E+00
 -1      2212 3.68764E+01 5.60375E-01 9.78250E-01
 -1      2213 4.29388E+01 5.15114E-01 1.25775E+00
 -1      2214 4.34481E+01 6.68889E-01 8.83352E-01
 -1      2215 4.96652E+01 5.12799E-01 1.19026E+00
 -1      2216 5.01399E+01 6.63750E-01 8.80172E-01
 -1      2217 6.30653E+01 5.51359E-01 1.11722E+00
 -1      2218 7.69116E+01 5.34127E-01 1.01319E+00
 -1      2219 8.29141E+01 5.08742E-01 1.25775E+00
 -1      2220 8.96132E+01 5.21210E-01 1.27522E+00
 -1      2221 9.04254E+01 5.06146E-01 1.10334E+00
 -1      2222 9.63481E+01 5.15900E-01 1.19018E+00
 -1      2223 1.69199E+01 5.62319E-01 1.18788E+00
 -1      2224 5.69091E+01 5.61843E-01 1.18788E+00
 -1      2225 6.36122E+01 5.37742E-01 9.78250E-01
 -1      2226 7.03171E+01 5.46593E-01 1.06661E+00
 -1      2227 8.34905E+01 6.82924E-01 8.32631E-01
 -1      2228 9.99048E+01 6.63813E-01 1.14610E+00
 -1      2229 2.65525E+01 8.03276E-01 9.93648E-01
 -1      2230 2.70095E+01 1.18803E+00 1.04816E+00
 -1      2231 4.31258E+01 1.29269E+00 6.00916E-01
 -1      2232 7.32290E+01 7.45520E-01 1.02041E+00
 -1      2233 7.36760E+01 1.21138E+00 1.02041E+00
 -1      2234 1.95149E+01 1.18730E+00 1.32709E+00
 -1      2235 3.83227E+01 1.36037E+00 8.38500E-01
 -1      2236 4.04383E+01 1.22432E+00 1.19172E+00
 -1      2237 4.70489E+01 1.21030E+00 1.09799E+00
 -1      2238 5.10598E+01 1.45349E+00 1.08306E+00
 -1      2239 5.46359E+01 1.11800E+00 1.11800E+00
 -1      2240 6.62251E+01 1.25563E+00 1.10519E+00
 -1      2241 6.68005E+01 9.11612E-01 9.04328E-01
 -1      2242 7.83070E+01 1.35085E+00 8.38500E-01
 -1      2243 8.63366E+01 1.52709E+00 7.11702E-01
 -1      2244 8.66450E+01 5.18079E-01 1.11213E+00
 -1      2245 8.70381E+01 1.31898E+00 9.86960E-01
 -1      2246 9.33530E+01 5.02727E-01 1.10986E+00
 -1      2247 9.83555E+01 1.39750E+00 9.12693E-01
 -1      2248 2.70138E+00 1.63507E+00 1.01319E+00
 -1      2249 4.38449E+00 1.48235E+00 9.78250E-01
 -1      2250 6.33328E+00 1.24671E+00 9.84891E-01
 -1      2251 9.43313E+00 1.65136E+00 9.78250E-01
 -1      2252 9.99212E+00 1.75878E+00 1.47951E+00
 -1      2253 1.07166E+01 1.54402E+00 1.26648E+00
 -1      2254 1.61071E+01 1.66303E+00 1.22281E+00
 -1      2255 1.71737E+01 1.65353E+00 1.04813E+00
 -1      2256 1.76784E+01 1.43537E+00 1.22281E+00
 -1      2257 2.43165E+01 1.51329E+00 9.78250E-01
 -1      2258 2.94958E+01 1.66205E+00 9.78250E-01
 -1      2259 3.05879E+01 1.53300E+00 1.42225E+00
 -1      2260 3.68241E+01 1.73712E+00 1.04813E+00
 -1      2261 3.73327E+01 1.61523E+00 9.78250E-01
 -1      2262 3.96646E+01 1.48776E+00 8.72397E-01
 -1      2263 4.26848E+01 1.63099E+00 1.01319E+00
 -1      2264 4.39118E+01 1.64747E+00 1.20534E+00
 -1      2265 4.99606E+01 1.75748E+00 1.48034E+00
 -1      2266 5.33845E+01 4.63666E-01 1.06093E+00
 -1      2267 5.62421E+01 1.69044E+00 1.13547E+00
 -1      2268 5.73747E+01 1.57159E+00 1.18788E+00
 -1      2269 6.27775E+01 1.66420E+00 1.22281E+00
 -1      2270 6.40670E+01 1.55668E+00 1.11800E+00
 -1      2271 7.00148E+01 1.82300E+00 1.25775E+00
 -1      2272 8.37273E+01 1.68693E+00 1.03066E+00
 -1      2273 8.93567E+01 1.63228E+00 1.01319E+00
 -1      2274 8.99641E+01 1.74733E+00 1.48061E+00
 -1      2275 9.05763E+01 1.62826E+00 1.15294E+00
 -1      2276 9.73284E+01 1.60508E+00 1.22281E+00
 -1      2277 4.76250E+00 1.84640E+00 1.04813E+00
 -1      2278 8.65520E+00 2.14564E+00 8.30233E-01
 -1      2279 1.26454E+01 2.08681E+00 9.78250E-01
 -1      2280 1.81063E+01 1.82522E+00 1.01319E+00
 -1      2281 1.93212E+01 2.05880E+00 9.94084E-01
 -1      2282 2.19190E+01 1.95001E+00 1.38775E+00
 -1      2283 2.46096E+01 2.17913E+00 1.04813E+00
 -1      2284 3.27000E+01 1.99170E+00 9.78250E-01
 -1      2285 3.80304E+01 2.06871E+00 8.38500E-01
 -1      2286 4.46991E+01 2.17725E+00 8.15549E-01
 -1      2287 4.87653E+01 2.24950E+00 1.15034E+00
 -1      2288 5.93145E+01 2.08272E+00 9.78250E-01
 -1      2289 6.59928E+01 2.05301E+00 9.92154E-01
 -1      2290 7.13158E+01 2.17587E+00 9.08375E-01
 -1      2291 7.80973E+01 1.89979E+00 1.08306E+00
 -1      2292 8.46940E+01 2.20127E+00 8.12727E-01
 -1      2293 8.86670E+01 2.00002E+00 1.13547E+00
 -1      2294 4.57688E+00 2.50414E+00 9.36964E-01
 -1      2295 1.14723E+01 1.82605E+00 1.18788E+00
 -1      2296 2.21793E+01 2.61270E+00 1.25775E+00
 -1      2297 3.23490E+01 2.51550E+00 9.78250E-01
 -1      2298 4.08070E+01 1.67700E+00 1.39823E+00
 -1      2299 7.53565E+01 2.02263E+00 1.28356E+00
 -1      2300 7.77858E+01 2.37575E+00 1.25775E+00
 -1      2301 9.53164E+01 2.32271E+00 7.99824E-01
 -1      2302 9.92919E+01 2.09580E+00 1.04813E+00
 -1      2303 1.53922E+01 2.82175E+00 1.04813E+00
 -1      2304 1.90054E+01 2.51550E+00 9.26714E-01
 -1      2305 2.09882E+01 2.51550E+00 9.56417E-01
 -1      2306 2.56807E+01 2.51550E+00 9.66914E-01
 -1      2307 4.19839E+01 2.65525E+00 7.84218E-01
 -1      2308 5.11714E+01 2.50418E+00 1.24824E+00
 -1      2309 7.23496E+01 2.51550E+00 9.78048E-01
 -1      2310 7.90156E+01 2.51550E+00 9.78250E-01
 -1      2311 8.56826E+01 2.51550E+00 9.78250E-01
 -1      2312 9.78662E+01 2.33820E+00 1.08812E+00
 -1      2313 1.96623E+00 2.91353E+00 8.19748E-01
 -1      2314 2.06605E+01 2.98758E+00 9.88486E-01
 -1      2315 2.46550E+01 2.88071E+00 1.47470E+00
 -1      2316 2.73796E+01 2.96311E+00 1.06641E+00
 -1      2317 3.54914E+01 2.30125E+00 1.29130E+00
 -1      2318 4.86814E+01 2.90616E+00 9.00280E-01
 -1      2319 6.20682E+01 2.76927E+00 1.01319E+00
 -1      2320 6.87957E+01 2.78630E+00 1.15294E+00
 -1      2321 7.13262E+01 2.88292E+00 1.47746E+00
 -1      2322 7.39196E+01 3.11262E+00 9.53375E-01
 -1      2323 7.79099E+01 2.92385E+00 1.25775E+00
 -1      2324 8.19681E+01 2.65525E+00 7.72161E-01
 -1      2325 8.46712E+01 2.99806E+00 1.03066E+00
 -1      2326 8.86220E+01 2.93032E+00 8.14260E-01
 -1      2327 9.14184E+01 3.09982E+00 9.31441E-01
 -1      2328 5.75522E+00 3.49375E+00 1.46738E+00
 -1      2329 7.25730E+00 3.23711E+00 1.14027E+00
 -1      2330 1.40082E+01 2.97547E+00 1.01655E+00
 -1      2331 3.80004E+01 2.99007E+00 1.03066E+00
 -1      2332 4.18496E+01 3.20997E+00 1.17041E+00
 -1      2333 5.15001E+01 3.21995E+00 1.19490E+00
 -1      2334 5.40458E+01 2.93342E+00 1.04813E+00
 -1      2335 6.06979E+01 2.93656E+00 9.85768E-01
 -1      2336 7.51981E+01 3.25020E+00 9.43313E-01
 -1      2337 8.19084E+01 3.17603E+00 1.18788E+00
 -1      2338 9.40056E+01 2.95541E+00 8.21966E-01
 -1      2339 1.65887E+00 3.65848E+00 8.38500E-01
 -1      2340 8.63643E+00 2.95335E+00 8.38500E-01
 -1      2341 3.49712E+01 3.63350E+00 9.19433E-01
 -1      2342 5.52618E+01 3.07450E+00 8.38500E-01
 -1      2343 6.73321E+01 2.98174E+00 9.90448E-01
 -1      2344 8.84607E+01 3.27308E+00 1.32763E+00
 -1      2345 9.38153E+01 3.61026E+00 1.13519E+00
 -1      2346 4.13040E+00 3.45353E+00 1.01319E+00
 -1      2347 6.23570E+00 3.80896E+00 1.19124E+00
 -1      2348 9.47527E+00 3.38879E+00 9.43313E-01
 -1      2349 1.09349E+01 3.52614E+00 1.17041E+00
 -1      2350 1.67001E+01 3.26590E+00 1.47962E+00
 -1      2351 1.71859E+01 3.36551E+00 1.18788E+00
 -1      2352 1.77483E+01 3.58851E+00 1.15294E+00
 -1      2353 2.01240E+01 4.14638E+00 9.72432E-01
 -1      2354 2.27900E+01 3.37008E+00 9.78250E-01
 -1      2355 2.35798E+01 3.27060E+00 1.22281E+00
 -1      2356 2.43165E+01 3.50902E+00 9.78250E-01
 -1      2357 2.71198E+01 3.77355E+00 1.11771E+00
 -1      2358 2.98366E+01 3.63350E+00 6.11398E-01
 -1      2359 2.94562E+01 3.37853E+00 1.18788E+00
 -1      2360 3.02865E+01 3.27880E+00 1.22281E+00
 -1      2361 3.11703E+01 3.58476E+00 9.78250E-01
 -1      2362 3.72148E+01 3.37385E+00 1.17041E+00
 -1      2363 4.27611E+01 3.35879E+00 1.22281E+00
 -1      2364 4.42462E+01 3.48462E+00 1.08306E+00
 -1      2365 5.08046E+01 3.45605E+00 1.01319E+00
 -1      2366 5.29849E+01 3.91615E+00 1.17830E+00
 -1      2367 5.62768E+01 3.37686E+00 8.90906E-01
 -1      2368 5.76818E+01 3.58224E+00 1.20534E+00
 -1      2369 6.04742E+01 3.79438E+00 1.19622E+00
 -1      2370 6.33766E+01 3.26623E+00 1.47901E+00
 -1      2371 6.38618E+01 3.36922E+00 1.18788E+00
 -1      2372 6.44248E+01 3.59334E+00 1.15294E+00
 -1      2373 6.94652E+01 3.36792E+00 9.78250E-01
 -1      2374 7.02560E+01 3.27242E+00 1.22281E+00
 -1      2375 7.09930E+01 3.51268E+00 9.78250E-01
 -1      2376 7.37445E+01 3.75133E+00 1.08932E+00
 -1      2377 7.61296E+01 3.37603E+00 1.18788E+00
 -1      2378 7.69324E+01 3.26927E+00 1.32763E+00
 -1      2379 8.69571E+01 3.93016E+00 1.11812E+00
 -1      2380 8.94340E+01 3.35613E+00 1.22281E+00
 -1      2381 9.02553E+01 3.77325E+00 5.73198E-01
 -1      2382 9.06538E+01 3.39406E+00 1.01319E+00
 -1      2383 9.62067E+01 3.38868E+00 9.08375E-01
 -1      2384 9.74787E+01 3.45858E+00 1.01319E+00
 -1      2385 3.48352E-01 3.92257E+00 1.12346E+00
 -1      2386 2.65525E+01 4.03419E+00 8.06896E-01
 -1      2387 8.66450E+01 4.49958E+00 1.11500E+00
 -1      2388 9.33530E+01 4.51954E+00 1.11276E+00
 -1      2389 9.92285E+00 4.35971E+00 8.76654E-01
 -1      2390 1.63463E+01 4.48978E+00 1.11687E+00
 -1      2391 3.67885E+01 4.38563E+00 1.41139E+00
 -1      2392 4.34803E+01 4.43741E+00 1.34252E+00
 -1      2393 4.95411E+01 4.56201E+00 1.01319E+00
 -1      2394 6.30161E+01 4.48777E+00 1.11789E+00
 -1      2395 6.97589E+01 4.44686E+00 1.04813E+00
 -1      2396 7.70193E+01 4.49498E+00 1.22514E+00
 -1      2397 8.36370E+01 4.47976E+00 1.25775E+00
 -1      2398 9.04478E+01 4.54517E+00 1.11800E+00
 -1      2399 1.00069E+02 4.61175E+00 9.76081E-01
 -1      2400 2.64368E+00 4.65514E+00 1.04813E+00
 -1      2401 9.37417E+00 4.55314E+00 1.26832E+00
 -1      2402 1.56266E+01 4.63823E+00 1.17533E+00
 -1      2403 3.56361E+01 4.76256E+00 9.78250E-01
 -1      2404 3.61782E+01 4.51558E+00 1.26481E+00
 -1      2405 3.73831E+01 4.64387E+00 1.04813E+00
 -1      2406 4.26237E+01 4.56440E+00 1.27190E+00
 -1      2407 5.60496E+01 4.50260E+00 1.34880E+00
 -1      2408 5.54980E+01 4.68098E+00 1.13407E+00
 -1      2409 6.23007E+01 4.63716E+00 1.17563E+00
 -1      2410 7.61681E+01 4.41968E+00 1.38501E+00
 -1      2411 8.28932E+01 4.50060E+00 1.28230E+00
 -1      2412 8.95352E+01 4.50924E+00 1.28032E+00
 -1      2413 9.63138E+01 4.50162E+00 1.25775E+00
 -1      2414 9.56382E+01 4.73589E+00 1.03066E+00
 -1      2415 8.74480E+00 4.62050E+00 1.23680E+00
 -1      2416 4.87608E+01 4.77053E+00 1.08306E+00
 -1      2417 2.56401E+00 5.36789E+00 1.04879E+00
 -1      2418 3.56480E+01 5.28619E+00 9.79924E-01
 -1      2419 4.22588E+01 5.25710E+00 9.44450E-01
 -1      2420 8.23234E+01 5.28863E+00 9.79805E-01
 -1      2421 8.41671E+01 5.35303E+00 1.01319E+00
 -1      2422 8.89510E+01 5.28063E+00 9.80241E-01
 -1      2423 3.05551E+00 5.57647E+00 1.26400E+00
 -1      2424 9.73184E+00 5.55631E+00 1.15575E+00
 -1      2425 1.67981E+01 5.58312E+00 1.10372E+00
 -1      2426 2.31175E+01 5.62117E+00 1.04876E+00
 -1      2427 3.05784E+01 5.50273E+00 1.23270E+00
 -1      2428 3.63735E+01 5.55638E+00 1.25908E+00
 -1      2429 4.34432E+01 5.69551E+00 8.81766E-01
 -1      2430 4.96013E+01 5.51096E+00 1.19093E+00
 -1      2431 5.64077E+01 5.55831E+00 1.15566E+00
 -1      2432 6.30529E+01 5.57516E+00 1.11132E+00
 -1      2433 6.35587E+01 5.58501E+00 1.22281E+00
 -1      2434 7.00920E+01 5.61633E+00 9.05107E-01
 -1      2435 7.72818E+01 5.42656E+00 1.04813E+00
 -1      2436 7.65483E+01 5.56992E+00 1.15414E+00
 -1      2437 8.30490E+01 5.55868E+00 1.25872E+00
 -1      2438 8.34788E+01 5.59412E+00 9.78250E-01
 -1      2439 8.96216E+01 5.54111E+00 1.25775E+00
 -1      2440 9.01633E+01 5.68105E+00 8.65874E-01
 -1      2441 9.62889E+01 5.55121E+00 1.22879E+00
 -1      2442 3.67547E-01 6.13632E+00 1.13995E+00
 -1      2443 1.04681E+01 5.54579E+00 1.17715E+00
 -1      2444 2.36120E+01 5.57634E+00 1.18560E+00
 -1      2445 3.67101E+01 5.69828E+00 8.75175E-01
 -1      2446 5.01366E+01 5.68997E+00 8.78622E-01
 -1      2447 5.69676E+01 5.56338E+00 1.17041E+00
 -1      2448 6.35560E+01 6.21887E+00 5.88965E-01
 -1      2449 9.97880E+01 5.79963E+00 1.27189E+00
 -1      2450 6.70800E+00 5.71767E+00 9.65611E-01
 -1      2451 7.32290E+01 5.77296E+00 1.01811E+00
 -1      2452 7.36136E+01 6.15942E+00 1.03302E+00
 -1      2453 8.66450E+01 5.53993E+00 1.10903E+00
 -1      2454 9.33530E+01 5.52745E+00 1.10672E+00
 -1      2455 9.37223E+01 6.24324E+00 1.09899E+00
 -1      2456 4.38191E+00 6.48103E+00 1.08306E+00
 -1      2457 8.35159E+00 6.38871E+00 8.38500E-01
 -1      2458 1.95100E+01 6.21832E+00 1.32712E+00
 -1      2459 3.83200E+01 6.39234E+00 8.38500E-01
 -1      2460 3.99685E+01 5.82638E+00 7.95447E-01
 -1      2461 4.50072E+01 6.41493E+00 8.38500E-01
 -1      2462 4.70511E+01 6.23908E+00 1.09788E+00
 -1      2463 5.10572E+01 6.47705E+00 1.08306E+00
 -1      2464 6.61821E+01 6.21782E+00 1.32091E+00
 -1      2465 6.68005E+01 5.93830E+00 8.97730E-01
 -1      2466 8.19825E+01 6.26583E+00 1.15890E+00
 -1      2467 8.35006E+01 6.55286E+00 7.40728E-01
 -1      2468 8.71125E+01 6.25751E+00 1.19220E+00
 -1      2469 9.29602E+01 6.34880E+00 9.87106E-01
 -1      2470 2.71301E+00 6.66167E+00 1.01319E+00
 -1      2471 9.92225E+00 6.84107E+00 1.25775E+00
 -1      2472 1.04940E+01 6.68721E+00 1.18788E+00
 -1      2473 1.09743E+01 6.47803E+00 1.22281E+00
 -1      2474 1.14838E+01 6.84531E+00 1.16556E+00
 -1      2475 1.62696E+01 6.71915E+00 1.13547E+00
 -1      2476 1.71893E+01 6.63708E+00 8.38500E-01
 -1      2477 1.74111E+01 6.55746E+00 1.32242E+00
 -1      2478 2.27962E+01 6.67644E+00 9.78250E-01
 -1      2479 2.43165E+01 6.53764E+00 1.11800E+00
 -1      2480 2.62779E+01 6.28325E+00 1.03185E+00
 -1      2481 2.94678E+01 6.67127E+00 1.18788E+00
 -1      2482 2.99764E+01 6.78357E+00 1.47597E+00
 -1      2483 3.05913E+01 6.55812E+00 1.41995E+00
 -1      2484 3.11409E+01 6.46041E+00 1.11800E+00
 -1      2485 3.36789E+01 6.30128E+00 1.00685E+00
 -1      2486 3.62016E+01 6.69375E+00 9.78250E-01
 -1      2487 3.72705E+01 6.66561E+00 1.01319E+00
 -1      2488 4.04412E+01 6.25191E+00 1.19168E+00
 -1      2489 4.26595E+01 6.62456E+00 9.08375E-01
 -1      2490 4.38116E+01 6.64358E+00 8.73438E-01
 -1      2491 4.47446E+01 6.91163E+00 9.43313E-01
 -1      2492 4.93849E+01 6.66291E+00 1.01319E+00
 -1      2493 5.60397E+01 6.61780E+00 8.38500E-01
 -1      2494 5.66686E+01 6.78358E+00 1.47700E+00
 -1      2495 5.76469E+01 6.47482E+00 1.22281E+00
 -1      2496 5.81585E+01 6.81454E+00 1.17041E+00
 -1      2497 5.96479E+01 6.30143E+00 1.02068E+00
 -1      2498 6.39759E+01 6.61055E+00 1.04531E+00
 -1      2499 6.94714E+01 6.67858E+00 9.78250E-01
 -1      2500 7.73029E+01 6.64598E+00 9.78250E-01
 -1      2501 8.03507E+01 6.22971E+00 1.09726E+00
 -1      2502 8.28768E+01 6.69571E+00 9.78250E-01
 -1      2503 8.39423E+01 6.66439E+00 1.01319E+00
 -1      2504 8.86707E+01 7.02807E+00 1.13519E+00
 -1      2505 8.93682E+01 6.65888E+00 1.01319E+00
 -1      2506 8.99641E+01 6.77194E+00 1.47849E+00
 -1      2507 9.05720E+01 6.65250E+00 1.15294E+00
 -1      2508 9.14592E+01 6.86815E+00 1.17041E+00
 -1      2509 9.66371E+01 6.78262E+00 1.47802E+00
 -1      2510 9.73618E+01 6.57722E+00 1.26648E+00
 -1      2511 4.75894E+00 6.87479E+00 1.04813E+00
 -1      2512 1.93186E+01 7.08652E+00 9.93476E-01
 -1      2513 3.80281E+01 7.09768E+00 8.38500E-01
 -1      2514 4.86512E+01 7.10430E+00 1.03329E+00
 -1      2515 5.53283E+01 7.18177E+00 8.32353E-01
 -1      2516 5.93105E+01 7.11146E+00 9.78250E-01
 -1      2517 6.06209E+01 6.87460E+00 1.08340E+00
 -1      2518 6.18622E+01 6.94464E+00 1.39455E+00
 -1      2519 6.59902E+01 7.08075E+00 9.91514E-01
 -1      2520 7.80646E+01 6.98750E+00 8.38500E-01
 -1      2521 7.93866E+01 6.93896E+00 9.91865E-01
 -1      2522 8.46272E+01 7.09122E+00 1.15294E+00
 -1      2523 4.71902E+00 7.61637E+00 7.51590E-01
 -1      2524 1.26414E+01 7.11553E+00 9.78250E-01
 -1      2525 2.87037E+01 7.18110E+00 1.42571E+00
 -1      2526 3.52510E+01 7.61637E+00 7.31780E-01
 -1      2527 4.46705E+01 7.40675E+00 7.92057E-01
 -1      2528 6.20665E+01 7.79914E+00 1.01319E+00
 -1      2529 7.53159E+01 7.00495E+00 1.13767E+00
 -1      2530 8.19128E+01 6.88174E+00 9.70348E-01
 -1      2531 9.13422E+01 7.40675E+00 7.88069E-01
 -1      2532 9.53243E+01 7.10805E+00 1.03841E+00
 -1      2533 9.92482E+01 7.12447E+00 1.11014E+00
 -1      2534 1.11616E+01 7.39727E+00 1.17899E+00
 -1      2535 1.90117E+01 7.54650E+00 9.20144E-01
 -1      2536 2.09821E+01 7.54650E+00 9.49639E-01
 -1      2537 2.21283E+01 7.22474E+00 1.25775E+00
 -1      2538 2.45781E+01 7.31385E+00 1.04813E+00
 -1      2539 3.23564E+01 7.54650E+00 9.78250E-01
 -1      2540 4.56903E+01 7.54650E+00 9.78250E-01
 -1      2541 6.45106E+01 7.71380E+00 1.16145E+00
 -1      2542 6.56802E+01 7.54650E+00 9.28734E-01
 -1      2543 7.23556E+01 7.54650E+00 9.71197E-01
 -1      2544 8.86260E+01 7.88874E+00 8.13416E-01
 -1      2545 1.40484E+01 8.15874E+00 1.18139E+00
 -1      2546 1.53863E+01 7.75251E+00 9.25844E-01
 -1      2547 2.06580E+01 8.01536E+00 9.89147E-01
 -1      2548 2.45689E+01 7.93541E+00 1.25775E+00
 -1      2549 3.39139E+01 8.12237E+00 9.43313E-01
 -1      2550 7.12381E+01 7.93910E+00 1.25775E+00
 -1      2551 9.14184E+01 8.12733E+00 9.66571E-01
 -1      2552 9.40040E+01 7.98426E+00 8.22653E-01
 -1      2553 4.76786E+00 8.19803E+00 9.39200E-01
 -1      2554 1.27306E+01 8.17779E+00 1.04813E+00
 -1      2555 1.94958E+01 8.53792E+00 1.08814E+00
 -1      2556 4.18466E+01 8.23583E+00 1.17041E+00
 -1      2557 5.40277E+01 7.97956E+00 1.04813E+00
 -1      2558 6.61658E+01 8.54040E+00 1.08666E+00
 -1      2559 7.38600E+01 8.19797E+00 9.08375E-01
 -1      2560 7.79133E+01 7.95143E+00 1.25775E+00
 -1      2561 8.21555E+01 7.54495E+00 1.22885E+00
 -1      2562 8.18228E+01 8.28393E+00 1.18788E+00
 -1      2563 8.46669E+01 7.99041E+00 1.02440E+00
 -1      2564 8.63408E+00 7.98249E+00 8.38500E-01
 -1      2565 3.96570E+01 8.50025E+00 8.38500E-01
 -1      2566 4.71418E+01 8.64326E+00 1.13289E+00
 -1      2567 4.83277E+01 8.69558E+00 8.38500E-01
 -1      2568 5.48985E+01 8.86684E+00 9.34801E-01
 -1      2569 5.54155E+01 7.95869E+00 1.25775E+00
 -1      2570 6.73296E+01 8.00948E+00 9.91078E-01
 -1      2571 8.84553E+01 8.30083E+00 1.32763E+00
 -1      2572 3.38894E+00 8.30299E+00 1.48455E+00
 -1      2573 4.00980E+00 8.42350E+00 1.01319E+00
 -1      2574 9.59914E+00 8.40049E+00 8.90906E-01
 -1      2575 1.00969E+01 8.30646E+00 1.48359E+00
 -1      2576 1.06981E+01 8.42911E+00 1.01319E+00
 -1      2577 1.76784E+01 8.61024E+00 1.22281E+00
 -1      2578 2.41024E+01 8.46340E+00 9.78250E-01
 -1      2579 2.71195E+01 8.80465E+00 1.11761E+00
 -1      2580 2.99764E+01 8.29030E+00 1.48219E+00
 -1      2581 3.05283E+01 8.37982E+00 1.18788E+00
 -1      2582 3.11642E+01 8.61815E+00 1.04813E+00
 -1      2583 3.66844E+01 8.29071E+00 1.48390E+00
 -1      2584 3.72162E+01 8.39675E+00 1.17041E+00
 -1      2585 4.02553E+01 8.68533E+00 8.38500E-01
 -1      2586 4.28203E+01 8.39271E+00 1.04813E+00
 -1      2587 4.33924E+01 8.29309E+00 1.48464E+00
 -1      2588 4.39619E+01 8.42692E+00 9.43313E-01
 -1      2589 5.00654E+01 8.30368E+00 1.48441E+00
 -1      2590 5.06816E+01 8.42482E+00 1.01319E+00
 -1      2591 5.29873E+01 8.94556E+00 1.18024E+00
 -1      2592 5.62548E+01 8.39747E+00 9.08375E-01
 -1      2593 5.68084E+01 8.25924E+00 1.25775E+00
 -1      2594 5.73699E+01 8.43048E+00 1.01319E+00
 -1      2595 6.03791E+01 8.81156E+00 1.02714E+00
 -1      2596 6.33766E+01 8.29084E+00 1.48103E+00
 -1      2597 6.38633E+01 8.39196E+00 1.18788E+00
 -1      2598 6.68005E+01 9.14134E+00 9.20647E-01
 -1      2599 7.07783E+01 8.46633E+00 9.78250E-01
 -1      2600 7.37419E+01 8.77906E+00 1.09103E+00
 -1      2601 7.61646E+01 8.38228E+00 9.78250E-01
 -1      2602 7.66529E+01 8.29022E+00 1.48269E+00
 -1      2603 7.72042E+01 8.38341E+00 1.18788E+00
 -1      2604 7.78485E+01 8.61163E+00 9.78250E-01
 -1      2605 8.39343E+01 8.39758E+00 1.22281E+00
 -1      2606 8.95266E+01 8.40610E+00 9.25844E-01
 -1      2607 9.06815E+01 8.42649E+00 1.01319E+00
 -1      2608 9.67419E+01 8.30445E+00 1.48421E+00
 -1      2609 9.75892E+01 8.51300E+00 9.95719E-01
 -1      2610 3.45801E-01 8.95218E+00 1.12347E+00
 -1      2611 3.99685E+01 9.45496E+00 9.64456E-01
 -1      2612 3.15687E+00 9.44665E+00 9.66594E-01
 -1      2613 1.01749E+01 9.39951E+00 8.78257E-01
 -1      2614 5.33845E+01 9.28482E+00 7.77093E-01
 -1      2615 5.68508E+01 9.40306E+00 8.76646E-01
 -1      2616 3.67515E+00 9.35368E+00 1.48915E+00
 -1      2617 9.64153E+00 9.52490E+00 1.11800E+00
 -1      2618 1.63848E+01 9.48593E+00 1.04813E+00
 -1      2619 2.30752E+01 9.49224E+00 9.78250E-01
 -1      2620 3.70183E+01 9.55850E+00 1.04813E+00
 -1      2621 4.35809E+01 9.43050E+00 1.40773E+00
 -1      2622 5.63214E+01 9.50878E+00 1.22281E+00
 -1      2623 6.30593E+01 9.45960E+00 1.22754E+00
 -1      2624 6.97480E+01 9.48935E+00 9.78250E-01
 -1      2625 9.02560E+01 9.43160E+00 1.40765E+00
 -1      2626 1.56207E+01 9.66510E+00 1.17329E+00
 -1      2627 2.22637E+01 9.79463E+00 9.60781E-01
 -1      2628 3.03589E+01 9.51863E+00 1.22340E+00
 -1      2629 4.21931E+01 9.61341E+00 1.21233E+00
 -1      2630 4.91828E+01 9.58221E+00 1.26786E+00
 -1      2631 6.43874E+01 9.76488E+00 1.03066E+00
 -1      2632 6.89381E+01 9.79254E+00 9.60781E-01
 -1      2633 7.10878E+01 9.69922E+00 1.09447E+00
 -1      2634 7.57810E+01 9.58818E+00 1.23333E+00
 -1      2635 7.76791E+01 9.75997E+00 1.01319E+00
 -1      2636 8.29061E+01 9.51780E+00 1.17435E+00
 -1      2637 8.37244E+01 9.54807E+00 1.17041E+00
 -1      2638 8.92070E+01 9.71738E+00 9.78250E-01
 -1      2639 9.60083E+01 9.65866E+00 1.11800E+00
 -1      2640 1.50231E+01 9.99243E+00 8.38500E-01
 -1      2641 3.86706E+01 9.88418E+00 1.08425E+00
 -1      2642 4.79342E+01 1.00609E+01 8.47414E-01
 -1      2643 6.18869E+01 9.88848E+00 9.78250E-01
 -1      2644 6.49996E+01 9.36540E+00 1.38965E+00
 -1      2645 7.53220E+01 9.80586E+00 1.08306E+00
 -1      2646 7.81203E+01 9.94956E+00 7.68625E-01
 -1      2647 7.87740E+01 9.93786E+00 1.12635E+00
 -1      2648 8.54888E+01 9.96039E+00 1.11207E+00
 -1      2649 8.87273E+01 9.64981E+00 1.23060E+00
 -1      2650 9.46107E+01 1.00600E+01 8.46784E-01
 -1      2651 6.98750E-01 1.01001E+01 1.22718E+00
 -1      2652 5.27610E+00 9.75980E+00 1.25775E+00
 -1      2653 7.54650E+00 1.00977E+01 1.03517E+00
 -1      2654 1.20903E+01 9.90397E+00 1.01479E+00
 -1      2655 1.41147E+01 1.00875E+01 1.21917E+00
 -1      2656 1.92855E+01 1.00790E+01 1.16625E+00
 -1      2657 2.06830E+01 1.01059E+01 1.24485E+00
 -1      2658 3.22995E+01 9.98373E+00 1.24671E+00
 -1      2659 3.94794E+01 1.00193E+01 1.28788E+00
 -1      2660 4.60214E+01 9.92536E+00 1.48304E+00
 -1      2661 4.73753E+01 1.00989E+01 1.22687E+00
 -1      2662 5.19502E+01 9.76422E+00 1.25775E+00
 -1      2663 5.40833E+01 1.00930E+01 1.22382E+00
 -1      2664 6.00925E+01 9.55419E+00 1.11574E+00
 -1      2665 6.07912E+01 1.00856E+01 1.21722E+00
 -1      2666 7.23417E+01 9.98767E+00 1.24179E+00
 -1      2667 8.12635E+01 9.91754E+00 1.04924E+00
 -1      2668 8.62258E+01 1.01300E+01 1.14472E+00
 -1      2669 8.73438E+01 1.01025E+01 1.22737E+00
 -1      2670 9.19267E+01 9.75079E+00 1.25775E+00
 -1      2671 9.27940E+01 1.01343E+01 1.16846E+00
 -1      2672 9.40518E+01 1.00976E+01 1.22641E+00
 -1      2673 9.88392E+01 9.89225E+00 1.25817E+00
 -1      2674 2.64128E+01 1.02907E+01 8.18398E-01
 -1      2675 2.69718E+01 1.03166E+01 7.88935E-01
 -1      2676 3.36797E+01 1.03184E+01 7.84242E-01
 -1      2677 6.98750E-01 1.02885E-02 1.37572E+00
 -1      2678 1.48359E+01 3.58860E-01 1.36462E+00
 -1      2679 3.39593E+01 1.50972E-02 1.37559E+00
 -1      2680 3.94270E+01 1.29309E-01 1.43483E+00
 -1      2681 6.07912E+01 1.06856E-02 1.35684E+00
 -1      2682 6.66557E+01 2.17133E-01 1.22232E+00
 -1      2683 6.75012E+01 5.94924E-03 1.29566E+00
 -1      2684 7.32290E+01 2.79500E-01 1.24371E+00
 -1      2685 7.39277E+01 1.87697E-02 1.37292E+00
 -1      2686 8.06358E+01 1.41570E-02 1.37614E+00
 -1      2687 1.53081E+00 5.01309E-01 1.29368E+00
 -1      2688 5.07406E+00 6.98750E-01 1.39217E+00
 -1      2689 4.54579E+00 4.17961E-01 1.24978E+00
 -1      2690 8.34104E+00 8.38500E-01 1.35708E+00
 -1      2691 1.13953E+01 3.99564E-01 1.24641E+00
 -1      2692 1.76389E+01 4.81135E-01 1.33925E+00
 -1      2693 1.83500E+01 9.70333E-01 1.39750E+00
 -1      2694 2.14654E+01 2.49702E-01 1.20261E+00
 -1      2695 2.08257E+01 5.00555E-03 1.29841E+00
 -1      2696 2.44699E+01 4.22550E-01 1.26100E+00
 -1      2697 2.49847E+01 6.98750E-01 1.38565E+00
 -1      2698 2.80985E+01 2.60879E-01 1.19616E+00
 -1      2699 3.46537E+01 2.97196E-01 1.11427E+00
 -1      2700 3.79562E+01 2.72433E-01 1.12756E+00
 -1      2701 3.83350E+01 8.38500E-01 1.35528E+00
 -1      2702 4.51427E+01 4.98943E-01 1.29450E+00
 -1      2703 4.82137E+01 2.94407E-01 1.20720E+00
 -1      2704 5.20554E+01 2.43189E-01 1.42163E+00
 -1      2705 5.23016E+01-8.83129E-02 8.06956E-01
 -1      2706 5.50176E+01 8.38500E-01 1.35938E+00
 -1      2707 5.80707E+01 3.99346E-01 1.24558E+00
 -1      2708 6.53108E+01 2.47723E-01 1.26191E+00
 -1      2709 6.80708E+01 2.49939E-01 1.19617E+00
 -1      2710 7.47739E+01 2.64622E-01 1.19613E+00
 -1      2711 8.46066E+01 4.15446E-01 1.25938E+00
 -1      2712 8.50066E+01 8.38500E-01 1.35805E+00
 -1      2713 9.12684E+01 4.10144E-01 1.25148E+00
 -1      2714 9.18289E+01 4.96687E-01 1.30932E+00
 -1      2715 9.80426E+01 4.00118E-01 1.24819E+00
 -1      2716 9.87304E+01 2.42241E-01 1.42092E+00
 -1      2717 9.89635E+01-3.66998E-02 8.56497E-01
 -1      2718 2.30301E+01 5.38566E-01 1.26006E+00
 -1      2719 2.97284E+01 5.46347E-01 1.25881E+00
 -1      2720 3.62029E+01 7.14361E-01 1.50577E+00
 -1      2721 5.63773E+01 5.22088E-01 1.18989E+00
 -1      2722 6.97043E+01 5.40393E-01 1.25978E+00
 -1      2723 7.64026E+01 5.48238E-01 1.25848E+00
 -1      2724 7.04344E+00 9.25094E-01 1.39446E+00
 -1      2725 6.70800E+00 4.07316E-01 1.13569E+00
 -1      2726 3.36622E+01 9.83691E-01 1.20910E+00
 -1      2727 3.32605E+01 4.42904E-01 1.18165E+00
 -1      2728 4.02482E+01 7.33688E-01 1.40353E+00
 -1      2729 3.99685E+01 4.07668E-01 1.12796E+00
 -1      2730 8.04031E+01 1.11897E+00 1.21765E+00
 -1      2731 7.99370E+01 4.37955E-01 1.17082E+00
 -1      2732 1.28568E+01 1.25775E+00 1.21939E+00
 -1      2733 1.34160E+01 5.01383E-01 1.10786E+00
 -1      2734 1.38198E+01 1.19519E+00 1.19792E+00
 -1      2735 2.61612E+01 1.16647E+00 1.23866E+00
 -1      2736 3.96049E+01 9.33955E-01 1.43999E+00
 -1      2737 5.38047E+01 1.11866E+00 1.31573E+00
 -1      2738 5.95294E+01 1.25775E+00 1.20615E+00
 -1      2739 6.00925E+01 5.05299E-01 1.11787E+00
 -1      2740 6.04952E+01 1.16224E+00 1.23472E+00
 -1      2741 7.29198E+01 1.00154E+00 1.38539E+00
 -1      2742 9.95201E+01 1.19028E+00 1.26224E+00
 -1      2743 5.42900E+00 1.25775E+00 1.25775E+00
 -1      2744 8.51324E+00 1.77360E+00 1.25775E+00
 -1      2745 7.92116E+00 1.25775E+00 1.25775E+00
 -1      2746 2.04632E+01 1.11368E+00 1.25370E+00
 -1      2747 2.13732E+01 1.95562E+00 1.63918E+00
 -1      2748 2.12984E+01 1.25775E+00 1.25775E+00
 -1      2749 2.20109E+01 1.26945E+00 1.18194E+00
 -1      2750 2.53221E+01 1.11800E+00 1.11800E+00
 -1      2751 2.83042E+01 1.60958E+00 1.31072E+00
 -1      2752 2.82613E+01 9.76843E-01 1.24602E+00
 -1      2753 3.38353E+01 1.53725E+00 1.12433E+00
 -1      2754 3.45678E+01 1.25775E+00 1.25775E+00
 -1      2755 3.53161E+01 1.22509E+00 1.22880E+00
 -1      2756 3.87868E+01 1.25775E+00 1.25775E+00
 -1      2757 4.12392E+01 1.25775E+00 1.25775E+00
 -1      2758 4.20035E+01 1.23137E+00 1.23577E+00
 -1      2759 4.55621E+01 1.32763E+00 1.39750E+00
 -1      2760 4.48333E+01 1.73877E+00 1.22281E+00
 -1      2761 4.79138E+01 1.25775E+00 1.25775E+00
 -1      2762 4.86560E+01 1.21739E+00 1.24269E+00
 -1      2763 5.20970E+01 1.25775E+00 1.25775E+00
 -1      2764 5.39761E+01 1.70260E+00 1.21894E+00
 -1      2765 6.07457E+01 1.78521E+00 1.29653E+00
 -1      2766 6.16297E+01 1.83060E+00 1.56115E+00
 -1      2767 6.13269E+01 1.11800E+00 1.11800E+00
 -1      2768 6.71968E+01 1.27659E+00 1.24359E+00
 -1      2769 6.86091E+01 1.14743E+00 1.28851E+00
 -1      2770 7.16560E+01 6.98750E-01 1.38454E+00
 -1      2771 7.19965E+01 1.11800E+00 1.11800E+00
 -1      2772 7.95233E+01 1.19109E+00 1.19408E+00
 -1      2773 8.56584E+01 1.39750E+00 1.53725E+00
 -1      2774 8.86751E+01 1.23285E+00 1.23742E+00
 -1      2775 9.37915E+01 1.12168E+00 1.24204E+00
 -1      2776 9.39065E+01 1.70771E+00 1.13847E+00
 -1      2777 9.51848E+01 1.78110E+00 1.25775E+00
 -1      2778 9.45827E+01 1.25775E+00 1.25775E+00
 -1      2779 9.53300E+01 1.22032E+00 1.24432E+00
 -1      2780 3.62884E+00 1.69914E+00 1.43899E+00
 -1      2781 5.85820E+00 1.67700E+00 1.39750E+00
 -1      2782 1.40064E+01 1.88858E+00 1.20443E+00
 -1      2783 2.38557E+01 1.67865E+00 1.25775E+00
 -1      2784 3.92996E+01 1.73109E+00 1.26716E+00
 -1      2785 4.61651E+01 1.20187E+00 1.26767E+00
 -1      2786 5.04373E+01 1.71495E+00 1.25775E+00
 -1      2787 5.28492E+01 1.19259E+00 1.26333E+00
 -1      2788 5.83177E+01 9.17356E-01 1.39750E+00
 -1      2789 6.17260E+01 8.38500E-01 1.36890E+00
 -1      2790 7.05297E+01 1.67542E+00 1.25775E+00
 -1      2791 7.49011E+01 9.33561E-01 1.29269E+00
 -1      2792 8.08135E+01 1.67700E+00 1.39750E+00
 -1      2793 8.12352E+01 1.25775E+00 1.25775E+00
 -1      2794 8.19382E+01 1.84010E+00 1.11800E+00
 -1      2795 8.74835E+01 1.67700E+00 1.40461E+00
 -1      2796 9.29534E+01 1.01911E+00 1.32795E+00
 -1      2797 9.21455E+01 1.25775E+00 1.29269E+00
 -1      2798 1.94091E+00 1.87508E+00 1.25775E+00
 -1      2799 1.52215E+01 1.85936E+00 1.32763E+00
 -1      2800 1.67001E+01 1.75872E+00 1.47754E+00
 -1      2801 2.33383E+01 1.82314E+00 1.25775E+00
 -1      2802 2.58233E+01 1.88663E+00 1.40220E+00
 -1      2803 2.86989E+01 2.06435E+00 1.31269E+00
 -1      2804 2.99764E+01 1.75893E+00 1.47810E+00
 -1      2805 3.15879E+01 1.89949E+00 1.49686E+00
 -1      2806 3.28110E+01 1.33027E+00 1.25090E+00
 -1      2807 3.81550E+01 1.82550E+00 1.39750E+00
 -1      2808 4.17740E+01 1.86505E+00 1.40765E+00
 -1      2809 4.32876E+01 1.74682E+00 1.48058E+00
 -1      2810 5.15348E+01 1.84887E+00 1.39907E+00
 -1      2811 5.54400E+01 2.16710E+00 1.25775E+00
 -1      2812 6.20214E+01 1.99214E+00 1.25775E+00
 -1      2813 6.33067E+01 1.82265E+00 1.25775E+00
 -1      2814 6.45125E+01 2.37064E+00 1.38258E+00
 -1      2815 6.87503E+01 2.09486E+00 1.25775E+00
 -1      2816 7.23839E+01 2.01309E+00 1.47456E+00
 -1      2817 7.69324E+01 1.75315E+00 1.32763E+00
 -1      2818 8.48287E+01 1.81840E+00 1.39750E+00
 -1      2819 9.15046E+01 1.79601E+00 1.32763E+00
 -1      2820 9.66371E+01 1.75801E+00 1.48014E+00
 -1      2821 9.81884E+01 1.77679E+00 1.32763E+00
 -1      2822 2.16411E+00 2.48010E+00 1.38404E+00
 -1      2823 4.54083E+00 2.58753E+00 1.48288E+00
 -1      2824 8.80034E+00 2.37575E+00 1.48320E+00
 -1      2825 1.11633E+01 2.58787E+00 1.17730E+00
 -1      2826 1.55475E+01 2.37575E+00 1.25775E+00
 -1      2827 1.78520E+01 2.36180E+00 1.45739E+00
 -1      2828 3.77854E+01 2.37575E+00 1.25775E+00
 -1      2829 4.22009E+01 2.45489E+00 1.26150E+00
 -1      2830 4.44552E+01 2.46657E+00 1.26088E+00
 -1      2831 5.78338E+01 2.59125E+00 1.32155E+00
 -1      2832 8.21922E+01 2.51585E+00 1.31152E+00
 -1      2833 8.44500E+01 2.37567E+00 1.29242E+00
 -1      2834 9.11267E+01 2.46116E+00 1.26117E+00
 -1      2835 9.55686E+01 2.44555E+00 1.32315E+00
 -1      2836 7.54044E+01 2.91376E+00 1.34509E+00
 -1      2837 8.88804E+01 2.62188E+00 1.26470E+00
 -1      2838 8.63482E+00 2.89311E+00 1.52907E+00
 -1      2839 1.81280E+01 3.15975E+00 1.29667E+00
 -1      2840 3.54123E+01 2.94028E+00 1.25775E+00
 -1      2841 5.53075E+01 2.89137E+00 1.52666E+00
 -1      2842 6.46546E+01 2.91590E+00 1.40132E+00
 -1      2843 7.11889E+01 2.37575E+00 1.47470E+00
 -1      2844 9.52978E+01 2.86195E+00 1.53617E+00
 -1      2845 9.79661E+01 3.00843E+00 1.25775E+00
 -1      2846 9.90674E+01 2.65335E+00 1.35110E+00
 -1      2847 1.85436E+00 3.23860E+00 1.25775E+00
 -1      2848 1.15754E+01 3.33996E+00 1.26609E+00
 -1      2849 3.12419E+01 2.92202E+00 1.25775E+00
 -1      2850 3.94223E+01 3.31348E+00 1.14162E+00
 -1      2851 4.08070E+01 3.35400E+00 1.39764E+00
 -1      2852 5.21190E+01 3.77325E+00 1.25775E+00
 -1      2853 5.82376E+01 3.27354E+00 1.34577E+00
 -1      2854 8.12111E+01 3.77325E+00 1.25775E+00
 -1      2855 9.87884E+01 3.77325E+00 1.25775E+00
 -1      2856 3.35400E+00 3.24855E+00 1.40509E+00
 -1      2857 1.00620E+01 3.24946E+00 1.40460E+00
 -1      2858 1.38789E+01 3.65171E+00 1.25864E+00
 -1      2859 1.60740E+01 3.39786E+00 1.27774E+00
 -1      2860 2.11023E+01 3.63496E+00 1.39507E+00
 -1      2861 2.51001E+01 3.21705E+00 1.56439E+00
 -1      2862 2.61372E+01 3.75652E+00 1.25143E+00
 -1      2863 3.28097E+01 3.69234E+00 1.21616E+00
 -1      2864 3.61071E+01 3.38361E+00 1.39750E+00
 -1      2865 3.66844E+01 3.26611E+00 1.48189E+00
 -1      2866 4.33924E+01 3.26850E+00 1.48264E+00
 -1      2867 4.84749E+01 3.25803E+00 1.32763E+00
 -1      2868 5.00305E+01 3.24861E+00 1.40501E+00
 -1      2869 5.38498E+01 3.77984E+00 1.18895E+00
 -1      2870 5.71553E+01 3.33126E+00 1.25775E+00
 -1      2871 5.66686E+01 3.26566E+00 1.48120E+00
 -1      2872 6.12105E+01 3.43277E+00 1.61233E+00
 -1      2873 6.27468E+01 3.37684E+00 1.25775E+00
 -1      2874 7.17754E+01 3.21885E+00 1.56538E+00
 -1      2875 7.28080E+01 3.75783E+00 1.24958E+00
 -1      2876 7.93985E+01 3.22245E+00 1.14629E+00
 -1      2877 8.28310E+01 3.54204E+00 1.56701E+00
 -1      2878 8.33609E+01 3.26651E+00 1.48216E+00
 -1      2879 9.00689E+01 3.26935E+00 1.48267E+00
 -1      2880 9.50573E+01 3.35166E+00 1.32365E+00
 -1      2881 9.67070E+01 3.24877E+00 1.40492E+00
 -1      2882 7.13133E+00 3.84346E+00 1.18972E+00
 -1      2883 9.32525E+00 3.70338E+00 1.61591E+00
 -1      2884 1.28675E+01 3.77325E+00 1.18748E+00
 -1      2885 1.21278E+01 3.77325E+00 1.25775E+00
 -1      2886 1.55150E+01 3.98288E+00 1.46883E+00
 -1      2887 2.16808E+01 4.33225E+00 1.38705E+00
 -1      2888 2.83277E+01 4.06898E+00 1.39750E+00
 -1      2889 4.58112E+01 3.52905E+00 1.53725E+00
 -1      2890 4.92997E+01 3.70338E+00 1.60068E+00
 -1      2891 5.46255E+01 3.91300E+00 1.11800E+00
 -1      2892 5.50182E+01 4.19250E+00 1.36022E+00
 -1      2893 5.83907E+01 4.09299E+00 1.25775E+00
 -1      2894 5.95396E+01 3.77325E+00 1.15896E+00
 -1      2895 6.70947E+01 3.99470E+00 1.43688E+00
 -1      2896 6.83272E+01 4.33225E+00 1.39750E+00
 -1      2897 7.50045E+01 4.08634E+00 1.39750E+00
 -1      2898 8.04769E+01 3.83892E+00 1.26213E+00
 -1      2899 8.87244E+01 3.79593E+00 1.27029E+00
 -1      2900 9.24818E+01 3.51424E+00 1.53725E+00
 -1      2901 9.59743E+01 3.70338E+00 1.60545E+00
 -1      2902 9.95223E+01 3.83846E+00 1.26235E+00
 -1      2903 5.03788E+00 4.19250E+00 1.38688E+00
 -1      2904 1.16890E+01 4.21633E+00 1.39750E+00
 -1      2905 1.34160E+01 4.30526E+00 1.00090E+00
 -1      2906 1.95365E+01 3.91420E+00 1.25660E+00
 -1      2907 2.47409E+01 3.88580E+00 1.28614E+00
 -1      2908 3.32605E+01 4.20553E+00 8.25342E-01
 -1      2909 4.71742E+01 3.82325E+00 1.26962E+00
 -1      2910 6.00925E+01 4.29739E+00 1.00824E+00
 -1      2911 6.16676E+01 4.33225E+00 1.38355E+00
 -1      2912 6.13249E+01 3.91300E+00 1.11800E+00
 -1      2913 6.62046E+01 3.91512E+00 1.25571E+00
 -1      2914 7.15947E+01 4.19250E+00 1.37225E+00
 -1      2915 8.61388E+01 4.02929E+00 1.33997E+00
 -1      2916 8.78889E+01 3.77325E+00 1.25775E+00
 -1      2917 9.21106E+01 3.77325E+00 1.25775E+00
 -1      2918 6.70800E+00 4.45381E+00 1.13333E+00
 -1      2919 2.65525E+01 4.56561E+00 1.22556E+00
 -1      2920 4.66765E+01 4.61082E+00 1.10181E+00
 -1      2921 5.33845E+01 4.62268E+00 1.14373E+00
 -1      2922 7.32290E+01 4.57041E+00 1.21506E+00
 -1      2923 7.99370E+01 4.59129E+00 1.17035E+00
 -1      2924 9.97893E+01 4.33225E+00 1.34038E+00
 -1      2925 2.96680E+01 4.33003E+00 1.51459E+00
 -1      2926 4.20509E+01 4.61861E+00 1.24898E+00
 -1      2927 8.87269E+01 4.76441E+00 1.11800E+00
 -1      2928 5.28646E+00 4.73699E+00 1.25775E+00
 -1      2929 6.00925E+00 5.03100E+00 1.37548E+00
 -1      2930 2.08274E+01 5.03100E+00 1.31562E+00
 -1      2931 2.13721E+01 4.81820E+00 1.22569E+00
 -1      2932 2.52671E+01 4.78030E+00 1.26331E+00
 -1      2933 2.58499E+01 5.03100E+00 1.32539E+00
 -1      2934 3.16266E+01 4.19250E+00 1.36516E+00
 -1      2935 3.42227E+01 5.03100E+00 1.23007E+00
 -1      2936 3.50772E+01 4.76687E+00 1.13288E+00
 -1      2937 3.85170E+01 4.65708E+00 1.24563E+00
 -1      2938 3.98288E+01 4.82637E+00 1.18354E+00
 -1      2939 4.06673E+01 5.03100E+00 1.37602E+00
 -1      2940 3.99685E+01 5.43583E+00 1.12736E+00
 -1      2941 4.14901E+01 4.53263E+00 1.32339E+00
 -1      2942 5.19258E+01 4.67034E+00 1.30915E+00
 -1      2943 5.91173E+01 5.03100E+00 1.24120E+00
 -1      2944 6.52432E+01 4.77539E+00 1.26381E+00
 -1      2945 6.58171E+01 5.03100E+00 1.28994E+00
 -1      2946 7.42013E+01 5.03100E+00 1.24935E+00
 -1      2947 7.32290E+01 5.31050E+00 1.24693E+00
 -1      2948 7.83032E+01 4.19250E+00 1.36293E+00
 -1      2949 8.08969E+01 5.03100E+00 1.22618E+00
 -1      2950 8.16684E+01 4.18082E+00 1.39750E+00
 -1      2951 8.52475E+01 4.70659E+00 1.25775E+00
 -1      2952 9.16938E+01 4.19250E+00 1.37417E+00
 -1      2953 9.19378E+01 4.72792E+00 1.25775E+00
 -1      2954 9.26543E+01 5.03100E+00 1.37621E+00
 -1      2955 9.86016E+01 4.67318E+00 1.29211E+00
 -1      2956 6.98750E-01 5.03100E+00 1.37532E+00
 -1      2957 1.53725E+00 5.31927E+00 1.21406E+00
 -1      2958 5.07207E+00 5.72975E+00 1.39210E+00
 -1      2959 8.10550E+00 5.35302E+00 1.26895E+00
 -1      2960 1.12865E+01 5.44131E+00 1.24781E+00
 -1      2961 1.24444E+01 5.03100E+00 1.23542E+00
 -1      2962 1.35770E+01 4.96113E+00 1.21871E+00
 -1      2963 1.34160E+01 5.47685E+00 1.19298E+00
 -1      2964 1.46588E+01 5.26105E+00 1.33318E+00
 -1      2965 1.41147E+01 5.03100E+00 1.34967E+00
 -1      2966 1.76992E+01 5.44658E+00 1.26525E+00
 -1      2967 1.91407E+01 5.03100E+00 1.27610E+00
 -1      2968 1.83511E+01 5.99402E+00 1.39750E+00
 -1      2969 3.12325E+01 5.44578E+00 1.26581E+00
 -1      2970 3.46580E+01 5.33596E+00 1.11800E+00
 -1      2971 3.79408E+01 5.29912E+00 1.12964E+00
 -1      2972 3.83350E+01 5.86950E+00 1.35493E+00
 -1      2973 4.15065E+01 5.31088E+00 1.19930E+00
 -1      2974 4.47365E+01 5.43898E+00 1.26527E+00
 -1      2975 4.73753E+01 5.03100E+00 1.37425E+00
 -1      2976 4.66765E+01 5.46847E+00 1.09541E+00
 -1      2977 4.82137E+01 5.32212E+00 1.21480E+00
 -1      2978 5.13896E+01 5.36698E+00 1.19382E+00
 -1      2979 5.24433E+01 5.03100E+00 1.25814E+00
 -1      2980 5.46313E+01 5.24615E+00 1.33324E+00
 -1      2981 5.77867E+01 5.51623E+00 1.32356E+00
 -1      2982 6.14484E+01 5.33361E+00 1.33181E+00
 -1      2983 6.07913E+01 5.03100E+00 1.34345E+00
 -1      2984 6.50277E+01 6.00781E+00 1.39750E+00
 -1      2985 7.79060E+01 5.44547E+00 1.26512E+00
 -1      2986 8.13408E+01 5.31618E+00 1.20340E+00
 -1      2987 8.47090E+01 5.43911E+00 1.26786E+00
 -1      2988 8.50066E+01 5.86950E+00 1.35770E+00
 -1      2989 8.59463E+01 5.03100E+00 1.37237E+00
 -1      2990 8.81823E+01 5.45025E+00 1.21306E+00
 -1      2991 8.73438E+01 5.03100E+00 1.37621E+00
 -1      2992 9.17334E+01 5.72975E+00 1.38560E+00
 -1      2993 9.48903E+01 5.32505E+00 1.21537E+00
 -1      2994 9.40518E+01 5.03100E+00 1.37274E+00
 -1      2995 9.79649E+01 5.43653E+00 1.24964E+00
 -1      2996 9.90974E+01 5.03100E+00 1.22586E+00
 -1      2997 1.62635E+01 5.52878E+00 1.26259E+00
 -1      2998 4.29474E+01 5.56816E+00 1.32763E+00
 -1      2999 6.97118E+01 5.56594E+00 1.26067E+00
 -1      3000 1.29972E+01 6.07913E+00 1.20754E+00
 -1      3001 4.02513E+01 5.76469E+00 1.40147E+00
 -1      3002 4.69360E+01 5.72975E+00 1.48490E+00
 -1      3003 7.99370E+01 5.46723E+00 1.17114E+00
 -1      3004 7.06612E+00 5.93799E+00 1.44219E+00
 -1      3005 1.38209E+01 6.22527E+00 1.19795E+00
 -1      3006 2.65525E+01 5.82810E+00 9.91605E-01
 -1      3007 3.95383E+01 6.19829E+00 1.20180E+00
 -1      3008 5.29752E+01 6.05315E+00 1.26049E+00
 -1      3009 5.33845E+01 5.72597E+00 9.73468E-01
 -1      3010 5.37482E+01 6.07237E+00 1.30670E+00
 -1      3011 6.00925E+01 5.48158E+00 1.20383E+00
 -1      3012 6.04932E+01 6.26228E+00 1.19983E+00
 -1      3013 7.29172E+01 6.03217E+00 1.38461E+00
 -1      3014 8.62101E+01 6.19466E+00 1.20087E+00
 -1      3015 8.63641E+01 5.76469E+00 1.50793E+00
 -1      3016 9.95077E+01 6.28875E+00 1.24020E+00
 -1      3017 5.40729E+00 6.28875E+00 1.25775E+00
 -1      3018 7.93597E+00 6.28875E+00 1.25775E+00
 -1      3019 8.50321E+00 6.75198E+00 1.18788E+00
 -1      3020 1.16428E+01 5.92605E+00 1.39750E+00
 -1      3021 1.46530E+01 6.14900E+00 1.11800E+00
 -1      3022 1.50486E+01 5.86950E+00 1.36584E+00
 -1      3023 2.04683E+01 6.14458E+00 1.25372E+00
 -1      3024 2.49811E+01 5.72975E+00 1.38530E+00
 -1      3025 2.53655E+01 6.28875E+00 1.25775E+00
 -1      3026 2.71420E+01 6.14887E+00 1.25764E+00
 -1      3027 2.82363E+01 6.77966E+00 1.47110E+00
 -1      3028 2.83255E+01 5.73468E+00 1.39750E+00
 -1      3029 3.20196E+01 6.14900E+00 1.11800E+00
 -1      3030 3.48779E+01 5.99837E+00 1.32763E+00
 -1      3031 4.79304E+01 6.28875E+00 1.25775E+00
 -1      3032 4.83208E+01 5.86950E+00 1.36146E+00
 -1      3033 5.20737E+01 6.28875E+00 1.25775E+00
 -1      3034 5.51890E+01 6.80685E+00 1.25775E+00
 -1      3035 5.46046E+01 6.28875E+00 1.25775E+00
 -1      3036 5.83194E+01 5.94380E+00 1.39750E+00
 -1      3037 6.13285E+01 6.14900E+00 1.11800E+00
 -1      3038 6.71446E+01 6.21719E+00 1.25622E+00
 -1      3039 7.11081E+01 6.49944E+00 1.07164E+00
 -1      3040 7.20383E+01 6.28875E+00 1.25775E+00
 -1      3041 7.44316E+01 6.50085E+00 1.44529E+00
 -1      3042 7.50020E+01 5.75734E+00 1.39750E+00
 -1      3043 7.94857E+01 6.22676E+00 1.33910E+00
 -1      3044 8.12607E+01 6.28875E+00 1.25775E+00
 -1      3045 3.75792E+00 6.74241E+00 1.25775E+00
 -1      3046 6.17605E+00 6.22358E+00 1.26430E+00
 -1      3047 9.09791E+00 6.45128E+00 1.37642E+00
 -1      3048 1.40081E+01 6.91765E+00 1.20420E+00
 -1      3049 1.50930E+01 6.68286E+00 1.25775E+00
 -1      3050 1.82601E+01 6.84998E+00 1.42208E+00
 -1      3051 2.16477E+01 6.83813E+00 1.54340E+00
 -1      3052 2.13071E+01 6.28875E+00 1.25775E+00
 -1      3053 2.26514E+01 6.53673E+00 1.45426E+00
 -1      3054 2.58483E+01 6.70800E+00 1.39750E+00
 -1      3055 3.25847E+01 6.84442E+00 1.30050E+00
 -1      3056 3.28053E+01 6.22256E+00 1.22166E+00
 -1      3057 4.12596E+01 6.28875E+00 1.25775E+00
 -1      3058 4.19774E+01 6.95042E+00 1.25775E+00
 -1      3059 5.04319E+01 6.73939E+00 1.25775E+00
 -1      3060 5.57732E+01 6.45442E+00 1.37942E+00
 -1      3061 5.71642E+01 6.70792E+00 1.25775E+00
 -1      3062 6.17252E+01 5.86950E+00 1.36812E+00
 -1      3063 6.86849E+01 6.23120E+00 1.27281E+00
 -1      3064 8.79416E+01 6.28875E+00 1.23790E+00
 -1      3065 9.21326E+01 6.28875E+00 1.29269E+00
 -1      3066 9.41915E+01 6.70800E+00 1.43097E+00
 -1      3067 9.55558E+01 6.44481E+00 1.18473E+00
 -1      3068 1.94688E+00 6.90501E+00 1.25775E+00
 -1      3069 3.28413E+00 6.78146E+00 1.47837E+00
 -1      3070 1.53863E+01 7.27295E+00 1.49317E+00
 -1      3071 2.07878E+01 7.07770E+00 1.28292E+00
 -1      3072 2.35605E+01 6.78298E+00 1.32763E+00
 -1      3073 3.15870E+01 6.92401E+00 1.49790E+00
 -1      3074 3.66844E+01 6.78311E+00 1.47771E+00
 -1      3075 3.81528E+01 6.84993E+00 1.39750E+00
 -1      3076 4.32876E+01 6.77144E+00 1.47846E+00
 -1      3077 4.38445E+01 6.68752E+00 1.39750E+00
 -1      3078 4.99606E+01 6.78209E+00 1.47822E+00
 -1      3079 5.15305E+01 6.87823E+00 1.40048E+00
 -1      3080 6.30826E+01 6.77646E+00 1.32763E+00
 -1      3081 6.87975E+01 7.22854E+00 1.25775E+00
 -1      3082 7.00148E+01 6.84528E+00 1.25775E+00
 -1      3083 7.05595E+01 6.68116E+00 1.22281E+00
 -1      3084 7.24608E+01 6.56825E+00 1.46738E+00
 -1      3085 7.67227E+01 6.77956E+00 1.47185E+00
 -1      3086 7.82648E+01 6.92208E+00 1.53351E+00
 -1      3087 8.34308E+01 6.83864E+00 1.25775E+00
 -1      3088 9.82017E+01 6.87603E+00 1.40101E+00
 -1      3089 2.16405E+00 7.51019E+00 1.38468E+00
 -1      3090 4.46814E+00 7.43947E+00 1.31317E+00
 -1      3091 8.80280E+00 7.40675E+00 1.48318E+00
 -1      3092 1.78506E+01 7.39176E+00 1.45863E+00
 -1      3093 3.11170E+01 7.40675E+00 1.25775E+00
 -1      3094 3.54926E+01 7.59917E+00 1.29874E+00
 -1      3095 3.77832E+01 7.40675E+00 1.25775E+00
 -1      3096 4.22015E+01 7.48157E+00 1.26149E+00
 -1      3097 4.44547E+01 7.49525E+00 1.26088E+00
 -1      3098 5.11428E+01 7.47141E+00 1.27894E+00
 -1      3099 5.55498E+01 7.40675E+00 1.25775E+00
 -1      3100 5.78344E+01 7.61945E+00 1.32186E+00
 -1      3101 7.77836E+01 7.40675E+00 1.25775E+00
 -1      3102 9.11261E+01 7.48891E+00 1.26116E+00
 -1      3103 9.78386E+01 7.38670E+00 1.31646E+00
 -1      3104 2.87310E+01 7.94601E+00 1.34509E+00
 -1      3105 6.46394E+01 7.10361E+00 1.35183E+00
 -1      3106 7.53997E+01 7.94325E+00 1.34509E+00
 -1      3107 8.44129E+01 7.54639E+00 1.32733E+00
 -1      3108 8.88792E+01 7.65079E+00 1.26469E+00
 -1      3109 8.63259E+00 7.92246E+00 1.52654E+00
 -1      3110 1.78981E+01 7.94340E+00 1.25775E+00
 -1      3111 2.21401E+01 7.87957E+00 1.25775E+00
 -1      3112 3.12459E+01 7.95077E+00 1.25775E+00
 -1      3113 4.88730E+01 7.55975E+00 1.26365E+00
 -1      3114 7.12169E+01 7.44169E+00 1.59019E+00
 -1      3115 9.55697E+01 7.47641E+00 1.32341E+00
 -1      3116 9.52955E+01 7.89129E+00 1.53440E+00
 -1      3117 9.79700E+01 8.03572E+00 1.25775E+00
 -1      3118 9.90061E+01 7.89390E+00 1.46521E+00
 -1      3119 1.79884E+00 8.29019E+00 1.32763E+00
 -1      3120 5.76643E+00 8.52475E+00 1.46738E+00
 -1      3121 7.38135E+00 8.36032E+00 1.28141E+00
 -1      3122 1.15687E+01 8.29839E+00 1.34238E+00
 -1      3123 3.51286E+01 8.28455E+00 1.32763E+00
 -1      3124 3.92905E+01 8.36362E+00 1.27894E+00
 -1      3125 4.09147E+01 8.59463E+00 1.53725E+00
 -1      3126 4.85616E+01 7.99702E+00 1.56857E+00
 -1      3127 5.24337E+01 8.52475E+00 1.46738E+00
 -1      3128 5.82411E+01 8.30180E+00 1.34387E+00
 -1      3129 7.25187E+01 7.92325E+00 1.27504E+00
 -1      3130 8.11884E+01 8.80425E+00 1.25775E+00
 -1      3131 8.59624E+01 8.36687E+00 1.27642E+00
 -1      3132 9.40405E+01 8.33259E+00 1.27367E+00
 -1      3133 9.91572E+01 8.52475E+00 1.53725E+00
 -1      3134 8.36633E+00 8.42622E+00 1.28445E+00
 -1      3135 1.67001E+01 8.29051E+00 1.48164E+00
 -1      3136 1.71857E+01 8.36699E+00 1.25775E+00
 -1      3137 1.82668E+01 8.32908E+00 1.34823E+00
 -1      3138 2.11023E+01 8.66763E+00 1.39179E+00
 -1      3139 2.14325E+01 8.94400E+00 1.06655E+00
 -1      3140 2.27593E+01 8.39346E+00 1.25775E+00
 -1      3141 2.35479E+01 8.27787E+00 1.32763E+00
 -1      3142 2.94515E+01 8.38195E+00 1.25775E+00
 -1      3143 3.27281E+01 8.24339E+00 1.14939E+00
 -1      3144 4.93207E+01 8.67298E+00 1.50556E+00
 -1      3145 5.50749E+01 8.40732E+00 1.23694E+00
 -1      3146 6.27641E+01 8.53344E+00 1.46984E+00
 -1      3147 6.94321E+01 8.39070E+00 1.25775E+00
 -1      3148 7.02244E+01 8.28035E+00 1.32763E+00
 -1      3149 7.19151E+01 8.06706E+00 1.62763E+00
 -1      3150 7.93652E+01 8.61348E+00 1.31592E+00
 -1      3151 8.33609E+01 8.29110E+00 1.48417E+00
 -1      3152 8.50278E+01 8.43603E+00 1.29078E+00
 -1      3153 8.99641E+01 8.30188E+00 1.48467E+00
 -1      3154 9.50524E+01 8.38047E+00 1.31996E+00
 -1      3155 2.00721E+00 8.82141E+00 1.24395E+00
 -1      3156 6.18265E+00 8.86309E+00 1.26455E+00
 -1      3157 8.88540E+00 9.04881E+00 1.47687E+00
 -1      3158 1.13197E+01 8.74362E+00 1.16053E+00
 -1      3159 1.29439E+01 8.94306E+00 1.21421E+00
 -1      3160 1.85502E+01 8.94400E+00 1.08228E+00
 -1      3161 2.16761E+01 9.36325E+00 1.38732E+00
 -1      3162 2.61508E+01 8.70959E+00 1.19911E+00
 -1      3163 2.83285E+01 9.09220E+00 1.39750E+00
 -1      3164 3.28540E+01 8.83216E+00 1.19598E+00
 -1      3165 4.04882E+01 8.86101E+00 1.26556E+00
 -1      3166 4.58223E+01 8.55694E+00 1.53725E+00
 -1      3167 5.45025E+01 8.46425E+00 1.60791E+00
 -1      3168 5.50188E+01 9.22350E+00 1.36098E+00
 -1      3169 5.79963E+01 8.78611E+00 1.19980E+00
 -1      3170 5.88266E+01 8.80425E+00 1.25775E+00
 -1      3171 5.95236E+01 8.73438E+00 1.18090E+00
 -1      3172 6.70534E+01 9.02506E+00 1.35518E+00
 -1      3173 6.86054E+01 8.94400E+00 1.32830E+00
 -1      3174 7.50054E+01 9.11063E+00 1.39750E+00
 -1      3175 8.03245E+01 9.04566E+00 1.24516E+00
 -1      3176 8.70591E+01 8.96805E+00 1.23254E+00
 -1      3177 8.87194E+01 8.82470E+00 1.27181E+00
 -1      3178 9.15363E+01 8.81031E+00 1.11800E+00
 -1      3179 9.24925E+01 8.54267E+00 1.53725E+00
 -1      3180 9.46138E+01 8.94400E+00 1.11800E+00
 -1      3181 9.59733E+01 8.73438E+00 1.60952E+00
 -1      3182 9.88108E+01 8.80425E+00 1.25775E+00
 -1      3183 9.96629E+01 9.04543E+00 1.24599E+00
 -1      3184 1.20102E+00 8.79033E+00 1.29269E+00
 -1      3185 5.03802E+00 9.22350E+00 1.38681E+00
 -1      3186 5.38395E+00 8.94400E+00 1.11800E+00
 -1      3187 7.06610E+00 9.11319E+00 1.43903E+00
 -1      3188 7.94793E+00 8.94400E+00 1.11800E+00
 -1      3189 1.21543E+01 8.80425E+00 1.25775E+00
 -1      3190 1.38259E+01 8.91093E+00 1.31101E+00
 -1      3191 2.47427E+01 8.91388E+00 1.28840E+00
 -1      3192 2.52419E+01 8.94400E+00 1.06169E+00
 -1      3193 3.17343E+01 8.20431E+00 1.58116E+00
 -1      3194 3.17856E+01 9.10153E+00 1.22281E+00
 -1      3195 3.32605E+01 9.23547E+00 8.26329E-01
 -1      3196 6.16644E+01 9.36325E+00 1.38387E+00
 -1      3197 6.40826E+01 8.97450E+00 1.59212E+00
 -1      3198 6.52204E+01 8.94400E+00 1.07734E+00
 -1      3199 6.81061E+01 8.94400E+00 1.07143E+00
 -1      3200 7.15941E+01 9.22350E+00 1.37284E+00
 -1      3201 7.99370E+01 9.24140E+00 8.20291E-01
 -1      3202 8.53862E+01 8.94400E+00 1.11800E+00
 -1      3203 8.62116E+01 8.93556E+00 1.24260E+00
 -1      3204 8.78709E+01 8.80425E+00 1.25775E+00
 -1      3205 9.21284E+01 8.80425E+00 1.25775E+00
 -1      3206 9.49923E+01 9.22350E+00 1.35914E+00
 -1      3207 1.34160E+01 9.55814E+00 1.10596E+00
 -1      3208 2.65525E+01 9.59420E+00 1.22435E+00
 -1      3209 5.33845E+01 9.64809E+00 1.14395E+00
 -1      3210 7.32290E+01 9.59913E+00 1.21397E+00
 -1      3211 8.66450E+01 9.50776E+00 1.11764E+00
 -1      3212 9.33530E+01 9.53633E+00 1.11544E+00
 -1      3213 2.97427E+01 9.48549E+00 1.29269E+00
 -1      3214 7.64166E+01 9.48349E+00 1.29269E+00
 -1      3215 7.99370E+01 9.62051E+00 1.16972E+00
 -1      3216 3.53470E+01 9.64741E+00 1.24422E+00
 -1      3217 4.99648E+01 9.49541E+00 1.15294E+00
 -1      3218 5.78877E+01 9.64055E+00 1.25009E+00
 -1      3219 8.20211E+01 9.64707E+00 1.24498E+00
 -1      3220 9.66387E+01 9.49578E+00 1.15294E+00
 -1      3221 1.39083E+00 9.76211E+00 1.25637E+00
 -1      3222 8.11317E+00 9.78013E+00 1.11698E+00
 -1      3223 7.68625E+00 9.82957E+00 1.79211E+00
 -1      3224 8.93137E+00 9.56589E+00 1.33084E+00
 -1      3225 1.16883E+01 9.24205E+00 1.39750E+00
 -1      3226 1.49920E+01 9.36325E+00 1.38278E+00
 -1      3227 1.83278E+01 9.35490E+00 1.39070E+00
 -1      3228 2.13932E+01 9.80553E+00 1.19111E+00
 -1      3229 2.55609E+01 9.93975E+00 1.22489E+00
 -1      3230 2.79494E+01 9.78055E+00 1.11744E+00
 -1      3231 3.14438E+01 9.94654E+00 7.68625E-01
 -1      3232 3.46509E+01 9.75505E+00 1.11191E+00
 -1      3233 3.40291E+01 1.00902E+01 1.23770E+00
 -1      3234 4.03282E+01 9.57288E+00 1.50487E+00
 -1      3235 4.14434E+01 9.69340E+00 1.25775E+00
 -1      3236 4.52790E+01 9.73782E+00 1.25775E+00
 -1      3237 4.45950E+01 9.50300E+00 1.34705E+00
 -1      3238 4.80635E+01 9.75969E+00 1.25658E+00
 -1      3239 5.87013E+01 9.76019E+00 1.11222E+00
 -1      3240 6.23098E+01 9.56339E+00 1.33394E+00
 -1      3241 6.80685E+01 9.80228E+00 1.19139E+00
 -1      3242 7.46233E+01 9.77140E+00 1.11497E+00
 -1      3243 8.80718E+01 9.75166E+00 1.25775E+00
 -1      3244 9.12674E+01 9.50300E+00 1.34610E+00
 -1      3245 9.43313E+01 9.82385E+00 1.80103E+00
 -1      3246 9.47343E+01 9.76166E+00 1.32667E+00
 -1      3247 3.61985E-01 9.64275E+00 1.56726E+00
 -1      3248 6.70800E+00 9.64847E+00 1.13640E+00
 -1      3249 1.27172E+01 1.00736E+01 1.29987E+00
 -1      3250 2.60634E+01 9.94125E+00 1.51314E+00
 -1      3251 2.73910E+01 1.01019E+01 1.24422E+00
 -1      3252 4.06673E+01 1.01034E+01 1.22725E+00
 -1      3253 5.93937E+01 1.00728E+01 1.29994E+00
 -1      3254 6.66550E+01 9.83944E+00 1.21725E+00
 -1      3255 6.73595E+01 1.01051E+01 1.24483E+00
 -1      3256 7.28266E+01 9.90654E+00 1.50066E+00
 -1      3257 7.40675E+01 1.01007E+01 1.24385E+00
 -1      3258 8.07056E+01 1.00892E+01 1.23778E+00
 -1      3259 9.25145E+01 9.86995E+00 1.65766E+00
 -1      3260 2.72513E+01 2.01305E-02 1.37182E+00
 -1      3261 4.06673E+01 1.17704E-02 1.37685E+00
 -1      3262 2.33116E-01 4.19250E-01 1.43515E+00
 -1      3263 5.39426E+00 2.41528E-01 1.43008E+00
 -1      3264 6.05884E+00 4.02123E-01 1.79213E+00
 -1      3265 1.22268E+01 2.04826E-01 1.73785E+00
 -1      3266 2.01240E+01 4.19250E-01 1.28119E+00
 -1      3267 2.66793E+01 4.19250E-01 1.35116E+00
 -1      3268 3.29317E+01 4.79860E-01 1.60975E+00
 -1      3269 4.71009E+01 9.08375E-01 1.64229E+00
 -1      3270 5.88316E+01 2.55124E-01 1.83511E+00
 -1      3271 7.96033E+01 4.80480E-01 1.60395E+00
 -1      3272 9.25870E+01 2.59203E-01 1.79863E+00
 -1      3273 9.41915E+01 2.99658E-01 1.92969E+00
 -1      3274 9.96378E+01 2.79500E-01 1.52590E+00
 -1      3275 1.16407E+01 8.98560E-01 1.39750E+00
 -1      3276 1.50494E+01 8.38500E-01 1.36665E+00
 -1      3277 2.16625E+01 6.84665E-01 1.38675E+00
 -1      3278 2.26063E+01 9.77306E-01 1.62228E+00
 -1      3279 2.94464E+01 1.06325E+00 1.68981E+00
 -1      3280 3.04614E+01 7.77286E-01 1.58257E+00
 -1      3281 3.16760E+01 6.98750E-01 1.38095E+00
 -1      3282 3.49872E+01 8.59453E-01 1.39750E+00
 -1      3283 3.70185E+01 7.01479E-01 1.54954E+00
 -1      3284 3.77512E+01 7.33688E-01 1.48110E+00
 -1      3285 4.21584E+01 6.95653E-01 1.45277E+00
 -1      3286 4.38346E+01 5.52726E-01 1.40867E+00
 -1      3287 4.45171E+01 7.68625E-01 1.44017E+00
 -1      3288 4.88266E+01 6.98750E-01 1.45823E+00
 -1      3289 4.83209E+01 8.38500E-01 1.36181E+00
 -1      3290 5.05805E+01 7.46680E-01 1.53727E+00
 -1      3291 5.17431E+01 6.98750E-01 1.39596E+00
 -1      3292 5.55082E+01 5.59000E-01 1.40770E+00
 -1      3293 5.73272E+01 9.02909E-01 1.62030E+00
 -1      3294 6.15266E+01 4.36800E-01 1.74688E+00
 -1      3295 6.23285E+01 6.98750E-01 1.49315E+00
 -1      3296 6.44307E+01 7.80545E-01 1.43752E+00
 -1      3297 6.36238E+01 7.10187E-01 1.54875E+00
 -1      3298 6.50029E+01 6.98750E-01 1.39750E+00
 -1      3299 6.83349E+01 6.88519E-01 1.38785E+00
 -1      3300 6.92810E+01 9.77247E-01 1.62483E+00
 -1      3301 7.71365E+01 7.76895E-01 1.58148E+00
 -1      3302 7.83499E+01 6.98750E-01 1.37981E+00
 -1      3303 8.16655E+01 8.48651E-01 1.39750E+00
 -1      3304 8.37627E+01 6.96721E-01 1.55447E+00
 -1      3305 8.87865E+01 5.52362E-01 1.39354E+00
 -1      3306 9.55019E+01 6.98750E-01 1.46060E+00
 -1      3307 9.49924E+01 8.38500E-01 1.35865E+00
 -1      3308 9.68544E+01 5.94306E-01 1.39750E+00
 -1      3309 9.73551E+01 7.40482E-01 1.54194E+00
 -1      3310 9.83314E+01 8.46292E-01 1.39750E+00
 -1      3311 4.41755E-01 9.78250E-01 1.62996E+00
 -1      3312 3.28413E+00 7.21392E-01 1.56606E+00
 -1      3313 2.03858E+01 6.98750E-01 1.68973E+00
 -1      3314 2.61754E+01 6.98750E-01 1.82830E+00
 -1      3315 4.63825E+01 7.33688E-01 1.48694E+00
 -1      3316 4.99606E+01 7.21272E-01 1.56608E+00
 -1      3317 6.71797E+01 6.98750E-01 1.87361E+00
 -1      3318 1.24503E+00 1.25775E+00 1.25775E+00
 -1      3319 1.87625E+00 1.11800E+00 1.80693E+00
 -1      3320 4.52398E+00 9.78250E-01 1.46024E+00
 -1      3321 6.14496E+00 1.12498E+00 1.53725E+00
 -1      3322 1.38009E+01 6.98750E-01 1.79613E+00
 -1      3323 1.46516E+01 1.11800E+00 1.11800E+00
 -1      3324 3.20239E+01 1.11800E+00 1.11800E+00
 -1      3325 3.12968E+01 1.08806E+00 1.39286E+00
 -1      3326 4.48326E+01 1.18788E+00 1.77926E+00
 -1      3327 4.85455E+01 1.11800E+00 1.81058E+00
 -1      3328 5.11993E+01 9.78250E-01 1.45640E+00
 -1      3329 5.37942E+01 6.28875E-01 1.76680E+00
 -1      3330 6.03453E+01 6.98750E-01 1.60204E+00
 -1      3331 6.60751E+01 8.90906E-01 1.93988E+00
 -1      3332 7.55864E+01 9.78250E-01 1.51124E+00
 -1      3333 7.79709E+01 1.07830E+00 1.39124E+00
 -1      3334 7.86969E+01 1.11800E+00 1.11800E+00
 -1      3335 8.53645E+01 1.11800E+00 1.11800E+00
 -1      3336 8.41461E+01 1.11800E+00 1.58418E+00
 -1      3337 8.49678E+01 1.37257E+00 1.78930E+00
 -1      3338 8.70546E+01 9.89655E-01 1.39174E+00
 -1      3339 8.79075E+01 1.25775E+00 1.25775E+00
 -1      3340 8.84445E+01 7.82792E-01 1.83301E+00
 -1      3341 9.11018E+01 9.78250E-01 1.49024E+00
 -1      3342 9.15041E+01 1.18788E+00 1.77325E+00
 -1      3343 1.45467E+01 1.49651E+00 1.50561E+00
 -1      3344 2.08746E+01 1.53725E+00 1.46738E+00
 -1      3345 2.44595E+01 1.04813E+00 1.47853E+00
 -1      3346 2.54303E+01 1.49723E+00 1.50638E+00
 -1      3347 2.77426E+01 1.46961E+00 1.44409E+00
 -1      3348 3.21272E+01 1.49619E+00 1.50531E+00
 -1      3349 3.48676E+01 1.52647E+00 1.81835E+00
 -1      3350 3.73483E+01 1.32763E+00 1.60700E+00
 -1      3351 4.52441E+01 1.56975E+00 1.91291E+00
 -1      3352 5.45236E+01 1.49536E+00 1.50451E+00
 -1      3353 5.78080E+01 1.01319E+00 1.47950E+00
 -1      3354 6.12206E+01 1.49678E+00 1.50589E+00
 -1      3355 6.56614E+01 1.47364E+00 1.47903E+00
 -1      3356 7.21041E+01 1.49705E+00 1.50618E+00
 -1      3357 7.44145E+01 1.46934E+00 1.44414E+00
 -1      3358 7.61134E+01 1.04324E+00 1.67325E+00
 -1      3359 7.72997E+01 1.39750E+00 1.61698E+00
 -1      3360 8.17210E+01 1.46053E+00 1.88540E+00
 -1      3361 8.24154E+01 1.40925E+00 1.41053E+00
 -1      3362 8.63260E+01 8.43653E-01 1.47129E+00
 -1      3363 9.19206E+01 1.56984E+00 1.91264E+00
 -1      3364 9.87647E+01 1.25775E+00 1.25775E+00
 -1      3365 9.42116E+00 1.48629E+00 1.55632E+00
 -1      3366 1.22399E+01 1.46857E+00 1.44411E+00
 -1      3367 1.60897E+01 1.05402E+00 1.66008E+00
 -1      3368 1.83260E+01 1.83712E+00 1.54847E+00
 -1      3369 1.89905E+01 1.47397E+00 1.47935E+00
 -1      3370 2.49590E+01 1.84540E+00 1.54841E+00
 -1      3371 3.22896E+01 2.05467E+00 1.54685E+00
 -1      3372 3.60875E+01 1.39750E+00 1.65583E+00
 -1      3373 5.25224E+01 1.67700E+00 1.39750E+00
 -1      3374 5.49916E+01 1.82503E+00 1.53329E+00
 -1      3375 5.59498E+01 1.05464E+00 1.62433E+00
 -1      3376 5.81990E+01 1.78650E+00 1.39750E+00
 -1      3377 5.89122E+01 1.46895E+00 1.44415E+00
 -1      3378 6.27626E+01 1.05411E+00 1.66146E+00
 -1      3379 6.50712E+01 1.81524E+00 1.56265E+00
 -1      3380 6.83055E+01 1.80249E+00 1.53992E+00
 -1      3381 6.77379E+01 1.47016E+00 1.44360E+00
 -1      3382 7.17041E+01 1.82487E+00 1.55907E+00
 -1      3383 7.88011E+01 1.49584E+00 1.50496E+00
 -1      3384 8.15441E+01 1.80827E+00 1.56837E+00
 -1      3385 8.83569E+01 2.13167E+00 1.73972E+00
 -1      3386 9.91869E+01 1.67700E+00 1.39750E+00
 -1      3387 1.89051E+01 2.34202E+00 1.55917E+00
 -1      3388 4.55416E+01 2.09625E+00 1.63112E+00
 -1      3389 6.55774E+01 2.34276E+00 1.55427E+00
 -1      3390 6.77571E+01 2.20710E+00 1.54774E+00
 -1      3391 7.87142E+01 1.99778E+00 1.64790E+00
 -1      3392 9.42295E+01 2.23600E+00 1.39750E+00
 -1      3393 7.55435E+00 2.20360E+00 1.39750E+00
 -1      3394 1.14060E+01 2.56617E+00 1.73270E+00
 -1      3395 1.21959E+01 2.09625E+00 1.62072E+00
 -1      3396 2.79431E+01 2.12530E+00 1.63285E+00
 -1      3397 4.10515E+01 2.58538E+00 1.53860E+00
 -1      3398 5.43637E+01 2.22595E+00 1.53760E+00
 -1      3399 5.88686E+01 2.09625E+00 1.61662E+00
 -1      3400 7.22710E+01 2.89534E+00 1.55592E+00
 -1      3401 7.89337E+01 2.66226E+00 1.54059E+00
 -1      3402 9.44414E+01 2.72513E+00 1.57469E+00
 -1      3403 1.90150E+01 3.49070E+00 1.45587E+00
 -1      3404 2.11551E+01 3.06502E+00 1.58703E+00
 -1      3405 2.78669E+01 2.96462E+00 1.63249E+00
 -1      3406 5.43636E+01 2.79838E+00 1.53753E+00
 -1      3407 6.56904E+01 3.49075E+00 1.45507E+00
 -1      3408 6.77457E+01 3.03204E+00 1.56529E+00
 -1      3409 7.45073E+01 2.93211E+00 1.63623E+00
 -1      3410 8.10900E+01 2.72513E+00 1.53573E+00
 -1      3411 9.80794E+01 2.48056E+00 1.73655E+00
 -1      3412 5.64501E+00 2.86488E+00 1.50954E+00
 -1      3413 1.45340E+01 3.43327E+00 1.61182E+00
 -1      3414 3.21425E+01 3.43384E+00 1.61124E+00
 -1      3415 3.45417E+01 3.77325E+00 1.25775E+00
 -1      3416 3.91071E+01 2.79500E+00 1.39750E+00
 -1      3417 3.88505E+01 3.43712E+00 1.60807E+00
 -1      3418 4.49995E+01 3.06634E+00 1.67082E+00
 -1      3419 4.57728E+01 2.79500E+00 1.39750E+00
 -1      3420 4.75150E+01 3.35400E+00 1.42320E+00
 -1      3421 5.90906E+01 2.96969E+00 1.45672E+00
 -1      3422 7.88190E+01 3.43450E+00 1.61059E+00
 -1      3423 8.57735E+01 2.79500E+00 1.39750E+00
 -1      3424 8.56950E+01 3.61690E+00 1.53725E+00
 -1      3425 9.16760E+01 3.06849E+00 1.67255E+00
 -1      3426 9.24393E+01 2.79500E+00 1.39750E+00
 -1      3427 9.41915E+01 3.35400E+00 1.42893E+00
 -1      3428 5.00903E+00 3.36436E+00 1.40737E+00
 -1      3429 2.17429E+01 3.15723E+00 1.49945E+00
 -1      3430 2.25697E+01 3.57720E+00 1.47117E+00
 -1      3431 2.56049E+01 2.92308E+00 1.56339E+00
 -1      3432 2.82846E+01 3.37826E+00 1.41865E+00
 -1      3433 3.48158E+01 3.36227E+00 1.48102E+00
 -1      3434 5.45025E+01 3.43539E+00 1.60972E+00
 -1      3435 5.59650E+01 3.82566E+00 1.63040E+00
 -1      3436 5.88501E+01 3.60112E+00 1.43309E+00
 -1      3437 6.51423E+01 3.19909E+00 1.55958E+00
 -1      3438 6.93923E+01 3.51942E+00 1.51598E+00
 -1      3439 7.49393E+01 3.22762E+00 1.54853E+00
 -1      3440 7.83689E+01 3.07346E+00 1.65552E+00
 -1      3441 8.51098E+01 3.15527E+00 1.60398E+00
 -1      3442 9.06213E+01 3.55829E+00 1.54829E+00
 -1      3443 1.22818E+00 3.77325E+00 1.25775E+00
 -1      3444 2.62501E+00 3.70338E+00 1.59590E+00
 -1      3445 7.82600E+00 3.43622E+00 1.60893E+00
 -1      3446 7.95842E+00 3.91300E+00 1.11800E+00
 -1      3447 2.05000E+01 4.00632E+00 1.61534E+00
 -1      3448 2.55743E+01 3.63675E+00 1.39685E+00
 -1      3449 2.76589E+01 3.49069E+00 1.45662E+00
 -1      3450 3.20254E+01 3.91300E+00 1.11800E+00
 -1      3451 3.50395E+01 4.15005E+00 1.39750E+00
 -1      3452 4.12196E+01 3.77325E+00 1.25775E+00
 -1      3453 4.78976E+01 3.77325E+00 1.25775E+00
 -1      3454 6.77787E+01 3.63571E+00 1.39534E+00
 -1      3455 6.82819E+01 3.15109E+00 1.60974E+00
 -1      3456 6.84775E+01 3.37283E+00 1.11800E+00
 -1      3457 7.22507E+01 3.63728E+00 1.39737E+00
 -1      3458 7.44044E+01 3.59246E+00 1.47139E+00
 -1      3459 8.14901E+01 3.36132E+00 1.47985E+00
 -1      3460 8.26972E+01 4.08769E+00 1.66126E+00
 -1      3461 8.42557E+01 3.61888E+00 1.39854E+00
 -1      3462 9.45671E+01 3.77325E+00 1.25775E+00
 -1      3463 9.84539E+01 3.21875E+00 1.56375E+00
 -1      3464 2.23613E+00 4.19250E+00 1.45132E+00
 -1      3465 4.27852E+00 4.08769E+00 1.58104E+00
 -1      3466 8.27123E+00 3.72574E+00 1.62559E+00
 -1      3467 8.88729E+00 4.01781E+00 1.47619E+00
 -1      3468 1.46499E+01 3.91300E+00 1.11800E+00
 -1      3469 2.71782E+01 4.01781E+00 1.70321E+00
 -1      3470 3.10799E+01 4.33225E+00 1.47609E+00
 -1      3471 3.38195E+01 4.05178E+00 1.64700E+00
 -1      3472 3.83350E+01 4.19250E+00 1.35568E+00
 -1      3473 3.87085E+01 3.91300E+00 1.11800E+00
 -1      3474 3.93843E+01 4.04672E+00 1.91244E+00
 -1      3475 4.04916E+01 4.11108E+00 1.72370E+00
 -1      3476 4.21503E+01 4.05275E+00 1.46515E+00
 -1      3477 4.89452E+01 4.24491E+00 1.44440E+00
 -1      3478 5.17113E+01 4.19250E+00 1.39750E+00
 -1      3479 5.49453E+01 3.72953E+00 1.62915E+00
 -1      3480 6.21890E+01 3.98288E+00 1.47240E+00
 -1      3481 7.77551E+01 4.33225E+00 1.47400E+00
 -1      3482 7.92698E+01 3.74390E+00 1.57206E+00
 -1      3483 8.50066E+01 4.19250E+00 1.35833E+00
 -1      3484 8.53754E+01 3.91300E+00 1.11800E+00
 -1      3485 9.56194E+01 4.24491E+00 1.44626E+00
 -1      3486 9.83274E+01 4.18360E+00 1.39750E+00
 -1      3487 1.64925E+00 4.19250E+00 1.36562E+00
 -1      3488 8.34164E+00 4.19250E+00 1.35795E+00
 -1      3489 1.17390E+01 3.62902E+00 1.67700E+00
 -1      3490 1.49949E+01 4.33225E+00 1.38244E+00
 -1      3491 1.83282E+01 4.33182E+00 1.39049E+00
 -1      3492 2.50126E+01 4.34827E+00 1.38597E+00
 -1      3493 2.61477E+01 4.11825E+00 1.87184E+00
 -1      3494 3.29995E+01 4.33225E+00 1.58571E+00
 -1      3495 3.97243E+01 4.33225E+00 1.49530E+00
 -1      3496 4.18278E+01 3.95467E+00 1.80486E+00
 -1      3497 4.54412E+01 3.77325E+00 1.25775E+00
 -1      3498 4.50223E+01 4.19250E+00 1.36961E+00
 -1      3499 4.48536E+01 3.77325E+00 1.80150E+00
 -1      3500 4.69638E+01 4.33225E+00 1.53851E+00
 -1      3501 4.83208E+01 4.19250E+00 1.36208E+00
 -1      3502 5.36557E+01 4.29731E+00 1.56872E+00
 -1      3503 5.94937E+01 4.39488E+00 1.79691E+00
 -1      3504 6.03446E+01 4.33225E+00 1.60285E+00
 -1      3505 6.49963E+01 4.33608E+00 1.38942E+00
 -1      3506 7.38603E+01 4.01781E+00 1.77752E+00
 -1      3507 7.96723E+01 4.33225E+00 1.57595E+00
 -1      3508 8.83052E+01 4.19250E+00 1.37518E+00
 -1      3509 9.15257E+01 3.77325E+00 1.79560E+00
 -1      3510 9.36341E+01 4.33225E+00 1.54568E+00
 -1      3511 9.49924E+01 4.19250E+00 1.35893E+00
 -1      3512 5.11363E-01 4.19250E+00 1.80177E+00
 -1      3513 2.91993E+00 4.32842E+00 1.54054E+00
 -1      3514 1.01484E+01 4.44303E+00 1.39750E+00
 -1      3515 1.65604E+01 4.30588E+00 1.55935E+00
 -1      3516 1.70555E+01 4.47123E+00 1.39750E+00
 -1      3517 1.99772E+01 4.61175E+00 1.33421E+00
 -1      3518 2.28537E+01 4.45856E+00 1.41814E+00
 -1      3519 2.39053E+01 4.19093E+00 1.58926E+00
 -1      3520 3.32605E+01 4.58623E+00 1.18107E+00
 -1      3521 3.78176E+01 4.33225E+00 1.46100E+00
 -1      3522 4.95937E+01 4.32775E+00 1.54116E+00
 -1      3523 5.48302E+01 4.61320E+00 1.60141E+00
 -1      3524 6.32369E+01 4.30591E+00 1.55969E+00
 -1      3525 6.37254E+01 4.47206E+00 1.39760E+00
 -1      3526 6.68263E+01 5.03100E+00 1.11800E+00
 -1      3527 8.44930E+01 4.33225E+00 1.45871E+00
 -1      3528 8.70885E+01 4.54187E+00 1.68257E+00
 -1      3529 8.88717E+01 4.33225E+00 1.46958E+00
 -1      3530 1.17355E+00 4.76612E+00 1.67118E+00
 -1      3531 6.68904E+00 5.03024E+00 1.16201E+00
 -1      3532 7.40675E+00 5.03100E+00 1.36762E+00
 -1      3533 1.18550E+01 4.63909E+00 1.69990E+00
 -1      3534 1.37035E+01 4.33225E+00 1.66060E+00
 -1      3535 2.75283E+01 5.03100E+00 1.25984E+00
 -1      3536 2.88936E+01 4.29731E+00 1.46792E+00
 -1      3537 4.44616E+01 4.33225E+00 1.46239E+00
 -1      3538 4.52790E+01 4.71819E+00 1.25775E+00
 -1      3539 4.78473E+01 4.76369E+00 1.67134E+00
 -1      3540 5.40833E+01 5.03100E+00 1.36441E+00
 -1      3541 5.70450E+01 4.46826E+00 1.39750E+00
 -1      3542 6.78768E+01 4.79102E+00 1.59785E+00
 -1      3543 6.90772E+01 4.47200E+00 1.42046E+00
 -1      3544 7.10425E+01 4.33225E+00 1.48417E+00
 -1      3545 7.19725E+01 4.71064E+00 1.64206E+00
 -1      3546 8.21533E+01 4.47200E+00 1.40160E+00
 -1      3547 9.11360E+01 4.33225E+00 1.46039E+00
 -1      3548 9.34578E+01 5.03054E+00 1.17134E+00
 -1      3549 9.45212E+01 4.76115E+00 1.67146E+00
 -1      3550 2.01430E+01 5.24063E+00 1.19977E+00
 -1      3551 3.20231E+01 4.69993E+00 1.74131E+00
 -1      3552 3.25617E+01 5.03100E+00 1.35507E+00
 -1      3553 3.92697E+01 5.03100E+00 1.37026E+00
 -1      3554 4.59777E+01 5.03100E+00 1.37596E+00
 -1      3555 5.34839E+01 5.14417E+00 1.16639E+00
 -1      3556 6.75043E+01 5.03100E+00 1.30472E+00
 -1      3557 7.25277E+01 5.03100E+00 1.33414E+00
 -1      3558 7.92383E+01 5.03100E+00 1.35972E+00
 -1      3559 8.78247E+01 4.77107E+00 1.67070E+00
 -1      3560 9.90275E+01 4.79134E+00 1.72129E+00
 -1      3561 2.83575E-01 5.65987E+00 1.49178E+00
 -1      3562 7.05994E-01 5.46022E+00 1.93625E+00
 -1      3563 1.88549E+01 5.27521E+00 1.79539E+00
 -1      3564 2.16643E+01 5.71384E+00 1.38641E+00
 -1      3565 2.55068E+01 5.25127E+00 1.67618E+00
 -1      3566 2.66729E+01 5.38037E+00 1.34975E+00
 -1      3567 2.81334E+01 5.41234E+00 1.77395E+00
 -1      3568 3.20994E+01 5.25758E+00 1.60713E+00
 -1      3569 3.32605E+01 5.47207E+00 1.18209E+00
 -1      3570 3.46696E+01 5.30939E+00 1.78380E+00
 -1      3571 4.78650E+01 5.24442E+00 1.67700E+00
 -1      3572 5.31229E+01 5.45025E+00 1.41548E+00
 -1      3573 6.01810E+01 4.89125E+00 1.21173E+00
 -1      3574 6.55303E+01 5.27403E+00 1.79618E+00
 -1      3575 6.81147E+01 5.39733E+00 1.84822E+00
 -1      3576 7.20412E+01 5.26130E+00 1.53725E+00
 -1      3577 7.48063E+01 5.41560E+00 1.77224E+00
 -1      3578 9.41915E+01 5.32594E+00 1.93623E+00
 -1      3579 9.96390E+01 5.31050E+00 1.53100E+00
 -1      3580 2.13063E+00 5.65516E+00 1.42616E+00
 -1      3581 1.64929E+00 5.86950E+00 1.36502E+00
 -1      3582 3.88359E+00 5.77239E+00 1.54063E+00
 -1      3583 6.38687E+00 5.76469E+00 1.47829E+00
 -1      3584 8.34037E+00 5.86950E+00 1.35614E+00
 -1      3585 8.88264E+00 5.79963E+00 1.44430E+00
 -1      3586 1.55241E+01 5.59000E+00 1.41533E+00
 -1      3587 2.43846E+01 5.57690E+00 1.41002E+00
 -1      3588 3.16737E+01 5.72975E+00 1.38053E+00
 -1      3589 3.54280E+01 5.79668E+00 1.41940E+00
 -1      3590 3.71250E+01 5.58234E+00 1.41054E+00
 -1      3591 3.77543E+01 5.76469E+00 1.48325E+00
 -1      3592 4.16455E+01 5.86950E+00 1.36297E+00
 -1      3593 4.38209E+01 5.57940E+00 1.41091E+00
 -1      3594 4.54654E+01 6.28875E+00 1.29269E+00
 -1      3595 4.88047E+01 5.65497E+00 1.42776E+00
 -1      3596 5.05577E+01 5.77216E+00 1.53970E+00
 -1      3597 5.17411E+01 5.72975E+00 1.39595E+00
 -1      3598 5.36488E+01 5.45025E+00 1.55229E+00
 -1      3599 5.50169E+01 5.86950E+00 1.35847E+00
 -1      3600 5.55579E+01 5.79963E+00 1.44661E+00
 -1      3601 6.21976E+01 5.59000E+00 1.41647E+00
 -1      3602 6.43603E+01 5.57687E+00 1.41195E+00
 -1      3603 6.83370E+01 5.71775E+00 1.38753E+00
 -1      3604 7.02094E+01 5.73462E+00 1.56700E+00
 -1      3605 7.10254E+01 5.79309E+00 1.48043E+00
 -1      3606 7.16528E+01 5.72975E+00 1.38417E+00
 -1      3607 7.60290E+01 5.96848E+00 1.65802E+00
 -1      3608 7.70605E+01 5.72713E+00 1.55949E+00
 -1      3609 7.83479E+01 5.72975E+00 1.37938E+00
 -1      3610 8.16623E+01 5.85982E+00 1.39750E+00
 -1      3611 8.37711E+01 5.76050E+00 1.56083E+00
 -1      3612 8.88208E+01 5.83032E+00 1.43190E+00
 -1      3613 9.04943E+01 5.57873E+00 1.41096E+00
 -1      3614 9.54787E+01 5.65478E+00 1.42935E+00
 -1      3615 9.49924E+01 5.86950E+00 1.35830E+00
 -1      3616 9.70201E+01 5.78366E+00 1.58209E+00
 -1      3617 9.83357E+01 5.86219E+00 1.39750E+00
 -1      3618 1.01319E+01 5.79088E+00 1.62814E+00
 -1      3619 2.05078E+01 5.72975E+00 1.86649E+00
 -1      3620 4.62610E+01 5.96882E+00 1.44103E+00
 -1      3621 6.71874E+01 5.76469E+00 1.89777E+00
 -1      3622 1.26237E+00 6.28875E+00 1.25775E+00
 -1      3623 1.87499E+00 6.14900E+00 1.80705E+00
 -1      3624 1.22284E+01 6.50007E+00 1.44532E+00
 -1      3625 1.38006E+01 5.72975E+00 1.79593E+00
 -1      3626 2.20730E+01 6.15211E+00 1.39959E+00
 -1      3627 2.62162E+01 6.03591E+00 1.53058E+00
 -1      3628 2.89305E+01 5.91876E+00 1.54648E+00
 -1      3629 3.07172E+01 5.97431E+00 1.64412E+00
 -1      3630 3.28627E+01 5.49953E+00 1.66287E+00
 -1      3631 3.88822E+01 6.35863E+00 1.39750E+00
 -1      3632 3.95317E+01 5.97431E+00 1.72166E+00
 -1      3633 4.85442E+01 6.14900E+00 1.81067E+00
 -1      3634 5.11983E+01 6.00925E+00 1.45507E+00
 -1      3635 5.89550E+01 6.56838E+00 1.44206E+00
 -1      3636 6.03462E+01 5.72975E+00 1.60116E+00
 -1      3637 7.86867E+01 6.14900E+00 1.11800E+00
 -1      3638 7.95344E+01 5.50078E+00 1.65825E+00
 -1      3639 8.55494E+01 6.35863E+00 1.39750E+00
 -1      3640 8.69470E+01 5.76469E+00 1.47238E+00
 -1      3641 9.11008E+01 6.00925E+00 1.48947E+00
 -1      3642 9.28252E+01 5.94181E+00 1.74671E+00
 -1      3643 9.45987E+01 6.28875E+00 1.25775E+00
 -1      3644 1.11320E+01 6.04419E+00 1.48187E+00
 -1      3645 1.45549E+01 6.52626E+00 1.50656E+00
 -1      3646 2.44575E+01 6.07913E+00 1.47724E+00
 -1      3647 2.77644E+01 6.50112E+00 1.44520E+00
 -1      3648 3.21187E+01 6.52591E+00 1.50623E+00
 -1      3649 4.27963E+01 6.11406E+00 1.69283E+00
 -1      3650 4.44256E+01 6.00925E+00 1.49314E+00
 -1      3651 6.12285E+01 6.52656E+00 1.50686E+00
 -1      3652 6.55941E+01 6.54782E+00 1.48762E+00
 -1      3653 7.61212E+01 6.61420E+00 1.45865E+00
 -1      3654 7.74415E+01 6.14900E+00 1.59978E+00
 -1      3655 7.89992E+01 6.43396E+00 1.53725E+00
 -1      3656 7.85744E+01 6.59163E+00 1.86948E+00
 -1      3657 9.87395E+01 6.28875E+00 1.25775E+00
 -1      3658 2.81069E+00 6.55954E+00 1.53734E+00
 -1      3659 5.85928E+00 6.70800E+00 1.39750E+00
 -1      3660 1.59716E+01 6.08538E+00 1.63101E+00
 -1      3661 1.90666E+01 6.57432E+00 1.49274E+00
 -1      3662 2.39297E+01 6.20238E+00 1.65437E+00
 -1      3663 2.50275E+01 6.85380E+00 1.56003E+00
 -1      3664 3.42908E+01 6.57707E+00 1.49751E+00
 -1      3665 3.48676E+01 6.83549E+00 1.57535E+00
 -1      3666 3.61328E+01 6.16327E+00 1.69660E+00
 -1      3667 3.71776E+01 6.23634E+00 1.67229E+00
 -1      3668 4.08070E+01 6.70800E+00 1.39876E+00
 -1      3669 4.15756E+01 6.83542E+00 1.56167E+00
 -1      3670 4.49166E+01 6.91239E+00 1.53793E+00
 -1      3671 4.94056E+01 6.50631E+00 1.54992E+00
 -1      3672 5.25235E+01 6.70800E+00 1.39750E+00
 -1      3673 6.10528E+01 7.00272E+00 1.56847E+00
 -1      3674 6.26450E+01 6.08560E+00 1.63295E+00
 -1      3675 6.77342E+01 6.54779E+00 1.48755E+00
 -1      3676 6.93218E+01 6.53820E+00 1.45510E+00
 -1      3677 7.17027E+01 6.85161E+00 1.56182E+00
 -1      3678 8.15441E+01 6.83525E+00 1.57230E+00
 -1      3679 8.27447E+01 6.19813E+00 1.66114E+00
 -1      3680 8.39955E+01 6.42850E+00 1.59218E+00
 -1      3681 8.82521E+01 6.83575E+00 1.55807E+00
 -1      3682 6.77570E+01 7.23648E+00 1.54949E+00
 -1      3683 8.55193E+01 7.12725E+00 1.64629E+00
 -1      3684 7.55586E+00 7.22931E+00 1.39750E+00
 -1      3685 1.21982E+01 7.12725E+00 1.62056E+00
 -1      3686 1.43874E+01 7.24989E+00 1.54402E+00
 -1      3687 3.22837E+01 7.19350E+00 1.53536E+00
 -1      3688 3.91228E+01 7.20991E+00 1.38136E+00
 -1      3689 4.10048E+01 7.47663E+00 1.49564E+00
 -1      3690 5.43644E+01 7.25310E+00 1.53765E+00
 -1      3691 7.22627E+01 7.23936E+00 1.54686E+00
 -1      3692 7.88190E+01 7.46616E+00 1.68052E+00
 -1      3693 1.23254E+01 7.72119E+00 1.47621E+00
 -1      3694 1.89867E+01 7.79102E+00 1.50344E+00
 -1      3695 3.23028E+01 7.92003E+00 1.53638E+00
 -1      3696 5.88117E+01 7.84344E+00 1.59213E+00
 -1      3697 6.56584E+01 7.79089E+00 1.49808E+00
 -1      3698 7.44232E+01 7.75339E+00 1.52367E+00
 -1      3699 2.11549E+01 8.09475E+00 1.58536E+00
 -1      3700 2.78670E+01 7.99282E+00 1.63180E+00
 -1      3701 3.44817E+01 7.96575E+00 1.62480E+00
 -1      3702 6.77456E+01 8.06173E+00 1.56456E+00
 -1      3703 8.10904E+01 7.75613E+00 1.53705E+00
 -1      3704 4.82322E+00 7.88886E+00 1.66686E+00
 -1      3705 7.82600E+00 8.46502E+00 1.60716E+00
 -1      3706 1.13913E+01 7.61637E+00 1.68713E+00
 -1      3707 2.56134E+01 8.02274E+00 1.56758E+00
 -1      3708 3.45173E+01 8.80425E+00 1.25775E+00
 -1      3709 3.91100E+01 7.82600E+00 1.39750E+00
 -1      3710 4.49967E+01 7.87204E+00 1.73508E+00
 -1      3711 4.57756E+01 7.82600E+00 1.39750E+00
 -1      3712 4.78005E+01 7.75613E+00 1.62097E+00
 -1      3713 5.14804E+01 7.58144E+00 1.79676E+00
 -1      3714 5.23190E+01 7.89587E+00 1.50485E+00
 -1      3715 6.51004E+01 8.17483E+00 1.57428E+00
 -1      3716 7.42786E+01 8.51544E+00 1.42520E+00
 -1      3717 9.15363E+01 7.96045E+00 1.70985E+00
 -1      3718 9.24422E+01 7.82600E+00 1.39750E+00
 -1      3719 3.97394E+00 8.59836E+00 1.54625E+00
 -1      3720 5.01365E+00 8.39319E+00 1.40531E+00
 -1      3721 9.41255E+00 8.87413E+00 1.65693E+00
 -1      3722 2.50316E+01 8.19705E+00 1.57424E+00
 -1      3723 3.60987E+01 8.41004E+00 1.39750E+00
 -1      3724 4.78645E+01 8.79006E+00 1.29269E+00
 -1      3725 5.17075E+01 8.10131E+00 1.67410E+00
 -1      3726 5.60671E+01 8.90033E+00 1.64479E+00
 -1      3727 6.83238E+01 8.23227E+00 1.53651E+00
 -1      3728 7.49329E+01 8.25650E+00 1.54693E+00
 -1      3729 7.60736E+01 8.54197E+00 1.52433E+00
 -1      3730 7.82987E+01 8.35678E+00 1.39750E+00
 -1      3731 8.27703E+01 8.40712E+00 1.39750E+00
 -1      3732 8.92730E+01 8.73438E+00 1.58963E+00
 -1      3733 2.62399E+00 8.73438E+00 1.60008E+00
 -1      3734 1.43942E+01 8.66516E+00 1.38975E+00
 -1      3735 1.88663E+01 8.67070E+00 1.39244E+00
 -1      3736 2.04785E+01 9.03605E+00 1.56964E+00
 -1      3737 2.55743E+01 8.67114E+00 1.39532E+00
 -1      3738 2.76613E+01 8.61220E+00 1.54194E+00
 -1      3739 3.22822E+01 8.67377E+00 1.39732E+00
 -1      3740 4.20943E+01 8.94400E+00 1.42149E+00
 -1      3741 5.74893E+01 9.11869E+00 1.60878E+00
 -1      3742 6.05765E+01 8.85808E+00 1.52129E+00
 -1      3743 6.10707E+01 8.66566E+00 1.39042E+00
 -1      3744 6.20458E+01 8.94400E+00 1.39944E+00
 -1      3745 6.55428E+01 8.67060E+00 1.39321E+00
 -1      3746 6.77787E+01 8.66837E+00 1.39198E+00
 -1      3747 7.22507E+01 8.67158E+00 1.39587E+00
 -1      3748 7.88190E+01 8.46342E+00 1.60873E+00
 -1      3749 9.09600E+01 8.69272E+00 1.41569E+00
 -1      3750 9.44710E+01 8.46697E+00 1.60527E+00
 -1      3751 9.83840E+01 8.10317E+00 1.67543E+00
 -1      3752 1.77417E+01 9.21324E+00 1.55397E+00
 -1      3753 2.71731E+01 9.04881E+00 1.70404E+00
 -1      3754 3.38166E+01 9.08169E+00 1.64730E+00
 -1      3755 3.50414E+01 9.17866E+00 1.39750E+00
 -1      3756 3.83344E+01 9.22350E+00 1.35651E+00
 -1      3757 3.88505E+01 8.46586E+00 1.60634E+00
 -1      3758 3.87192E+01 8.94400E+00 1.11800E+00
 -1      3759 3.94544E+01 8.90047E+00 1.53725E+00
 -1      3760 4.12818E+01 8.94400E+00 1.11800E+00
 -1      3761 4.88618E+01 9.04881E+00 1.46655E+00
 -1      3762 5.17867E+01 8.74157E+00 1.56198E+00
 -1      3763 5.39189E+01 8.91795E+00 1.73871E+00
 -1      3764 7.83026E+01 9.22350E+00 1.36365E+00
 -1      3765 8.16708E+01 9.21044E+00 1.39750E+00
 -1      3766 8.55270E+01 8.46678E+00 1.60545E+00
 -1      3767 9.38839E+01 9.18565E+00 1.85303E+00
 -1      3768 1.64913E+00 9.22350E+00 1.36579E+00
 -1      3769 4.86975E+00 8.82172E+00 1.77951E+00
 -1      3770 8.34216E+00 9.22350E+00 1.35875E+00
 -1      3771 2.50145E+01 9.37742E+00 1.38625E+00
 -1      3772 2.61482E+01 9.14878E+00 1.87438E+00
 -1      3773 3.30009E+01 9.36325E+00 1.58557E+00
 -1      3774 3.97258E+01 9.36325E+00 1.49598E+00
 -1      3775 4.16335E+01 9.22350E+00 1.38060E+00
 -1      3776 4.54583E+01 8.80425E+00 1.25775E+00
 -1      3777 4.50224E+01 9.22350E+00 1.36976E+00
 -1      3778 4.48522E+01 8.80425E+00 1.79844E+00
 -1      3779 4.61692E+01 9.22350E+00 1.78974E+00
 -1      3780 4.71465E+01 9.53794E+00 1.75970E+00
 -1      3781 4.83207E+01 9.22350E+00 1.36227E+00
 -1      3782 5.17095E+01 9.22350E+00 1.39413E+00
 -1      3783 5.37132E+01 9.55541E+00 1.57720E+00
 -1      3784 5.83153E+01 9.29464E+00 1.39750E+00
 -1      3785 5.95562E+01 9.43313E+00 1.73131E+00
 -1      3786 6.03440E+01 9.36325E+00 1.60361E+00
 -1      3787 6.83220E+01 9.36325E+00 1.39750E+00
 -1      3788 7.96737E+01 9.36325E+00 1.57593E+00
 -1      3789 8.50067E+01 9.22350E+00 1.35854E+00
 -1      3790 8.83051E+01 9.22350E+00 1.37527E+00
 -1      3791 9.16940E+01 9.22350E+00 1.37427E+00
 -1      3792 9.15243E+01 8.80425E+00 1.79247E+00
 -1      3793 2.91787E+00 9.35613E+00 1.53857E+00
 -1      3794 1.02308E+01 9.47970E+00 1.39750E+00
 -1      3795 1.70210E+01 9.48279E+00 1.39750E+00
 -1      3796 1.99766E+01 9.64275E+00 1.33322E+00
 -1      3797 2.27685E+01 9.50868E+00 1.40554E+00
 -1      3798 2.32684E+01 9.33255E+00 1.55696E+00
 -1      3799 2.37723E+01 9.50130E+00 1.39750E+00
 -1      3800 3.32605E+01 9.61533E+00 1.18033E+00
 -1      3801 3.71590E+01 9.30789E+00 1.53804E+00
 -1      3802 5.70070E+01 9.47938E+00 1.39750E+00
 -1      3803 6.37614E+01 9.49852E+00 1.39750E+00
 -1      3804 6.94417E+01 9.50808E+00 1.40542E+00
 -1      3805 6.99449E+01 9.33254E+00 1.55717E+00
 -1      3806 7.04416E+01 9.50215E+00 1.39750E+00
 -1      3807 7.20085E+01 9.69950E+00 1.80171E+00
 -1      3808 8.70498E+01 9.71263E+00 1.55408E+00
 -1      3809 9.37437E+01 9.71263E+00 1.58117E+00
 -1      3810 9.96137E+01 9.60142E+00 1.60108E+00
 -1      3811 2.36758E+00 9.32831E+00 1.48700E+00
 -1      3812 4.38331E+00 9.31084E+00 1.49047E+00
 -1      3813 1.21572E+01 9.82088E+00 1.65818E+00
 -1      3814 1.88553E+01 9.82658E+00 1.66233E+00
 -1      3815 2.22672E+01 9.29338E+00 1.47875E+00
 -1      3816 2.40762E+01 9.11869E+00 1.62400E+00
 -1      3817 2.90038E+01 9.47116E+00 1.41758E+00
 -1      3818 4.95918E+01 9.35546E+00 1.53917E+00
 -1      3819 5.04189E+01 9.35946E+00 1.54103E+00
 -1      3820 5.89468E+01 9.77592E+00 1.76480E+00
 -1      3821 6.88481E+01 9.50300E+00 1.39836E+00
 -1      3822 7.07511E+01 9.11869E+00 1.62162E+00
 -1      3823 8.41430E+01 9.08375E+00 1.62176E+00
 -1      3824 8.45697E+01 9.50300E+00 1.38426E+00
 -1      3825 8.93120E+01 9.29338E+00 1.58505E+00
 -1      3826 9.57185E+01 9.32831E+00 1.49069E+00
 -1      3827 9.62658E+01 9.35479E+00 1.53976E+00
 -1      3828 9.71958E+01 9.30767E+00 1.52863E+00
 -1      3829 9.78028E+01 9.24494E+00 1.44060E+00
 -1      3830 9.83238E+01 9.21368E+00 1.39750E+00
 -1      3831 7.09942E+00 9.78250E+00 1.57904E+00
 -1      3832 2.11122E+01 9.81391E+00 1.79092E+00
 -1      3833 2.78157E+01 9.80925E+00 1.78586E+00
 -1      3834 3.28478E+01 9.94798E+00 1.42656E+00
 -1      3835 3.45193E+01 9.80346E+00 1.77638E+00
 -1      3836 6.54640E+01 9.84024E+00 1.60674E+00
 -1      3837 6.61018E+01 1.00299E+01 1.35325E+00
 -1      3838 6.77876E+01 9.81291E+00 1.79004E+00
 -1      3839 7.44911E+01 9.80797E+00 1.78406E+00
 -1      3840 7.94947E+01 9.89076E+00 1.51242E+00
 -1      3841 8.11947E+01 9.80695E+00 1.74264E+00
 -1      3842 8.58764E+01 9.81812E+00 1.73902E+00
 -1      3843 5.25111E+01 9.87752E+00 1.61835E+00
 -1      3844 7.07132E-01 4.31575E-01 1.93200E+00
 -1      3845 7.68625E+00 2.87684E-01 1.94465E+00
 -1      3846 1.28570E+01 2.79500E-01 1.64326E+00
 -1      3847 1.46039E+01 3.33138E-01 1.95042E+00
 -1      3848 1.87744E+01 2.98834E-01 1.81069E+00
 -1      3849 1.94595E+01 7.86094E-01 1.91013E+00
 -1      3850 2.11023E+01 2.85051E-01 1.94020E+00
 -1      3851 2.56295E+01 2.32959E-01 1.77543E+00
 -1      3852 2.71963E+01 6.98750E-01 1.89517E+00
 -1      3853 2.78278E+01 2.82881E-01 1.87339E+00
 -1      3854 3.21032E+01 2.73592E-01 1.74393E+00
 -1      3855 3.46665E+01 2.82727E-01 1.77338E+00
 -1      3856 3.89902E+01 2.25156E-01 1.81063E+00
 -1      3857 4.06776E+01 5.05614E-01 1.92423E+00
 -1      3858 4.73809E+01 4.30420E-01 1.93605E+00
 -1      3859 4.78904E+01 2.91378E-01 1.88698E+00
 -1      3860 5.28255E+01 2.79500E-01 1.67084E+00
 -1      3861 5.43627E+01 2.87057E-01 1.94487E+00
 -1      3862 5.95134E+01 4.19250E-01 1.74195E+00
 -1      3863 6.10707E+01 2.85367E-01 1.94375E+00
 -1      3864 6.55317E+01 2.42238E-01 1.80653E+00
 -1      3865 6.77787E+01 2.85115E-01 1.93852E+00
 -1      3866 7.22349E+01 2.39112E-01 1.80986E+00
 -1      3867 7.28471E+01 4.08179E-01 1.69687E+00
 -1      3868 7.45789E+01 3.37278E-01 1.87918E+00
 -1      3869 7.87772E+01 2.71156E-01 1.74397E+00
 -1      3870 8.13408E+01 2.84884E-01 1.76769E+00
 -1      3871 8.58835E+01 2.49687E-01 1.80357E+00
 -1      3872 8.51364E+01 4.41966E-01 1.74688E+00
 -1      3873 5.15702E+00 4.52277E-01 1.95650E+00
 -1      3874 1.15391E+01 7.61715E-01 1.94054E+00
 -1      3875 1.28007E+01 9.08375E-01 1.81815E+00
 -1      3876 2.82926E+01 4.99198E-01 1.81675E+00
 -1      3877 3.38072E+01 7.33688E-01 1.82992E+00
 -1      3878 5.28112E+01 9.08375E-01 1.80671E+00
 -1      3879 5.82108E+01 7.58235E-01 1.93840E+00
 -1      3880 6.48920E+01 7.54811E-01 1.89453E+00
 -1      3881 7.37833E+01 7.68625E-01 1.79113E+00
 -1      3882 8.04788E+01 7.33688E-01 1.83745E+00
 -1      3883 9.27847E+01 9.08375E-01 1.88253E+00
 -1      3884 9.94790E+01 9.08375E-01 1.80484E+00
 -1      3885 2.74027E+00 9.43313E-01 1.67646E+00
 -1      3886 3.95671E+00 9.43313E-01 1.66772E+00
 -1      3887 4.77586E+00 9.40962E-01 1.87125E+00
 -1      3888 9.41147E+00 9.76876E-01 1.69181E+00
 -1      3889 1.01668E+01 1.15294E+00 1.80244E+00
 -1      3890 1.06538E+01 9.43313E-01 1.65877E+00
 -1      3891 1.68049E+01 1.04813E+00 1.78124E+00
 -1      3892 1.73637E+01 1.08306E+00 1.64183E+00
 -1      3893 2.34081E+01 1.04813E+00 1.80340E+00
 -1      3894 2.39194E+01 1.15294E+00 1.68293E+00
 -1      3895 2.85490E+01 9.78250E-01 1.84105E+00
 -1      3896 4.29906E+01 9.86984E-01 1.71561E+00
 -1      3897 4.38991E+01 9.78250E-01 1.69131E+00
 -1      3898 4.93912E+01 9.78019E-01 1.68706E+00
 -1      3899 5.67734E+01 1.04813E+00 1.78461E+00
 -1      3900 5.94834E+01 9.78250E-01 1.79941E+00
 -1      3901 7.04637E+01 1.04813E+00 1.70029E+00
 -1      3902 8.28629E+01 1.10927E+00 1.71014E+00
 -1      3903 8.71330E+01 6.98750E-01 1.80782E+00
 -1      3904 8.93842E+01 1.08306E+00 1.67248E+00
 -1      3905 9.03713E+01 1.00676E+00 1.73278E+00
 -1      3906 9.60642E+01 9.77648E-01 1.68856E+00
 -1      3907 9.68118E+01 1.15294E+00 1.80637E+00
 -1      3908 2.18722E+01 9.78250E-01 1.82324E+00
 -1      3909 2.59142E+01 1.27504E+00 1.89875E+00
 -1      3910 4.60998E+01 1.04813E+00 1.82692E+00
 -1      3911 5.14641E+01 9.71867E-01 1.83347E+00
 -1      3912 6.39835E+01 1.25775E+00 1.66011E+00
 -1      3913 6.85412E+01 9.78250E-01 1.82747E+00
 -1      3914 7.92931E+01 7.82778E-01 2.08566E+00
 -1      3915 9.39101E+01 9.08375E-01 1.87890E+00
 -1      3916 9.52135E+01 1.04440E+00 1.85993E+00
 -1      3917 8.60167E-01 1.38643E+00 1.81675E+00
 -1      3918 3.42388E+00 1.25775E+00 1.84234E+00
 -1      3919 1.84123E+01 1.52193E+00 1.88606E+00
 -1      3920 3.91069E+01 1.39750E+00 1.67700E+00
 -1      3921 4.08760E+01 1.22009E+00 2.25533E+00
 -1      3922 5.01004E+01 1.25775E+00 1.84113E+00
 -1      3923 5.19445E+01 1.53253E+00 1.90904E+00
 -1      3924 6.06899E+01 1.05374E+00 1.98417E+00
 -1      3925 7.26045E+01 1.25775E+00 1.89599E+00
 -1      3926 7.53653E+01 1.34509E+00 2.12761E+00
 -1      3927 8.76863E+01 1.47847E+00 2.10597E+00
 -1      3928 9.45944E+01 1.64110E+00 2.18295E+00
 -1      3929 5.67385E+01 1.69811E+00 1.70051E+00
 -1      3930 6.34814E+01 1.47595E+00 1.76200E+00
 -1      3931 6.99449E+01 1.46738E+00 1.79412E+00
 -1      3932 7.65481E+01 1.47745E+00 1.76636E+00
 -1      3933 8.33609E+01 1.47880E+00 1.78563E+00
 -1      3934 1.60713E+00 2.16903E+00 1.76047E+00
 -1      3935 4.94366E+00 2.13119E+00 1.74964E+00
 -1      3936 5.50462E+00 2.09625E+00 1.63696E+00
 -1      3937 8.24525E+00 2.15967E+00 1.76288E+00
 -1      3938 1.47417E+01 2.00745E+00 1.66523E+00
 -1      3939 2.54145E+01 2.11236E+00 1.68542E+00
 -1      3940 3.47977E+01 1.93997E+00 1.67700E+00
 -1      3941 3.65796E+01 1.47856E+00 1.77005E+00
 -1      3942 3.87083E+01 2.00583E+00 1.66326E+00
 -1      3943 3.81342E+01 2.23933E+00 1.74410E+00
 -1      3944 4.83535E+01 1.96459E+00 1.67063E+00
 -1      3945 5.21771E+01 2.09625E+00 1.63324E+00
 -1      3946 6.12004E+01 2.12893E+00 1.67819E+00
 -1      3947 7.47663E+01 1.94342E+00 1.67700E+00
 -1      3948 7.81414E+01 2.34349E+00 1.76791E+00
 -1      3949 8.53833E+01 2.00621E+00 1.66117E+00
 -1      3950 8.48095E+01 2.23873E+00 1.74750E+00
 -1      3951 9.20505E+01 2.51550E+00 1.71251E+00
 -1      3952 9.48903E+01 2.15870E+00 1.76247E+00
 -1      3953 9.88496E+01 2.09625E+00 1.62943E+00
 -1      3954 1.12523E+00 2.72513E+00 1.61036E+00
 -1      3955 1.53184E+01 2.30588E+00 1.72743E+00
 -1      3956 2.18400E+01 2.51550E+00 1.78972E+00
 -1      3957 2.48015E+01 2.37575E+00 1.77287E+00
 -1      3958 3.15010E+01 2.37575E+00 1.78511E+00
 -1      3959 3.51278E+01 2.58538E+00 1.80197E+00
 -1      3960 4.17980E+01 2.51550E+00 1.81185E+00
 -1      3961 4.47785E+01 2.58538E+00 1.78345E+00
 -1      3962 4.78003E+01 2.72513E+00 1.61971E+00
 -1      3963 5.15328E+01 2.30588E+00 1.82144E+00
 -1      3964 5.51905E+01 2.37575E+00 1.78472E+00
 -1      3965 6.17798E+01 2.51550E+00 1.81629E+00
 -1      3966 6.85146E+01 2.51550E+00 1.78697E+00
 -1      3967 8.17887E+01 2.55044E+00 1.80335E+00
 -1      3968 9.14544E+01 2.58538E+00 1.78762E+00
 -1      3969 2.86174E+01 2.48056E+00 1.75851E+00
 -1      3970 3.44791E+01 2.93475E+00 1.62478E+00
 -1      3971 3.84313E+01 2.65525E+00 1.85223E+00
 -1      3972 4.53838E+01 2.58538E+00 1.69849E+00
 -1      3973 5.86251E+01 2.93820E+00 1.71664E+00
 -1      3974 6.12006E+01 2.89989E+00 1.67735E+00
 -1      3975 7.52916E+01 2.48056E+00 1.75463E+00
 -1      3976 8.51078E+01 2.65525E+00 1.85069E+00
 -1      3977 8.77834E+01 2.65525E+00 1.60114E+00
 -1      3978 8.84860E+01 2.72513E+00 1.79855E+00
 -1      3979 1.51279E+01 2.88423E+00 1.70843E+00
 -1      3980 3.15835E+01 2.92051E+00 1.73972E+00
 -1      3981 1.81675E+00 2.79500E+00 1.79064E+00
 -1      3982 1.18787E+01 3.15108E+00 1.64525E+00
 -1      3983 1.85868E+01 3.07763E+00 1.67507E+00
 -1      3984 4.84786E+01 2.62031E+00 1.79380E+00
 -1      3985 5.17075E+01 2.93928E+00 1.74156E+00
 -1      3986 5.82059E+01 2.58538E+00 1.82449E+00
 -1      3987 8.80953E+01 3.11123E+00 1.65133E+00
 -1      3988 5.03100E+00 2.93401E+00 1.75719E+00
 -1      3989 2.98716E+01 3.55198E+00 1.76736E+00
 -1      3990 7.65830E+01 3.32979E+00 1.70360E+00
 -1      3991 3.42388E+00 3.77325E+00 1.84277E+00
 -1      3992 1.05405E+01 4.03528E+00 1.69733E+00
 -1      3993 1.61245E+01 3.94794E+00 1.70287E+00
 -1      3994 1.72091E+01 4.05275E+00 1.70511E+00
 -1      3995 2.93575E+01 3.77325E+00 1.66706E+00
 -1      3996 3.61162E+01 3.89553E+00 1.69601E+00
 -1      3997 4.28137E+01 3.89553E+00 1.70802E+00
 -1      3998 4.39245E+01 4.08769E+00 1.67319E+00
 -1      3999 5.01004E+01 3.77325E+00 1.84157E+00
 -1      4000 6.27525E+01 3.98288E+00 1.67942E+00
 -1      4001 6.33067E+01 3.77325E+00 1.87593E+00
 -1      4002 6.97589E+01 3.98288E+00 1.76567E+00
 -1      4003 7.65481E+01 3.98288E+00 1.77987E+00
 -1      4004 7.60292E+01 3.77325E+00 1.66968E+00
 -1      4005 8.14743E+01 3.38452E+00 2.02442E+00
 -1      4006 8.48264E+01 3.77325E+00 1.83115E+00
 -1      4007 8.94912E+01 4.00034E+00 1.70164E+00
 -1      4008 9.67769E+01 3.77325E+00 1.84030E+00
 -1      4009 4.85307E+00 3.51795E+00 2.03174E+00
 -1      4010 7.22788E+00 4.15756E+00 1.89000E+00
 -1      4011 1.24951E+01 3.75184E+00 2.17157E+00
 -1      4012 1.48135E+01 3.32620E+00 2.12098E+00
 -1      4013 1.76784E+01 4.19250E+00 1.51415E+00
 -1      4014 1.85897E+01 3.45000E+00 1.90729E+00
 -1      4015 1.93944E+01 4.23677E+00 1.96800E+00
 -1      4016 2.18133E+01 4.24210E+00 1.95989E+00
 -1      4017 2.27319E+01 4.03528E+00 1.68875E+00
 -1      4018 2.81596E+01 3.50846E+00 1.83922E+00
 -1      4019 3.05664E+01 4.05425E+00 1.69529E+00
 -1      4020 3.24346E+01 3.63038E+00 2.06602E+00
 -1      4021 3.49724E+01 3.53360E+00 1.86442E+00
 -1      4022 3.51443E+01 4.25089E+00 1.99370E+00
 -1      4023 3.72595E+01 4.05293E+00 1.68931E+00
 -1      4024 3.83239E+01 3.69925E+00 1.69895E+00
 -1      4025 4.72686E+01 4.24491E+00 1.96126E+00
 -1      4026 5.05924E+01 4.08769E+00 1.66968E+00
 -1      4027 5.15677E+01 3.44140E+00 2.06168E+00
 -1      4028 5.14486E+01 4.08769E+00 1.86024E+00
 -1      4029 5.39089E+01 3.91300E+00 1.80482E+00
 -1      4030 5.71852E+01 4.01781E+00 1.70848E+00
 -1      4031 5.77168E+01 4.12263E+00 1.53766E+00
 -1      4032 5.81293E+01 3.98288E+00 1.84450E+00
 -1      4033 6.16297E+01 3.30353E+00 2.17840E+00
 -1      4034 6.39182E+01 4.03696E+00 1.69257E+00
 -1      4035 6.52652E+01 3.44848E+00 1.90818E+00
 -1      4036 6.47901E+01 4.05275E+00 1.83297E+00
 -1      4037 6.85403E+01 4.05275E+00 1.82781E+00
 -1      4038 6.92393E+01 4.01781E+00 1.64229E+00
 -1      4039 7.05466E+01 4.05512E+00 1.69971E+00
 -1      4040 7.51232E+01 4.26655E+00 1.93613E+00
 -1      4041 7.72393E+01 4.05396E+00 1.69389E+00
 -1      4042 8.04643E+01 4.19250E+00 1.77148E+00
 -1      4043 8.39073E+01 4.08769E+00 1.67866E+00
 -1      4044 8.73670E+01 3.78004E+00 1.78387E+00
 -1      4045 9.05968E+01 4.08769E+00 1.67145E+00
 -1      4046 9.39394E+01 4.24491E+00 1.96782E+00
 -1      4047 9.72664E+01 4.08769E+00 1.66773E+00
 -1      4048 9.95431E+01 4.33225E+00 1.79277E+00
 -1      4049 6.20489E+00 4.33225E+00 1.80016E+00
 -1      4050 9.63976E+00 4.19250E+00 1.69815E+00
 -1      4051 1.27427E+01 4.53461E+00 1.80456E+00
 -1      4052 2.47302E+01 3.87806E+00 1.94362E+00
 -1      4053 4.61390E+01 4.08769E+00 1.79368E+00
 -1      4054 7.28427E+01 4.33225E+00 1.84154E+00
 -1      4055 9.28323E+01 4.12263E+00 1.74777E+00
 -1      4056 9.62202E+01 4.19250E+00 1.68606E+00
 -1      4057 3.75197E+00 4.19250E+00 1.68972E+00
 -1      4058 2.05213E+01 4.64717E+00 1.71887E+00
 -1      4059 2.32684E+01 3.98288E+00 1.80014E+00
 -1      4060 2.78103E+01 4.35868E+00 2.51550E+00
 -1      4061 5.19804E+01 4.63159E+00 1.92781E+00
 -1      4062 5.28441E+01 4.54187E+00 1.73317E+00
 -1      4063 5.63143E+01 4.19250E+00 1.69902E+00
 -1      4064 6.60865E+01 4.58827E+00 1.79052E+00
 -1      4065 6.71954E+01 4.65146E+00 1.72244E+00
 -1      4066 7.39058E+01 4.58359E+00 1.82929E+00
 -1      4067 8.33609E+01 3.98288E+00 1.79780E+00
 -1      4068 8.51311E+01 4.57175E+00 1.81675E+00
 -1      4069 8.80453E+01 4.49527E+00 2.45282E+00
 -1      4070 9.00689E+01 3.98288E+00 1.79392E+00
 -1      4071 1.54049E+00 4.55710E+00 1.97048E+00
 -1      4072 5.16363E+00 4.52951E+00 2.34506E+00
 -1      4073 5.72975E+00 4.72974E+00 1.92907E+00
 -1      4074 1.44108E+01 4.75919E+00 1.85923E+00
 -1      4075 1.88622E+01 4.64537E+00 2.08388E+00
 -1      4076 2.11140E+01 4.78986E+00 1.79889E+00
 -1      4077 2.55743E+01 4.79629E+00 1.80348E+00
 -1      4078 2.72053E+01 4.68888E+00 1.72947E+00
 -1      4079 2.78174E+01 4.75220E+00 1.85941E+00
 -1      4080 3.43798E+01 4.76220E+00 1.84320E+00
 -1      4081 3.84995E+01 4.54857E+00 2.25621E+00
 -1      4082 4.51428E+01 4.56783E+00 1.95650E+00
 -1      4083 5.88149E+01 4.64414E+00 2.08199E+00
 -1      4084 6.10861E+01 4.75848E+00 1.86002E+00
 -1      4085 6.55428E+01 4.79173E+00 1.80021E+00
 -1      4086 7.44928E+01 4.78361E+00 1.79311E+00
 -1      4087 8.10558E+01 4.76158E+00 1.84313E+00
 -1      4088 9.16628E+01 4.48478E+00 1.82125E+00
 -1      4089 7.77784E+00 4.77098E+00 1.79873E+00
 -1      4090 3.89902E+01 4.80289E+00 1.80588E+00
 -1      4091 4.09467E+01 4.80236E+00 1.80362E+00
 -1      4092 5.43627E+01 4.80671E+00 1.79921E+00
 -1      4093 7.91684E+01 4.77844E+00 1.80583E+00
 -1      4094 8.56667E+01 4.80313E+00 1.80572E+00
 -1      4095 9.23748E+01 4.80285E+00 1.80425E+00
 -1      4096 7.39960E+00 5.45579E+00 1.94887E+00
 -1      4097 1.28696E+01 5.52013E+00 1.71775E+00
 -1      4098 1.42545E+01 5.31483E+00 1.94992E+00
 -1      4099 1.94335E+01 5.75902E+00 1.91344E+00
 -1      4100 2.14427E+01 5.40257E+00 1.83182E+00
 -1      4101 2.61941E+01 5.43762E+00 1.68981E+00
 -1      4102 2.72156E+01 5.74722E+00 1.93075E+00
 -1      4103 2.75598E+01 5.29169E+00 1.87376E+00
 -1      4104 4.06771E+01 5.53428E+00 1.92750E+00
 -1      4105 4.14585E+01 5.38968E+00 1.82680E+00
 -1      4106 4.52823E+01 5.33680E+00 1.81675E+00
 -1      4107 4.73798E+01 5.45906E+00 1.94038E+00
 -1      4108 6.61593E+01 5.52013E+00 1.73260E+00
 -1      4109 7.28669E+01 5.43813E+00 1.68441E+00
 -1      4110 7.42352E+01 5.29032E+00 1.87477E+00
 -1      4111 8.15079E+01 5.42539E+00 1.86747E+00
 -1      4112 8.73511E+01 5.53290E+00 1.93255E+00
 -1      4113 8.80425E+01 5.33246E+00 1.81842E+00
 -1      4114 9.19555E+01 5.33319E+00 1.81675E+00
 -1      4115 1.70162E+00 5.59000E+00 1.82941E+00
 -1      4116 5.23576E+00 5.41683E+00 1.89541E+00
 -1      4117 1.20022E+01 5.38435E+00 1.91186E+00
 -1      4118 1.48135E+01 5.43426E+00 2.09625E+00
 -1      4119 1.82188E+01 5.78594E+00 1.89646E+00
 -1      4120 3.38075E+01 5.76469E+00 1.83001E+00
 -1      4121 5.28082E+01 5.93937E+00 1.80678E+00
 -1      4122 5.88268E+01 5.30788E+00 1.88270E+00
 -1      4123 5.83593E+01 5.53545E+00 1.81675E+00
 -1      4124 5.94100E+01 5.95684E+00 1.93888E+00
 -1      4125 6.49910E+01 5.55691E+00 1.95650E+00
 -1      4126 7.05407E+01 6.11406E+00 1.70188E+00
 -1      4127 8.04791E+01 5.76469E+00 1.83763E+00
 -1      4128 9.94760E+01 5.93937E+00 1.80489E+00
 -1      4129 2.71660E+00 6.00858E+00 1.68643E+00
 -1      4130 3.45881E+00 6.17610E+00 1.80298E+00
 -1      4131 4.82125E+00 5.80696E+00 2.01781E+00
 -1      4132 9.40973E+00 6.00701E+00 1.69280E+00
 -1      4133 1.06221E+01 6.00925E+00 1.68225E+00
 -1      4134 1.14836E+01 6.24146E+00 1.90529E+00
 -1      4135 1.68049E+01 6.06166E+00 1.77865E+00
 -1      4136 1.74588E+01 6.00925E+00 1.62390E+00
 -1      4137 2.19754E+01 6.04419E+00 2.02213E+00
 -1      4138 2.27270E+01 6.02437E+00 1.68937E+00
 -1      4139 2.34081E+01 6.07913E+00 1.80678E+00
 -1      4140 2.86140E+01 6.21887E+00 1.96549E+00
 -1      4141 3.00113E+01 6.04419E+00 1.78713E+00
 -1      4142 2.94391E+01 6.07349E+00 1.67170E+00
 -1      4143 4.36998E+01 6.04419E+00 1.74267E+00
 -1      4144 4.93896E+01 6.00818E+00 1.68796E+00
 -1      4145 5.01353E+01 6.17605E+00 1.80132E+00
 -1      4146 5.60826E+01 6.00668E+00 1.69429E+00
 -1      4147 5.67734E+01 6.06166E+00 1.78181E+00
 -1      4148 5.75051E+01 5.97431E+00 1.60953E+00
 -1      4149 6.34814E+01 6.06166E+00 1.77752E+00
 -1      4150 6.41329E+01 6.00925E+00 1.62112E+00
 -1      4151 6.94012E+01 6.02425E+00 1.69166E+00
 -1      4152 7.37840E+01 5.79963E+00 1.79057E+00
 -1      4153 7.53187E+01 6.00925E+00 2.03647E+00
 -1      4154 8.42693E+01 5.93937E+00 1.56707E+00
 -1      4155 8.85523E+01 5.93937E+00 1.90585E+00
 -1      4156 8.94619E+01 6.07913E+00 1.69159E+00
 -1      4157 9.03745E+01 6.03675E+00 1.73398E+00
 -1      4158 9.60626E+01 6.00780E+00 1.68948E+00
 -1      4159 5.98439E+00 5.83456E+00 2.05838E+00
 -1      4160 1.26633E+01 6.07913E+00 2.03171E+00
 -1      4161 2.48496E+01 5.81264E+00 1.95756E+00
 -1      4162 3.25783E+01 6.23634E+00 1.98210E+00
 -1      4163 4.73889E+01 6.23685E+00 1.82790E+00
 -1      4164 5.14645E+01 6.00117E+00 1.83271E+00
 -1      4165 6.07554E+01 6.22195E+00 1.99748E+00
 -1      4166 6.85421E+01 6.00925E+00 1.82720E+00
 -1      4167 8.60213E+01 5.95684E+00 1.97683E+00
 -1      4168 9.39048E+01 5.93937E+00 1.85438E+00
 -1      4169 9.52135E+01 6.14900E+00 1.81430E+00
 -1      4170 8.69039E-01 6.41276E+00 1.81675E+00
 -1      4171 2.16613E+01 6.73991E+00 2.18288E+00
 -1      4172 2.50502E+01 6.60586E+00 1.98632E+00
 -1      4173 4.10255E+01 6.51924E+00 2.07301E+00
 -1      4174 7.27225E+01 5.93937E+00 1.93485E+00
 -1      4175 7.50665E+01 6.52959E+00 1.95650E+00
 -1      4176 8.47987E+01 6.59469E+00 2.12931E+00
 -1      4177 8.76983E+01 6.52378E+00 2.07257E+00
 -1      4178 9.67769E+01 6.28875E+00 1.83924E+00
 -1      4179 1.00969E+01 6.50724E+00 1.76656E+00
 -1      4180 1.67700E+01 6.72222E+00 1.69306E+00
 -1      4181 3.48676E+01 6.55059E+00 1.81955E+00
 -1      4182 6.34465E+01 6.72113E+00 1.69182E+00
 -1      4183 6.99449E+01 6.49837E+00 1.78975E+00
 -1      4184 7.65131E+01 6.28875E+00 1.83259E+00
 -1      4185 1.60713E+00 7.19773E+00 1.76305E+00
 -1      4186 4.94366E+00 7.16219E+00 1.75430E+00
 -1      4187 5.50724E+00 7.12725E+00 1.63707E+00
 -1      4188 8.24525E+00 7.18751E+00 1.76472E+00
 -1      4189 1.49532E+01 6.97407E+00 1.66673E+00
 -1      4190 1.87511E+01 7.12925E+00 1.69316E+00
 -1      4191 2.12247E+01 7.14085E+00 1.68642E+00
 -1      4192 2.54496E+01 7.14545E+00 1.68418E+00
 -1      4193 3.81342E+01 7.26920E+00 1.74749E+00
 -1      4194 4.55502E+01 7.33687E+00 1.60351E+00
 -1      4195 4.83986E+01 7.19888E+00 1.73747E+00
 -1      4196 5.21796E+01 7.12725E+00 1.63329E+00
 -1      4197 5.49217E+01 6.96941E+00 1.67106E+00
 -1      4198 6.83378E+01 6.98466E+00 1.65792E+00
 -1      4199 7.47663E+01 6.96658E+00 1.67700E+00
 -1      4200 8.32561E+01 6.50777E+00 1.76858E+00
 -1      4201 8.48095E+01 7.33687E+00 1.79407E+00
 -1      4202 9.15123E+01 7.30194E+00 1.77175E+00
 -1      4203 9.20506E+01 7.54650E+00 1.71264E+00
 -1      4204 9.49601E+01 7.20007E+00 1.76305E+00
 -1      4205 1.12538E+00 7.75613E+00 1.61178E+00
 -1      4206 2.18404E+01 7.54650E+00 1.78980E+00
 -1      4207 2.46880E+01 7.44169E+00 1.73713E+00
 -1      4208 3.15010E+01 7.40675E+00 1.78738E+00
 -1      4209 4.17980E+01 7.54650E+00 1.81185E+00
 -1      4210 5.51966E+01 7.64791E+00 1.75319E+00
 -1      4211 6.19921E+01 7.33687E+00 1.72705E+00
 -1      4212 6.85821E+01 7.44169E+00 1.75712E+00
 -1      4213 7.81414E+01 7.40675E+00 1.79249E+00
 -1      4214 8.17895E+01 7.58144E+00 1.80205E+00
 -1      4215 8.77837E+01 7.68625E+00 1.60336E+00
 -1      4216 1.19486E+01 7.96590E+00 1.71787E+00
 -1      4217 1.45303E+01 8.06250E+00 1.63790E+00
 -1      4218 3.84313E+01 7.89654E+00 1.75897E+00
 -1      4219 6.47425E+01 7.51156E+00 1.74968E+00
 -1      4220 6.54253E+01 7.13241E+00 1.69113E+00
 -1      4221 7.52916E+01 7.51156E+00 1.75524E+00
 -1      4222 8.51078E+01 7.89695E+00 1.75881E+00
 -1      4223 8.84389E+01 7.61637E+00 1.79869E+00
 -1      4224 1.49532E+01 7.68625E+00 1.85527E+00
 -1      4225 6.12057E+01 8.06853E+00 1.63973E+00
 -1      4226 6.16297E+01 7.68625E+00 1.85568E+00
 -1      4227 7.82600E+01 7.95059E+00 1.73757E+00
 -1      4228 1.81675E+00 7.82600E+00 1.78553E+00
 -1      4229 3.50423E+01 7.61637E+00 1.83651E+00
 -1      4230 4.14133E+01 8.14032E+00 1.64894E+00
 -1      4231 5.82059E+01 7.61637E+00 1.82286E+00
 -1      4232 8.80885E+01 8.14010E+00 1.64913E+00
 -1      4233 9.82093E+01 7.61637E+00 1.81990E+00
 -1      4234 1.85868E+01 8.10172E+00 1.67432E+00
 -1      4235 2.33383E+01 8.80425E+00 1.87638E+00
 -1      4236 5.01004E+01 8.80425E+00 1.84187E+00
 -1      4237 5.67734E+01 8.58001E+00 1.77239E+00
 -1      4238 6.98051E+01 8.80425E+00 1.82664E+00
 -1      4239 1.08146E+01 9.11869E+00 1.61137E+00
 -1      4240 1.64420E+01 8.90906E+00 1.79343E+00
 -1      4241 2.27548E+01 8.90906E+00 1.68658E+00
 -1      4242 2.95589E+01 8.93527E+00 1.70792E+00
 -1      4243 3.61170E+01 8.92653E+00 1.69594E+00
 -1      4244 4.28146E+01 8.92653E+00 1.70773E+00
 -1      4245 4.34622E+01 8.80425E+00 1.86377E+00
 -1      4246 6.92886E+01 8.97894E+00 1.63607E+00
 -1      4247 8.14743E+01 8.41109E+00 2.01385E+00
 -1      4248 8.27910E+01 8.92653E+00 1.69877E+00
 -1      4249 8.48254E+01 8.80425E+00 1.82809E+00
 -1      4250 9.67769E+01 8.80425E+00 1.84062E+00
 -1      4251 6.13507E-01 9.08375E+00 1.97505E+00
 -1      4252 8.65587E+00 9.03134E+00 2.09506E+00
 -1      4253 1.28846E+01 9.43313E+00 1.73716E+00
 -1      4254 1.57946E+01 9.08375E+00 1.59608E+00
 -1      4255 1.72060E+01 9.08375E+00 1.70321E+00
 -1      4256 1.91905E+01 8.76067E+00 2.08701E+00
 -1      4257 1.93968E+01 9.46675E+00 1.88741E+00
 -1      4258 2.51550E+01 8.59698E+00 1.67700E+00
 -1      4259 2.47293E+01 8.90906E+00 1.94367E+00
 -1      4260 2.81596E+01 8.53724E+00 1.82889E+00
 -1      4261 2.84494E+01 9.29777E+00 1.93427E+00
 -1      4262 3.05641E+01 9.08437E+00 1.69408E+00
 -1      4263 3.27035E+01 9.03691E+00 1.94006E+00
 -1      4264 3.45881E+01 8.46690E+00 1.98588E+00
 -1      4265 3.51395E+01 9.28269E+00 1.99311E+00
 -1      4266 4.05347E+01 9.22350E+00 1.94399E+00
 -1      4267 4.39164E+01 9.11869E+00 1.67160E+00
 -1      4268 4.72378E+01 9.01388E+00 1.85799E+00
 -1      4269 5.09539E+01 9.11869E+00 1.57730E+00
 -1      4270 6.26747E+01 9.08375E+00 1.66422E+00
 -1      4271 6.57778E+01 8.72144E+00 2.29952E+00
 -1      4272 6.62618E+01 9.22350E+00 1.71348E+00
 -1      4273 6.85393E+01 9.08375E+00 1.82822E+00
 -1      4274 7.24489E+01 8.71974E+00 2.11711E+00
 -1      4275 7.39623E+01 9.06628E+00 2.00342E+00
 -1      4276 7.47663E+01 8.41003E+00 2.02154E+00
 -1      4277 7.59370E+01 9.04881E+00 1.65184E+00
 -1      4278 7.72370E+01 9.08408E+00 1.69271E+00
 -1      4279 8.04626E+01 9.22350E+00 1.77176E+00
 -1      4280 8.60895E+01 8.92858E+00 1.78624E+00
 -1      4281 8.71898E+01 9.15363E+00 1.82050E+00
 -1      4282 9.05889E+01 9.11869E+00 1.66990E+00
 -1      4283 6.07194E+00 9.56631E+00 1.79581E+00
 -1      4284 5.14383E+01 8.89159E+00 1.90573E+00
 -1      4285 5.49472E+01 8.75914E+00 1.62750E+00
 -1      4286 5.79615E+01 8.78678E+00 2.10200E+00
 -1      4287 7.28418E+01 9.36325E+00 1.84183E+00
 -1      4288 9.28336E+01 9.15363E+00 1.75209E+00
 -1      4289 5.16682E+00 9.55920E+00 2.22513E+00
 -1      4290 2.05229E+01 9.67452E+00 1.71636E+00
 -1      4291 3.66844E+01 9.01388E+00 1.79441E+00
 -1      4292 4.15125E+01 9.56394E+00 2.28821E+00
 -1      4293 4.50098E+01 9.52042E+00 1.81675E+00
 -1      4294 5.28736E+01 9.36325E+00 1.79622E+00
 -1      4295 6.58043E+01 9.62619E+00 2.01376E+00
 -1      4296 6.73677E+01 9.31084E+00 2.08212E+00
 -1      4297 6.71970E+01 9.67869E+00 1.71988E+00
 -1      4298 7.39248E+01 9.63961E+00 1.80872E+00
 -1      4299 7.64654E+01 9.01388E+00 1.76823E+00
 -1      4300 8.34779E+01 8.99641E+00 1.79015E+00
 -1      4301 8.80444E+01 9.52025E+00 2.45279E+00
 -1      4302 9.17457E+01 9.55416E+00 2.01630E+00
 -1      4303 1.10817E+00 9.78955E+00 1.80064E+00
 -1      4304 1.16990E+01 9.54065E+00 1.81675E+00
 -1      4305 2.55743E+01 9.81756E+00 1.79767E+00
 -1      4306 2.72997E+01 9.77243E+00 1.73530E+00
 -1      4307 3.40020E+01 9.76034E+00 1.78058E+00
 -1      4308 3.91999E+01 9.82092E+00 1.73905E+00
 -1      4309 4.11512E+01 9.80099E+00 1.80795E+00
 -1      4310 4.77833E+01 9.78847E+00 1.80087E+00
 -1      4311 8.06771E+01 9.76397E+00 1.78293E+00
 -1      4312 8.77563E+01 9.79158E+00 1.79989E+00
 -1      4313 9.85373E+01 9.65317E+00 1.88451E+00
 -1      4314 1.38374E+01 9.50300E+00 1.83766E+00
 -1      4315 1.44089E+01 9.81744E+00 1.79274E+00
 -1      4316 3.22822E+01 9.82154E+00 1.80036E+00
 -1      4317 3.84629E+01 9.60320E+00 1.74688E+00
 -1      4318 5.44511E+01 9.79429E+00 1.79245E+00
 -1      4319 6.10843E+01 9.81671E+00 1.79255E+00
 -1      4320 7.89588E+01 9.82221E+00 1.80070E+00
 -1      4321 4.52856E+01 5.18217E-01 2.41669E+00
 -1      4322 4.59024E+01 4.95899E-01 2.06485E+00
 -1      4323 8.74835E+01 3.09724E-01 1.91975E+00
 -1      4324 9.18148E+01 5.04827E-01 2.29517E+00
 -1      4325 9.88069E+01 6.30225E-01 2.51550E+00
 -1      4326 9.86635E+01 3.67598E-01 2.09625E+00
 -1      4327 7.27947E+00 7.86094E-01 1.98516E+00
 -1      4328 2.06559E+01 9.87725E-01 2.06822E+00
 -1      4329 2.16211E+01 4.81532E-01 1.95650E+00
 -1      4330 3.18026E+01 5.45814E-01 2.33735E+00
 -1      4331 3.26337E+01 7.81906E-01 2.07656E+00
 -1      4332 3.51221E+01 6.15554E-01 2.23600E+00
 -1      4333 3.93193E+01 7.85796E-01 2.05043E+00
 -1      4334 4.16874E+01 5.59000E-01 1.80753E+00
 -1      4335 5.16894E+01 5.33819E-01 2.16334E+00
 -1      4336 6.82925E+01 4.84509E-01 1.95650E+00
 -1      4337 7.84747E+01 5.55982E-01 2.40691E+00
 -1      4338 8.59918E+01 7.51156E-01 2.06364E+00
 -1      4339 2.49096E+01 5.89680E-01 2.09625E+00
 -1      4340 2.47107E+01 1.27522E+00 2.01145E+00
 -1      4341 4.19253E+01 1.18788E+00 1.95303E+00
 -1      4342 4.47071E+01 8.15300E-01 2.11434E+00
 -1      4343 6.20409E+01 1.04813E+00 2.13806E+00
 -1      4344 7.23887E+01 8.47648E-01 2.51550E+00
 -1      4345 8.46887E+01 9.71090E-01 2.04427E+00
 -1      4346 9.13787E+01 8.12625E-01 2.10754E+00
 -1      4347 8.56545E-01 1.11800E+00 2.52831E+00
 -1      4348 1.91010E+00 7.43538E-01 2.27587E+00
 -1      4349 5.91782E+00 9.78250E-01 2.22994E+00
 -1      4350 8.52052E+00 6.97901E-01 2.23475E+00
 -1      4351 8.73262E+00 1.18788E+00 2.10242E+00
 -1      4352 1.40993E+01 1.26218E+00 1.99478E+00
 -1      4353 3.81525E+01 6.95287E-01 2.23502E+00
 -1      4354 3.79475E+01 1.25775E+00 2.10879E+00
 -1      4355 4.34622E+01 1.25775E+00 1.86347E+00
 -1      4356 4.85824E+01 7.46338E-01 2.27795E+00
 -1      4357 5.40831E+01 1.20534E+00 1.99003E+00
 -1      4358 6.74558E+01 1.26889E+00 2.07898E+00
 -1      4359 7.14968E+01 7.11474E-01 2.02638E+00
 -1      4360 7.12924E+01 1.25775E+00 2.09962E+00
 -1      4361 7.79859E+01 1.29269E+00 2.06591E+00
 -1      4362 4.82492E+00 1.54439E+00 2.07271E+00
 -1      4363 7.55065E+00 1.38919E+00 2.12580E+00
 -1      4364 1.14528E+01 1.55265E+00 2.08629E+00
 -1      4365 1.90328E+01 1.42059E+00 2.30597E+00
 -1      4366 2.74881E+01 1.29893E+00 2.08800E+00
 -1      4367 2.85953E+01 1.55800E+00 2.16273E+00
 -1      4368 3.42561E+01 1.30133E+00 2.24518E+00
 -1      4369 4.14306E+01 1.58042E+00 1.87864E+00
 -1      4370 5.14287E+01 1.54435E+00 2.09682E+00
 -1      4371 5.46717E+01 1.67328E+00 2.18169E+00
 -1      4372 5.53205E+01 9.08375E-01 2.08990E+00
 -1      4373 5.83456E+01 1.63004E+00 2.12540E+00
 -1      4374 5.91185E+01 1.27264E+00 2.23669E+00
 -1      4375 6.16297E+01 1.71994E+00 2.18080E+00
 -1      4376 6.50537E+01 1.63506E+00 2.11217E+00
 -1      4377 6.57056E+01 1.41493E+00 2.30890E+00
 -1      4378 7.40531E+01 9.96083E-01 2.16073E+00
 -1      4379 7.42734E+01 1.45179E+00 2.09625E+00
 -1      4380 8.07838E+01 9.78250E-01 2.31650E+00
 -1      4381 8.10005E+01 1.47795E+00 2.07302E+00
 -1      4382 9.89102E+01 1.52143E+00 2.09625E+00
 -1      4383 1.24369E+00 1.63342E+00 2.18404E+00
 -1      4384 1.98705E+00 1.69621E+00 2.38386E+00
 -1      4385 5.52660E+00 1.53753E+00 2.22220E+00
 -1      4386 7.99768E+00 1.67116E+00 2.18202E+00
 -1      4387 1.20693E+01 1.60353E+00 2.12983E+00
 -1      4388 1.46946E+01 1.67946E+00 2.18094E+00
 -1      4389 1.54275E+01 1.18788E+00 2.20690E+00
 -1      4390 2.16613E+01 1.71637E+00 2.18061E+00
 -1      4391 2.50851E+01 1.69982E+00 2.17338E+00
 -1      4392 2.80856E+01 1.63522E+00 2.05726E+00
 -1      4393 3.13006E+01 1.25775E+00 2.08835E+00
 -1      4394 3.20028E+01 1.65425E+00 2.11125E+00
 -1      4395 3.82158E+01 1.73278E+00 2.43810E+00
 -1      4396 3.87379E+01 1.60073E+00 2.01868E+00
 -1      4397 4.79191E+01 1.63732E+00 2.18347E+00
 -1      4398 4.87718E+01 1.47502E+00 2.43407E+00
 -1      4399 6.83378E+01 1.71498E+00 2.18063E+00
 -1      4400 7.17616E+01 1.70006E+00 2.17340E+00
 -1      4401 7.47602E+01 1.63440E+00 2.05556E+00
 -1      4402 7.86793E+01 1.63840E+00 2.04160E+00
 -1      4403 8.53174E+01 1.67052E+00 2.11298E+00
 -1      4404 8.84618E+01 1.62943E+00 2.09716E+00
 -1      4405 9.54400E+01 1.48897E+00 2.48056E+00
 -1      4406 9.83141E+01 1.69087E+00 2.19081E+00
 -1      4407 9.80254E+01 1.25996E+00 2.01906E+00
 -1      4408 1.82374E+01 2.58538E+00 1.83237E+00
 -1      4409 6.49837E+01 2.37575E+00 1.85933E+00
 -1      4410 7.16918E+01 2.37575E+00 1.86018E+00
 -1      4411 1.21467E+00 3.45896E+00 2.12625E+00
 -1      4412 1.96579E+00 4.06198E+00 2.03051E+00
 -1      4413 5.46193E+00 3.40871E+00 2.18405E+00
 -1      4414 8.17537E+00 3.26595E+00 2.35404E+00
 -1      4415 7.61156E+00 3.63350E+00 2.37575E+00
 -1      4416 8.73967E+00 3.45007E+00 2.56014E+00
 -1      4417 8.70058E+00 3.80819E+00 2.06350E+00
 -1      4418 9.92225E+00 3.77325E+00 1.87161E+00
 -1      4419 1.11780E+01 3.66595E+00 2.45701E+00
 -1      4420 1.17077E+01 3.30636E+00 2.28212E+00
 -1      4421 1.42347E+01 3.63350E+00 2.17438E+00
 -1      4422 1.66303E+01 3.77325E+00 1.87541E+00
 -1      4423 1.90752E+01 3.58411E+00 2.09625E+00
 -1      4424 2.51201E+01 3.28949E+00 2.27704E+00
 -1      4425 2.76106E+01 3.67617E+00 2.30588E+00
 -1      4426 3.17698E+01 3.40175E+00 2.08765E+00
 -1      4427 3.43785E+01 3.50079E+00 1.95650E+00
 -1      4428 3.67542E+01 3.77325E+00 1.87036E+00
 -1      4429 3.84938E+01 3.38110E+00 2.08592E+00
 -1      4430 3.79882E+01 3.99239E+00 2.12686E+00
 -1      4431 4.09303E+01 3.78745E+00 2.38444E+00
 -1      4432 4.15057E+01 3.38630E+00 2.02074E+00
 -1      4433 4.34622E+01 3.77325E+00 1.86369E+00
 -1      4434 4.48859E+01 3.29695E+00 2.40140E+00
 -1      4435 4.54340E+01 3.40295E+00 2.11183E+00
 -1      4436 4.80740E+01 3.37660E+00 2.01443E+00
 -1      4437 4.86853E+01 3.95187E+00 2.07000E+00
 -1      4438 5.23249E+01 3.53943E+00 2.07073E+00
 -1      4439 5.47820E+01 3.32905E+00 2.12215E+00
 -1      4440 5.42309E+01 3.63350E+00 2.16613E+00
 -1      4441 5.53746E+01 3.80819E+00 2.07457E+00
 -1      4442 5.65987E+01 3.77325E+00 1.87273E+00
 -1      4443 5.83456E+01 3.35225E+00 2.09625E+00
 -1      4444 5.88409E+01 3.43357E+00 2.18981E+00
 -1      4445 5.92721E+01 3.92718E+00 2.09818E+00
 -1      4446 6.08557E+01 3.73269E+00 2.22018E+00
 -1      4447 6.58454E+01 3.83266E+00 2.22006E+00
 -1      4448 6.82671E+01 3.33435E+00 2.16009E+00
 -1      4449 6.76175E+01 3.61939E+00 2.31095E+00
 -1      4450 7.13202E+01 3.84313E+00 2.09111E+00
 -1      4451 7.21333E+01 3.44843E+00 2.03248E+00
 -1      4452 7.80356E+01 3.94645E+00 2.07266E+00
 -1      4453 7.84644E+01 3.34091E+00 2.14163E+00
 -1      4454 7.93576E+01 4.01781E+00 2.03936E+00
 -1      4455 8.09658E+01 3.64978E+00 2.27681E+00
 -1      4456 8.51697E+01 3.38087E+00 2.08562E+00
 -1      4457 8.76007E+01 3.78669E+00 2.38892E+00
 -1      4458 8.81823E+01 3.38704E+00 2.02003E+00
 -1      4459 8.86118E+01 3.99505E+00 2.02735E+00
 -1      4460 9.16737E+01 3.29801E+00 2.38773E+00
 -1      4461 9.47505E+01 3.37644E+00 2.01262E+00
 -1      4462 9.54381E+01 3.55955E+00 2.51822E+00
 -1      4463 9.53107E+01 4.05921E+00 2.04707E+00
 -1      4464 9.80387E+01 3.48027E+00 2.17159E+00
 -1      4465 9.85333E+01 3.35052E+00 2.11607E+00
 -1      4466 9.91271E+01 3.77894E+00 2.22203E+00
 -1      4467 1.42706E+01 4.11176E+00 2.51550E+00
 -1      4468 1.54525E+01 3.87806E+00 2.36506E+00
 -1      4469 1.80179E+01 4.13677E+00 2.15867E+00
 -1      4470 1.80761E+01 3.46711E+00 2.16070E+00
 -1      4471 2.07396E+01 3.87806E+00 2.07321E+00
 -1      4472 2.15040E+01 3.30822E+00 2.37227E+00
 -1      4473 3.12566E+01 3.96541E+00 2.28425E+00
 -1      4474 3.27238E+01 4.05019E+00 1.99479E+00
 -1      4475 4.57958E+01 4.32559E+00 2.29950E+00
 -1      4476 6.21212E+01 3.87806E+00 2.36757E+00
 -1      4477 6.47491E+01 3.46538E+00 2.15913E+00
 -1      4478 6.74042E+01 4.24491E+00 2.13855E+00
 -1      4479 7.23864E+01 4.17390E+00 2.51550E+00
 -1      4480 7.47663E+01 3.38346E+00 2.03313E+00
 -1      4481 4.75150E+00 4.19250E+00 1.95284E+00
 -1      4482 8.51776E+00 4.32998E+00 2.23075E+00
 -1      4483 1.50697E+01 4.45293E+00 2.09625E+00
 -1      4484 4.46821E+01 4.23114E+00 2.31649E+00
 -1      4485 5.40574E+01 4.31478E+00 2.14455E+00
 -1      4486 5.50580E+01 4.47028E+00 2.23600E+00
 -1      4487 6.09417E+01 4.14130E+00 2.51550E+00
 -1      4488 6.17407E+01 4.44799E+00 2.09625E+00
 -1      4489 8.48282E+01 4.33512E+00 2.23119E+00
 -1      4490 9.13537E+01 4.23417E+00 2.31304E+00
 -1      4491 1.83681E+01 4.52441E+00 2.02638E+00
 -1      4492 2.11023E+01 4.32520E+00 2.51550E+00
 -1      4493 2.50551E+01 4.54802E+00 1.95650E+00
 -1      4494 4.14045E+01 4.49460E+00 2.48070E+00
 -1      4495 4.80055E+01 4.44811E+00 2.51844E+00
 -1      4496 6.49418E+01 4.45762E+00 2.20106E+00
 -1      4497 6.82425E+01 4.50587E+00 2.16613E+00
 -1      4498 7.21459E+01 4.57958E+00 2.23515E+00
 -1      4499 7.88661E+01 4.41853E+00 2.39902E+00
 -1      4500 9.50357E+01 4.46584E+00 2.32467E+00
 -1      4501 2.82496E+01 4.51450E+00 2.16613E+00
 -1      4502 8.59535E+01 4.31478E+00 2.13412E+00
 -1      4503 9.19519E+01 4.50574E+00 2.37081E+00
 -1      4504 5.86950E+00 5.34174E+00 1.92061E+00
 -1      4505 4.59029E+01 5.52572E+00 2.07063E+00
 -1      4506 5.40714E+01 5.45489E+00 1.94995E+00
 -1      4507 6.09310E+01 5.31352E+00 1.95181E+00
 -1      4508 6.14900E+01 5.43835E+00 2.09625E+00
 -1      4509 7.23394E+01 5.43527E+00 2.09503E+00
 -1      4510 7.89800E+01 5.31351E+00 1.95261E+00
 -1      4511 8.07834E+01 6.00925E+00 2.31530E+00
 -1      4512 9.88193E+01 5.65698E+00 2.51550E+00
 -1      4513 8.39202E+00 5.59251E+00 2.33300E+00
 -1      4514 3.15834E+01 5.60038E+00 2.30641E+00
 -1      4515 3.25962E+01 5.59000E+00 2.10946E+00
 -1      4516 3.51188E+01 5.70255E+00 1.93574E+00
 -1      4517 4.51378E+01 5.54726E+00 2.36802E+00
 -1      4518 5.18202E+01 5.47075E+00 2.09625E+00
 -1      4519 5.25251E+01 5.46741E+00 2.06053E+00
 -1      4520 5.48654E+01 5.58275E+00 2.45875E+00
 -1      4521 7.92954E+01 5.79963E+00 2.10919E+00
 -1      4522 9.21236E+01 5.63822E+00 2.51550E+00
 -1      4523 1.99615E+00 5.82763E+00 2.31676E+00
 -1      4524 7.30389E+00 6.04419E+00 2.00934E+00
 -1      4525 8.69336E+00 6.03896E+00 2.12366E+00
 -1      4526 1.53756E+01 6.07913E+00 2.13696E+00
 -1      4527 2.55743E+01 5.73001E+00 2.51550E+00
 -1      4528 3.13208E+01 6.21851E+00 2.10115E+00
 -1      4529 3.85021E+01 5.57915E+00 2.38436E+00
 -1      4530 3.79770E+01 6.03749E+00 2.11851E+00
 -1      4531 3.92736E+01 5.59000E+00 2.10037E+00
 -1      4532 4.19564E+01 5.99245E+00 2.04029E+00
 -1      4533 4.47047E+01 5.84425E+00 2.11140E+00
 -1      4534 4.60744E+01 6.00925E+00 1.96065E+00
 -1      4535 5.39742E+01 6.04419E+00 2.01920E+00
 -1      4536 5.53637E+01 6.04045E+00 2.12878E+00
 -1      4537 6.20429E+01 6.07913E+00 2.13798E+00
 -1      4538 7.84823E+01 5.59659E+00 2.40961E+00
 -1      4539 7.80097E+01 6.23378E+00 2.09720E+00
 -1      4540 8.51124E+01 5.55184E+00 2.36056E+00
 -1      4541 8.46875E+01 6.00110E+00 2.04269E+00
 -1      4542 9.13864E+01 6.06515E+00 2.02732E+00
 -1      4543 1.41046E+01 6.29142E+00 1.99351E+00
 -1      4544 2.08818E+01 6.34944E+00 2.26414E+00
 -1      4545 2.58324E+01 6.29767E+00 2.18479E+00
 -1      4546 4.48482E+01 6.31023E+00 1.84260E+00
 -1      4547 4.87630E+01 6.03865E+00 2.35688E+00
 -1      4548 6.59273E+01 5.80638E+00 2.13073E+00
 -1      4549 6.74611E+01 6.29890E+00 2.07788E+00
 -1      4550 9.53394E+01 5.83405E+00 2.32324E+00
 -1      4551 9.80113E+01 6.45052E+00 2.16556E+00
 -1      4552 4.75678E+00 6.56890E+00 2.10086E+00
 -1      4553 5.36552E+00 6.62670E+00 2.11231E+00
 -1      4554 1.82374E+01 6.60989E+00 2.06308E+00
 -1      4555 2.74600E+01 6.30399E+00 2.01715E+00
 -1      4556 3.41171E+01 6.19201E+00 2.10106E+00
 -1      4557 3.81475E+01 6.66965E+00 2.24635E+00
 -1      4558 4.17852E+01 6.65712E+00 2.09845E+00
 -1      4559 5.14304E+01 6.57141E+00 2.09832E+00
 -1      4560 5.20408E+01 6.62499E+00 2.11322E+00
 -1      4561 5.46771E+01 6.67725E+00 2.13263E+00
 -1      4562 5.80236E+01 6.52283E+00 2.22165E+00
 -1      4563 5.87810E+01 6.63484E+00 2.16213E+00
 -1      4564 6.49139E+01 6.61462E+00 2.06239E+00
 -1      4565 6.83378E+01 6.73854E+00 2.18286E+00
 -1      4566 7.40941E+01 6.08751E+00 2.12802E+00
 -1      4567 8.10054E+01 6.50399E+00 2.07471E+00
 -1      4568 8.56741E+01 6.47841E+00 2.30588E+00
 -1      4569 9.18507E+01 6.54290E+00 1.83244E+00
 -1      4570 9.87161E+01 6.63890E+00 2.14062E+00
 -1      4571 1.30423E+00 6.66845E+00 2.13794E+00
 -1      4572 1.98479E+00 6.72242E+00 2.38833E+00
 -1      4573 8.00291E+00 6.67572E+00 2.13340E+00
 -1      4574 1.21572E+01 6.60893E+00 2.37025E+00
 -1      4575 1.47006E+01 6.68164E+00 2.13081E+00
 -1      4576 2.78094E+01 6.58217E+00 2.27070E+00
 -1      4577 2.82295E+01 6.63281E+00 1.95650E+00
 -1      4578 3.19329E+01 6.68147E+00 2.06139E+00
 -1      4579 3.45099E+01 6.62325E+00 2.19419E+00
 -1      4580 4.79786E+01 6.67030E+00 2.13666E+00
 -1      4581 4.86590E+01 6.71869E+00 2.39188E+00
 -1      4582 6.14900E+01 6.67568E+00 2.02486E+00
 -1      4583 7.12939E+01 6.28875E+00 2.09994E+00
 -1      4584 7.17616E+01 6.72300E+00 2.17458E+00
 -1      4585 7.44828E+01 6.58637E+00 2.26891E+00
 -1      4586 8.84618E+01 6.65329E+00 2.10153E+00
 -1      4587 9.46529E+01 6.67208E+00 2.13551E+00
 -1      4588 9.54376E+01 6.51787E+00 2.48056E+00
 -1      4589 1.82374E+01 7.61637E+00 1.83073E+00
 -1      4590 7.16918E+01 7.40675E+00 1.86212E+00
 -1      4591 2.83693E+01 7.68625E+00 1.85319E+00
 -1      4592 1.53725E+00 8.41555E+00 2.00988E+00
 -1      4593 1.95525E+00 9.02210E+00 2.04299E+00
 -1      4594 3.42388E+00 8.80425E+00 1.84305E+00
 -1      4595 4.87996E+00 8.30533E+00 2.41710E+00
 -1      4596 5.46405E+00 8.43313E+00 2.18084E+00
 -1      4597 8.10550E+00 8.35457E+00 2.11740E+00
 -1      4598 1.01319E+01 8.80425E+00 1.83760E+00
 -1      4599 1.17087E+01 8.32639E+00 2.28604E+00
 -1      4600 1.24049E+01 8.80457E+00 2.41455E+00
 -1      4601 1.79859E+01 8.63165E+00 2.19168E+00
 -1      4602 1.85916E+01 8.37044E+00 2.13152E+00
 -1      4603 2.09420E+01 8.65289E+00 2.31240E+00
 -1      4604 2.15898E+01 8.35793E+00 2.15679E+00
 -1      4605 2.19625E+01 8.78678E+00 2.01321E+00
 -1      4606 2.52958E+01 8.37486E+00 2.13978E+00
 -1      4607 3.19267E+01 8.41844E+00 2.05813E+00
 -1      4608 3.12514E+01 9.01388E+00 2.34738E+00
 -1      4609 3.84950E+01 8.38126E+00 2.11786E+00
 -1      4610 3.79981E+01 8.97894E+00 2.08506E+00
 -1      4611 3.91347E+01 8.66265E+00 2.06570E+00
 -1      4612 4.15057E+01 8.41287E+00 2.01086E+00
 -1      4613 4.09554E+01 8.69070E+00 2.31940E+00
 -1      4614 4.19399E+01 9.02631E+00 2.02149E+00
 -1      4615 4.48854E+01 8.32070E+00 2.40029E+00
 -1      4616 4.53664E+01 8.40514E+00 2.12144E+00
 -1      4617 4.80740E+01 8.40319E+00 2.00304E+00
 -1      4618 4.86401E+01 9.09062E+00 2.04553E+00
 -1      4619 5.16257E+01 8.25931E+00 2.48056E+00
 -1      4620 5.21394E+01 8.43768E+00 2.18166E+00
 -1      4621 5.47820E+01 8.35347E+00 2.11695E+00
 -1      4622 5.42444E+01 8.73438E+00 2.39452E+00
 -1      4623 5.53747E+01 8.83919E+00 2.07390E+00
 -1      4624 5.85634E+01 8.36834E+00 2.12742E+00
 -1      4625 5.89909E+01 8.57501E+00 2.44563E+00
 -1      4626 5.92746E+01 8.95707E+00 2.09865E+00
 -1      4627 6.20875E+01 8.80425E+00 2.14899E+00
 -1      4628 6.16297E+01 8.32698E+00 2.17602E+00
 -1      4629 6.33067E+01 8.80425E+00 1.87581E+00
 -1      4630 6.46509E+01 8.66450E+00 2.08141E+00
 -1      4631 6.52670E+01 8.37128E+00 2.13316E+00
 -1      4632 6.76148E+01 8.64672E+00 2.30956E+00
 -1      4633 6.82653E+01 8.35950E+00 2.15580E+00
 -1      4634 7.13306E+01 9.01388E+00 2.09768E+00
 -1      4635 7.17616E+01 8.33776E+00 2.20601E+00
 -1      4636 7.42829E+01 8.61781E+00 2.16613E+00
 -1      4637 7.84658E+01 8.40722E+00 2.08434E+00
 -1      4638 7.79578E+01 9.11869E+00 2.31155E+00
 -1      4639 8.09285E+01 8.75750E+00 2.28374E+00
 -1      4640 8.51709E+01 8.38149E+00 2.11751E+00
 -1      4641 8.58009E+01 8.67613E+00 2.12287E+00
 -1      4642 8.75992E+01 8.81659E+00 2.38976E+00
 -1      4643 8.81823E+01 8.41361E+00 2.01036E+00
 -1      4644 8.86113E+01 9.02502E+00 2.02824E+00
 -1      4645 8.99291E+01 8.80425E+00 1.84519E+00
 -1      4646 9.15613E+01 8.31852E+00 2.40007E+00
 -1      4647 9.21116E+01 8.42353E+00 2.17930E+00
 -1      4648 9.54053E+01 8.57860E+00 2.45766E+00
 -1      4649 9.81083E+01 8.49108E+00 2.16945E+00
 -1      4650 9.88148E+01 8.44235E+00 2.18257E+00
 -1      4651 5.74139E+00 9.20586E+00 2.39197E+00
 -1      4652 7.37062E+00 9.22350E+00 2.09300E+00
 -1      4653 1.42730E+01 9.13971E+00 2.51550E+00
 -1      4654 1.48135E+01 8.35061E+00 2.11612E+00
 -1      4655 1.54171E+01 8.80425E+00 2.14391E+00
 -1      4656 2.07494E+01 9.25844E+00 2.14926E+00
 -1      4657 2.85383E+01 8.32343E+00 2.44563E+00
 -1      4658 3.54807E+01 8.81355E+00 2.49726E+00
 -1      4659 3.93734E+01 9.18856E+00 2.02314E+00
 -1      4660 4.57790E+01 9.14641E+00 2.50427E+00
 -1      4661 6.09441E+01 9.16673E+00 2.51550E+00
 -1      4662 6.46906E+01 9.16764E+00 2.15690E+00
 -1      4663 7.93586E+01 9.04825E+00 2.04255E+00
 -1      4664 1.50628E+01 9.47923E+00 2.09625E+00
 -1      4665 4.46855E+01 9.25899E+00 2.31817E+00
 -1      4666 5.40597E+01 9.34578E+00 2.14299E+00
 -1      4667 8.46963E+01 9.23390E+00 2.14262E+00
 -1      4668 8.59438E+01 9.43313E+00 2.09787E+00
 -1      4669 9.13571E+01 9.26199E+00 2.31466E+00
 -1      4670 4.72080E+00 9.25280E+00 2.16782E+00
 -1      4671 8.24358E+00 9.52232E+00 2.42898E+00
 -1      4672 2.15653E+01 9.53372E+00 2.16613E+00
 -1      4673 2.52123E+01 9.56018E+00 2.15832E+00
 -1      4674 3.85011E+01 9.53817E+00 2.48320E+00
 -1      4675 5.18375E+01 9.58453E+00 2.15745E+00
 -1      4676 5.48153E+01 9.50261E+00 2.51521E+00
 -1      4677 6.17339E+01 9.47434E+00 2.09625E+00
 -1      4678 6.50444E+01 9.55354E+00 2.02638E+00
 -1      4679 6.82393E+01 9.53030E+00 2.16613E+00
 -1      4680 9.47401E+01 9.50856E+00 2.43966E+00
 -1      4681 9.53093E+01 9.08923E+00 2.04888E+00
 -1      4682 1.38937E+00 9.50971E+00 2.44535E+00
 -1      4683 4.54886E+01 9.71243E+00 2.00997E+00
 -1      4684 4.80647E+01 9.50918E+00 2.44256E+00
 -1      4685 6.06289E+01 9.31746E+00 2.03493E+00
 -1      4686 7.23840E+01 9.19669E+00 2.51550E+00
 -1      4687 8.17351E+01 9.44597E+00 2.22985E+00
 -1      4688 8.51057E+01 9.57275E+00 2.20450E+00
 -1      4689 1.24755E+01 9.60029E+00 2.08005E+00
 -1      4690 5.45867E+00 6.20995E-01 2.51550E+00
 -1      4691 7.80408E+00 6.70940E-01 2.53351E+00
 -1      4692 1.21582E+01 6.42067E-01 2.51550E+00
 -1      4693 1.42683E+01 9.15990E-01 2.51550E+00
 -1      4694 1.88663E+01 6.71411E-01 2.51550E+00
 -1      4695 1.82226E+01 5.96095E-01 2.23600E+00
 -1      4696 2.13626E+01 5.62951E-01 2.50774E+00
 -1      4697 2.20898E+01 1.04971E+00 2.32628E+00
 -1      4698 2.55743E+01 7.06887E-01 2.51550E+00
 -1      4699 2.75167E+01 7.50340E-01 2.84472E+00
 -1      4700 2.80799E+01 5.60967E-01 2.51203E+00
 -1      4701 3.45176E+01 6.36169E-01 2.51550E+00
 -1      4702 3.86883E+01 5.32098E-01 2.43595E+00
 -1      4703 4.18279E+01 6.62898E-01 2.36718E+00
 -1      4704 4.75257E+01 1.11800E+00 2.52593E+00
 -1      4705 4.78942E+01 5.94181E-01 2.63631E+00
 -1      4706 5.21328E+01 6.25512E-01 2.51550E+00
 -1      4707 5.24371E+01 1.18788E+00 2.42495E+00
 -1      4708 5.42478E+01 1.04813E+00 2.59402E+00
 -1      4709 5.52351E+01 7.04918E-01 2.55422E+00
 -1      4710 5.88347E+01 6.48529E-01 2.51550E+00
 -1      4711 6.55428E+01 6.79270E-01 2.51550E+00
 -1      4712 6.80394E+01 5.62338E-01 2.50881E+00
 -1      4713 6.87585E+01 1.05073E+00 2.32838E+00
 -1      4714 7.19857E+01 5.25778E-01 2.44062E+00
 -1      4715 7.52284E+01 7.01539E-01 2.37575E+00
 -1      4716 7.47313E+01 5.60669E-01 2.51549E+00
 -1      4717 8.11916E+01 6.31209E-01 2.51550E+00
 -1      4718 8.17700E+01 6.08143E-01 2.30588E+00
 -1      4719 8.55017E+01 5.76434E-01 2.65525E+00
 -1      4720 8.51036E+01 4.94941E-01 2.28514E+00
 -1      4721 8.83899E+01 5.97400E-01 2.63223E+00
 -1      4722 9.24060E+01 7.99273E-01 2.54421E+00
 -1      4723 9.42028E+01 1.08306E+00 2.48945E+00
 -1      4724 9.45702E+01 5.92612E-01 2.63188E+00
 -1      4725 9.52017E+01 6.74787E-01 2.42548E+00
 -1      4726 1.24845E+01 1.11800E+00 2.38148E+00
 -1      4727 1.78649E+01 1.25775E+00 2.22040E+00
 -1      4728 2.87597E+01 9.30270E-01 2.43994E+00
 -1      4729 3.54723E+01 1.18788E+00 2.28174E+00
 -1      4730 4.58481E+01 9.83567E-01 2.53917E+00
 -1      4731 8.74842E+01 1.01319E+00 2.35066E+00
 -1      4732 9.91457E+01 1.11800E+00 2.39013E+00
 -1      4733 2.21964E+00 1.25758E+00 2.56945E+00
 -1      4734 4.54329E+00 1.19016E+00 2.73652E+00
 -1      4735 2.55821E+01 1.51762E+00 2.68109E+00
 -1      4736 4.21322E+01 1.04783E+00 2.70089E+00
 -1      4737 4.44852E+01 1.15275E+00 2.52969E+00
 -1      4738 5.12128E+01 1.19139E+00 2.73662E+00
 -1      4739 8.21641E+01 1.09759E+00 2.60421E+00
 -1      4740 9.11555E+01 1.15273E+00 2.53618E+00
 -1      4741 1.11891E+01 1.05945E+00 2.51786E+00
 -1      4742 2.09381E+01 1.30323E+00 2.43239E+00
 -1      4743 3.90749E+01 1.18788E+00 2.42633E+00
 -1      4744 4.56649E+01 1.44404E+00 2.37575E+00
 -1      4745 5.54483E+01 1.48382E+00 2.48056E+00
 -1      4746 5.78392E+01 1.42258E+00 2.37630E+00
 -1      4747 6.45343E+01 1.25775E+00 2.21618E+00
 -1      4748 7.90966E+01 1.03248E+00 2.57788E+00
 -1      4749 8.44814E+01 1.25775E+00 2.44563E+00
 -1      4750 8.57834E+01 1.05838E+00 2.59612E+00
 -1      4751 8.88758E+01 1.25754E+00 2.60662E+00
 -1      4752 9.23340E+01 1.44220E+00 2.37575E+00
 -1      4753 8.70627E+00 1.71323E+00 2.51550E+00
 -1      4754 3.14544E+01 1.73996E+00 2.55044E+00
 -1      4755 3.24029E+01 9.51431E-01 2.51550E+00
 -1      4756 4.49563E+01 1.76739E+00 2.51669E+00
 -1      4757 6.09394E+01 8.83407E-01 2.51550E+00
 -1      4758 7.83299E+01 1.78564E+00 2.41069E+00
 -1      4759 8.48076E+01 1.74059E+00 2.62432E+00
 -1      4760 9.15973E+01 1.74472E+00 2.49880E+00
 -1      4761 9.79210E+01 1.58374E+00 2.62938E+00
 -1      4762 1.90299E+00 3.28244E+00 2.55233E+00
 -1      4763 2.21969E+00 3.77274E+00 2.56938E+00
 -1      4764 5.74165E+00 4.17592E+00 2.39437E+00
 -1      4765 1.52184E+01 3.38380E+00 2.86042E+00
 -1      4766 2.57640E+01 3.72828E+00 2.57794E+00
 -1      4767 3.42416E+01 3.75515E+00 2.38299E+00
 -1      4768 3.78648E+01 3.55271E+00 2.65525E+00
 -1      4769 4.21236E+01 3.87626E+00 2.74381E+00
 -1      4770 4.44518E+01 3.77269E+00 2.58660E+00
 -1      4771 4.75677E+01 3.83439E+00 2.52266E+00
 -1      4772 4.87860E+01 3.51297E+00 2.46708E+00
 -1      4773 5.78303E+01 3.73831E+00 2.30477E+00
 -1      4774 7.14267E+01 3.28646E+00 2.62031E+00
 -1      4775 7.43069E+01 3.60424E+00 2.37575E+00
 -1      4776 8.48679E+01 3.26800E+00 2.62031E+00
 -1      4777 8.44812E+01 3.77325E+00 2.44563E+00
 -1      4778 8.84873E+01 3.29848E+00 2.78567E+00
 -1      4779 8.88042E+01 3.96971E+00 2.63111E+00
 -1      4780 9.11232E+01 3.77264E+00 2.60324E+00
 -1      4781 9.42442E+01 3.83439E+00 2.50450E+00
 -1      4782 8.69279E-01 4.07276E+00 2.51154E+00
 -1      4783 7.52518E+00 4.17503E+00 2.48070E+00
 -1      4784 2.21270E+01 3.77325E+00 2.20749E+00
 -1      4785 2.87993E+01 3.77325E+00 2.21472E+00
 -1      4786 3.24006E+01 4.07982E+00 2.51550E+00
 -1      4787 3.54810E+01 3.78359E+00 2.49723E+00
 -1      4788 5.11817E+01 3.82436E+00 2.64057E+00
 -1      4789 6.45086E+01 3.91300E+00 2.36617E+00
 -1      4790 6.87964E+01 3.77325E+00 2.21172E+00
 -1      4791 7.44868E+01 4.36576E+00 2.51550E+00
 -1      4792 7.54915E+01 3.67463E+00 2.36939E+00
 -1      4793 8.21511E+01 3.93116E+00 2.39278E+00
 -1      4794 9.25151E+01 4.01781E+00 2.35243E+00
 -1      4795 9.78680E+01 3.93020E+00 2.56203E+00
 -1      4796 4.55745E+00 4.00049E+00 2.59435E+00
 -1      4797 1.13629E+01 4.25944E+00 2.37575E+00
 -1      4798 3.45182E+01 4.38633E+00 2.51550E+00
 -1      4799 5.13567E+01 4.25944E+00 2.37575E+00
 -1      4800 5.24056E+01 4.17481E+00 2.40331E+00
 -1      4801 5.82566E+01 4.40259E+00 2.52147E+00
 -1      4802 8.11947E+01 4.39212E+00 2.51550E+00
 -1      4803 8.17658E+01 4.40719E+00 2.29768E+00
 -1      4804 1.53948E+00 4.48944E+00 2.61032E+00
 -1      4805 1.21233E+01 4.54214E+00 2.30363E+00
 -1      4806 2.46206E+01 4.18997E+00 2.44563E+00
 -1      4807 2.54871E+01 4.42546E+00 2.59995E+00
 -1      4808 4.51332E+01 4.48074E+00 2.46299E+00
 -1      4809 6.54476E+01 4.51060E+00 2.51439E+00
 -1      4810 9.85238E+01 4.51767E+00 2.38443E+00
 -1      4811 7.94700E+00 4.49433E+00 2.65050E+00
 -1      4812 3.19703E+01 4.49581E+00 2.43713E+00
 -1      4813 3.90400E+01 4.36658E+00 2.56092E+00
 -1      4814 5.46597E+01 4.52525E+00 2.72481E+00
 -1      4815 8.53157E+01 4.49211E+00 2.43381E+00
 -1      4816 9.46099E+01 4.46778E+00 2.63184E+00
 -1      4817 9.90827E+01 4.20841E+00 2.74553E+00
 -1      4818 1.57643E+00 5.56534E+00 2.64877E+00
 -1      4819 9.70252E-01 5.80239E+00 2.57909E+00
 -1      4820 7.78755E+00 5.69902E+00 2.53168E+00
 -1      4821 1.21679E+01 5.66826E+00 2.51550E+00
 -1      4822 2.13256E+01 5.51016E+00 2.37465E+00
 -1      4823 2.78098E+01 5.68659E+00 2.51550E+00
 -1      4824 3.21918E+01 5.62494E+00 2.64987E+00
 -1      4825 3.45057E+01 5.66301E+00 2.51550E+00
 -1      4826 4.12015E+01 5.64324E+00 2.51550E+00
 -1      4827 4.57167E+01 5.82166E+00 2.57566E+00
 -1      4828 4.76029E+01 5.85300E+00 2.47919E+00
 -1      4829 4.82134E+01 5.54934E+00 2.67640E+00
 -1      4830 5.88415E+01 5.67373E+00 2.51550E+00
 -1      4831 5.83076E+01 5.61032E+00 2.37575E+00
 -1      4832 6.09372E+01 5.90713E+00 2.51550E+00
 -1      4833 6.80819E+01 5.58405E+00 2.51387E+00
 -1      4834 6.87610E+01 6.08107E+00 2.32811E+00
 -1      4835 7.22507E+01 5.73959E+00 2.51550E+00
 -1      4836 8.11793E+01 5.65798E+00 2.51550E+00
 -1      4837 8.78750E+01 5.63905E+00 2.51550E+00
 -1      4838 8.85164E+01 5.71122E+00 2.53100E+00
 -1      4839 9.48875E+01 5.55074E+00 2.67709E+00
 -1      4840 9.42882E+01 5.86875E+00 2.53935E+00
 -1      4841 1.15281E+01 5.64157E+00 2.23600E+00
 -1      4842 2.87624E+01 5.95737E+00 2.43960E+00
 -1      4843 3.91387E+01 6.13153E+00 2.45455E+00
 -1      4844 5.12236E+01 5.99985E+00 2.63386E+00
 -1      4845 5.24749E+01 6.14900E+00 2.39377E+00
 -1      4846 6.45352E+01 6.28875E+00 2.21560E+00
 -1      4847 8.21435E+01 6.02386E+00 2.38314E+00
 -1      4848 9.91441E+01 6.14900E+00 2.38982E+00
 -1      4849 2.21950E+00 6.28790E+00 2.56926E+00
 -1      4850 1.11896E+01 6.22020E+00 2.70536E+00
 -1      4851 3.54911E+01 6.13061E+00 2.49261E+00
 -1      4852 4.09127E+01 6.24640E+00 2.61647E+00
 -1      4853 4.44832E+01 6.18300E+00 2.52962E+00
 -1      4854 7.12668E+01 5.86800E+00 2.40652E+00
 -1      4855 8.74844E+01 6.04419E+00 2.35003E+00
 -1      4856 8.88755E+01 6.28717E+00 2.60475E+00
 -1      4857 4.52674E+00 6.08057E+00 2.63185E+00
 -1      4858 5.74623E+00 6.28875E+00 2.45540E+00
 -1      4859 1.78657E+01 6.28875E+00 2.21977E+00
 -1      4860 1.87987E+01 6.64567E+00 2.61006E+00
 -1      4861 2.45441E+01 6.28875E+00 2.20233E+00
 -1      4862 4.56606E+01 6.47284E+00 2.37575E+00
 -1      4863 5.12517E+01 6.60666E+00 2.63003E+00
 -1      4864 6.55462E+01 6.57164E+00 2.51571E+00
 -1      4865 7.54877E+01 6.45470E+00 2.37306E+00
 -1      4866 7.90799E+01 6.28875E+00 2.48135E+00
 -1      4867 8.20811E+01 6.61614E+00 2.45544E+00
 -1      4868 8.44817E+01 6.28875E+00 2.44563E+00
 -1      4869 9.23298E+01 6.47101E+00 2.37575E+00
 -1      4870 9.24952E+01 6.00925E+00 2.60388E+00
 -1      4871 8.42931E+00 6.74215E+00 2.82141E+00
 -1      4872 1.14819E+01 6.75488E+00 2.48560E+00
 -1      4873 1.51667E+01 6.74232E+00 2.75773E+00
 -1      4874 3.14496E+01 6.76800E+00 2.48056E+00
 -1      4875 3.23980E+01 6.25113E+00 2.58876E+00
 -1      4876 3.53331E+01 6.74028E+00 2.51550E+00
 -1      4877 4.18150E+01 6.80565E+00 2.65525E+00
 -1      4878 4.22030E+01 6.28595E+00 2.60682E+00
 -1      4879 4.49220E+01 6.76947E+00 2.49364E+00
 -1      4880 5.51047E+01 6.74080E+00 2.82034E+00
 -1      4881 7.81414E+01 6.77031E+00 2.46309E+00
 -1      4882 9.11535E+01 6.18292E+00 2.53612E+00
 -1      4883 9.15979E+01 6.77091E+00 2.49321E+00
 -1      4884 3.51880E+01 8.27486E+00 2.69019E+00
 -1      4885 8.74452E-01 8.80425E+00 2.36142E+00
 -1      4886 2.17818E+00 8.90788E+00 2.55774E+00
 -1      4887 4.47639E+00 8.80447E+00 2.62571E+00
 -1      4888 7.60561E+00 8.66450E+00 2.37575E+00
 -1      4889 8.55686E+00 8.32361E+00 2.65525E+00
 -1      4890 1.11998E+01 8.85942E+00 2.68790E+00
 -1      4891 1.44068E+01 8.52795E+00 2.45614E+00
 -1      4892 1.52675E+01 8.42719E+00 2.84511E+00
 -1      4893 2.48217E+01 8.30574E+00 2.44563E+00
 -1      4894 2.57130E+01 9.21964E+00 2.51550E+00
 -1      4895 2.76337E+01 8.63539E+00 2.37575E+00
 -1      4896 3.14626E+01 8.33802E+00 2.75898E+00
 -1      4897 3.23982E+01 9.11063E+00 2.51550E+00
 -1      4898 3.79105E+01 8.54773E+00 2.76006E+00
 -1      4899 4.19055E+01 8.30988E+00 2.64720E+00
 -1      4900 4.21216E+01 8.90648E+00 2.74400E+00
 -1      4901 4.44518E+01 8.80294E+00 2.58629E+00
 -1      4902 4.75191E+01 8.94400E+00 2.57130E+00
 -1      4903 4.88150E+01 8.65733E+00 2.39540E+00
 -1      4904 5.24101E+01 9.20476E+00 2.39222E+00
 -1      4905 5.54308E+01 8.46922E+00 2.62031E+00
 -1      4906 5.80020E+01 8.42923E+00 2.67117E+00
 -1      4907 6.11777E+01 8.41490E+00 2.40263E+00
 -1      4908 6.47449E+01 8.33540E+00 2.55044E+00
 -1      4909 7.90824E+01 8.66450E+00 2.31297E+00
 -1      4910 8.48647E+01 8.29678E+00 2.65525E+00
 -1      4911 8.44811E+01 8.80425E+00 2.44563E+00
 -1      4912 8.85790E+01 8.31208E+00 2.64665E+00
 -1      4913 8.87918E+01 8.89710E+00 2.74267E+00
 -1      4914 9.11322E+01 8.80282E+00 2.61968E+00
 -1      4915 9.24440E+01 8.85666E+00 2.50406E+00
 -1      4916 2.78103E+01 9.38133E+00 2.51550E+00
 -1      4917 2.88004E+01 8.80425E+00 2.21633E+00
 -1      4918 3.42394E+01 8.78507E+00 2.38408E+00
 -1      4919 6.87970E+01 8.80425E+00 2.21238E+00
 -1      4920 7.54723E+01 8.80425E+00 2.22498E+00
 -1      4921 8.21486E+01 8.96111E+00 2.39284E+00
 -1      4922 8.57915E+01 8.99921E+00 2.59249E+00
 -1      4923 9.41876E+01 8.94400E+00 2.56883E+00
 -1      4924 9.79115E+01 9.11304E+00 2.61229E+00
 -1      4925 1.16106E+01 9.42979E+00 2.45889E+00
 -1      4926 1.52499E+01 9.33345E+00 2.58538E+00
 -1      4927 1.82276E+01 9.40033E+00 2.41800E+00
 -1      4928 3.45182E+01 9.40866E+00 2.51550E+00
 -1      4929 5.11435E+01 8.80070E+00 2.40065E+00
 -1      4930 5.13605E+01 9.28616E+00 2.37575E+00
 -1      4931 5.82573E+01 9.41965E+00 2.46686E+00
 -1      4932 7.44868E+01 9.38833E+00 2.51550E+00
 -1      4933 8.11947E+01 9.41439E+00 2.51550E+00
 -1      4934 9.91168E+01 8.85666E+00 2.62367E+00
 -1      4935 9.89552E+01 9.44523E+00 2.61960E+00
 -1      4936 2.46268E+01 9.21963E+00 2.44563E+00
 -1      4937 4.51348E+01 9.49975E+00 2.42950E+00
 -1      4938 5.87998E+01 9.56392E+00 2.30131E+00
 -1      4939 9.84453E+01 9.52199E+00 2.55035E+00
 -1      4940 1.89980E+01 9.35877E+00 2.63883E+00
 -1      4941 3.19329E+01 9.56474E+00 2.41254E+00
 -1      4942 3.90358E+01 9.39659E+00 2.55885E+00
 -1      4943 7.86793E+01 9.53419E+00 2.44204E+00
 -1      4944 1.21829E+00 5.95884E-01 2.64080E+00
 -1      4945 1.48965E+01 5.80018E-01 2.58830E+00
 -1      4946 4.12155E+01 6.16672E-01 2.51550E+00
 -1      4947 5.46700E+01 5.45126E-01 2.59318E+00
 -1      4948 6.15509E+01 5.83445E-01 2.59351E+00
 -1      4949 8.78471E+01 5.18676E-01 2.74264E+00
 -1      4950 1.78822E+01 1.05121E+00 2.74799E+00
 -1      4951 2.08121E+01 8.59140E-01 2.89503E+00
 -1      4952 2.45813E+01 1.04870E+00 2.86119E+00
 -1      4953 2.49596E+01 5.83513E-01 2.65525E+00
 -1      4954 2.84535E+01 6.11611E-01 3.07450E+00
 -1      4955 5.79232E+01 1.09612E+00 2.88104E+00
 -1      4956 6.45511E+01 1.04944E+00 2.75002E+00
 -1      4957 6.75852E+01 1.18236E+00 2.68556E+00
 -1      4958 7.42078E+01 1.08427E+00 2.72921E+00
 -1      4959 8.48671E+01 6.63813E-01 2.95187E+00
 -1      4960 7.58815E+00 1.25775E+00 2.62529E+00
 -1      4961 8.81830E+00 1.04813E+00 2.65525E+00
 -1      4962 1.54736E+01 1.47272E+00 2.65525E+00
 -1      4963 3.12047E+01 1.08306E+00 2.81216E+00
 -1      4964 3.77714E+01 1.25775E+00 2.65525E+00
 -1      4965 7.12979E+01 1.06559E+00 3.01695E+00
 -1      4966 7.54684E+01 1.00620E+00 2.78027E+00
 -1      4967 7.78683E+01 1.47930E+00 2.65525E+00
 -1      4968 9.78418E+01 9.94420E-01 2.66506E+00
 -1      4969 2.78018E+01 1.55253E+00 2.77906E+00
 -1      4970 2.88226E+01 1.25775E+00 2.83661E+00
 -1      4971 8.10128E+01 1.45031E+00 2.65525E+00
 -1      4972 5.00665E+00 1.73476E+00 2.77620E+00
 -1      4973 8.31513E+00 1.74187E+00 2.85985E+00
 -1      4974 1.12765E+01 1.52357E+00 2.77407E+00
 -1      4975 1.18787E+01 1.73056E+00 2.85599E+00
 -1      4976 1.49532E+01 1.74391E+00 2.86629E+00
 -1      4977 1.81115E+01 1.73261E+00 2.65525E+00
 -1      4978 1.87265E+01 1.70057E+00 2.68775E+00
 -1      4979 2.16588E+01 1.70806E+00 2.79964E+00
 -1      4980 2.21456E+01 1.25775E+00 2.85358E+00
 -1      4981 2.47729E+01 1.74699E+00 2.65525E+00
 -1      4982 2.85622E+01 1.72850E+00 2.65525E+00
 -1      4983 3.51159E+01 1.72648E+00 2.78978E+00
 -1      4984 4.13573E+01 1.65561E+00 2.95154E+00
 -1      4985 4.19003E+01 1.75094E+00 2.69019E+00
 -1      4986 5.16814E+01 1.73073E+00 2.78432E+00
 -1      4987 5.49916E+01 1.74169E+00 2.85873E+00
 -1      4988 5.85203E+01 1.72481E+00 2.85404E+00
 -1      4989 6.18431E+01 1.71399E+00 2.76055E+00
 -1      4990 6.21379E+01 1.25775E+00 2.86547E+00
 -1      4991 6.47851E+01 1.73649E+00 2.65525E+00
 -1      4992 6.54030E+01 1.69561E+00 2.68163E+00
 -1      4993 6.81281E+01 1.67318E+00 2.95098E+00
 -1      4994 6.85400E+01 1.74085E+00 2.65525E+00
 -1      4995 6.88147E+01 1.25775E+00 2.84962E+00
 -1      4996 7.14467E+01 1.75008E+00 2.65525E+00
 -1      4997 7.22484E+01 1.53543E+00 2.72720E+00
 -1      4998 8.19333E+01 1.66331E+00 2.72169E+00
 -1      4999 8.85495E+01 1.76737E+00 2.69019E+00
 -1      5000 9.49601E+01 1.74177E+00 2.86216E+00
 -1      5001 9.85238E+01 1.74508E+00 2.78974E+00
 -1      5002 1.67700E+00 1.75658E+00 2.79462E+00
 -1      5003 4.82836E+01 1.74151E+00 2.86315E+00
 -1      5004 7.52428E+01 1.73223E+00 2.58538E+00
 -1      5005 8.80332E+01 1.65829E+00 2.95215E+00
 -1      5006 1.17315E+00 3.40126E+00 2.65525E+00
 -1      5007 5.69696E+00 3.59189E+00 2.86488E+00
 -1      5008 4.86979E+00 3.23091E+00 2.65525E+00
 -1      5009 1.45945E+01 3.49375E+00 3.62226E+00
 -1      5010 1.81087E+01 3.29146E+00 2.65525E+00
 -1      5011 1.88736E+01 3.47836E+00 2.78192E+00
 -1      5012 2.21108E+01 3.56604E+00 2.75455E+00
 -1      5013 2.85649E+01 3.29566E+00 2.65525E+00
 -1      5014 2.79500E+01 3.33815E+00 2.91369E+00
 -1      5015 3.25745E+01 3.77904E+00 3.13743E+00
 -1      5016 3.14656E+01 3.31144E+00 2.75735E+00
 -1      5017 3.50869E+01 3.29834E+00 2.85557E+00
 -1      5018 3.44749E+01 3.44231E+00 3.00219E+00
 -1      5019 3.83614E+01 3.28235E+00 2.86442E+00
 -1      5020 4.18896E+01 3.30303E+00 2.74251E+00
 -1      5021 4.10267E+01 3.53437E+00 3.14438E+00
 -1      5022 4.57698E+01 3.84313E+00 2.72285E+00
 -1      5023 4.84234E+01 3.29383E+00 2.89981E+00
 -1      5024 5.23679E+01 3.63350E+00 2.65525E+00
 -1      5025 5.14420E+01 3.27133E+00 2.69019E+00
 -1      5026 5.51467E+01 3.26339E+00 2.62031E+00
 -1      5027 5.45778E+01 3.49375E+00 3.62657E+00
 -1      5028 5.79725E+01 3.41257E+00 2.70562E+00
 -1      5029 5.88498E+01 3.46264E+00 2.78919E+00
 -1      5030 6.18979E+01 3.31267E+00 2.75605E+00
 -1      5031 6.10738E+01 3.49739E+00 2.73366E+00
 -1      5032 6.47823E+01 3.28750E+00 2.65525E+00
 -1      5033 6.85424E+01 3.28352E+00 2.65525E+00
 -1      5034 6.79185E+01 3.34316E+00 2.85538E+00
 -1      5035 7.48012E+01 3.30438E+00 2.89634E+00
 -1      5036 7.79113E+01 3.66434E+00 2.87445E+00
 -1      5037 7.83299E+01 3.28296E+00 2.86069E+00
 -1      5038 8.20567E+01 3.50678E+00 2.75144E+00
 -1      5039 8.14743E+01 3.30067E+00 2.91997E+00
 -1      5040 9.49601E+01 3.28522E+00 2.89981E+00
 -1      5041 9.81389E+01 3.25264E+00 2.69019E+00
 -1      5042 9.88029E+01 3.44365E+00 2.91691E+00
 -1      5043 1.23564E+01 3.58082E+00 2.89981E+00
 -1      5044 1.78551E+01 3.88447E+00 2.80594E+00
 -1      5045 2.09694E+01 3.65529E+00 2.53140E+00
 -1      5046 2.47355E+01 3.28501E+00 2.72513E+00
 -1      5047 2.45231E+01 3.77325E+00 2.85780E+00
 -1      5048 2.88230E+01 3.77325E+00 2.83673E+00
 -1      5049 3.90840E+01 3.77325E+00 2.62706E+00
 -1      5050 5.54497E+01 3.88680E+00 2.84443E+00
 -1      5051 6.88150E+01 3.77325E+00 2.84985E+00
 -1      5052 7.11838E+01 3.98228E+00 2.65525E+00
 -1      5053 7.90763E+01 3.77325E+00 2.62072E+00
 -1      5054 9.23677E+01 3.63350E+00 2.65525E+00
 -1      5055 1.24501E+01 4.26693E+00 2.80366E+00
 -1      5056 1.91640E+01 4.24535E+00 2.86432E+00
 -1      5057 5.42024E+01 4.05275E+00 2.65808E+00
 -1      5058 5.90579E+01 4.29717E+00 2.76264E+00
 -1      5059 6.77787E+01 4.33372E+00 2.51550E+00
 -1      5060 8.57531E+01 3.77325E+00 2.62905E+00
 -1      5061 1.89003E+00 4.27185E+00 3.04389E+00
 -1      5062 8.66801E+00 4.00034E+00 3.04007E+00
 -1      5063 2.20237E+01 4.18800E+00 2.86488E+00
 -1      5064 2.86269E+01 4.27785E+00 2.65525E+00
 -1      5065 3.79966E+01 4.00034E+00 3.04027E+00
 -1      5066 4.86847E+01 4.12357E+00 3.00615E+00
 -1      5067 5.78802E+01 4.04871E+00 2.77702E+00
 -1      5068 6.86079E+01 4.29271E+00 2.65525E+00
 -1      5069 7.53477E+01 4.16283E+00 2.82236E+00
 -1      5070 7.81932E+01 4.36702E+00 2.84461E+00
 -1      5071 8.47897E+01 4.32865E+00 2.79500E+00
 -1      5072 9.51889E+01 4.33371E+00 2.90529E+00
 -1      5073 1.83771E+01 4.45791E+00 2.59134E+00
 -1      5074 5.18445E+01 4.47902E+00 2.59317E+00
 -1      5075 6.47417E+01 4.29131E+00 2.93475E+00
 -1      5076 6.58263E+01 3.95460E+00 2.86347E+00
 -1      5077 1.17390E+01 4.48660E+00 2.66951E+00
 -1      5078 5.47211E+00 5.64762E+00 2.51550E+00
 -1      5079 1.48930E+01 5.60381E+00 2.58758E+00
 -1      5080 1.88663E+01 5.69400E+00 2.51550E+00
 -1      5081 5.21457E+01 5.65220E+00 2.51550E+00
 -1      5082 6.15431E+01 5.60832E+00 2.59124E+00
 -1      5083 6.55428E+01 5.70197E+00 2.51550E+00
 -1      5084 7.44834E+01 5.68062E+00 2.51550E+00
 -1      5085 8.57225E+01 5.85211E+00 2.66146E+00
 -1      5086 8.82197E+00 6.07913E+00 2.65525E+00
 -1      5087 1.42504E+01 6.12932E+00 2.58689E+00
 -1      5088 1.79064E+01 6.07996E+00 2.85269E+00
 -1      5089 2.08787E+01 6.00541E+00 2.65525E+00
 -1      5090 2.21167E+01 6.08091E+00 2.75425E+00
 -1      5091 2.45240E+01 6.28875E+00 2.85713E+00
 -1      5092 2.82805E+01 5.51390E+00 3.19188E+00
 -1      5093 3.11056E+01 6.28875E+00 2.65525E+00
 -1      5094 3.81308E+01 5.72975E+00 2.96687E+00
 -1      5095 5.42488E+01 6.07913E+00 2.59273E+00
 -1      5096 5.54887E+01 6.07913E+00 2.65525E+00
 -1      5097 5.79090E+01 6.09104E+00 2.88097E+00
 -1      5098 6.45482E+01 6.07913E+00 2.74990E+00
 -1      5099 6.74452E+01 6.00645E+00 2.85193E+00
 -1      5100 7.49535E+01 5.51897E+00 3.19252E+00
 -1      5101 7.54699E+01 6.03345E+00 2.78065E+00
 -1      5102 7.77721E+01 6.28875E+00 2.65525E+00
 -1      5103 7.90294E+01 5.71309E+00 2.73408E+00
 -1      5104 8.46366E+01 5.81886E+00 2.65525E+00
 -1      5105 7.59127E+00 6.28875E+00 2.62554E+00
 -1      5106 1.54747E+01 6.07913E+00 2.74897E+00
 -1      5107 3.42914E+01 6.31021E+00 2.58538E+00
 -1      5108 3.77716E+01 6.28875E+00 2.65525E+00
 -1      5109 5.90475E+01 6.28875E+00 2.51550E+00
 -1      5110 7.12435E+01 6.14900E+00 2.89806E+00
 -1      5111 9.78382E+01 6.02433E+00 2.66553E+00
 -1      5112 2.88221E+01 6.28875E+00 2.83642E+00
 -1      5113 6.77725E+01 6.56435E+00 2.76059E+00
 -1      5114 8.11750E+01 6.60258E+00 2.78495E+00
 -1      5115 9.43561E+01 6.47791E+00 2.65525E+00
 -1      5116 1.04726E+00 6.51854E+00 2.72513E+00
 -1      5117 4.92906E+00 6.76329E+00 2.72281E+00
 -1      5118 1.81143E+01 6.75676E+00 2.65525E+00
 -1      5119 2.12420E+01 6.70816E+00 2.62336E+00
 -1      5120 2.17624E+01 6.73048E+00 2.85808E+00
 -1      5121 2.47755E+01 6.77134E+00 2.65525E+00
 -1      5122 2.54015E+01 6.63500E+00 2.93540E+00
 -1      5123 2.85595E+01 6.75274E+00 2.65525E+00
 -1      5124 3.48368E+01 6.75267E+00 2.86666E+00
 -1      5125 3.83264E+01 6.77946E+00 2.79101E+00
 -1      5126 4.76869E+01 6.47574E+00 2.65525E+00
 -1      5127 5.18473E+01 6.76972E+00 2.79036E+00
 -1      5128 6.18404E+01 6.77592E+00 2.65525E+00
 -1      5129 6.20520E+01 6.18255E+00 2.94363E+00
 -1      5130 6.47880E+01 6.76056E+00 2.65525E+00
 -1      5131 6.88142E+01 6.28875E+00 2.84933E+00
 -1      5132 6.84374E+01 6.72814E+00 2.85734E+00
 -1      5133 7.14494E+01 6.77439E+00 2.65525E+00
 -1      5134 7.20713E+01 6.62856E+00 2.90499E+00
 -1      5135 8.16916E+01 6.78004E+00 2.82139E+00
 -1      5136 8.76790E+01 6.46846E+00 2.65525E+00
 -1      5137 8.84785E+01 6.81263E+00 2.65525E+00
 -1      5138 9.85936E+01 6.73515E+00 2.85515E+00
 -1      5139 1.53725E+00 6.82851E+00 2.65525E+00
 -1      5140 2.77893E+01 6.59431E+00 2.89224E+00
 -1      5141 4.82137E+01 6.83057E+00 2.65525E+00
 -1      5142 5.83790E+01 6.75992E+00 2.84910E+00
 -1      5143 7.50458E+01 6.83972E+00 2.65525E+00
 -1      5144 7.44634E+01 6.59793E+00 2.89752E+00
 -1      5145 8.48981E+01 6.79013E+00 2.72513E+00
 -1      5146 9.48903E+01 6.83247E+00 2.65525E+00
 -1      5147 9.80106E+01 6.61379E+00 2.81644E+00
 -1      5148 1.83418E+00 8.26244E+00 2.65525E+00
 -1      5149 1.16696E+00 8.42777E+00 2.65525E+00
 -1      5150 5.70173E+00 8.62070E+00 2.86488E+00
 -1      5151 7.82600E+00 8.44302E+00 3.07450E+00
 -1      5152 1.81061E+01 8.31543E+00 2.65525E+00
 -1      5153 1.88748E+01 8.50426E+00 2.78764E+00
 -1      5154 2.18709E+01 8.30488E+00 2.65525E+00
 -1      5155 2.12420E+01 8.37841E+00 2.90060E+00
 -1      5156 2.79500E+01 8.36266E+00 2.92474E+00
 -1      5157 3.25764E+01 8.88343E+00 3.08695E+00
 -1      5158 3.84313E+01 8.23235E+00 2.65525E+00
 -1      5159 4.83966E+01 8.30798E+00 2.81247E+00
 -1      5160 5.49217E+01 8.22943E+00 2.65525E+00
 -1      5161 5.45025E+01 8.43822E+00 3.07450E+00
 -1      5162 5.84155E+01 8.53855E+00 3.35400E+00
 -1      5163 6.18474E+01 8.29742E+00 2.65525E+00
 -1      5164 6.85448E+01 8.30785E+00 2.65525E+00
 -1      5165 6.79185E+01 8.37451E+00 2.90748E+00
 -1      5166 7.52412E+01 8.32426E+00 2.65525E+00
 -1      5167 7.46265E+01 8.35917E+00 2.92893E+00
 -1      5168 7.79091E+01 8.69482E+00 2.87431E+00
 -1      5169 7.83299E+01 8.30717E+00 2.86398E+00
 -1      5170 8.20059E+01 8.42202E+00 2.68873E+00
 -1      5171 8.12749E+01 8.34315E+00 2.65525E+00
 -1      5172 9.46806E+01 8.38906E+00 3.00463E+00
 -1      5173 9.79828E+01 8.43745E+00 2.69492E+00
 -1      5174 8.73726E+00 9.01388E+00 2.89559E+00
 -1      5175 1.55610E+01 8.80425E+00 2.65525E+00
 -1      5176 2.21462E+01 8.80425E+00 2.85405E+00
 -1      5177 2.45229E+01 8.80425E+00 2.85805E+00
 -1      5178 2.88232E+01 8.80425E+00 2.83679E+00
 -1      5179 3.90869E+01 8.80425E+00 2.62684E+00
 -1      5180 5.24479E+01 8.85300E+00 2.84585E+00
 -1      5181 6.22276E+01 8.80425E+00 2.65525E+00
 -1      5182 6.44840E+01 8.82172E+00 2.74029E+00
 -1      5183 6.88153E+01 8.80425E+00 2.85001E+00
 -1      5184 7.14304E+01 8.41437E+00 2.85756E+00
 -1      5185 7.11869E+01 9.01190E+00 2.65525E+00
 -1      5186 7.54227E+01 9.00920E+00 2.84871E+00
 -1      5187 7.65373E+00 9.24834E+00 2.63812E+00
 -1      5188 5.91179E+01 9.33166E+00 2.82517E+00
 -1      5189 6.77787E+01 9.35672E+00 2.51550E+00
 -1      5190 7.91811E+01 9.15363E+00 2.73669E+00
 -1      5191 1.78977E+01 9.00691E+00 2.87590E+00
 -1      5192 2.19079E+01 9.31695E+00 2.79500E+00
 -1      5193 2.86237E+01 9.30319E+00 2.65525E+00
 -1      5194 3.79764E+01 9.25741E+00 2.65525E+00
 -1      5195 4.11244E+01 9.40338E+00 2.60239E+00
 -1      5196 4.85211E+01 9.32984E+00 2.98135E+00
 -1      5197 5.78825E+01 9.07632E+00 2.77653E+00
 -1      5198 6.19219E+01 9.33102E+00 2.58538E+00
 -1      5199 6.47466E+01 9.31766E+00 2.93475E+00
 -1      5200 6.58273E+01 8.98354E+00 2.86286E+00
 -1      5201 6.86047E+01 9.31792E+00 2.65525E+00
 -1      5202 8.48905E+01 9.44100E+00 2.96200E+00
 -1      5203 9.51864E+01 9.36144E+00 2.91296E+00
 -1      5204 2.11023E+01 9.34832E+00 2.51550E+00
 -1      5205 6.52678E+01 9.49005E+00 2.62053E+00
 -1      5206 7.18351E+01 9.61190E+00 3.12358E+00
 -1      5207 8.54817E+01 9.49458E+00 2.66027E+00
 -1      5208 2.50358E+01 9.49673E+00 2.86935E+00
 -1      5209 9.20953E+01 9.46969E+00 2.47814E+00
 -1      5210 2.16554E+01 5.18563E-01 3.28413E+00
 -1      5211 2.54345E+01 3.13019E-01 3.16692E+00
 -1      5212 3.90440E+01 7.41800E-01 2.77871E+00
 -1      5213 3.81352E+01 7.30660E-01 2.98043E+00
 -1      5214 6.55428E+01 3.20927E-01 3.16433E+00
 -1      5215 6.75028E+01 4.32084E-01 3.11010E+00
 -1      5216 6.82554E+01 4.72420E-01 3.19177E+00
 -1      5217 7.48590E+01 4.62819E-01 3.12440E+00
 -1      5218 7.42073E+01 5.65026E-01 2.93145E+00
 -1      5219 7.88760E+01 4.35510E-01 2.97429E+00
 -1      5220 7.79744E+01 9.08375E-01 2.97868E+00
 -1      5221 1.69669E+00 5.47404E-01 2.91354E+00
 -1      5222 8.32541E+00 5.42320E-01 2.93475E+00
 -1      5223 1.41602E+01 5.70663E-01 3.05412E+00
 -1      5224 4.07584E+01 1.21408E+00 3.19183E+00
 -1      5225 4.49756E+01 5.41986E-01 2.93475E+00
 -1      5226 4.83690E+01 5.49096E-01 2.92117E+00
 -1      5227 6.08354E+01 5.70399E-01 3.04730E+00
 -1      5228 8.73371E+01 7.51156E-01 3.07523E+00
 -1      5229 9.15267E+01 8.64215E-01 3.73387E+00
 -1      5230 9.50412E+01 5.50822E-01 2.92953E+00
 -1      5231 6.05398E+00 9.08375E-01 3.12676E+00
 -1      5232 1.25764E+01 1.04993E+00 3.02569E+00
 -1      5233 3.39505E+01 7.68625E-01 3.17592E+00
 -1      5234 3.54635E+01 1.18711E+00 2.88304E+00
 -1      5235 5.27243E+01 9.08375E-01 3.13298E+00
 -1      5236 5.92125E+01 1.18232E+00 3.09148E+00
 -1      5237 8.06979E+01 8.82172E-01 3.03603E+00
 -1      5238 9.93643E+01 9.52435E-01 3.12380E+00
 -1      5239 1.92033E+01 1.25868E+00 3.10239E+00
 -1      5240 6.58827E+01 1.24862E+00 3.10487E+00
 -1      5241 7.51916E+01 1.52580E+00 3.06877E+00
 -1      5242 3.44771E+01 1.57830E+00 3.03243E+00
 -1      5243 7.46265E+01 1.68985E+00 2.90780E+00
 -1      5244 8.14743E+01 1.69246E+00 3.00288E+00
 -1      5245 1.18894E+01 3.56933E+00 3.53606E+00
 -1      5246 2.54345E+01 3.34920E+00 2.82423E+00
 -1      5247 6.54030E+01 3.34541E+00 2.90286E+00
 -1      5248 7.21110E+01 3.35232E+00 2.80572E+00
 -1      5249 7.54110E+01 3.57807E+00 2.95249E+00
 -1      5250 2.75842E+01 3.59527E+00 3.21425E+00
 -1      5251 6.45462E+01 3.80819E+00 2.96483E+00
 -1      5252 7.26235E+01 3.95175E+00 3.06888E+00
 -1      5253 7.42209E+01 3.61293E+00 3.45176E+00
 -1      5254 6.03493E+00 4.08769E+00 3.14433E+00
 -1      5255 7.82600E+00 3.42083E+00 3.07450E+00
 -1      5256 2.07737E+01 4.24489E+00 2.98722E+00
 -1      5257 2.74724E+01 4.25275E+00 2.94340E+00
 -1      5258 3.40708E+01 4.03570E+00 2.95995E+00
 -1      5259 5.27034E+01 4.08769E+00 3.14741E+00
 -1      5260 6.74470E+01 4.24276E+00 2.98077E+00
 -1      5261 7.41319E+01 4.25412E+00 2.95791E+00
 -1      5262 9.25931E+01 4.05275E+00 2.93773E+00
 -1      5263 1.12286E+01 3.96257E+00 2.94934E+00
 -1      5264 3.24323E+01 4.44282E+00 2.92539E+00
 -1      5265 7.92697E+01 4.19250E+00 2.93788E+00
 -1      5266 8.07296E+01 4.05275E+00 2.95582E+00
 -1      5267 8.19472E+01 4.12263E+00 3.13116E+00
 -1      5268 8.57020E+01 4.33866E+00 2.77783E+00
 -1      5269 1.46737E+01 4.64883E+00 3.06325E+00
 -1      5270 2.13818E+01 4.65877E+00 3.13652E+00
 -1      5271 2.49103E+01 4.44272E+00 3.07450E+00
 -1      5272 3.12933E+01 3.77325E+00 3.08972E+00
 -1      5273 3.82978E+01 4.46662E+00 3.03725E+00
 -1      5274 4.07373E+01 4.05275E+00 2.94265E+00
 -1      5275 4.48556E+01 4.34093E+00 3.04078E+00
 -1      5276 4.83284E+01 4.48788E+00 2.93684E+00
 -1      5277 6.12804E+01 4.58428E+00 2.98775E+00
 -1      5278 6.20097E+01 3.98288E+00 3.07549E+00
 -1      5279 7.17686E+01 4.56692E+00 3.19196E+00
 -1      5280 8.16367E+01 4.49766E+00 2.96261E+00
 -1      5281 8.74064E+01 4.05275E+00 2.93856E+00
 -1      5282 8.83220E+01 4.50367E+00 2.93475E+00
 -1      5283 9.15233E+01 4.33825E+00 3.04023E+00
 -1      5284 9.22350E+01 4.71213E+00 3.15394E+00
 -1      5285 9.81739E+01 4.34178E+00 2.99821E+00
 -1      5286 1.88607E+01 4.71618E+00 3.21590E+00
 -1      5287 1.84099E+01 5.48936E+00 3.21425E+00
 -1      5288 1.90811E+01 5.43308E+00 3.17176E+00
 -1      5289 2.08215E+01 5.49195E+00 3.11034E+00
 -1      5290 2.15877E+01 5.49375E+00 3.18974E+00
 -1      5291 2.75085E+01 5.79058E+00 2.92418E+00
 -1      5292 3.89005E+01 5.46446E+00 2.96669E+00
 -1      5293 4.49421E+01 5.59000E+00 3.21425E+00
 -1      5294 6.75019E+01 5.45521E+00 3.11372E+00
 -1      5295 6.84441E+01 5.62036E+00 3.07450E+00
 -1      5296 7.81249E+01 5.76357E+00 3.08240E+00
 -1      5297 8.55270E+01 5.33917E+00 3.13744E+00
 -1      5298 8.84976E+01 5.78940E+00 3.15937E+00
 -1      5299 8.33033E+00 5.55745E+00 2.96679E+00
 -1      5300 1.43791E+01 5.42296E+00 3.12775E+00
 -1      5301 3.13009E+01 5.93937E+00 2.97387E+00
 -1      5302 3.93755E+01 5.75446E+00 3.12356E+00
 -1      5303 4.18450E+01 5.71805E+00 3.06492E+00
 -1      5304 5.51900E+01 5.78304E+00 3.03475E+00
 -1      5305 6.10538E+01 5.42306E+00 3.12541E+00
 -1      5306 6.48251E+01 5.77335E+00 3.19615E+00
 -1      5307 8.20613E+01 6.23980E+00 3.02037E+00
 -1      5308 8.73358E+01 5.78216E+00 3.07453E+00
 -1      5309 6.05313E+00 5.93937E+00 3.12742E+00
 -1      5310 5.25549E+01 6.09811E+00 2.95146E+00
 -1      5311 5.92693E+01 6.02048E+00 2.96926E+00
 -1      5312 9.92892E+01 6.08313E+00 3.10510E+00
 -1      5313 1.25744E+01 6.07988E+00 3.02581E+00
 -1      5314 1.92069E+01 6.28213E+00 3.10326E+00
 -1      5315 4.74078E+01 6.07913E+00 2.92738E+00
 -1      5316 6.58787E+01 6.27687E+00 3.10578E+00
 -1      5317 7.40910E+01 5.79963E+00 2.96255E+00
 -1      5318 7.51890E+01 6.55461E+00 3.06497E+00
 -1      5319 1.60713E+00 6.59207E+00 3.20945E+00
 -1      5320 3.54425E+01 6.38173E+00 2.94516E+00
 -1      5321 4.15756E+01 6.60156E+00 3.20765E+00
 -1      5322 4.51393E+01 6.72545E+00 2.99393E+00
 -1      5323 4.87124E+01 6.14628E+00 3.06422E+00
 -1      5324 8.78151E+01 6.54738E+00 3.63350E+00
 -1      5325 9.18158E+01 6.72416E+00 2.99459E+00
 -1      5326 2.56017E+01 8.52584E+00 2.98367E+00
 -1      5327 6.12105E+01 8.40127E+00 2.94187E+00
 -1      5328 6.54030E+01 8.36994E+00 2.91474E+00
 -1      5329 7.23683E+01 8.59760E+00 3.04437E+00
 -1      5330 8.81603E+01 8.47991E+00 3.49056E+00
 -1      5331 2.75805E+01 8.62085E+00 3.21425E+00
 -1      5332 4.14995E+01 8.54690E+00 3.49177E+00
 -1      5333 5.12488E+01 8.48072E+00 2.80234E+00
 -1      5334 6.74558E+01 8.85206E+00 3.10054E+00
 -1      5335 7.41644E+01 8.76861E+00 3.09592E+00
 -1      5336 7.92427E+01 8.79288E+00 3.14369E+00
 -1      5337 8.09346E+01 8.61433E+00 3.10944E+00
 -1      5338 6.09912E+00 9.18856E+00 3.23985E+00
 -1      5339 2.07543E+01 8.88019E+00 3.13877E+00
 -1      5340 2.74735E+01 9.28853E+00 2.95108E+00
 -1      5341 3.42606E+01 8.62131E+00 3.10944E+00
 -1      5342 3.40599E+01 9.08375E+00 2.95964E+00
 -1      5343 5.14932E+01 9.33495E+00 2.96049E+00
 -1      5344 8.07290E+01 9.08375E+00 2.95556E+00
 -1      5345 8.20627E+01 9.04881E+00 2.94398E+00
 -1      5346 7.93416E-01 9.04881E+00 2.85605E+00
 -1      5347 4.83792E+00 9.36755E+00 2.95143E+00
 -1      5348 4.07856E+01 8.89203E+00 3.00853E+00
 -1      5349 5.41966E+01 9.22350E+00 2.72926E+00
 -1      5350 5.53463E+01 9.01388E+00 3.03747E+00
 -1      5351 1.80941E+00 9.36787E+00 3.04908E+00
 -1      5352 1.24949E+01 9.29167E+00 2.91610E+00
 -1      5353 2.08364E+01 9.50300E+00 2.98562E+00
 -1      5354 3.23499E+01 9.52518E+00 2.89618E+00
 -1      5355 3.51049E+01 9.37526E+00 3.08285E+00
 -1      5356 4.16455E+01 9.53109E+00 2.93475E+00
 -1      5357 4.48660E+01 9.37430E+00 3.04762E+00
 -1      5358 5.24062E+01 9.50165E+00 2.90871E+00
 -1      5359 6.74348E+01 9.63687E+00 3.17279E+00
 -1      5360 8.09327E+01 9.64318E+00 3.09850E+00
 -1      5361 8.16343E+01 9.52438E+00 2.97670E+00
 -1      5362 8.74558E+01 8.88844E+00 3.00652E+00
 -1      5363 8.83220E+01 9.52607E+00 2.93475E+00
 -1      5364 9.16473E+01 9.50300E+00 2.93190E+00
 -1      5365 9.25937E+01 9.08375E+00 2.93771E+00
 -1      5366 7.25410E-01 5.59000E-01 3.07450E+00
 -1      5367 1.29269E+00 3.15473E-01 3.31968E+00
 -1      5368 5.59000E+00 3.15992E-01 3.14424E+00
 -1      5369 4.84770E+00 7.51156E-01 3.22913E+00
 -1      5370 7.72880E+00 3.50929E-01 3.21671E+00
 -1      5371 1.21582E+01 3.19222E-01 3.17656E+00
 -1      5372 1.16796E+01 5.09189E-01 3.21425E+00
 -1      5373 1.49183E+01 5.33808E-01 3.72514E+00
 -1      5374 1.86390E+01 3.92642E-01 3.19018E+00
 -1      5375 2.09057E+01 3.67778E-01 3.21627E+00
 -1      5376 2.50153E+01 1.05980E+00 3.88521E+00
 -1      5377 2.80335E+01 3.00670E-01 3.54297E+00
 -1      5378 3.16883E+01 6.33655E-01 3.75298E+00
 -1      5379 3.45532E+01 2.90730E-01 3.26750E+00
 -1      5380 3.51309E+01 7.72624E-01 3.27650E+00
 -1      5381 3.88505E+01 3.12336E-01 3.14859E+00
 -1      5382 4.06257E+01 5.59000E-01 3.17980E+00
 -1      5383 4.12612E+01 3.01243E-01 3.26665E+00
 -1      5384 4.55585E+01 3.13888E-01 3.14504E+00
 -1      5385 4.72629E+01 4.19250E-01 3.31633E+00
 -1      5386 4.79638E+01 3.15193E-01 3.32005E+00
 -1      5387 5.22665E+01 3.16821E-01 3.14429E+00
 -1      5388 5.15164E+01 7.51156E-01 3.23290E+00
 -1      5389 5.53064E+01 9.43313E-01 3.13021E+00
 -1      5390 5.44035E+01 3.51204E-01 3.21544E+00
 -1      5391 5.91492E+01 3.21014E-01 3.23479E+00
 -1      5392 5.85231E+01 4.11582E-01 3.20778E+00
 -1      5393 6.15599E+01 4.63128E-01 3.76253E+00
 -1      5394 6.49267E+01 6.49455E-01 3.22993E+00
 -1      5395 7.16357E+01 9.52511E-01 3.84591E+00
 -1      5396 7.21110E+01 3.12686E-01 3.16378E+00
 -1      5397 7.26700E+01 2.92007E-01 3.36561E+00
 -1      5398 7.83648E+01 6.29191E-01 3.74688E+00
 -1      5399 8.12297E+01 2.84760E-01 3.34212E+00
 -1      5400 8.18092E+01 6.84702E-01 3.20309E+00
 -1      5401 8.55270E+01 3.12586E-01 3.14746E+00
 -1      5402 9.22350E+01 3.14457E-01 3.14463E+00
 -1      5403 9.39551E+01 8.73438E-01 3.22630E+00
 -1      5404 9.46239E+01 3.12181E-01 3.32050E+00
 -1      5405 9.88033E+01 2.92407E-01 3.33255E+00
 -1      5406 9.82862E+01 5.59000E-01 3.21425E+00
 -1      5407 6.05089E-01 1.04813E+00 3.24981E+00
 -1      5408 1.97175E+00 9.71134E-01 3.15897E+00
 -1      5409 7.24858E+00 9.50042E-01 3.24848E+00
 -1      5410 8.63603E+00 9.43313E-01 3.14020E+00
 -1      5411 1.14330E+01 9.78250E-01 3.28345E+00
 -1      5412 1.52904E+01 1.11800E+00 3.21836E+00
 -1      5413 1.81318E+01 9.78250E-01 3.33270E+00
 -1      5414 2.60034E+01 9.92232E-01 3.11707E+00
 -1      5415 2.59935E+01 1.66441E-01 3.53706E+00
 -1      5416 2.84481E+01 9.43313E-01 3.47942E+00
 -1      5417 4.18083E+01 6.89817E-01 3.26382E+00
 -1      5418 4.49213E+01 9.14601E-01 3.73577E+00
 -1      5419 4.61408E+01 8.38500E-01 3.24721E+00
 -1      5420 4.72620E+01 1.01319E+00 3.23211E+00
 -1      5421 4.86446E+01 9.74594E-01 3.15242E+00
 -1      5422 5.37902E+01 8.23468E-01 3.41234E+00
 -1      5423 6.59769E+01 6.98750E-01 3.05039E+00
 -1      5424 6.73150E+01 1.08358E+00 3.26944E+00
 -1      5425 6.84670E+01 9.43313E-01 3.45810E+00
 -1      5426 7.51210E+01 9.43313E-01 3.46850E+00
 -1      5427 7.96166E+01 6.33111E-01 3.49504E+00
 -1      5428 7.93752E+01 9.84907E-01 3.17197E+00
 -1      5429 8.62538E+01 6.28875E-01 3.42914E+00
 -1      5430 9.27537E+01 9.08375E-01 3.18144E+00
 -1      5431 9.53174E+01 9.78102E-01 3.14587E+00
 -1      5432 9.80471E+01 1.08306E+00 3.20100E+00
 -1      5433 1.39623E+01 1.14190E+00 3.31431E+00
 -1      5434 4.18404E+01 1.34737E+00 3.25653E+00
 -1      5435 4.58164E+01 1.37701E+00 3.21425E+00
 -1      5436 6.06339E+01 1.14421E+00 3.30785E+00
 -1      5437 8.19532E+01 1.18788E+00 3.22816E+00
 -1      5438 8.47971E+01 1.32763E+00 3.25486E+00
 -1      5439 8.60860E+01 1.15242E+00 3.49375E+00
 -1      5440 8.85921E+01 8.23934E-01 3.16799E+00
 -1      5441 8.85011E+01 1.34595E+00 3.26641E+00
 -1      5442 1.09849E+00 1.46319E+00 3.50081E+00
 -1      5443 5.39342E+00 1.44120E+00 3.63981E+00
 -1      5444 1.45480E+01 1.46738E+00 3.61542E+00
 -1      5445 2.10987E+01 1.53725E+00 3.63350E+00
 -1      5446 2.55654E+01 1.53725E+00 3.63350E+00
 -1      5447 2.78514E+01 1.47713E+00 3.57801E+00
 -1      5448 3.81411E+01 1.39750E+00 3.24778E+00
 -1      5449 3.91287E+01 1.39604E+00 3.12078E+00
 -1      5450 3.95003E+01 9.30736E-01 3.48222E+00
 -1      5451 4.49047E+01 1.49989E+00 3.21877E+00
 -1      5452 4.77529E+01 1.46391E+00 3.49344E+00
 -1      5453 5.24425E+01 1.38727E+00 3.21425E+00
 -1      5454 5.44123E+01 1.48446E+00 3.55417E+00
 -1      5455 6.13260E+01 1.46738E+00 3.59437E+00
 -1      5456 7.25755E+01 1.27037E+00 3.29205E+00
 -1      5457 7.81166E+01 1.39750E+00 3.22309E+00
 -1      5458 8.12350E+01 1.46646E+00 3.59900E+00
 -1      5459 8.57984E+01 1.38833E+00 3.07450E+00
 -1      5460 8.73793E+01 1.25038E+00 3.40185E+00
 -1      5461 9.13747E+01 1.49709E+00 3.05932E+00
 -1      5462 9.26382E+01 1.29321E+00 3.61129E+00
 -1      5463 7.73950E+00 1.48416E+00 3.54702E+00
 -1      5464 1.85830E+01 1.48835E+00 3.50181E+00
 -1      5465 2.84144E+01 1.52925E+00 3.18612E+00
 -1      5466 3.15138E+01 1.53074E+00 3.13705E+00
 -1      5467 3.86628E+01 1.25775E+00 3.77325E+00
 -1      5468 4.53104E+01 1.43354E+00 3.64474E+00
 -1      5469 6.55859E+01 1.53725E+00 3.63350E+00
 -1      5470 6.77602E+01 1.53725E+00 3.63350E+00
 -1      5471 7.19712E+01 1.45939E+00 3.77325E+00
 -1      5472 7.42781E+01 1.44748E+00 3.21425E+00
 -1      5473 7.86763E+01 1.31016E+00 3.76565E+00
 -1      5474 8.53289E+01 1.25775E+00 3.77325E+00
 -1      5475 9.19924E+01 1.48667E+00 3.53293E+00
 -1      5476 9.44921E+01 1.44852E+00 3.56326E+00
 -1      5477 9.86222E+01 1.57650E+00 3.51806E+00
 -1      5478 3.20419E+01 1.29269E+00 3.76909E+00
 -1      5479 1.25389E+00 3.44473E+00 3.56590E+00
 -1      5480 1.84506E+00 3.63183E+00 3.19317E+00
 -1      5481 5.03100E+00 3.54084E+00 3.35400E+00
 -1      5482 7.90653E+00 3.49375E+00 3.62815E+00
 -1      5483 8.36161E+00 3.35512E+00 3.07292E+00
 -1      5484 1.86520E+01 3.52606E+00 3.48960E+00
 -1      5485 2.12859E+01 3.49375E+00 3.61838E+00
 -1      5486 2.53869E+01 3.49375E+00 3.61911E+00
 -1      5487 2.80683E+01 3.43066E+00 3.48535E+00
 -1      5488 3.20777E+01 3.49375E+00 3.62348E+00
 -1      5489 4.14962E+01 3.55497E+00 3.52555E+00
 -1      5490 4.54403E+01 3.51384E+00 3.63350E+00
 -1      5491 4.46566E+01 3.77325E+00 3.13331E+00
 -1      5492 4.78976E+01 3.49969E+00 3.56687E+00
 -1      5493 5.21095E+01 3.50883E+00 3.59127E+00
 -1      5494 5.87832E+01 3.59210E+00 3.64122E+00
 -1      5495 6.12668E+01 3.49375E+00 3.62115E+00
 -1      5496 6.53671E+01 3.49375E+00 3.61722E+00
 -1      5497 6.79588E+01 3.49375E+00 3.61778E+00
 -1      5498 7.20595E+01 3.49375E+00 3.61996E+00
 -1      5499 8.52475E+01 3.35400E+00 3.10764E+00
 -1      5500 8.46657E+01 3.84313E+00 3.11541E+00
 -1      5501 8.79008E+01 3.51397E+00 3.63436E+00
 -1      5502 9.21058E+01 3.52243E+00 3.63350E+00
 -1      5503 9.13475E+01 3.77325E+00 3.16212E+00
 -1      5504 8.48172E-01 3.64392E+00 3.21425E+00
 -1      5505 2.07755E+01 3.70218E+00 3.35400E+00
 -1      5506 3.88012E+01 3.58099E+00 3.59765E+00
 -1      5507 4.85086E+01 3.70338E+00 3.29577E+00
 -1      5508 6.74811E+01 3.63581E+00 3.49541E+00
 -1      5509 7.12882E+01 3.63350E+00 3.05613E+00
 -1      5510 8.09287E+01 3.60482E+00 3.31906E+00
 -1      5511 8.54690E+01 3.58132E+00 3.59809E+00
 -1      5512 8.73584E+01 3.73361E+00 3.61035E+00
 -1      5513 8.85700E+01 3.91300E+00 3.22728E+00
 -1      5514 9.25652E+01 3.71568E+00 3.48198E+00
 -1      5515 9.40619E+01 3.76934E+00 3.31743E+00
 -1      5516 9.85998E+01 3.52777E+00 3.48992E+00
 -1      5517 7.27611E+00 4.13578E+00 3.22522E+00
 -1      5518 1.28705E+01 4.20997E+00 3.42943E+00
 -1      5519 1.39831E+01 4.11207E+00 3.16429E+00
 -1      5520 1.53200E+01 4.01781E+00 3.15565E+00
 -1      5521 2.60169E+01 4.05275E+00 3.11624E+00
 -1      5522 3.95186E+01 4.22606E+00 3.37044E+00
 -1      5523 4.61875E+01 4.20997E+00 3.39375E+00
 -1      5524 5.38285E+01 4.20454E+00 3.36696E+00
 -1      5525 5.92855E+01 3.91300E+00 3.01146E+00
 -1      5526 6.05911E+01 4.18086E+00 3.23180E+00
 -1      5527 8.60990E+01 4.12263E+00 3.25189E+00
 -1      5528 9.94535E+01 4.15756E+00 3.27614E+00
 -1      5529 4.84863E+00 4.34182E+00 3.12573E+00
 -1      5530 2.85801E+01 4.12263E+00 3.22477E+00
 -1      5531 6.85520E+01 4.14009E+00 3.26587E+00
 -1      5532 7.95189E+01 4.08779E+00 3.48498E+00
 -1      5533 9.39648E+01 4.40213E+00 3.16888E+00
 -1      5534 9.51974E+01 3.70338E+00 3.26387E+00
 -1      5535 6.27318E-01 4.40213E+00 3.17372E+00
 -1      5536 5.59000E+00 4.71059E+00 3.15319E+00
 -1      5537 8.37011E+00 4.47416E+00 3.19101E+00
 -1      5538 1.15349E+01 4.34830E+00 3.20791E+00
 -1      5539 1.82780E+01 4.39689E+00 3.28901E+00
 -1      5540 3.19807E+01 4.69732E+00 3.30719E+00
 -1      5541 3.39564E+01 4.48556E+00 3.26931E+00
 -1      5542 3.47704E+01 4.62627E+00 3.26397E+00
 -1      5543 3.52361E+01 4.05275E+00 3.27645E+00
 -1      5544 3.88000E+01 4.71251E+00 3.20040E+00
 -1      5545 4.06460E+01 4.49150E+00 3.25701E+00
 -1      5546 4.17948E+01 4.31033E+00 3.22421E+00
 -1      5547 4.55585E+01 4.71270E+00 3.15452E+00
 -1      5548 4.72961E+01 4.40213E+00 3.17129E+00
 -1      5549 5.15180E+01 4.34341E+00 3.12862E+00
 -1      5550 5.22665E+01 4.70976E+00 3.15309E+00
 -1      5551 5.48519E+01 4.61342E+00 3.77325E+00
 -1      5552 5.81570E+01 4.21003E+00 3.21514E+00
 -1      5553 7.28623E+01 4.53747E+00 3.46613E+00
 -1      5554 8.06654E+01 4.49057E+00 3.25911E+00
 -1      5555 8.73189E+01 4.49341E+00 3.25378E+00
 -1      5556 9.90827E+01 4.59042E+00 3.08740E+00
 -1      5557 1.18788E+00 4.71970E+00 3.18476E+00
 -1      5558 1.21582E+01 4.72777E+00 3.26380E+00
 -1      5559 2.53148E+01 4.72860E+00 3.54176E+00
 -1      5560 2.62430E+01 4.43534E+00 3.51246E+00
 -1      5561 2.82605E+01 4.55512E+00 3.21425E+00
 -1      5562 2.77054E+01 4.73903E+00 3.26564E+00
 -1      5563 4.12612E+01 4.72821E+00 3.33880E+00
 -1      5564 4.79692E+01 4.71147E+00 3.33948E+00
 -1      5565 5.88347E+01 4.72820E+00 3.25568E+00
 -1      5566 5.93917E+01 4.47200E+00 3.20542E+00
 -1      5567 6.52479E+01 4.64643E+00 3.38344E+00
 -1      5568 6.59620E+01 4.74875E+00 3.35685E+00
 -1      5569 6.81312E+01 4.60303E+00 3.34716E+00
 -1      5570 7.49346E+01 4.55048E+00 3.21425E+00
 -1      5571 7.43819E+01 4.73925E+00 3.26616E+00
 -1      5572 7.87250E+01 4.71221E+00 3.25926E+00
 -1      5573 8.12996E+01 4.73086E+00 3.38509E+00
 -1      5574 8.54754E+01 4.71326E+00 3.20007E+00
 -1      5575 8.79377E+01 4.72446E+00 3.33890E+00
 -1      5576 9.45409E+01 4.71764E+00 3.18577E+00
 -1      5577 6.00711E-01 5.86950E+00 3.24958E+00
 -1      5578 1.11800E+00 5.29041E+00 3.24500E+00
 -1      5579 5.59000E+00 5.34256E+00 3.13536E+00
 -1      5580 4.84267E+00 5.78216E+00 3.23017E+00
 -1      5581 1.27256E+01 5.43807E+00 3.33252E+00
 -1      5582 1.49183E+01 5.55905E+00 3.72490E+00
 -1      5583 2.59935E+01 5.86950E+00 3.00990E+00
 -1      5584 2.52473E+01 5.42405E+00 3.21944E+00
 -1      5585 2.75308E+01 5.23202E+00 3.42388E+00
 -1      5586 3.21425E+01 5.33868E+00 3.14447E+00
 -1      5587 3.16883E+01 5.66063E+00 3.75298E+00
 -1      5588 3.39151E+01 5.81709E+00 3.27382E+00
 -1      5589 3.45220E+01 5.30457E+00 3.28050E+00
 -1      5590 3.51328E+01 5.80101E+00 3.27727E+00
 -1      5591 4.06065E+01 5.81709E+00 3.21731E+00
 -1      5592 4.12262E+01 5.30519E+00 3.29932E+00
 -1      5593 4.71609E+01 5.52013E+00 3.38122E+00
 -1      5594 4.79342E+01 5.31519E+00 3.36951E+00
 -1      5595 5.22665E+01 5.34338E+00 3.13557E+00
 -1      5596 5.16104E+01 5.59000E+00 3.21425E+00
 -1      5597 5.28476E+01 5.86950E+00 3.31599E+00
 -1      5598 5.38210E+01 5.49325E+00 3.43724E+00
 -1      5599 5.46260E+01 5.33628E+00 3.23083E+00
 -1      5600 5.90444E+01 5.38857E+00 3.17802E+00
 -1      5601 5.83467E+01 5.53237E+00 3.21425E+00
 -1      5602 6.16492E+01 5.67825E+00 3.72697E+00
 -1      5603 6.55428E+01 5.34753E+00 3.15400E+00
 -1      5604 6.59787E+01 5.72975E+00 3.04858E+00
 -1      5605 6.80199E+01 5.33373E+00 3.50462E+00
 -1      5606 7.20037E+01 5.35255E+00 3.28787E+00
 -1      5607 7.20020E+01 6.34116E+00 3.76119E+00
 -1      5608 7.26700E+01 5.31777E+00 3.36062E+00
 -1      5609 7.42073E+01 5.23049E+00 3.42388E+00
 -1      5610 7.88190E+01 5.33862E+00 3.14267E+00
 -1      5611 8.05855E+01 5.81709E+00 3.26864E+00
 -1      5612 8.11966E+01 5.30478E+00 3.28231E+00
 -1      5613 8.17925E+01 5.69170E+00 3.20411E+00
 -1      5614 8.79028E+01 5.30785E+00 3.29934E+00
 -1      5615 9.38641E+01 5.52013E+00 3.34554E+00
 -1      5616 9.45986E+01 5.31460E+00 3.36969E+00
 -1      5617 9.88033E+01 5.34574E+00 3.17221E+00
 -1      5618 9.82066E+01 5.75917E+00 3.23762E+00
 -1      5619 9.93755E+01 5.42941E+00 3.32516E+00
 -1      5620 1.97232E+00 6.00032E+00 3.16012E+00
 -1      5621 7.59640E+00 5.41338E+00 3.16197E+00
 -1      5622 7.09217E+00 5.76469E+00 3.42233E+00
 -1      5623 8.63755E+00 5.97431E+00 3.14459E+00
 -1      5624 1.14871E+01 5.85598E+00 3.24689E+00
 -1      5625 1.39590E+01 6.10096E+00 3.29625E+00
 -1      5626 1.52605E+01 6.25381E+00 3.21661E+00
 -1      5627 2.84347E+01 5.97431E+00 3.49617E+00
 -1      5628 3.26984E+01 6.16326E+00 3.25403E+00
 -1      5629 4.47908E+01 6.21887E+00 3.26918E+00
 -1      5630 4.55585E+01 5.34046E+00 3.13562E+00
 -1      5631 4.61482E+01 5.72975E+00 3.27607E+00
 -1      5632 6.06318E+01 6.10325E+00 3.28932E+00
 -1      5633 7.26700E+01 5.86950E+00 3.02433E+00
 -1      5634 7.51201E+01 5.97431E+00 3.47086E+00
 -1      5635 8.47129E+01 6.07913E+00 3.18545E+00
 -1      5636 8.62594E+01 5.72975E+00 3.47429E+00
 -1      5637 9.16092E+01 5.59000E+00 3.21425E+00
 -1      5638 9.14626E+01 6.21887E+00 3.27642E+00
 -1      5639 9.27523E+01 5.93937E+00 3.18187E+00
 -1      5640 9.39337E+01 6.04419E+00 3.22817E+00
 -1      5641 9.53180E+01 6.00737E+00 3.14716E+00
 -1      5642 2.06607E+01 6.17754E+00 3.21940E+00
 -1      5643 2.58984E+01 6.30170E+00 3.29012E+00
 -1      5644 3.81244E+01 6.35863E+00 3.24039E+00
 -1      5645 4.19845E+01 6.28875E+00 3.15738E+00
 -1      5646 4.55735E+01 6.49125E+00 3.50126E+00
 -1      5647 5.40821E+01 6.29267E+00 3.31102E+00
 -1      5648 7.25681E+01 6.30035E+00 3.29350E+00
 -1      5649 7.94570E+01 5.87574E+00 3.29125E+00
 -1      5650 1.21207E+00 6.42850E+00 3.63350E+00
 -1      5651 4.81509E+00 6.42850E+00 3.24409E+00
 -1      5652 5.53341E+00 6.50136E+00 3.63350E+00
 -1      5653 7.79667E+00 6.52977E+00 3.53002E+00
 -1      5654 1.46353E+01 6.56825E+00 3.61259E+00
 -1      5655 2.13570E+01 6.48091E+00 3.57917E+00
 -1      5656 3.14451E+01 6.55937E+00 3.06090E+00
 -1      5657 3.44410E+01 6.45142E+00 3.63350E+00
 -1      5658 3.86920E+01 6.28875E+00 3.77325E+00
 -1      5659 4.11409E+01 6.52218E+00 3.63350E+00
 -1      5660 4.78839E+01 6.42850E+00 3.63350E+00
 -1      5661 5.14646E+01 6.21887E+00 3.28327E+00
 -1      5662 5.90261E+01 6.46302E+00 3.24919E+00
 -1      5663 6.13012E+01 6.56825E+00 3.61115E+00
 -1      5664 7.81167E+01 6.42850E+00 3.21705E+00
 -1      5665 8.11160E+01 6.46507E+00 3.63350E+00
 -1      5666 8.53603E+01 6.28875E+00 3.77325E+00
 -1      5667 8.86228E+01 6.52659E+00 3.05586E+00
 -1      5668 9.20155E+01 6.49161E+00 3.64638E+00
 -1      5669 9.44180E+01 6.49342E+00 3.49292E+00
 -1      5670 1.18787E+01 6.70310E+00 3.04716E+00
 -1      5671 1.88443E+01 6.56825E+00 3.63350E+00
 -1      5672 2.84120E+01 6.55802E+00 3.18094E+00
 -1      5673 4.82836E+01 6.58876E+00 3.20975E+00
 -1      5674 5.22078E+01 6.48359E+00 3.63350E+00
 -1      5675 5.44452E+01 6.56825E+00 3.63350E+00
 -1      5676 6.55149E+01 6.56825E+00 3.63350E+00
 -1      5677 9.49601E+01 6.58529E+00 3.20994E+00
 -1      5678 2.78265E+01 6.56825E+00 3.63350E+00
 -1      5679 3.20493E+01 6.32369E+00 3.77325E+00
 -1      5680 6.15329E+01 6.69099E+00 3.10397E+00
 -1      5681 6.80393E+01 6.49837E+00 3.57605E+00
 -1      5682 7.44983E+01 6.56825E+00 3.63350E+00
 -1      5683 7.87179E+01 6.32369E+00 3.77325E+00
 -1      5684 1.21847E+00 8.57884E+00 3.63414E+00
 -1      5685 1.85724E+00 8.66072E+00 3.18423E+00
 -1      5686 5.03100E+00 8.56354E+00 3.35400E+00
 -1      5687 7.92635E+00 8.52475E+00 3.63133E+00
 -1      5688 1.18879E+01 8.59488E+00 3.53633E+00
 -1      5689 1.46100E+01 8.52475E+00 3.62526E+00
 -1      5690 1.45340E+01 8.42381E+00 3.07450E+00
 -1      5691 2.13997E+01 8.48528E+00 3.49072E+00
 -1      5692 2.54944E+01 8.58204E+00 3.56077E+00
 -1      5693 2.80735E+01 8.45738E+00 3.48697E+00
 -1      5694 3.21425E+01 8.38500E+00 3.61952E+00
 -1      5695 3.47999E+01 8.53609E+00 3.49068E+00
 -1      5696 3.87431E+01 8.52475E+00 3.63307E+00
 -1      5697 4.49995E+01 8.58209E+00 3.35400E+00
 -1      5698 5.17075E+01 8.55826E+00 3.35400E+00
 -1      5699 5.45964E+01 8.52475E+00 3.62969E+00
 -1      5700 5.50715E+01 8.52399E+00 3.22444E+00
 -1      5701 6.12816E+01 8.52475E+00 3.62413E+00
 -1      5702 6.53266E+01 8.54890E+00 3.49045E+00
 -1      5703 6.80741E+01 8.48680E+00 3.49058E+00
 -1      5704 7.21681E+01 8.58447E+00 3.56098E+00
 -1      5705 7.47490E+01 8.45931E+00 3.48699E+00
 -1      5706 8.14743E+01 8.53848E+00 3.49086E+00
 -1      5707 8.54439E+01 8.55452E+00 3.56363E+00
 -1      5708 8.46732E+01 8.87413E+00 3.13576E+00
 -1      5709 9.16760E+01 8.57603E+00 3.35400E+00
 -1      5710 9.87879E+01 8.53880E+00 3.59287E+00
 -1      5711 1.40592E+01 8.78578E+00 3.49368E+00
 -1      5712 3.12918E+01 8.80425E+00 3.08941E+00
 -1      5713 3.92756E+01 8.63510E+00 3.68796E+00
 -1      5714 4.59619E+01 8.85666E+00 3.31429E+00
 -1      5715 4.79206E+01 8.53693E+00 3.63350E+00
 -1      5716 4.85111E+01 8.73438E+00 3.29842E+00
 -1      5717 5.91714E+01 8.77324E+00 3.07655E+00
 -1      5718 6.20075E+01 9.01388E+00 3.07584E+00
 -1      5719 9.24847E+01 8.66450E+00 3.21425E+00
 -1      5720 9.45880E+01 8.53076E+00 3.63350E+00
 -1      5721 7.41214E+00 8.79605E+00 3.37527E+00
 -1      5722 1.53181E+01 9.04881E+00 3.15529E+00
 -1      5723 1.92082E+01 8.78949E+00 3.12706E+00
 -1      5724 3.95860E+01 9.32739E+00 3.46211E+00
 -1      5725 4.72158E+01 9.08305E+00 3.29633E+00
 -1      5726 5.39658E+01 9.14683E+00 3.18599E+00
 -1      5727 6.06030E+01 9.00088E+00 3.28939E+00
 -1      5728 7.27876E+01 9.20603E+00 3.25533E+00
 -1      5729 8.60994E+01 9.08164E+00 3.25516E+00
 -1      5730 9.39528E+01 9.18499E+00 3.22353E+00
 -1      5731 9.94135E+01 9.31084E+00 3.22952E+00
 -1      5732 7.19900E+00 9.36213E+00 3.29338E+00
 -1      5733 2.85773E+01 9.15363E+00 3.22429E+00
 -1      5734 3.80430E+01 9.11869E+00 3.16012E+00
 -1      5735 6.85492E+01 9.17109E+00 3.26538E+00
 -1      5736 9.14159E+01 9.08881E+00 3.23958E+00
 -1      5737 9.53350E+01 8.80425E+00 3.14482E+00
 -1      5738 1.06559E+00 9.71388E+00 3.26442E+00
 -1      5739 4.34565E-01 9.23290E+00 3.51327E+00
 -1      5740 8.23764E+00 9.06495E+00 3.88575E+00
 -1      5741 1.14889E+01 9.16113E+00 3.24548E+00
 -1      5742 1.46986E+01 9.68089E+00 3.20586E+00
 -1      5743 1.85287E+01 9.62553E+00 3.24824E+00
 -1      5744 2.81444E+01 9.63167E+00 3.37195E+00
 -1      5745 3.17931E+01 9.61729E+00 3.77325E+00
 -1      5746 3.39920E+01 9.51501E+00 3.26364E+00
 -1      5747 4.06465E+01 9.52052E+00 3.25983E+00
 -1      5748 4.19119E+01 9.15363E+00 3.23168E+00
 -1      5749 4.56649E+01 9.68465E+00 3.19333E+00
 -1      5750 4.75657E+01 9.66747E+00 3.20812E+00
 -1      5751 5.27868E+01 9.13616E+00 3.31393E+00
 -1      5752 5.82026E+01 9.37972E+00 3.14000E+00
 -1      5753 6.08133E+01 9.50300E+00 3.00585E+00
 -1      5754 6.13503E+01 9.69058E+00 3.13674E+00
 -1      5755 7.28098E+01 9.77119E+00 3.50067E+00
 -1      5756 7.49666E+01 9.55193E+00 3.21425E+00
 -1      5757 7.84696E+01 9.62590E+00 3.77325E+00
 -1      5758 8.62834E+01 9.50300E+00 3.48268E+00
 -1      5759 8.77106E+01 9.71433E+00 3.26661E+00
 -1      5760 8.85823E+01 9.15363E+00 3.22399E+00
 -1      5761 9.28441E+01 9.36325E+00 3.32052E+00
 -1      5762 9.81940E+01 9.37495E+00 3.13037E+00
 -1      5763 5.46381E+00 9.73591E+00 3.20124E+00
 -1      5764 7.89587E+00 9.73860E+00 3.19258E+00
 -1      5765 1.20183E+01 9.78487E+00 3.59074E+00
 -1      5766 2.13665E+01 9.69407E+00 3.30959E+00
 -1      5767 2.52858E+01 9.70800E+00 3.31333E+00
 -1      5768 2.61922E+01 9.70792E+00 3.50318E+00
 -1      5769 3.46231E+01 9.75784E+00 3.39167E+00
 -1      5770 4.12612E+01 9.75083E+00 3.34109E+00
 -1      5771 5.47350E+01 9.66886E+00 3.27378E+00
 -1      5772 5.86924E+01 9.78876E+00 3.58162E+00
 -1      5773 6.52530E+01 9.67320E+00 3.38670E+00
 -1      5774 6.60962E+01 9.67375E+00 3.42460E+00
 -1      5775 6.81289E+01 9.62952E+00 3.35034E+00
 -1      5776 7.44343E+01 9.77701E+00 3.35149E+00
 -1      5777 9.21116E+01 9.73360E+00 3.20152E+00
 -1      5778 9.45409E+01 9.74126E+00 3.19081E+00
 -1      5779 1.37920E+01 4.94584E-01 3.47211E+00
 -1      5780 6.04660E+01 4.93493E-01 3.46461E+00
 -1      5781 4.59946E-01 1.89589E-01 3.63725E+00
 -1      5782 3.24023E-01 7.51156E-01 3.65490E+00
 -1      5783 5.17075E+00 4.08005E-01 3.91300E+00
 -1      5784 7.05724E+00 4.61190E-01 3.61439E+00
 -1      5785 1.27585E+01 4.13601E-01 3.37018E+00
 -1      5786 1.92855E+01 4.06374E-02 3.71134E+00
 -1      5787 1.95866E+01 7.91215E-01 3.51241E+00
 -1      5788 2.74958E+01 1.40754E-01 3.53277E+00
 -1      5789 2.71022E+01 9.06367E-01 3.61651E+00
 -1      5790 3.25617E+01 4.49917E-02 3.73434E+00
 -1      5791 3.32605E+01 4.19250E-01 3.96606E+00
 -1      5792 3.83963E+01 6.15434E-01 3.70764E+00
 -1      5793 4.51393E+01 4.24239E-01 3.91300E+00
 -1      5794 5.19870E+01 3.03275E-01 3.91300E+00
 -1      5795 5.37385E+01 1.14964E-01 3.76386E+00
 -1      5796 6.59620E+01 4.14818E-02 3.71127E+00
 -1      5797 6.62582E+01 7.89387E-01 3.51816E+00
 -1      5798 7.41723E+01 1.39852E-01 3.53295E+00
 -1      5799 7.37717E+01 9.06870E-01 3.61269E+00
 -1      5800 7.89588E+01 1.00310E-01 3.69138E+00
 -1      5801 8.51078E+01 4.42938E-01 3.91300E+00
 -1      5802 8.80425E+01 2.94274E-01 3.49375E+00
 -1      5803 9.18158E+01 4.18896E-01 3.91300E+00
 -1      5804 9.38117E+01 1.86905E-01 3.62603E+00
 -1      5805 9.92225E+01 3.71309E-02 3.71540E+00
 -1      5806 2.03755E+01 4.89125E-01 3.56645E+00
 -1      5807 2.62939E+01 7.13454E-01 3.52383E+00
 -1      5808 3.27008E+01 1.13423E+00 3.25083E+00
 -1      5809 3.28761E+01 1.12431E+00 3.84205E+00
 -1      5810 5.25460E+01 3.68661E-02 3.71667E+00
 -1      5811 5.81323E+01 9.78250E-01 3.35725E+00
 -1      5812 5.95191E+01 7.68689E-01 3.35379E+00
 -1      5813 6.70460E+01 4.89125E-01 3.56203E+00
 -1      5814 7.29643E+01 7.11502E-01 3.52798E+00
 -1      5815 2.05707E+01 1.21694E+00 3.71959E+00
 -1      5816 2.16613E+01 1.05276E+00 3.88802E+00
 -1      5817 2.30937E+01 7.70330E-01 3.51704E+00
 -1      5818 2.30845E+01 1.27350E+00 3.34140E+00
 -1      5819 2.35624E+01 1.48473E+00 3.46822E+00
 -1      5820 2.98017E+01 7.71413E-01 3.51520E+00
 -1      5821 2.97824E+01 1.27565E+00 3.33345E+00
 -1      5822 3.05164E+01 1.26373E+00 3.45747E+00
 -1      5823 3.64904E+01 6.26454E-01 3.81581E+00
 -1      5824 3.63397E+01 1.26738E+00 3.37656E+00
 -1      5825 3.69860E+01 1.25775E+00 3.35876E+00
 -1      5826 4.96698E+01 1.25775E+00 3.35566E+00
 -1      5827 5.02535E+01 1.22281E+00 3.33525E+00
 -1      5828 4.98209E+01 7.40697E-01 3.57537E+00
 -1      5829 6.97702E+01 7.70563E-01 3.51656E+00
 -1      5830 6.97587E+01 1.27409E+00 3.33939E+00
 -1      5831 7.02365E+01 1.48351E+00 3.46931E+00
 -1      5832 8.31831E+01 6.27981E-01 3.81257E+00
 -1      5833 8.29064E+01 1.10053E+00 3.40592E+00
 -1      5834 8.37200E+01 1.44282E+00 3.49764E+00
 -1      5835 8.98593E+01 7.20074E-01 3.58859E+00
 -1      5836 8.97120E+01 1.23274E+00 3.37312E+00
 -1      5837 9.03962E+01 1.41650E+00 3.47861E+00
 -1      5838 1.71246E+00 1.41250E+00 3.37104E+00
 -1      5839 1.19347E+01 1.47157E+00 3.57133E+00
 -1      5840 1.67977E+01 1.64287E+00 3.52223E+00
 -1      5841 1.74654E+01 1.10053E+00 3.55946E+00
 -1      5842 1.64108E+01 1.12439E+00 3.37263E+00
 -1      5843 3.47032E+01 1.49370E+00 3.55505E+00
 -1      5844 5.49567E+01 6.23895E-01 3.73691E+00
 -1      5845 5.86087E+01 1.47146E+00 3.57346E+00
 -1      5846 7.69620E+01 1.26883E+00 3.35501E+00
 -1      5847 7.64484E+01 1.06402E+00 3.34752E+00
 -1      5848 7.65533E+01 1.67176E+00 3.61158E+00
 -1      5849 8.38500E+00 8.38500E-01 3.67696E+00
 -1      5850 4.11890E+01 1.49669E+00 3.63350E+00
 -1      5851 4.98907E+01 1.73491E+00 3.61003E+00
 -1      5852 7.46547E+01 1.55972E+00 3.57225E+00
 -1      5853 8.32910E+01 1.73351E+00 3.64511E+00
 -1      5854 8.78568E+01 1.50934E+00 3.63350E+00
 -1      5855 5.20948E+01 2.54865E+00 3.49534E+00
 -1      5856 5.18473E+01 2.08966E+00 3.42535E+00
 -1      5857 5.14586E+01 2.45674E+00 3.35237E+00
 -1      5858 5.47252E+01 2.72589E+00 3.42631E+00
 -1      5859 5.54278E+01 2.51550E+00 3.55913E+00
 -1      5860 5.49386E+01 2.23285E+00 3.35134E+00
 -1      5861 6.52496E+01 2.65525E+00 3.35302E+00
 -1      5862 6.49837E+01 2.05768E+00 3.45987E+00
 -1      5863 6.47063E+01 2.81133E+00 3.54821E+00
 -1      5864 6.78027E+01 2.65525E+00 3.60211E+00
 -1      5865 6.86858E+01 2.60396E+00 3.54146E+00
 -1      5866 6.80332E+01 2.23600E+00 3.39663E+00
 -1      5867 1.49961E+01 2.30588E+00 3.35182E+00
 -1      5868 1.46250E+01 2.72616E+00 3.43631E+00
 -1      5869 1.51952E+01 3.14626E+00 3.78123E+00
 -1      5870 3.79744E+01 2.37464E+00 3.44712E+00
 -1      5871 3.80602E+01 2.87776E+00 3.55404E+00
 -1      5872 3.85024E+01 2.47383E+00 3.33637E+00
 -1      5873 7.17267E+01 2.12637E+00 3.42662E+00
 -1      5874 7.14938E+01 2.65525E+00 3.33495E+00
 -1      5875 7.22054E+01 2.62031E+00 3.56139E+00
 -1      5876 5.46938E+00 3.51713E+00 3.62667E+00
 -1      5877 9.68800E+00 3.77325E+00 3.35523E+00
 -1      5878 1.01949E+01 3.86167E+00 3.34924E+00
 -1      5879 9.77412E+00 3.33301E+00 3.65634E+00
 -1      5880 1.62370E+01 3.63234E+00 3.48481E+00
 -1      5881 1.68919E+01 3.77325E+00 3.32622E+00
 -1      5882 1.67001E+01 3.28749E+00 3.66081E+00
 -1      5883 1.81126E+01 3.91300E+00 3.35400E+00
 -1      5884 2.48276E+01 3.91300E+00 3.42027E+00
 -1      5885 2.97550E+01 3.30364E+00 3.81397E+00
 -1      5886 2.95823E+01 3.79072E+00 3.41939E+00
 -1      5887 3.03241E+01 3.55063E+00 3.48277E+00
 -1      5888 3.47075E+01 3.46659E+00 3.55561E+00
 -1      5889 3.39574E+01 3.78476E+00 3.66103E+00
 -1      5890 3.66145E+01 3.29077E+00 3.64405E+00
 -1      5891 3.62307E+01 3.86059E+00 3.39408E+00
 -1      5892 3.70211E+01 3.80819E+00 3.38004E+00
 -1      5893 5.63622E+01 3.77325E+00 3.35236E+00
 -1      5894 5.68686E+01 3.86143E+00 3.35063E+00
 -1      5895 5.66686E+01 3.27406E+00 3.67940E+00
 -1      5896 6.60067E+01 3.80135E+00 3.49375E+00
 -1      5897 7.47433E+01 3.43258E+00 3.48533E+00
 -1      5898 7.87496E+01 3.49375E+00 3.62482E+00
 -1      5899 8.13806E+01 3.46778E+00 3.55589E+00
 -1      5900 8.32910E+01 3.29000E+00 3.64390E+00
 -1      5901 8.29042E+01 3.86059E+00 3.39172E+00
 -1      5902 8.36952E+01 3.80819E+00 3.38288E+00
 -1      5903 9.45308E+01 3.58139E+00 3.59819E+00
 -1      5904 6.19330E-01 3.77958E+00 3.78289E+00
 -1      5905 1.95741E+01 4.12457E+00 3.62248E+00
 -1      5906 2.16613E+01 3.92714E+00 3.85879E+00
 -1      5907 2.71232E+01 4.33225E+00 3.37102E+00
 -1      5908 3.17389E+01 4.04443E+00 3.88771E+00
 -1      5909 4.71226E+01 3.95292E+00 3.74808E+00
 -1      5910 5.17101E+01 4.04136E+00 3.89974E+00
 -1      5911 5.96112E+01 4.12295E+00 3.68603E+00
 -1      5912 6.50914E+01 3.94794E+00 3.94886E+00
 -1      5913 7.37946E+01 4.33225E+00 3.36293E+00
 -1      5914 7.51946E+01 4.05275E+00 3.36700E+00
 -1      5915 7.84128E+01 4.04353E+00 3.88874E+00
 -1      5916 1.69098E+01 4.27572E+00 3.54689E+00
 -1      5917 2.04810E+01 4.53971E+00 3.47988E+00
 -1      5918 2.50851E+01 3.80687E+00 3.91369E+00
 -1      5919 3.03258E+01 4.27879E+00 3.55119E+00
 -1      5920 3.68241E+01 4.27101E+00 3.54431E+00
 -1      5921 4.37068E+01 4.23139E+00 3.52354E+00
 -1      5922 4.36879E+01 3.73831E+00 3.37390E+00
 -1      5923 4.30720E+01 3.76277E+00 3.35403E+00
 -1      5924 6.15840E+01 4.27539E+00 3.86288E+00
 -1      5925 6.35863E+01 4.27616E+00 3.54733E+00
 -1      5926 6.35660E+01 3.75523E+00 3.33704E+00
 -1      5927 6.29111E+01 3.63107E+00 3.48220E+00
 -1      5928 6.63250E+01 4.32448E+00 3.57530E+00
 -1      5929 6.70756E+01 4.24277E+00 3.51527E+00
 -1      5930 8.35006E+01 4.27086E+00 3.54475E+00
 -1      5931 9.29506E+01 4.33225E+00 3.49819E+00
 -1      5932 9.51723E+01 4.02916E+00 3.76155E+00
 -1      5933 1.48834E+01 4.58537E+00 3.77325E+00
 -1      5934 3.29600E+01 4.29731E+00 3.51790E+00
 -1      5935 4.83727E+01 4.13596E+00 3.77325E+00
 -1      5936 7.17138E+01 4.30975E+00 3.80429E+00
 -1      5937 8.81823E+01 4.60501E+00 3.91300E+00
 -1      5938 1.70354E+00 4.14153E+00 3.77325E+00
 -1      5939 4.93774E+00 4.16439E+00 3.80615E+00
 -1      5940 8.17537E+00 4.62189E+00 3.77325E+00
 -1      5941 7.05800E+00 4.54152E+00 3.57974E+00
 -1      5942 1.38475E+01 4.53724E+00 3.45210E+00
 -1      5943 3.25340E+01 4.75893E+00 3.33718E+00
 -1      5944 4.49133E+01 4.35063E+00 3.77670E+00
 -1      5945 4.59498E+01 5.03100E+00 3.82827E+00
 -1      5946 5.18312E+01 4.71121E+00 3.76250E+00
 -1      5947 5.40982E+01 5.03100E+00 3.82812E+00
 -1      5948 5.45025E+01 4.77395E+00 3.30188E+00
 -1      5949 6.05054E+01 4.67083E+00 3.47763E+00
 -1      5950 6.75171E+01 5.03100E+00 3.91606E+00
 -1      5951 7.99370E+01 4.61175E+00 3.98167E+00
 -1      5952 8.59252E+01 5.03100E+00 3.82709E+00
 -1      5953 9.15872E+01 4.34928E+00 3.77624E+00
 -1      5954 9.86635E+01 4.75666E+00 3.52739E+00
 -1      5955 9.92855E+01 5.03100E+00 3.92131E+00
 -1      5956 5.18473E+01 5.44833E+00 3.84313E+00
 -1      5957 9.18158E+01 5.44159E+00 3.91300E+00
 -1      5958 9.26912E+01 5.39292E+00 3.34658E+00
 -1      5959 3.60023E-01 5.45025E+00 3.58932E+00
 -1      5960 1.54994E+00 6.03113E+00 3.84313E+00
 -1      5961 5.15905E+00 5.49245E+00 3.86475E+00
 -1      5962 7.42373E+00 5.03100E+00 3.82753E+00
 -1      5963 8.28019E+00 5.64636E+00 3.72406E+00
 -1      5964 2.59935E+01 5.31384E+00 3.35711E+00
 -1      5965 2.62937E+01 5.74345E+00 3.52427E+00
 -1      5966 2.70308E+01 5.72975E+00 3.52391E+00
 -1      5967 3.32605E+01 5.45025E+00 3.96676E+00
 -1      5968 3.85011E+01 5.41476E+00 3.77325E+00
 -1      5969 3.92407E+01 5.30447E+00 3.33607E+00
 -1      5970 4.51393E+01 5.44701E+00 3.91300E+00
 -1      5971 5.49567E+01 5.65069E+00 3.73642E+00
 -1      5972 6.60770E+01 5.29893E+00 3.44650E+00
 -1      5973 6.62564E+01 5.81929E+00 3.51811E+00
 -1      5974 6.85080E+01 6.00925E+00 3.40168E+00
 -1      5975 7.37010E+01 5.72975E+00 3.51770E+00
 -1      5976 1.37919E+01 5.52430E+00 3.46992E+00
 -1      5977 1.82751E+01 5.59000E+00 3.73127E+00
 -1      5978 2.49535E+01 6.02753E+00 3.84889E+00
 -1      5979 3.28663E+01 6.16061E+00 3.84316E+00
 -1      5980 4.71088E+01 6.07722E+00 3.71296E+00
 -1      5981 5.81318E+01 6.00925E+00 3.35855E+00
 -1      5982 5.95339E+01 5.75924E+00 3.35313E+00
 -1      5983 6.04659E+01 5.52320E+00 3.46233E+00
 -1      5984 6.70361E+01 5.72975E+00 3.51589E+00
 -1      5985 7.29641E+01 5.74153E+00 3.52847E+00
 -1      5986 8.51078E+01 5.46600E+00 3.91300E+00
 -1      5987 2.99408E+00 6.25381E+00 3.36870E+00
 -1      5988 3.63692E+00 6.26315E+00 3.37788E+00
 -1      5989 3.21425E+00 5.74331E+00 3.58636E+00
 -1      5990 1.95778E+01 5.85602E+00 3.51229E+00
 -1      5991 2.03670E+01 5.72975E+00 3.52008E+00
 -1      5992 2.30937E+01 5.79799E+00 3.51254E+00
 -1      5993 2.30848E+01 6.30351E+00 3.34156E+00
 -1      5994 2.35603E+01 6.51297E+00 3.46960E+00
 -1      5995 2.72582E+01 6.24598E+00 3.71265E+00
 -1      5996 4.32470E+01 5.66639E+00 3.78510E+00
 -1      5997 4.29351E+01 6.16647E+00 3.39893E+00
 -1      5998 4.37198E+01 6.44729E+00 3.47741E+00
 -1      5999 4.95995E+01 5.98573E+00 3.44593E+00
 -1      6000 4.99606E+01 6.50058E+00 3.35487E+00
 -1      6001 4.98946E+01 5.59547E+00 3.96541E+00
 -1      6002 5.04503E+01 6.14900E+00 3.41285E+00
 -1      6003 5.94018E+01 6.33612E+00 3.79153E+00
 -1      6004 6.72899E+01 6.21563E+00 3.49375E+00
 -1      6005 6.97702E+01 5.79822E+00 3.51199E+00
 -1      6006 6.97590E+01 6.30408E+00 3.33953E+00
 -1      6007 7.03487E+01 6.08587E+00 3.40816E+00
 -1      6008 7.39290E+01 6.24805E+00 3.71089E+00
 -1      6009 1.17287E+01 6.16656E+00 3.89074E+00
 -1      6010 5.85361E+01 6.33891E+00 3.81060E+00
 -1      6011 6.34697E+01 6.66904E+00 3.52543E+00
 -1      6012 6.41408E+01 6.11406E+00 3.57037E+00
 -1      6013 6.31101E+01 6.16163E+00 3.36078E+00
 -1      6014 7.83648E+01 5.65606E+00 3.74672E+00
 -1      6015 8.62146E+01 6.27959E+00 3.97858E+00
 -1      6016 9.68446E+01 6.21887E+00 3.31428E+00
 -1      6017 9.63162E+01 6.05572E+00 3.43259E+00
 -1      6018 9.66022E+01 6.72458E+00 3.60194E+00
 -1      6019 9.83543E+01 6.39814E+00 3.45048E+00
 -1      6020 1.21272E+01 6.43313E+00 3.63484E+00
 -1      6021 2.53817E+01 6.53331E+00 3.60787E+00
 -1      6022 4.31827E+01 6.74819E+00 3.61115E+00
 -1      6023 8.50563E+01 6.57148E+00 3.19073E+00
 -1      6024 8.98593E+01 6.75084E+00 3.61113E+00
 -1      6025 9.03467E+01 6.39402E+00 3.43444E+00
 -1      6026 8.97115E+01 5.91182E+00 3.49495E+00
 -1      6027 9.88823E+01 6.46802E+00 3.63350E+00
 -1      6028 1.84186E+00 7.87983E+00 3.46745E+00
 -1      6029 1.82259E+00 7.13369E+00 3.48251E+00
 -1      6030 1.35677E+00 7.54325E+00 3.40530E+00
 -1      6031 8.48636E+00 7.11500E+00 3.48709E+00
 -1      6032 7.92551E+00 7.54768E+00 3.45760E+00
 -1      6033 8.43466E+00 7.83469E+00 3.43039E+00
 -1      6034 1.52418E+01 7.15509E+00 3.53962E+00
 -1      6035 1.46619E+01 7.26700E+00 3.41204E+00
 -1      6036 1.49564E+01 7.72342E+00 3.32498E+00
 -1      6037 1.54254E+01 7.70062E+00 3.57320E+00
 -1      6038 2.11286E+01 7.68625E+00 3.60712E+00
 -1      6039 2.20048E+01 7.63458E+00 3.53337E+00
 -1      6040 2.13558E+01 7.26700E+00 3.39896E+00
 -1      6041 3.15153E+01 7.81649E+00 3.45338E+00
 -1      6042 3.17229E+01 7.08467E+00 3.44221E+00
 -1      6043 3.12387E+01 7.20525E+00 3.88422E+00
 -1      6044 3.79069E+01 7.54599E+00 3.62687E+00
 -1      6045 3.82915E+01 7.97303E+00 3.43813E+00
 -1      6046 3.85054E+01 7.50218E+00 3.33631E+00
 -1      6047 5.47230E+00 8.54668E+00 3.62887E+00
 -1      6048 1.87980E+01 8.57245E+00 3.56026E+00
 -1      6049 2.50153E+01 9.01433E+00 3.88993E+00
 -1      6050 2.97883E+01 8.32502E+00 3.81818E+00
 -1      6051 2.95822E+01 8.82172E+00 3.41817E+00
 -1      6052 3.03409E+01 8.79044E+00 3.36928E+00
 -1      6053 5.21450E+01 8.54970E+00 3.62829E+00
 -1      6054 6.97702E+01 8.37684E+00 3.56416E+00
 -1      6055 6.97932E+01 8.83919E+00 3.33260E+00
 -1      6056 7.03209E+01 8.78782E+00 3.36309E+00
 -1      6057 7.87323E+01 8.52475E+00 3.62788E+00
 -1      6058 9.81061E+01 8.80425E+00 3.29058E+00
 -1      6059 5.03210E+00 8.87409E+00 4.04363E+00
 -1      6060 1.27763E+01 8.87540E+00 3.67720E+00
 -1      6061 1.84039E+01 8.94400E+00 3.96393E+00
 -1      6062 2.61928E+01 9.06441E+00 3.50966E+00
 -1      6063 2.70848E+01 9.15363E+00 3.65092E+00
 -1      6064 3.18224E+01 8.85791E+00 3.84941E+00
 -1      6065 5.49129E+01 9.07044E+00 3.88718E+00
 -1      6066 5.82672E+01 9.36644E+00 3.82720E+00
 -1      6067 5.94387E+01 8.88275E+00 3.66033E+00
 -1      6068 5.88532E+01 8.49252E+00 3.62024E+00
 -1      6069 6.50932E+01 8.97894E+00 3.94898E+00
 -1      6070 6.60570E+01 8.83017E+00 3.62254E+00
 -1      6071 7.17616E+01 9.00300E+00 3.87197E+00
 -1      6072 7.51941E+01 9.08375E+00 3.36563E+00
 -1      6073 7.83997E+01 8.93392E+00 3.96215E+00
 -1      6074 8.18068E+01 9.22350E+00 3.70348E+00
 -1      6075 9.28198E+01 8.91073E+00 3.71719E+00
 -1      6076 1.29574E+01 9.43313E+00 3.50843E+00
 -1      6077 1.37798E+01 9.56778E+00 3.51373E+00
 -1      6078 1.69098E+01 9.30235E+00 3.55045E+00
 -1      6079 1.68921E+01 8.71477E+00 3.35427E+00
 -1      6080 1.63748E+01 8.57713E+00 3.47108E+00
 -1      6081 1.95334E+01 9.57166E+00 3.49878E+00
 -1      6082 2.16613E+01 8.95195E+00 3.86171E+00
 -1      6083 3.03258E+01 9.30540E+00 3.55436E+00
 -1      6084 5.96275E+01 9.43313E+00 3.51349E+00
 -1      6085 6.15841E+01 9.29039E+00 3.86433E+00
 -1      6086 6.35863E+01 9.30278E+00 3.55084E+00
 -1      6087 6.35661E+01 8.71528E+00 3.35619E+00
 -1      6088 6.30489E+01 8.57542E+00 3.46941E+00
 -1      6089 7.02943E+01 9.30440E+00 3.55271E+00
 -1      6090 7.37542E+01 9.15363E+00 3.64624E+00
 -1      6091 7.70023E+01 9.30567E+00 3.55491E+00
 -1      6092 7.69972E+01 8.79136E+00 3.36589E+00
 -1      6093 7.63492E+01 8.74160E+00 3.38250E+00
 -1      6094 7.96412E+01 9.32831E+00 3.53784E+00
 -1      6095 8.70370E+01 9.36325E+00 3.52391E+00
 -1      6096 8.73008E+01 8.81115E+00 3.70861E+00
 -1      6097 9.47534E+01 8.94400E+00 3.92502E+00
 -1      6098 2.04041E+01 9.27463E+00 3.51910E+00
 -1      6099 3.29708E+01 9.32831E+00 3.53134E+00
 -1      6100 4.16758E+01 9.15557E+00 3.80506E+00
 -1      6101 4.63328E+01 9.36325E+00 3.59304E+00
 -1      6102 6.04517E+01 9.56674E+00 3.50880E+00
 -1      6103 6.70744E+01 9.27267E+00 3.51506E+00
 -1      6104 8.04225E+01 9.14475E+00 3.66002E+00
 -1      6105 8.81823E+01 9.62801E+00 3.91300E+00
 -1      6106 9.48903E+01 9.60482E+00 3.91300E+00
 -1      6107 1.53725E+00 9.61634E+00 3.91300E+00
 -1      6108 7.27494E+00 9.89443E+00 3.65012E+00
 -1      6109 1.45077E+01 9.93972E+00 4.01775E+00
 -1      6110 2.05433E+01 9.78829E+00 3.50140E+00
 -1      6111 2.73386E+01 9.88334E+00 3.55578E+00
 -1      6112 3.25285E+01 9.78560E+00 3.34187E+00
 -1      6113 3.84313E+01 9.59748E+00 3.91300E+00
 -1      6114 4.82137E+01 9.61069E+00 3.91300E+00
 -1      6115 5.18874E+01 9.68128E+00 3.48258E+00
 -1      6116 5.37541E+01 9.55208E+00 3.54546E+00
 -1      6117 6.10244E+01 9.97946E+00 3.87806E+00
 -1      6118 7.92724E+01 9.76798E+00 3.36233E+00
 -1      6119 8.13345E+01 9.77363E+00 3.47381E+00
 -1      6120 8.51078E+01 9.60360E+00 3.91300E+00
 -1      6121 9.85607E+01 9.68342E+00 3.48893E+00
 -1      6122 9.90827E+01 9.79972E+00 3.32148E+00
 -1      6123 9.99050E-01 5.64726E-02 3.86644E+00
 -1      6124 5.86950E+00 3.66742E-02 3.71815E+00
 -1      6125 7.70356E+00 4.70206E-02 4.02318E+00
 -1      6126 1.25775E+01 3.79773E-02 3.71324E+00
 -1      6127 1.15885E+01 6.89889E-01 3.82687E+00
 -1      6128 1.34160E+01 6.09298E-01 4.09467E+00
 -1      6129 1.43829E+01 7.89667E-02 3.91296E+00
 -1      6130 1.88169E+01 1.00039E-01 4.11254E+00
 -1      6131 2.07703E+01-7.31121E-02 4.01011E+00
 -1      6132 2.54954E+01 9.44883E-02 4.07793E+00
 -1      6133 3.43794E+01 1.07445E-01 3.83102E+00
 -1      6134 3.89902E+01 8.47472E-02 3.75482E+00
 -1      6135 4.03606E+01 5.32230E-02 3.86448E+00
 -1      6136 4.09256E+01 5.79134E-02 3.74654E+00
 -1      6137 4.16455E+01 5.25115E-01 3.84547E+00
 -1      6138 4.56982E+01 7.26950E-02 3.74879E+00
 -1      6139 4.62655E+01 8.74234E-02 3.81530E+00
 -1      6140 4.70361E+01 9.69255E-02 3.81533E+00
 -1      6141 4.76735E+01 5.99371E-02 3.86711E+00
 -1      6142 5.43794E+01 4.94802E-02 4.02423E+00
 -1      6143 5.92540E+01 3.84833E-02 3.71253E+00
 -1      6144 5.85429E+01 2.30823E-01 4.01149E+00
 -1      6145 6.00925E+01 6.12894E-01 4.08235E+00
 -1      6146 6.10584E+01 8.06497E-02 3.91582E+00
 -1      6147 6.53469E+01 2.38371E-01 4.02445E+00
 -1      6148 6.75551E+01-1.70120E-02 4.01008E+00
 -1      6149 6.81927E+01 6.98750E-01 3.91401E+00
 -1      6150 7.23615E+01 3.57748E-02 4.00209E+00
 -1      6151 7.29495E+01 1.28433E-01 3.76354E+00
 -1      6152 7.50473E+01 5.67131E-01 3.85656E+00
 -1      6153 7.99370E+01 4.19250E-01 3.98233E+00
 -1      6154 8.10635E+01 8.56114E-02 3.97318E+00
 -1      6155 8.56667E+01 8.17072E-02 3.75316E+00
 -1      6156 8.75089E+01 4.67698E-02 3.81879E+00
 -1      6157 8.69566E+01 6.28875E-01 3.69191E+00
 -1      6158 9.23748E+01 7.01082E-02 3.74770E+00
 -1      6159 9.30790E+01 6.28875E-01 3.75463E+00
 -1      6160 9.43480E+01 6.35002E-02 3.86786E+00
 -1      6161 1.70433E+00 8.85834E-01 3.77325E+00
 -1      6162 5.01148E+00 8.96979E-01 3.78250E+00
 -1      6163 6.70800E+00 4.53753E-01 4.05908E+00
 -1      6164 1.83381E+01 1.22281E+00 4.11227E+00
 -1      6165 2.65525E+01 4.19250E-01 3.90032E+00
 -1      6166 3.50855E+01 6.90594E-01 3.82635E+00
 -1      6167 3.99685E+01 4.49838E-01 4.07059E+00
 -1      6168 4.64054E+01 6.98750E-01 3.72082E+00
 -1      6169 4.69415E+01 6.98750E-01 3.69988E+00
 -1      6170 4.83736E+01 8.91257E-01 3.77325E+00
 -1      6171 5.16600E+01 7.04996E-01 3.79028E+00
 -1      6172 5.82563E+01 8.91337E-01 3.88997E+00
 -1      6173 7.32290E+01 6.62918E-01 4.06603E+00
 -1      6174 8.16897E+01 7.25252E-01 3.79787E+00
 -1      6175 9.36143E+01 6.98750E-01 3.68953E+00
 -1      6176 9.49237E+01 1.02384E+00 3.90282E+00
 -1      6177 9.82442E+01 5.59000E-01 3.74817E+00
 -1      6178 9.99474E+01 4.19250E-01 4.00697E+00
 -1      6179 3.06439E+00 8.83496E-01 3.49369E+00
 -1      6180 2.28219E+00 3.21938E-01 4.17069E+00
 -1      6181 4.10995E+00 9.78250E-01 3.54063E+00
 -1      6182 4.12263E+00 4.93690E-01 3.84812E+00
 -1      6183 9.61251E+00 1.04813E+00 3.39035E+00
 -1      6184 1.09424E+01 1.01319E+00 3.60709E+00
 -1      6185 1.08306E+01 4.90402E-01 3.84871E+00
 -1      6186 1.54313E+01 9.78250E-01 3.73112E+00
 -1      6187 1.60713E+01 4.39938E-01 4.26237E+00
 -1      6188 1.68163E+01 5.75291E-01 4.01781E+00
 -1      6189 1.74688E+01 4.97835E-01 3.80999E+00
 -1      6190 2.36178E+01 7.96596E-01 3.50572E+00
 -1      6191 2.42034E+01 1.08306E+00 3.59121E+00
 -1      6192 2.40370E+01 5.28554E-01 3.77948E+00
 -1      6193 2.83716E+01 5.58758E-01 3.85800E+00
 -1      6194 2.94873E+01 4.44188E-01 4.05275E+00
 -1      6195 2.88275E+01 9.78250E-01 3.69932E+00
 -1      6196 3.07450E+01 5.27352E-01 3.77855E+00
 -1      6197 3.36783E+01 1.01235E+00 3.95074E+00
 -1      6198 4.16166E+01 1.20697E+00 3.94621E+00
 -1      6199 4.30366E+01 8.83578E-01 3.49770E+00
 -1      6200 4.42486E+01 9.43313E-01 3.59513E+00
 -1      6201 4.40911E+01 4.96489E-01 3.84790E+00
 -1      6202 5.07852E+01 9.78250E-01 3.54358E+00
 -1      6203 5.07991E+01 4.92867E-01 3.84823E+00
 -1      6204 5.33845E+01 4.19250E-01 4.00196E+00
 -1      6205 5.30930E+01 8.38500E-01 3.83396E+00
 -1      6206 5.66206E+01 1.24028E+00 3.33591E+00
 -1      6207 5.60397E+01 6.11933E-01 3.68565E+00
 -1      6208 5.65792E+01 5.77908E-01 3.91877E+00
 -1      6209 6.22103E+01 6.55146E-01 3.75502E+00
 -1      6210 6.30439E+01 1.05491E+00 3.40424E+00
 -1      6211 6.27477E+01 4.41983E-01 3.98288E+00
 -1      6212 6.50080E+01 1.31016E+00 4.24311E+00
 -1      6213 6.88735E+01 6.77405E-01 3.73235E+00
 -1      6214 6.91934E+01 1.20293E+00 3.59089E+00
 -1      6215 6.96950E+01 5.20661E-01 4.05275E+00
 -1      6216 7.02943E+01 7.96280E-01 3.50669E+00
 -1      6217 7.08781E+01 1.08306E+00 3.59475E+00
 -1      6218 7.03005E+01 5.15998E-01 4.05275E+00
 -1      6219 7.64532E+01 5.99395E-01 3.78708E+00
 -1      6220 7.73332E+01 1.45197E+00 3.70527E+00
 -1      6221 7.74215E+01 5.27149E-01 3.77839E+00
 -1      6222 8.04937E+01 1.12304E+00 3.85226E+00
 -1      6223 8.83668E+01 7.24166E-01 3.79691E+00
 -1      6224 8.89663E+01 6.33984E-01 3.75472E+00
 -1      6225 9.62753E+01 9.55950E-01 3.44618E+00
 -1      6226 9.66371E+01 1.47143E+00 3.35098E+00
 -1      6227 9.67694E+01 6.29245E-01 3.84313E+00
 -1      6228 9.71276E+01 1.11800E+00 3.41719E+00
 -1      6229 9.74756E+01 4.92069E-01 3.84836E+00
 -1      6230 9.76898E+01 9.78250E-01 3.63397E+00
 -1      6231 9.83439E+01 1.39750E+00 4.15710E+00
 -1      6232 9.98846E+01 1.15303E+00 4.57681E+00
 -1      6233 2.37575E+00 1.48835E+00 3.98288E+00
 -1      6234 3.39358E+00 1.36486E+00 3.34952E+00
 -1      6235 6.05264E+00 1.25966E+00 3.78806E+00
 -1      6236 7.09238E+00 1.17549E+00 4.00131E+00
 -1      6237 1.01250E+01 1.29269E+00 3.32917E+00
 -1      6238 1.25469E+01 1.53703E+00 3.77477E+00
 -1      6239 1.48137E+01 1.09839E+00 4.02108E+00
 -1      6240 2.21749E+01 7.47164E-01 3.75790E+00
 -1      6241 2.25194E+01 1.31247E+00 3.61872E+00
 -1      6242 2.61938E+01 1.38628E+00 4.02886E+00
 -1      6243 3.55950E+01 6.32900E-01 3.75952E+00
 -1      6244 3.75864E+01 9.78250E-01 3.58910E+00
 -1      6245 4.36415E+01 1.46223E+00 3.47238E+00
 -1      6246 4.60328E+01 1.27654E+00 3.78506E+00
 -1      6247 4.72020E+01 1.17335E+00 3.77325E+00
 -1      6248 4.90522E+01 1.49320E+00 3.98288E+00
 -1      6249 4.89893E+01 6.57322E-01 3.73151E+00
 -1      6250 5.16773E+01 1.39750E+00 4.16966E+00
 -1      6251 5.27256E+01 1.25429E+00 3.78903E+00
 -1      6252 5.75055E+01 1.08306E+00 3.58040E+00
 -1      6253 5.93254E+01 1.24783E+00 3.73372E+00
 -1      6254 6.24956E+01 1.55671E+00 4.05275E+00
 -1      6255 6.41776E+01 9.78250E-01 3.56183E+00
 -1      6256 6.37135E+01 1.40462E+00 3.46999E+00
 -1      6257 7.28043E+01 1.20419E+00 3.86969E+00
 -1      6258 7.55532E+01 7.47814E-01 3.74528E+00
 -1      6259 7.58911E+01 1.32843E+00 3.60786E+00
 -1      6260 7.94207E+01 1.24736E+00 3.77325E+00
 -1      6261 8.42603E+01 9.78250E-01 3.59190E+00
 -1      6262 8.66450E+01 3.75988E-01 4.11838E+00
 -1      6263 9.07577E+01 9.08375E-01 3.55112E+00
 -1      6264 9.60472E+01 1.47312E+00 3.62347E+00
 -1      6265 9.56631E+01 6.57565E-01 3.73049E+00
 -1      6266 9.93962E+01 1.25094E+00 3.79003E+00
 -1      6267 3.89122E+00 1.67122E+00 4.05275E+00
 -1      6268 1.05778E+01 1.66353E+00 4.05275E+00
 -1      6269 1.91565E+01 1.44049E+00 3.70169E+00
 -1      6270 3.39733E+01 1.54820E+00 3.92402E+00
 -1      6271 3.62747E+01 1.70161E+00 3.84785E+00
 -1      6272 4.06174E+01 1.34016E+00 3.85698E+00
 -1      6273 5.05625E+01 1.66941E+00 4.05275E+00
 -1      6274 5.20624E+01 1.43566E+00 3.63562E+00
 -1      6275 5.38206E+01 1.14555E+00 3.84313E+00
 -1      6276 5.55562E+01 1.43086E+00 4.12826E+00
 -1      6277 7.41122E+01 1.73085E+00 3.79836E+00
 -1      6278 3.00648E+00 1.73809E+00 3.89553E+00
 -1      6279 9.92225E+00 1.78481E+00 3.74429E+00
 -1      6280 1.62046E+01 1.70155E+00 3.98288E+00
 -1      6281 2.29468E+01 1.72628E+00 3.98288E+00
 -1      6282 2.95719E+01 1.68552E+00 3.84705E+00
 -1      6283 3.01397E+01 1.76331E+00 3.75337E+00
 -1      6284 3.69313E+01 1.71927E+00 3.70338E+00
 -1      6285 4.30471E+01 1.74407E+00 3.88346E+00
 -1      6286 5.65987E+01 1.78607E+00 3.74441E+00
 -1      6287 6.32019E+01 1.75809E+00 3.73296E+00
 -1      6288 6.96215E+01 1.72830E+00 3.98288E+00
 -1      6289 9.64249E+01 1.75789E+00 3.94794E+00
 -1      6290 1.62668E+00 2.30297E+00 3.40392E+00
 -1      6291 9.61898E-01 2.09625E+00 3.66580E+00
 -1      6292 1.86877E+00 1.76800E+00 4.05275E+00
 -1      6293 5.04656E+00 2.38293E+00 3.36922E+00
 -1      6294 4.48006E+00 2.54984E+00 3.87169E+00
 -1      6295 5.74688E+00 1.95405E+00 3.74750E+00
 -1      6296 7.61808E+00 2.45504E+00 3.75752E+00
 -1      6297 7.96575E+00 1.95650E+00 3.50339E+00
 -1      6298 8.56137E+00 1.87485E+00 3.90599E+00
 -1      6299 1.16414E+01 2.40969E+00 3.36309E+00
 -1      6300 1.22386E+01 2.30588E+00 3.62686E+00
 -1      6301 1.43829E+01 2.23600E+00 3.61332E+00
 -1      6302 1.52997E+01 2.01433E+00 3.70338E+00
 -1      6303 2.11643E+01 2.41069E+00 3.53247E+00
 -1      6304 2.19762E+01 1.98848E+00 3.77325E+00
 -1      6305 2.50851E+01 2.09165E+00 3.44917E+00
 -1      6306 2.56257E+01 2.37575E+00 3.63350E+00
 -1      6307 2.75405E+01 1.95090E+00 3.77148E+00
 -1      6308 2.83069E+01 1.25775E+00 4.03160E+00
 -1      6309 3.42251E+01 2.00831E+00 3.75487E+00
 -1      6310 3.55002E+01 2.30609E+00 3.94961E+00
 -1      6311 3.52565E+01 1.84211E+00 4.05275E+00
 -1      6312 4.09134E+01 2.02175E+00 3.74317E+00
 -1      6313 4.16156E+01 2.22769E+00 3.41530E+00
 -1      6314 4.85516E+01 1.92025E+00 3.82748E+00
 -1      6315 4.75693E+01 2.20278E+00 3.85203E+00
 -1      6316 5.24251E+01 1.91772E+00 3.75471E+00
 -1      6317 5.42572E+01 2.20121E+00 3.76855E+00
 -1      6318 5.52336E+01 1.88165E+00 3.90627E+00
 -1      6319 6.11220E+01 2.41069E+00 3.56518E+00
 -1      6320 6.19883E+01 2.06911E+00 3.79945E+00
 -1      6321 6.58496E+01 2.16709E+00 3.92757E+00
 -1      6322 6.86660E+01 2.05919E+00 3.70338E+00
 -1      6323 7.26455E+01 2.01537E+00 4.05275E+00
 -1      6324 7.83997E+01 2.09094E+00 3.42422E+00
 -1      6325 7.90222E+01 2.24221E+00 3.74132E+00
 -1      6326 8.08969E+01 2.01145E+00 3.75199E+00
 -1      6327 8.17378E+01 2.08881E+00 3.45852E+00
 -1      6328 8.49680E+01 1.81675E+00 3.65193E+00
 -1      6329 8.54818E+01 2.16613E+00 3.54564E+00
 -1      6330 8.75701E+01 1.99012E+00 3.74848E+00
 -1      6331 8.83746E+01 2.41609E+00 3.37766E+00
 -1      6332 8.85195E+01 1.81641E+00 3.88516E+00
 -1      6333 8.96147E+01 1.72608E+00 3.82566E+00
 -1      6334 9.50604E+01 2.41191E+00 3.40139E+00
 -1      6335 9.42694E+01 2.11847E+00 3.72258E+00
 -1      6336 9.88904E+01 2.30588E+00 3.60857E+00
 -1      6337 9.78288E+01 2.54566E+00 3.98750E+00
 -1      6338 8.36865E+00 2.43559E+00 3.37040E+00
 -1      6339 1.78627E+01 2.25333E+00 4.02369E+00
 -1      6340 1.84239E+01 2.36992E+00 3.32967E+00
 -1      6341 1.90110E+01 1.93456E+00 3.63350E+00
 -1      6342 2.19181E+01 2.70880E+00 3.50763E+00
 -1      6343 2.85576E+01 2.44431E+00 3.37682E+00
 -1      6344 2.79261E+01 2.58538E+00 3.48913E+00
 -1      6345 2.87106E+01 2.07290E+00 3.77325E+00
 -1      6346 3.15835E+01 1.81675E+00 3.69527E+00
 -1      6347 3.15733E+01 2.33731E+00 3.38647E+00
 -1      6348 3.22342E+01 2.16613E+00 3.56701E+00
 -1      6349 3.51524E+01 2.58537E+00 3.40275E+00
 -1      6350 3.43859E+01 2.65525E+00 3.62888E+00
 -1      6351 3.82915E+01 1.81675E+00 3.65953E+00
 -1      6352 3.90227E+01 2.69069E+00 3.69879E+00
 -1      6353 3.93651E+01 1.88553E+00 4.12263E+00
 -1      6354 4.44650E+01 2.38896E+00 3.80490E+00
 -1      6355 4.50159E+01 2.60489E+00 3.36269E+00
 -1      6356 4.57760E+01 1.97598E+00 3.75016E+00
 -1      6357 4.84130E+01 2.44308E+00 3.35537E+00
 -1      6358 4.88524E+01 2.41036E+00 4.01475E+00
 -1      6359 5.11499E+01 2.50121E+00 3.89736E+00
 -1      6360 5.89644E+01 2.27973E+00 3.65568E+00
 -1      6361 5.83321E+01 2.41193E+00 3.34517E+00
 -1      6362 6.17815E+01 2.53516E+00 3.35237E+00
 -1      6363 7.52000E+01 2.44597E+00 3.34863E+00
 -1      6364 7.45962E+01 2.58538E+00 3.48814E+00
 -1      6365 7.51899E+01 1.83036E+00 3.84313E+00
 -1      6366 7.54714E+01 2.44770E+00 4.04814E+00
 -1      6367 8.11472E+01 2.69019E+00 3.58409E+00
 -1      6368 8.44813E+01 2.53284E+00 3.84719E+00
 -1      6369 8.49925E+01 2.36979E+00 3.33358E+00
 -1      6370 8.88475E+01 2.42275E+00 3.92721E+00
 -1      6371 9.16034E+01 2.43403E+00 3.34888E+00
 -1      6372 9.17023E+01 1.39750E+00 4.33225E+00
 -1      6373 9.11267E+01 2.48387E+00 3.83641E+00
 -1      6374 9.23290E+01 2.34017E+00 3.69367E+00
 -1      6375 9.83030E+01 2.38278E+00 3.34291E+00
 -1      6376 9.06095E-01 2.58196E+00 3.89917E+00
 -1      6377 5.59292E+00 2.51550E+00 3.63350E+00
 -1      6378 1.55369E+01 2.44563E+00 3.94794E+00
 -1      6379 1.80380E+01 2.80315E+00 3.51468E+00
 -1      6380 1.89010E+01 2.51550E+00 4.36512E+00
 -1      6381 2.50253E+01 2.65525E+00 3.33923E+00
 -1      6382 2.44758E+01 2.37575E+00 3.70338E+00
 -1      6383 3.22887E+01 2.79500E+00 3.61747E+00
 -1      6384 4.09234E+01 2.83329E+00 3.74772E+00
 -1      6385 4.16273E+01 2.82372E+00 3.39567E+00
 -1      6386 4.21313E+01 2.67312E+00 3.84034E+00
 -1      6387 4.78425E+01 2.86488E+00 3.55158E+00
 -1      6388 6.45201E+01 2.28356E+00 4.05521E+00
 -1      6389 7.11950E+01 2.28934E+00 4.00531E+00
 -1      6390 7.79119E+01 2.17219E+00 3.88441E+00
 -1      6391 7.81877E+01 2.78712E+00 3.44892E+00
 -1      6392 7.90188E+01 2.76705E+00 3.70300E+00
 -1      6393 8.16394E+01 2.61741E+00 3.32764E+00
 -1      6394 8.21708E+01 2.48760E+00 3.82334E+00
 -1      6395 8.76090E+01 2.72510E+00 3.75887E+00
 -1      6396 9.45165E+01 2.86488E+00 3.54788E+00
 -1      6397 1.70502E+00 2.95498E+00 3.47966E+00
 -1      6398 2.19475E+00 2.42768E+00 3.82728E+00
 -1      6399 5.75901E+00 3.01129E+00 3.74591E+00
 -1      6400 1.91341E+01 3.07739E+00 3.77536E+00
 -1      6401 2.46783E+01 2.97504E+00 3.70338E+00
 -1      6402 2.58927E+01 2.91692E+00 3.98836E+00
 -1      6403 3.15490E+01 2.87324E+00 3.47201E+00
 -1      6404 3.11938E+01 2.34917E+00 4.00800E+00
 -1      6405 3.78083E+01 2.51550E+00 3.98288E+00
 -1      6406 4.46349E+01 2.95140E+00 3.93047E+00
 -1      6407 4.57380E+01 3.00463E+00 3.69348E+00
 -1      6408 4.85441E+01 2.96714E+00 3.62499E+00
 -1      6409 6.20115E+01 2.92912E+00 3.82420E+00
 -1      6410 6.57933E+01 3.00538E+00 3.77312E+00
 -1      6411 7.13068E+01 2.94990E+00 3.91300E+00
 -1      6412 7.52860E+01 3.14090E+00 4.01781E+00
 -1      6413 8.49967E+01 2.94846E+00 3.47836E+00
 -1      6414 8.57297E+01 2.91193E+00 3.72063E+00
 -1      6415 9.15712E+01 2.94839E+00 3.51296E+00
 -1      6416 9.24110E+01 3.00463E+00 3.69931E+00
 -1      6417 9.83141E+01 2.94346E+00 3.44888E+00
 -1      6418 4.83988E+00 3.17983E+00 3.83276E+00
 -1      6419 8.51559E+00 3.14303E+00 3.81131E+00
 -1      6420 8.82603E+00 2.55044E+00 3.98968E+00
 -1      6421 1.11609E+01 2.47361E+00 3.77325E+00
 -1      6422 1.40489E+01 2.95557E+00 4.24491E+00
 -1      6423 3.42095E+01 3.20097E+00 3.74869E+00
 -1      6424 5.15028E+01 3.16680E+00 3.83190E+00
 -1      6425 5.24308E+01 3.01456E+00 3.74862E+00
 -1      6426 5.50304E+01 3.24115E+00 3.72198E+00
 -1      6427 5.83618E+01 3.63350E+00 4.31709E+00
 -1      6428 5.78176E+01 2.65315E+00 3.68876E+00
 -1      6429 5.91147E+01 3.07910E+00 3.76758E+00
 -1      6430 8.18795E+01 3.18396E+00 3.98839E+00
 -1      6431 8.85426E+01 3.20063E+00 3.91300E+00
 -1      6432 9.52413E+01 3.06312E+00 3.74460E+00
 -1      6433 9.55392E+01 2.55027E+00 3.84156E+00
 -1      6434 9.92594E+01 3.19199E+00 3.90099E+00
 -1      6435 1.65582E+00 3.66977E+00 4.19250E+00
 -1      6436 3.07563E+00 3.29067E+00 4.04402E+00
 -1      6437 3.24434E+00 3.69123E+00 3.35375E+00
 -1      6438 3.73693E+00 3.35946E+00 4.12872E+00
 -1      6439 4.29045E+01 3.31701E+00 3.94794E+00
 -1      6440 4.36326E+01 3.30864E+00 3.73831E+00
 -1      6441 4.50583E+01 3.82733E+00 4.06844E+00
 -1      6442 4.73948E+01 3.24919E+00 3.85181E+00
 -1      6443 4.97507E+01 3.28917E+00 4.04402E+00
 -1      6444 4.99386E+01 3.72793E+00 3.34340E+00
 -1      6445 5.03766E+01 3.41344E+00 4.26833E+00
 -1      6446 8.95092E+01 3.34118E+00 3.94794E+00
 -1      6447 8.98383E+01 3.68240E+00 3.34421E+00
 -1      6448 9.03067E+01 3.31129E+00 3.73831E+00
 -1      6449 9.17320E+01 3.82155E+00 4.06943E+00
 -1      6450 9.64297E+01 3.28974E+00 3.93047E+00
 -1      6451 9.66057E+01 3.72801E+00 3.34589E+00
 -1      6452 9.71517E+01 3.38957E+00 4.12843E+00
 -1      6453 2.46031E+00 3.98288E+00 3.59343E+00
 -1      6454 4.04295E+00 3.64431E+00 3.60132E+00
 -1      6455 9.22350E+00 3.77325E+00 3.57521E+00
 -1      6456 1.05873E+01 3.35400E+00 3.91300E+00
 -1      6457 1.74285E+01 3.65991E+00 3.61531E+00
 -1      6458 2.24773E+01 3.94794E+00 3.58348E+00
 -1      6459 2.33371E+01 3.75681E+00 3.34236E+00
 -1      6460 2.31317E+01 3.30775E+00 3.66033E+00
 -1      6461 2.37656E+01 3.32583E+00 3.91300E+00
 -1      6462 3.74502E+01 3.63350E+00 3.63577E+00
 -1      6463 4.06810E+01 3.65873E+00 3.76228E+00
 -1      6464 4.24317E+01 3.59151E+00 3.82228E+00
 -1      6465 4.41493E+01 3.71819E+00 3.62028E+00
 -1      6466 4.91330E+01 3.98288E+00 3.59130E+00
 -1      6467 5.07182E+01 3.64753E+00 3.60434E+00
 -1      6468 5.59000E+01 3.77325E+00 3.57004E+00
 -1      6469 5.61847E+01 3.36370E+00 3.84313E+00
 -1      6470 5.71648E+01 3.39005E+00 4.12790E+00
 -1      6471 5.77385E+01 4.05275E+00 3.64464E+00
 -1      6472 6.33067E+01 3.29437E+00 3.54791E+00
 -1      6473 6.37482E+01 3.32000E+00 3.91300E+00
 -1      6474 6.90397E+01 3.76125E+00 3.74316E+00
 -1      6475 7.00112E+01 3.75685E+00 3.34241E+00
 -1      6476 6.98069E+01 3.30594E+00 3.66040E+00
 -1      6477 7.04379E+01 3.32770E+00 3.91300E+00
 -1      6478 7.64571E+01 3.29388E+00 3.88641E+00
 -1      6479 7.63497E+01 3.71116E+00 3.38405E+00
 -1      6480 7.69997E+01 3.99752E+00 3.44076E+00
 -1      6481 7.78383E+01 3.91300E+00 3.71503E+00
 -1      6482 8.41218E+01 3.63350E+00 3.63983E+00
 -1      6483 8.90183E+01 3.97986E+00 3.66382E+00
 -1      6484 9.04232E+01 4.00452E+00 3.46516E+00
 -1      6485 9.58073E+01 3.57900E+00 3.80819E+00
 -1      6486 3.70338E+00 4.24947E+00 3.54887E+00
 -1      6487 7.11346E+00 3.56365E+00 4.10074E+00
 -1      6488 8.23623E+00 4.03568E+00 3.88733E+00
 -1      6489 1.10506E+01 4.14315E+00 3.68856E+00
 -1      6490 1.27474E+01 3.78200E+00 3.86146E+00
 -1      6491 1.38192E+01 3.84313E+00 3.89431E+00
 -1      6492 1.49386E+01 3.96693E+00 3.83401E+00
 -1      6493 1.77824E+01 4.13262E+00 3.70923E+00
 -1      6494 1.83929E+01 4.08769E+00 3.93840E+00
 -1      6495 2.36178E+01 4.27743E+00 3.54887E+00
 -1      6496 2.44244E+01 4.05275E+00 3.65124E+00
 -1      6497 2.70960E+01 3.99225E+00 3.78231E+00
 -1      6498 2.83218E+01 3.68591E+00 4.22952E+00
 -1      6499 3.28508E+01 3.84227E+00 3.89741E+00
 -1      6500 3.49899E+01 4.15563E+00 3.81332E+00
 -1      6501 3.83621E+01 4.36603E+00 3.80982E+00
 -1      6502 3.94211E+01 3.57972E+00 3.89333E+00
 -1      6503 4.15985E+01 4.40600E+00 3.85110E+00
 -1      6504 4.23671E+01 4.05275E+00 3.60731E+00
 -1      6505 5.03799E+01 4.18009E+00 3.53350E+00
 -1      6506 5.37801E+01 3.77048E+00 4.00717E+00
 -1      6507 5.49120E+01 4.04261E+00 3.88932E+00
 -1      6508 6.05001E+01 3.84313E+00 3.87317E+00
 -1      6509 7.02943E+01 4.27779E+00 3.54940E+00
 -1      6510 7.11647E+01 3.92627E+00 3.74684E+00
 -1      6511 7.27499E+01 3.84343E+00 3.63350E+00
 -1      6512 7.37658E+01 3.99045E+00 3.77913E+00
 -1      6513 7.49727E+01 3.73831E+00 4.08071E+00
 -1      6514 7.56036E+01 3.58156E+00 4.22744E+00
 -1      6515 7.56109E+01 4.05275E+00 3.64707E+00
 -1      6516 8.07165E+01 3.43273E+00 3.83433E+00
 -1      6517 8.04916E+01 3.90262E+00 3.78119E+00
 -1      6518 8.16488E+01 4.21922E+00 3.84579E+00
 -1      6519 8.48242E+01 4.02110E+00 3.79589E+00
 -1      6520 8.60602E+01 3.79783E+00 3.78084E+00
 -1      6521 8.82509E+01 4.04232E+00 3.85858E+00
 -1      6522 9.37756E+01 3.77490E+00 4.01303E+00
 -1      6523 9.57382E+01 4.05275E+00 3.59265E+00
 -1      6524 9.70564E+01 4.18058E+00 3.53511E+00
 -1      6525 9.93996E+01 3.77633E+00 3.78917E+00
 -1      6526 1.69078E-01 4.50694E+00 3.87209E+00
 -1      6527 2.86488E+00 4.32870E+00 3.60806E+00
 -1      6528 4.42135E+00 4.05275E+00 3.65543E+00
 -1      6529 9.50300E+00 4.32417E+00 3.60427E+00
 -1      6530 1.00967E+01 4.42415E+00 3.93756E+00
 -1      6531 1.15911E+01 4.33824E+00 3.82677E+00
 -1      6532 1.56420E+01 3.89742E+00 3.71383E+00
 -1      6533 2.32272E+01 4.47704E+00 3.98288E+00
 -1      6534 2.97668E+01 4.27526E+00 3.54646E+00
 -1      6535 3.32605E+01 4.35315E+00 4.10301E+00
 -1      6536 3.76605E+01 4.37095E+00 3.73151E+00
 -1      6537 3.99685E+01 4.57911E+00 4.07054E+00
 -1      6538 4.43571E+01 4.37195E+00 3.73566E+00
 -1      6539 4.95414E+01 4.32869E+00 3.60794E+00
 -1      6540 5.10929E+01 4.05275E+00 3.65762E+00
 -1      6541 5.61795E+01 4.32438E+00 3.60404E+00
 -1      6542 5.67235E+01 4.40886E+00 3.93764E+00
 -1      6543 5.82659E+01 4.33974E+00 3.82720E+00
 -1      6544 6.23182E+01 3.89606E+00 3.71068E+00
 -1      6545 6.99005E+01 4.47671E+00 3.98288E+00
 -1      6546 7.66127E+01 4.42643E+00 3.98288E+00
 -1      6547 7.99370E+01 3.93965E+00 4.51186E+00
 -1      6548 8.28717E+01 4.35032E+00 3.61911E+00
 -1      6549 8.43342E+01 4.37120E+00 3.73247E+00
 -1      6550 8.63940E+01 4.33225E+00 3.69797E+00
 -1      6551 8.69343E+01 4.40213E+00 3.73980E+00
 -1      6552 9.00525E+01 4.41482E+00 3.94794E+00
 -1      6553 9.10310E+01 4.37216E+00 3.73668E+00
 -1      6554 9.28237E+01 3.85273E+00 3.91300E+00
 -1      6555 9.62179E+01 4.32866E+00 3.60786E+00
 -1      6556 9.77644E+01 4.05275E+00 3.65983E+00
 -1      6557 9.83121E+01 4.11387E+00 3.82898E+00
 -1      6558 9.97798E+01 4.33225E+00 3.77700E+00
 -1      6559 1.73290E+01 4.59041E+00 3.91300E+00
 -1      6560 2.42764E+01 4.58420E+00 3.92931E+00
 -1      6561 2.65525E+01 4.33305E+00 4.04605E+00
 -1      6562 2.83715E+01 4.47170E+00 3.85861E+00
 -1      6563 2.96403E+01 4.52545E+00 4.15756E+00
 -1      6564 2.89369E+01 4.05275E+00 3.65018E+00
 -1      6565 3.11585E+01 3.89419E+00 3.76849E+00
 -1      6566 3.17931E+01 4.59421E+00 3.77325E+00
 -1      6567 4.70322E+01 4.61175E+00 3.59235E+00
 -1      6568 5.09579E+01 4.64689E+00 4.01204E+00
 -1      6569 5.77168E+01 4.55440E+00 3.83375E+00
 -1      6570 6.40569E+01 4.63008E+00 4.15756E+00
 -1      6571 6.44553E+01 4.13268E+00 3.71134E+00
 -1      6572 7.09518E+01 4.58518E+00 3.92988E+00
 -1      6573 7.32290E+01 4.36542E+00 4.06281E+00
 -1      6574 7.50478E+01 4.45991E+00 3.85769E+00
 -1      6575 7.60240E+01 4.41779E+00 3.68676E+00
 -1      6576 7.75389E+01 4.65159E+00 4.03228E+00
 -1      6577 7.84696E+01 4.60296E+00 3.77325E+00
 -1      6578 8.23436E+01 4.05275E+00 3.61657E+00
 -1      6579 8.51078E+01 4.58027E+00 3.91300E+00
 -1      6580 9.77366E+01 4.64645E+00 4.02087E+00
 -1      6581 5.94030E+00 5.03100E+00 3.91777E+00
 -1      6582 6.70800E+00 4.61175E+00 4.01722E+00
 -1      6583 1.20141E+01 4.77058E+00 3.77325E+00
 -1      6584 1.83467E+01 5.03100E+00 4.58684E+00
 -1      6585 2.75910E+01 5.03100E+00 4.00193E+00
 -1      6586 3.31208E+01 4.89125E+00 3.93515E+00
 -1      6587 3.41706E+01 5.03100E+00 4.01453E+00
 -1      6588 3.92507E+01 5.03100E+00 3.82719E+00
 -1      6589 4.08188E+01 5.03100E+00 3.92551E+00
 -1      6590 5.26130E+01 5.03100E+00 3.91948E+00
 -1      6591 5.33845E+01 4.61175E+00 4.00106E+00
 -1      6592 5.86862E+01 4.77673E+00 3.77325E+00
 -1      6593 5.95871E+01 5.03100E+00 3.87562E+00
 -1      6594 6.66608E+01 4.77357E+00 3.89873E+00
 -1      6595 7.46397E+01 4.78399E+00 3.77325E+00
 -1      6596 9.26241E+01 5.03100E+00 3.82907E+00
 -1      6597 9.48903E+01 4.58151E+00 3.91300E+00
 -1      6598 7.24529E-01 5.03100E+00 3.82767E+00
 -1      6599 1.24061E+01 5.03100E+00 4.01793E+00
 -1      6600 1.41147E+01 5.03100E+00 3.81808E+00
 -1      6601 1.91517E+01 5.03100E+00 3.89541E+00
 -1      6602 2.08455E+01 5.03100E+00 3.91226E+00
 -1      6603 2.58538E+01 5.03100E+00 3.83444E+00
 -1      6604 3.25617E+01 5.03100E+00 3.81413E+00
 -1      6605 4.73989E+01 5.03100E+00 3.82727E+00
 -1      6606 5.90741E+01 5.03100E+00 4.01767E+00
 -1      6607 6.07912E+01 5.03100E+00 3.82255E+00
 -1      6608 6.58224E+01 5.03100E+00 3.88812E+00
 -1      6609 6.51299E+01 4.47200E+00 3.91300E+00
 -1      6610 6.80702E+01 4.82338E+00 3.94471E+00
 -1      6611 7.25303E+01 5.03100E+00 3.82868E+00
 -1      6612 7.42581E+01 5.03100E+00 4.01745E+00
 -1      6613 7.92257E+01 5.03100E+00 3.82919E+00
 -1      6614 8.08403E+01 5.03100E+00 4.01365E+00
 -1      6615 8.73744E+01 5.03100E+00 3.82926E+00
 -1      6616 9.36961E+01 4.56404E+00 3.59255E+00
 -1      6617 9.40733E+01 5.03100E+00 3.82710E+00
 -1      6618 1.54201E+00 5.03100E+00 4.46278E+00
 -1      6619 1.29150E+01 5.03100E+00 3.87329E+00
 -1      6620 1.44585E+01 5.03100E+00 4.24306E+00
 -1      6621 2.01720E+01 5.29735E+00 3.76426E+00
 -1      6622 2.15110E+01 5.59000E+00 3.91300E+00
 -1      6623 2.52789E+01 5.29754E+00 3.80265E+00
 -1      6624 4.02850E+01 5.65987E+00 3.70403E+00
 -1      6625 4.82139E+01 5.03100E+00 4.49316E+00
 -1      6626 6.00925E+01 5.64149E+00 4.08506E+00
 -1      6627 6.50158E+01 5.03100E+00 4.58571E+00
 -1      6628 6.68440E+01 5.29716E+00 3.76423E+00
 -1      6629 7.30988E+01 5.22920E+00 3.90716E+00
 -1      6630 7.46461E+01 5.26757E+00 3.77325E+00
 -1      6631 7.96717E+01 5.45025E+00 3.61024E+00
 -1      6632 8.69566E+01 5.65987E+00 3.69441E+00
 -1      6633 9.33530E+01 5.47410E+00 4.08488E+00
 -1      6634 9.48873E+01 5.03100E+00 4.47825E+00
 -1      6635 6.70800E+00 5.48266E+00 4.05916E+00
 -1      6636 1.15958E+01 5.49408E+00 3.84313E+00
 -1      6637 1.34160E+01 5.63795E+00 4.09736E+00
 -1      6638 2.01240E+01 5.74286E+00 4.05275E+00
 -1      6639 2.83728E+01 5.56129E+00 3.85643E+00
 -1      6640 3.50793E+01 5.49288E+00 3.84313E+00
 -1      6641 3.97097E+01 5.72975E+00 3.67793E+00
 -1      6642 4.16536E+01 5.80190E+00 3.83909E+00
 -1      6643 4.49745E+01 6.00317E+00 3.76835E+00
 -1      6644 4.64036E+01 5.72975E+00 3.72235E+00
 -1      6645 4.82137E+01 5.48311E+00 3.88493E+00
 -1      6646 5.33845E+01 5.48646E+00 4.04755E+00
 -1      6647 5.82710E+01 5.53607E+00 3.82010E+00
 -1      6648 6.50637E+01 6.04419E+00 3.94525E+00
 -1      6649 7.18345E+01 5.61872E+00 3.91300E+00
 -1      6650 7.50480E+01 5.59424E+00 3.85647E+00
 -1      6651 8.02511E+01 5.79894E+00 3.78668E+00
 -1      6652 8.17542E+01 5.49184E+00 3.84313E+00
 -1      6653 8.83220E+01 5.54982E+00 3.84486E+00
 -1      6654 9.16278E+01 5.96315E+00 3.73971E+00
 -1      6655 9.49947E+01 6.10230E+00 3.92853E+00
 -1      6656 9.83208E+01 5.90728E+00 3.77654E+00
 -1      6657 9.99266E+01 5.59000E+00 4.01196E+00
 -1      6658 3.33418E-01 6.02555E+00 3.92833E+00
 -1      6659 2.41069E+00 5.52251E+00 3.79438E+00
 -1      6660 3.98288E+00 5.50636E+00 3.90005E+00
 -1      6661 4.30678E+00 6.00925E+00 3.61049E+00
 -1      6662 9.22549E+00 6.21398E+00 3.58547E+00
 -1      6663 9.34226E+00 5.44447E+00 4.20123E+00
 -1      6664 9.94590E+00 6.28025E+00 3.34168E+00
 -1      6665 9.92225E+00 5.74099E+00 3.58522E+00
 -1      6666 1.56520E+01 5.49799E+00 3.82367E+00
 -1      6667 1.55062E+01 5.97431E+00 3.69981E+00
 -1      6668 1.64348E+01 6.16087E+00 3.36205E+00
 -1      6669 1.71645E+01 6.25704E+00 3.49252E+00
 -1      6670 1.69052E+01 5.55384E+00 4.05275E+00
 -1      6671 1.77664E+01 6.13806E+00 3.72636E+00
 -1      6672 2.15914E+01 6.15086E+00 3.90469E+00
 -1      6673 2.22093E+01 5.74213E+00 3.73650E+00
 -1      6674 2.25213E+01 6.23003E+00 3.59376E+00
 -1      6675 2.30072E+01 5.53237E+00 4.05571E+00
 -1      6676 2.89822E+01 5.68567E+00 3.73379E+00
 -1      6677 2.92190E+01 6.23905E+00 3.58468E+00
 -1      6678 2.95571E+01 5.49445E+00 4.05275E+00
 -1      6679 2.98017E+01 5.79908E+00 3.51042E+00
 -1      6680 3.50085E+01 6.20212E+00 3.94226E+00
 -1      6681 3.56639E+01 5.68686E+00 3.73453E+00
 -1      6682 3.60555E+01 6.00925E+00 3.47878E+00
 -1      6683 3.64747E+01 5.73932E+00 3.58873E+00
 -1      6684 3.67329E+01 6.29784E+00 3.34314E+00
 -1      6685 3.75231E+01 5.90444E+00 3.57211E+00
 -1      6686 4.22913E+01 5.68520E+00 3.73406E+00
 -1      6687 4.82166E+01 6.03378E+00 3.84313E+00
 -1      6688 4.90173E+01 5.47565E+00 3.84294E+00
 -1      6689 5.07292E+01 5.56902E+00 3.74726E+00
 -1      6690 5.09808E+01 6.00925E+00 3.61346E+00
 -1      6691 5.16606E+01 6.01767E+00 3.85557E+00
 -1      6692 5.55413E+01 5.74141E+00 3.71264E+00
 -1      6693 5.59008E+01 6.21699E+00 3.58269E+00
 -1      6694 5.60359E+01 5.46254E+00 4.31478E+00
 -1      6695 5.65854E+01 6.28010E+00 3.33096E+00
 -1      6696 5.66228E+01 5.66757E+00 3.81886E+00
 -1      6697 5.72272E+01 6.25381E+00 3.48621E+00
 -1      6698 5.77875E+01 6.36788E+00 3.94258E+00
 -1      6699 6.24976E+01 6.22324E+00 3.60080E+00
 -1      6700 6.23285E+01 5.49838E+00 3.82308E+00
 -1      6701 6.33067E+01 5.69389E+00 3.63350E+00
 -1      6702 6.81932E+01 5.72975E+00 3.91431E+00
 -1      6703 7.56574E+01 5.65100E+00 3.74249E+00
 -1      6704 7.64567E+01 6.27846E+00 3.34613E+00
 -1      6705 7.62162E+01 5.52928E+00 3.97197E+00
 -1      6706 7.72818E+01 5.93937E+00 3.50217E+00
 -1      6707 8.16792E+01 6.20275E+00 3.94401E+00
 -1      6708 8.31513E+01 5.74027E+00 3.58838E+00
 -1      6709 8.34069E+01 6.29794E+00 3.34396E+00
 -1      6710 8.40583E+01 5.90444E+00 3.53694E+00
 -1      6711 8.83326E+01 6.13322E+00 3.84945E+00
 -1      6712 9.37395E+01 6.03818E+00 3.78253E+00
 -1      6713 9.67654E+01 5.65314E+00 3.84313E+00
 -1      6714 9.74779E+01 6.00925E+00 3.55480E+00
 -1      6715 6.15319E+00 6.16038E+00 3.77325E+00
 -1      6716 1.08301E+01 6.00925E+00 3.56167E+00
 -1      6717 1.27245E+01 6.34521E+00 3.78937E+00
 -1      6718 1.48094E+01 6.12715E+00 4.02705E+00
 -1      6719 1.84183E+01 6.15107E+00 3.99264E+00
 -1      6720 2.05148E+01 6.22614E+00 3.88447E+00
 -1      6721 2.40850E+01 6.20141E+00 3.57900E+00
 -1      6722 2.61282E+01 6.23497E+00 3.86749E+00
 -1      6723 3.00352E+01 6.30271E+00 3.34327E+00
 -1      6724 3.06053E+01 5.93937E+00 3.49956E+00
 -1      6725 3.94097E+01 6.27735E+00 3.77325E+00
 -1      6726 4.06208E+01 6.35726E+00 3.78803E+00
 -1      6727 4.41492E+01 6.00925E+00 3.56399E+00
 -1      6728 4.61015E+01 6.24805E+00 3.77325E+00
 -1      6729 5.27225E+01 6.28091E+00 3.78985E+00
 -1      6730 5.37386E+01 6.09159E+00 3.86653E+00
 -1      6731 6.14830E+01 6.12511E+00 4.02304E+00
 -1      6732 6.89545E+01 5.64993E+00 3.74796E+00
 -1      6733 7.27999E+01 6.23411E+00 3.87176E+00
 -1      6734 7.50505E+01 6.25381E+00 4.04975E+00
 -1      6735 7.69327E+01 6.50616E+00 3.47601E+00
 -1      6736 8.27320E+01 6.00925E+00 3.47570E+00
 -1      6737 8.71849E+01 6.16969E+00 3.77325E+00
 -1      6738 9.08245E+01 6.00925E+00 3.56699E+00
 -1      6739 9.26444E+01 6.31803E+00 3.73083E+00
 -1      6740 9.55322E+01 6.44277E+00 4.12680E+00
 -1      6741 9.56620E+01 5.68637E+00 3.72839E+00
 -1      6742 9.93916E+01 6.35314E+00 3.80220E+00
 -1      6743 7.20358E+00 6.20531E+00 3.77325E+00
 -1      6744 1.05641E+01 6.69011E+00 4.05275E+00
 -1      6745 1.11382E+01 6.39930E+00 3.91300E+00
 -1      6746 1.55870E+01 6.46704E+00 4.12790E+00
 -1      6747 1.95094E+01 6.40560E+00 4.02135E+00
 -1      6748 3.06538E+01 6.55221E+00 3.73340E+00
 -1      6749 3.39308E+01 6.27591E+00 3.86351E+00
 -1      6750 3.73701E+01 6.58239E+00 3.87806E+00
 -1      6751 6.60893E+01 6.25629E+00 3.85422E+00
 -1      6752 6.91953E+01 6.34378E+00 3.61838E+00
 -1      6753 7.74215E+01 6.42850E+00 3.62987E+00
 -1      6754 7.94172E+01 6.27644E+00 3.77325E+00
 -1      6755 8.06018E+01 6.27747E+00 3.86121E+00
 -1      6756 8.40430E+01 6.57966E+00 3.87806E+00
 -1      6757 9.77940E+01 6.40691E+00 3.91300E+00
 -1      6758 3.00887E+00 6.76105E+00 3.89553E+00
 -1      6759 9.74261E+00 6.77175E+00 3.90214E+00
 -1      6760 1.65953E+01 6.78302E+00 3.64895E+00
 -1      6761 2.31286E+01 6.81278E+00 3.91300E+00
 -1      6762 2.99414E+01 6.78925E+00 3.73607E+00
 -1      6763 3.64747E+01 6.74631E+00 3.58969E+00
 -1      6764 4.96847E+01 6.76413E+00 3.89553E+00
 -1      6765 5.64172E+01 6.77335E+00 3.90226E+00
 -1      6766 6.30971E+01 6.80611E+00 3.91300E+00
 -1      6767 6.96261E+01 6.75220E+00 3.98288E+00
 -1      6768 7.02054E+01 6.72129E+00 3.59561E+00
 -1      6769 7.08777E+01 6.11406E+00 3.59608E+00
 -1      6770 7.63265E+01 6.75838E+00 3.98605E+00
 -1      6771 8.31513E+01 6.74924E+00 3.58937E+00
 -1      6772 8.91695E-01 7.16594E+00 3.79988E+00
 -1      6773 5.16085E+00 6.91382E+00 3.54401E+00
 -1      6774 5.60350E+00 7.33687E+00 3.60921E+00
 -1      6775 7.44647E+00 6.84775E+00 3.80881E+00
 -1      6776 1.42905E+01 6.98750E+00 3.65857E+00
 -1      6777 2.09747E+01 6.98750E+00 3.64111E+00
 -1      6778 2.19812E+01 7.01686E+00 3.77325E+00
 -1      6779 2.50851E+01 7.12123E+00 3.44540E+00
 -1      6780 2.59415E+01 7.08871E+00 4.01781E+00
 -1      6781 3.22334E+01 7.19713E+00 3.56631E+00
 -1      6782 4.09140E+01 7.05149E+00 3.74310E+00
 -1      6783 4.17194E+01 7.41561E+00 3.35339E+00
 -1      6784 4.19077E+01 7.00010E+00 3.63350E+00
 -1      6785 4.85530E+01 6.94488E+00 3.82665E+00
 -1      6786 4.75315E+01 7.34694E+00 3.95782E+00
 -1      6787 5.49596E+01 6.74743E+00 3.70155E+00
 -1      6788 5.42331E+01 7.16262E+00 3.79305E+00
 -1      6789 6.09615E+01 6.98750E+00 3.65425E+00
 -1      6790 6.13351E+01 7.26700E+00 3.40880E+00
 -1      6791 6.19942E+01 7.09875E+00 3.79945E+00
 -1      6792 6.57439E+01 7.40675E+00 3.83333E+00
 -1      6793 6.49969E+01 7.36688E+00 3.37888E+00
 -1      6794 6.76452E+01 6.98750E+00 3.63722E+00
 -1      6795 6.79289E+01 7.47663E+00 3.46684E+00
 -1      6796 6.86722E+01 7.08869E+00 3.70338E+00
 -1      6797 7.17267E+01 7.15595E+00 3.42305E+00
 -1      6798 7.26440E+01 7.04208E+00 4.05275E+00
 -1      6799 7.83990E+01 7.08510E+00 3.44086E+00
 -1      6800 7.89049E+01 7.19713E+00 3.56899E+00
 -1      6801 8.75707E+01 7.01981E+00 3.74824E+00
 -1      6802 8.83720E+01 7.46819E+00 3.35460E+00
 -1      6803 8.85749E+01 6.92077E+00 3.86059E+00
 -1      6804 9.52282E+01 6.95456E+00 3.82712E+00
 -1      6805 9.42599E+01 6.98750E+00 3.68869E+00
 -1      6806 9.90222E+01 7.02271E+00 3.68151E+00
 -1      6807 9.83173E+01 7.55151E+00 3.35226E+00
 -1      6808 4.95732E+00 7.58671E+00 3.35009E+00
 -1      6809 4.47909E+00 7.53203E+00 3.90314E+00
 -1      6810 1.22888E+01 7.40675E+00 3.63820E+00
 -1      6811 1.16413E+01 7.43760E+00 3.36234E+00
 -1      6812 1.83073E+01 6.92211E+00 3.56987E+00
 -1      6813 1.78567E+01 7.31695E+00 4.06511E+00
 -1      6814 1.84239E+01 7.39903E+00 3.32870E+00
 -1      6815 1.89770E+01 7.54650E+00 3.74770E+00
 -1      6816 2.83096E+01 7.74730E+00 3.35336E+00
 -1      6817 2.77393E+01 7.54650E+00 3.63350E+00
 -1      6818 2.86471E+01 7.22551E+00 3.58210E+00
 -1      6819 3.50252E+01 7.60189E+00 3.35361E+00
 -1      6820 3.43818E+01 7.78384E+00 3.63640E+00
 -1      6821 3.53584E+01 7.06913E+00 3.89553E+00
 -1      6822 3.82915E+01 6.84775E+00 3.65071E+00
 -1      6823 3.90232E+01 7.72122E+00 3.69834E+00
 -1      6824 3.93624E+01 6.91420E+00 4.12263E+00
 -1      6825 4.21791E+01 7.42805E+00 3.92767E+00
 -1      6826 4.50814E+01 6.76039E+00 3.69007E+00
 -1      6827 4.44632E+01 7.41861E+00 3.80496E+00
 -1      6828 4.49952E+01 7.68229E+00 3.37218E+00
 -1      6829 4.57199E+01 7.34121E+00 3.76141E+00
 -1      6830 4.79118E+01 7.58402E+00 3.46935E+00
 -1      6831 4.84737E+01 7.63550E+00 3.35348E+00
 -1      6832 4.88538E+01 7.44071E+00 4.01477E+00
 -1      6833 5.11499E+01 7.53098E+00 3.89773E+00
 -1      6834 5.16180E+01 7.51586E+00 3.35293E+00
 -1      6835 5.21262E+01 7.54774E+00 3.49034E+00
 -1      6836 5.49531E+01 7.40675E+00 3.33275E+00
 -1      6837 5.44493E+01 7.65131E+00 3.55362E+00
 -1      6838 5.54186E+01 7.19908E+00 3.97196E+00
 -1      6839 5.89628E+01 7.40675E+00 3.64856E+00
 -1      6840 5.81569E+01 7.50859E+00 3.41082E+00
 -1      6841 6.17814E+01 7.56520E+00 3.35194E+00
 -1      6842 6.84635E+01 7.58120E+00 3.36407E+00
 -1      6843 7.22393E+01 7.40675E+00 3.58913E+00
 -1      6844 7.51163E+01 6.79504E+00 3.84844E+00
 -1      6845 7.49919E+01 7.57869E+00 3.34610E+00
 -1      6846 7.40438E+01 7.07164E+00 4.11601E+00
 -1      6847 7.54724E+01 7.28813E+00 3.88723E+00
 -1      6848 8.16258E+01 6.85572E+00 3.59862E+00
 -1      6849 8.17256E+01 7.43612E+00 3.34008E+00
 -1      6850 8.10591E+01 7.68625E+00 3.61655E+00
 -1      6851 8.21604E+01 7.49957E+00 3.92142E+00
 -1      6852 8.50681E+01 6.77787E+00 3.66700E+00
 -1      6853 8.44819E+01 7.56357E+00 3.84682E+00
 -1      6854 8.48935E+01 7.53576E+00 3.34266E+00
 -1      6855 8.56858E+01 7.47256E+00 3.73778E+00
 -1      6856 8.88613E+01 7.50897E+00 3.87153E+00
 -1      6857 9.16034E+01 7.46241E+00 3.34817E+00
 -1      6858 9.11265E+01 7.51242E+00 3.83640E+00
 -1      6859 9.23299E+01 7.36985E+00 3.69360E+00
 -1      6860 9.51574E+01 7.42563E+00 3.40073E+00
 -1      6861 9.44213E+01 7.68625E+00 3.58333E+00
 -1      6862 9.78345E+01 7.51203E+00 3.93699E+00
 -1      6863 2.19624E+00 7.45772E+00 3.82735E+00
 -1      6864 8.75632E+00 7.19462E+00 4.01781E+00
 -1      6865 1.44210E+01 7.68625E+00 3.59318E+00
 -1      6866 1.80403E+01 7.83043E+00 3.51542E+00
 -1      6867 2.50242E+01 7.68625E+00 3.34064E+00
 -1      6868 2.45242E+01 7.32186E+00 4.00470E+00
 -1      6869 2.57141E+01 7.54650E+00 4.02184E+00
 -1      6870 3.23189E+01 7.75613E+00 3.65580E+00
 -1      6871 3.54942E+01 7.72120E+00 4.00090E+00
 -1      6872 4.09359E+01 7.76022E+00 3.76096E+00
 -1      6873 6.10901E+01 7.68625E+00 3.59163E+00
 -1      6874 6.88392E+01 7.70528E+00 3.87806E+00
 -1      6875 7.17360E+01 7.75613E+00 3.37191E+00
 -1      6876 7.11934E+01 7.31870E+00 4.00556E+00
 -1      6877 7.43311E+01 7.54650E+00 3.80586E+00
 -1      6878 7.79099E+01 7.20092E+00 3.88379E+00
 -1      6879 7.81893E+01 7.81656E+00 3.45109E+00
 -1      6880 7.90202E+01 7.79750E+00 3.70266E+00
 -1      6881 8.75881E+01 7.66074E+00 3.90558E+00
 -1      6882 9.89909E+01 7.54650E+00 3.85079E+00
 -1      6883 5.85334E+00 8.21302E+00 3.79657E+00
 -1      6884 1.16691E+01 8.01125E+00 3.48136E+00
 -1      6885 1.91345E+01 8.10690E+00 3.77485E+00
 -1      6886 2.47038E+01 8.07202E+00 3.77325E+00
 -1      6887 2.56915E+01 7.96575E+00 3.65472E+00
 -1      6888 4.15627E+01 7.90039E+00 3.39553E+00
 -1      6889 4.46518E+01 8.03158E+00 3.94794E+00
 -1      6890 4.57382E+01 8.10550E+00 3.69055E+00
 -1      6891 4.84751E+01 8.15228E+00 3.74099E+00
 -1      6892 5.50547E+01 7.96525E+00 3.47774E+00
 -1      6893 5.53791E+01 7.96620E+00 4.03587E+00
 -1      6894 6.20085E+01 7.95852E+00 3.82580E+00
 -1      6895 6.45325E+01 7.29444E+00 3.94037E+00
 -1      6896 6.46296E+01 7.94773E+00 3.86059E+00
 -1      6897 6.56824E+01 8.10550E+00 3.63353E+00
 -1      6898 7.13912E+01 8.09644E+00 3.87806E+00
 -1      6899 7.24565E+01 7.89587E+00 3.85642E+00
 -1      6900 7.54396E+01 7.82648E+00 4.09595E+00
 -1      6901 8.15092E+01 7.90490E+00 3.39591E+00
 -1      6902 9.15712E+01 7.97402E+00 3.51460E+00
 -1      6903 9.24112E+01 8.10550E+00 3.69530E+00
 -1      6904 9.49435E+01 8.11652E+00 3.57376E+00
 -1      6905 8.71353E-01 7.88319E+00 3.81106E+00
 -1      6906 4.87230E+00 8.18102E+00 3.71309E+00
 -1      6907 1.11640E+01 7.54820E+00 3.88052E+00
 -1      6908 1.51204E+01 8.24525E+00 3.74861E+00
 -1      6909 2.74949E+01 8.47505E+00 3.73401E+00
 -1      6910 3.51625E+01 8.21542E+00 3.85436E+00
 -1      6911 4.08575E+01 8.34966E+00 3.74382E+00
 -1      6912 4.18599E+01 8.21725E+00 3.88583E+00
 -1      6913 4.73938E+01 8.28019E+00 3.85160E+00
 -1      6914 5.15151E+01 8.21145E+00 3.83325E+00
 -1      6915 5.25251E+01 8.21468E+00 3.79961E+00
 -1      6916 6.07130E+01 7.98244E+00 4.24491E+00
 -1      6917 6.83467E+01 8.66450E+00 4.33225E+00
 -1      6918 7.41681E+01 8.47452E+00 3.73201E+00
 -1      6919 8.08697E+01 8.43198E+00 3.73201E+00
 -1      6920 8.19150E+01 8.17400E+00 3.98288E+00
 -1      6921 8.85792E+01 8.18771E+00 3.98288E+00
 -1      6922 9.40640E+01 8.28019E+00 3.84844E+00
 -1      6923 9.81779E+01 8.19838E+00 3.83241E+00
 -1      6924 3.15268E+00 8.29530E+00 3.96541E+00
 -1      6925 3.70602E+00 8.80573E+00 3.42518E+00
 -1      6926 3.87104E+00 8.40190E+00 3.96887E+00
 -1      6927 9.66569E+00 8.35104E+00 3.63350E+00
 -1      6928 9.89077E+00 8.76745E+00 3.35431E+00
 -1      6929 9.99212E+00 8.26184E+00 4.01781E+00
 -1      6930 1.05064E+01 8.41768E+00 4.12896E+00
 -1      6931 1.67700E+01 8.23760E+00 3.84313E+00
 -1      6932 4.31827E+01 8.27509E+00 3.89553E+00
 -1      6933 4.32386E+01 8.78999E+00 3.34067E+00
 -1      6934 4.39111E+01 8.58542E+00 3.59332E+00
 -1      6935 4.54535E+01 8.53696E+00 3.63138E+00
 -1      6936 4.96037E+01 8.33418E+00 3.89553E+00
 -1      6937 4.99307E+01 8.79004E+00 3.33824E+00
 -1      6938 5.02753E+01 8.34468E+00 4.12942E+00
 -1      6939 5.63398E+01 8.34716E+00 3.63350E+00
 -1      6940 5.65829E+01 8.76749E+00 3.34444E+00
 -1      6941 5.66686E+01 8.26201E+00 4.01781E+00
 -1      6942 5.71771E+01 8.41785E+00 4.12880E+00
 -1      6943 6.36681E+01 8.30775E+00 3.94794E+00
 -1      6944 8.98243E+01 8.26829E+00 3.87806E+00
 -1      6945 8.99134E+01 8.78998E+00 3.33934E+00
 -1      6946 9.05839E+01 8.58720E+00 3.59549E+00
 -1      6947 9.17286E+01 8.85562E+00 4.06823E+00
 -1      6948 9.21260E+01 8.54000E+00 3.63048E+00
 -1      6949 2.36994E+00 9.00755E+00 3.65694E+00
 -1      6950 3.03049E+00 8.80425E+00 3.34581E+00
 -1      6951 9.11188E+00 8.57809E+00 3.84092E+00
 -1      6952 1.77960E+01 9.08375E+00 3.67340E+00
 -1      6953 2.24776E+01 8.94400E+00 3.57583E+00
 -1      6954 2.33377E+01 8.55375E+00 3.44247E+00
 -1      6955 2.29275E+01 8.34752E+00 4.05275E+00
 -1      6956 2.37745E+01 8.35177E+00 3.91300E+00
 -1      6957 2.43761E+01 8.64135E+00 3.92050E+00
 -1      6958 3.41191E+01 8.43994E+00 3.79345E+00
 -1      6959 3.66152E+01 8.28357E+00 3.86059E+00
 -1      6960 3.62668E+01 8.86002E+00 3.39164E+00
 -1      6961 3.70449E+01 9.03384E+00 3.45518E+00
 -1      6962 3.77197E+01 9.08375E+00 3.63916E+00
 -1      6963 4.23439E+01 9.01052E+00 3.66613E+00
 -1      6964 4.90644E+01 9.08375E+00 3.59567E+00
 -1      6965 4.91308E+01 8.60817E+00 3.80819E+00
 -1      6966 5.57602E+01 8.70782E+00 3.73978E+00
 -1      6967 5.84624E+01 8.73438E+00 3.97787E+00
 -1      6968 6.44558E+01 9.17337E+00 3.71961E+00
 -1      6969 6.91536E+01 8.94400E+00 3.57162E+00
 -1      6970 7.04467E+01 8.35366E+00 3.91300E+00
 -1      6971 7.64554E+01 8.31743E+00 3.88579E+00
 -1      6972 7.76987E+01 8.94400E+00 3.63464E+00
 -1      6973 7.92488E+01 8.72217E+00 3.70034E+00
 -1      6974 8.30827E+01 8.31207E+00 3.89553E+00
 -1      6975 8.24206E+01 8.87413E+00 3.64322E+00
 -1      6976 8.29378E+01 8.87413E+00 3.37852E+00
 -1      6977 8.34507E+01 8.77593E+00 3.32194E+00
 -1      6978 8.39884E+01 8.73438E+00 3.53932E+00
 -1      6979 8.90182E+01 9.00959E+00 3.66368E+00
 -1      6980 9.65115E+01 8.30607E+00 3.77325E+00
 -1      6981 9.58039E+01 9.01388E+00 3.58982E+00
 -1      6982 9.66046E+01 8.79008E+00 3.33795E+00
 -1      6983 9.71617E+01 8.41640E+00 4.12928E+00
 -1      6984 1.69504E+00 9.13581E+00 3.80193E+00
 -1      6985 9.08749E+00 9.08375E+00 3.58696E+00
 -1      6986 1.10523E+01 9.17306E+00 3.68950E+00
 -1      6987 1.49305E+01 9.07438E+00 3.84230E+00
 -1      6988 2.05642E+01 8.80425E+00 3.89686E+00
 -1      6989 2.36178E+01 9.30405E+00 3.55224E+00
 -1      6990 2.44409E+01 9.31277E+00 3.73066E+00
 -1      6991 2.82590E+01 8.99641E+00 3.95558E+00
 -1      6992 2.89239E+01 8.60872E+00 4.22744E+00
 -1      6993 2.89369E+01 9.08375E+00 3.64960E+00
 -1      6994 3.28933E+01 8.93470E+00 3.86943E+00
 -1      6995 3.38150E+01 8.93327E+00 3.78519E+00
 -1      6996 3.84348E+01 9.04858E+00 3.91983E+00
 -1      6997 4.05483E+01 8.84203E+00 3.77325E+00
 -1      6998 4.50546E+01 8.86030E+00 4.06725E+00
 -1      6999 4.71122E+01 8.77223E+00 4.03198E+00
 -1      7000 4.82302E+01 9.05355E+00 3.88240E+00
 -1      7001 5.10927E+01 9.08375E+00 3.65701E+00
 -1      7002 5.03799E+01 9.27771E+00 3.55294E+00
 -1      7003 5.16128E+01 9.19770E+00 3.80704E+00
 -1      7004 5.38996E+01 8.79739E+00 3.84313E+00
 -1      7005 5.77227E+01 9.17313E+00 3.69005E+00
 -1      7006 6.72405E+01 8.83210E+00 3.83373E+00
 -1      7007 7.11488E+01 9.16337E+00 3.72029E+00
 -1      7008 7.49744E+01 8.76931E+00 4.08210E+00
 -1      7009 7.55638E+01 8.59657E+00 4.29731E+00
 -1      7010 7.56676E+01 9.08375E+00 3.61719E+00
 -1      7011 8.48915E+01 9.11994E+00 3.74838E+00
 -1      7012 8.62837E+01 9.05837E+00 3.77799E+00
 -1      7013 8.82430E+01 9.00122E+00 3.78866E+00
 -1      7014 9.38996E+01 8.80381E+00 3.84313E+00
 -1      7015 9.72660E+01 9.22350E+00 3.51521E+00
 -1      7016 9.77643E+01 9.08375E+00 3.65919E+00
 -1      7017 9.83111E+01 9.14342E+00 3.82761E+00
 -1      7018 9.95186E+01 8.91248E+00 3.91300E+00
 -1      7019 2.93475E+00 9.30685E+00 3.55885E+00
 -1      7020 3.49375E+00 9.33092E+00 3.59236E+00
 -1      7021 4.37898E+00 9.40142E+00 3.74102E+00
 -1      7022 4.58411E+00 8.90631E+00 3.78762E+00
 -1      7023 7.11911E+00 8.71915E+00 4.04802E+00
 -1      7024 1.02017E+01 9.30031E+00 3.54902E+00
 -1      7025 1.15924E+01 9.36489E+00 3.82669E+00
 -1      7026 1.56476E+01 8.89139E+00 3.71011E+00
 -1      7027 1.63507E+01 9.30511E+00 3.55382E+00
 -1      7028 1.58616E+01 9.43512E+00 3.71017E+00
 -1      7029 2.32261E+01 9.50199E+00 3.98288E+00
 -1      7030 2.99057E+01 9.51046E+00 4.05275E+00
 -1      7031 3.11832E+01 8.95904E+00 3.75177E+00
 -1      7032 3.32605E+01 8.95153E+00 4.48269E+00
 -1      7033 3.51050E+01 9.36325E+00 3.72894E+00
 -1      7034 3.66101E+01 9.45931E+00 3.98288E+00
 -1      7035 3.99685E+01 9.60802E+00 4.07066E+00
 -1      7036 4.35321E+01 9.30902E+00 3.58050E+00
 -1      7037 4.43558E+01 9.40077E+00 3.73780E+00
 -1      7038 4.49137E+01 9.37994E+00 3.77905E+00
 -1      7039 4.69476E+01 9.43313E+00 3.71930E+00
 -1      7040 4.96113E+01 9.30673E+00 3.55819E+00
 -1      7041 5.60397E+01 9.30156E+00 3.57854E+00
 -1      7042 5.68783E+01 9.30083E+00 3.54933E+00
 -1      7043 6.24232E+01 8.86461E+00 3.64171E+00
 -1      7044 6.32048E+01 9.50293E+00 3.98288E+00
 -1      7045 6.68005E+01 9.31285E+00 4.03496E+00
 -1      7046 6.98994E+01 9.50166E+00 3.98288E+00
 -1      7047 7.65796E+01 9.50891E+00 4.05275E+00
 -1      7048 8.35006E+01 9.31126E+00 3.57873E+00
 -1      7049 8.43964E+01 9.22350E+00 3.63708E+00
 -1      7050 9.02086E+01 9.30828E+00 3.58107E+00
 -1      7051 9.10296E+01 9.40099E+00 3.73879E+00
 -1      7052 9.15875E+01 9.37863E+00 3.77896E+00
 -1      7053 9.33530E+01 9.83577E+00 4.13838E+00
 -1      7054 9.36475E+01 9.43313E+00 3.68646E+00
 -1      7055 9.62878E+01 9.30658E+00 3.55755E+00
 -1      7056 9.68131E+01 9.42890E+00 3.97272E+00
 -1      7057 9.98751E+01 9.53794E+00 3.91076E+00
 -1      7058 5.03100E+00 9.52761E+00 3.85527E+00
 -1      7059 1.49532E+01 9.59747E+00 3.84313E+00
 -1      7060 1.77483E+01 9.58179E+00 3.83870E+00
 -1      7061 2.20805E+01 9.72424E+00 3.98695E+00
 -1      7062 2.41364E+01 9.69713E+00 4.26237E+00
 -1      7063 2.93475E+01 9.44376E+00 3.69194E+00
 -1      7064 3.32605E+01 9.64275E+00 3.96540E+00
 -1      7065 3.56347E+01 9.08375E+00 3.63680E+00
 -1      7066 5.48519E+01 9.63624E+00 3.77325E+00
 -1      7067 6.91763E+01 9.55442E+00 3.81651E+00
 -1      7068 7.07776E+01 9.68168E+00 4.05275E+00
 -1      7069 7.50476E+01 9.48661E+00 3.85837E+00
 -1      7070 7.60240E+01 9.44437E+00 3.69245E+00
 -1      7071 8.25224E+01 9.51332E+00 3.76528E+00
 -1      7072 6.28234E+00 9.92410E+00 3.78373E+00
 -1      7073 6.70800E+00 9.64275E+00 4.01637E+00
 -1      7074 8.17537E+00 9.64461E+00 3.77325E+00
 -1      7075 3.40291E+01 9.98149E+00 3.75682E+00
 -1      7076 4.07108E+01 9.96813E+00 3.76214E+00
 -1      7077 4.53217E+01 9.86647E+00 4.02370E+00
 -1      7078 5.29217E+01 9.95899E+00 3.79967E+00
 -1      7079 5.33845E+01 9.64275E+00 4.00040E+00
 -1      7080 6.68704E+01 9.94099E+00 3.88672E+00
 -1      7081 7.39277E+01 9.98458E+00 3.78522E+00
 -1      7082 8.06918E+01 9.96977E+00 3.75604E+00
 -1      7083 8.73867E+01 9.96742E+00 3.76097E+00
 -1      7084 9.19946E+01 9.86805E+00 4.02317E+00
 -1      7085 9.29323E+01 9.92856E+00 3.77620E+00
 -1      7086 7.57845E-01 9.98154E+00 3.79064E+00
 -1      7087 1.27068E+01 9.97786E+00 3.79479E+00
 -1      7088 1.84517E+01 9.50300E+00 3.91300E+00
 -1      7089 2.11261E+01 9.95162E+00 3.98848E+00
 -1      7090 2.58648E+01 1.00125E+01 3.76212E+00
 -1      7091 3.23412E+01 1.00485E+01 4.07679E+00
 -1      7092 3.89707E+01 1.00485E+01 4.13879E+00
 -1      7093 3.96890E+01 1.00381E+01 3.93690E+00
 -1      7094 4.57880E+01 1.00620E+01 3.91300E+00
 -1      7095 4.74102E+01 1.00366E+01 3.81450E+00
 -1      7096 4.78374E+01 1.00214E+01 4.16557E+00
 -1      7097 5.23858E+01 1.00792E+01 4.09380E+00
 -1      7098 5.41182E+01 1.00345E+01 3.81864E+00
 -1      7099 5.91347E+01 1.00061E+01 3.76284E+00
 -1      7100 6.00925E+01 9.44414E+00 4.07686E+00
 -1      7101 6.51320E+01 9.50300E+00 3.91300E+00
 -1      7102 6.74042E+01 1.01468E+01 4.13006E+00
 -1      7103 6.80628E+01 9.78022E+00 3.99523E+00
 -1      7104 7.30892E+01 1.00787E+01 4.03471E+00
 -1      7105 7.90166E+01 1.00499E+01 4.07121E+00
 -1      7106 8.56457E+01 1.00411E+01 4.06079E+00
 -1      7107 8.63655E+01 1.00343E+01 3.94013E+00
 -1      7108 9.24571E+01 1.00620E+01 3.91300E+00
 -1      7109 9.42788E+01 9.96957E+00 3.72456E+00
 -1      7110 9.89507E+01 1.00294E+01 4.11585E+00
 -1      7111 5.56588E+00 3.76550E-02 4.13292E+00
 -1      7112 1.23783E+01-6.23392E-02 4.26237E+00
 -1      7113 1.36082E+01-1.10564E-01 4.13853E+00
 -1      7114 2.76006E+01-2.91728E-02 4.12263E+00
 -1      7115 3.30509E+01-1.24982E-01 4.15768E+00
 -1      7116 3.96890E+01 1.39359E-02 3.92641E+00
 -1      7117 5.95335E+01-2.38995E-01 4.29304E+00
 -1      7118 6.02847E+01-5.22175E-02 4.06766E+00
 -1      7119 7.42422E+01-5.25775E-02 4.15756E+00
 -1      7120 7.86757E+01 2.70647E-03 4.31478E+00
 -1      7121 8.81064E+01 2.13356E-01 4.06077E+00
 -1      7122 9.33530E+01 1.39750E-01 4.10856E+00
 -1      7123 9.48903E+01 4.41681E-01 3.91300E+00
 -1      7124 9.87342E+01 1.81785E-01 3.98550E+00
 -1      7125 9.95020E+01-2.38466E-01 4.30231E+00
 -1      7126 5.43528E-02 4.19250E-01 4.00025E+00
 -1      7127 2.90645E+00 5.00445E-01 4.27984E+00
 -1      7128 9.03999E+00 3.41239E-01 4.22696E+00
 -1      7129 8.93801E+00 8.38500E-01 3.63350E+00
 -1      7130 9.61366E+00 5.19604E-01 4.27984E+00
 -1      7131 1.79579E+01 2.55743E-01 4.15098E+00
 -1      7132 1.99843E+01 1.15803E-01 3.99747E+00
 -1      7133 2.01240E+01 7.20024E-01 4.05275E+00
 -1      7134 2.22276E+01 2.29464E-01 4.43706E+00
 -1      7135 2.15195E+01 7.16161E-02 4.32105E+00
 -1      7136 2.28471E+01 4.56938E-01 4.05275E+00
 -1      7137 2.41469E+01 3.26389E-01 4.33225E+00
 -1      7138 3.00948E+01 5.68605E-01 4.08769E+00
 -1      7139 3.09386E+01 3.90881E-01 4.55935E+00
 -1      7140 3.75759E+01 2.91715E-01 4.33225E+00
 -1      7141 4.22924E+01 6.56400E-01 3.73596E+00
 -1      7142 4.32258E+01 5.39810E-01 4.07022E+00
 -1      7143 4.66765E+01 4.19250E-01 4.07099E+00
 -1      7144 4.89057E+01 2.30050E-01 4.29731E+00
 -1      7145 4.95828E+01 5.04977E-01 4.27984E+00
 -1      7146 5.56715E+01 3.92485E-01 3.98151E+00
 -1      7147 5.74370E+01 3.27036E-01 4.19250E+00
 -1      7148 6.22292E+01 2.17346E-01 4.34972E+00
 -1      7149 6.66608E+01 1.00681E-01 4.01428E+00
 -1      7150 6.68005E+01 7.39089E-01 4.05275E+00
 -1      7151 7.08187E+01 3.24169E-01 4.33225E+00
 -1      7152 7.67227E+01 6.98309E-01 4.34402E+00
 -1      7153 8.38269E+01 4.92982E-01 4.27114E+00
 -1      7154 8.46885E+01 6.98750E-01 3.76878E+00
 -1      7155 8.99011E+01 5.41991E-01 4.07022E+00
 -1      7156 9.33530E+01 1.02767E+00 4.61175E+00
 -1      7157 9.62592E+01 5.09526E-01 4.27984E+00
 -1      7158 3.48615E+00 5.77258E-01 4.05275E+00
 -1      7159 1.01787E+01 5.67041E-01 4.05275E+00
 -1      7160 1.37609E+01 1.38993E+00 4.14746E+00
 -1      7161 1.55821E+01 4.71404E-01 3.83786E+00
 -1      7162 2.35872E+01 6.01445E-01 4.26792E+00
 -1      7163 2.66901E+01 1.01889E+00 4.25760E+00
 -1      7164 5.01838E+01 7.90170E-01 4.39292E+00
 -1      7165 6.34602E+01 5.51310E-01 4.05275E+00
 -1      7166 6.45645E+01 4.62275E-01 3.86121E+00
 -1      7167 6.83378E+01 1.25775E+00 3.93961E+00
 -1      7168 7.99370E+01 1.08641E+00 4.52139E+00
 -1      7169 8.81110E+00 1.34943E+00 4.10284E+00
 -1      7170 1.95696E+01 1.32141E+00 4.06801E+00
 -1      7171 6.62641E+01 1.28693E+00 4.10297E+00
 -1      7172 6.71275E+01 1.38035E+00 4.06699E+00
 -1      7173 7.50038E+01 1.29269E+00 4.16163E+00
 -1      7174 8.62861E+01 1.35576E+00 4.20526E+00
 -1      7175 8.71810E+01 1.16874E+00 3.91300E+00
 -1      7176 8.82726E+01 1.27632E+00 4.08899E+00
 -1      7177 9.37458E+01 1.16424E+00 4.04405E+00
 -1      7178 4.01945E-01 1.15423E+00 4.05128E+00
 -1      7179 4.45816E+00 1.38773E+00 3.91300E+00
 -1      7180 5.01553E+00 1.39750E+00 4.18282E+00
 -1      7181 8.09153E+00 1.09921E+00 4.06791E+00
 -1      7182 1.11454E+01 1.37304E+00 3.91300E+00
 -1      7183 2.22111E+01 1.45356E+00 4.19250E+00
 -1      7184 2.39528E+01 1.64756E+00 4.05275E+00
 -1      7185 2.89165E+01 1.46991E+00 4.19250E+00
 -1      7186 3.49394E+01 1.32763E+00 4.28168E+00
 -1      7187 3.55208E+01 1.44696E+00 4.29731E+00
 -1      7188 3.96076E+01 1.36736E+00 4.18601E+00
 -1      7189 4.21921E+01 1.45210E+00 4.22744E+00
 -1      7190 4.39501E+01 1.64422E+00 4.05275E+00
 -1      7191 5.11297E+01 1.38424E+00 3.91300E+00
 -1      7192 5.47648E+01 1.09411E+00 4.06831E+00
 -1      7193 6.21889E+01 1.36709E+00 4.48449E+00
 -1      7194 6.45043E+01 1.35479E+00 3.91300E+00
 -1      7195 6.88921E+01 1.45981E+00 4.19250E+00
 -1      7196 7.56048E+01 1.48444E+00 4.12263E+00
 -1      7197 8.05259E+01 1.75329E+00 4.25336E+00
 -1      7198 8.21665E+01 1.44204E+00 4.22744E+00
 -1      7199 8.37830E+01 1.68544E+00 4.12263E+00
 -1      7200 9.09758E+01 1.47923E+00 3.98288E+00
 -1      7201 9.55987E+01 1.45944E+00 4.16266E+00
 -1      7202 4.09711E-01 1.64436E+00 4.35656E+00
 -1      7203 4.74193E+00 1.83758E+00 4.12263E+00
 -1      7204 7.28804E+00 1.67700E+00 3.93828E+00
 -1      7205 1.16854E+01 1.39750E+00 4.13137E+00
 -1      7206 1.14126E+01 1.83842E+00 4.05275E+00
 -1      7207 1.50336E+01 1.35033E+00 4.47200E+00
 -1      7208 1.55802E+01 1.45534E+00 4.05275E+00
 -1      7209 2.59542E+01 2.04312E+00 4.01781E+00
 -1      7210 3.06358E+01 1.59197E+00 4.13762E+00
 -1      7211 3.72948E+01 1.59782E+00 4.17275E+00
 -1      7212 4.18957E+01 1.80040E+00 4.08769E+00
 -1      7213 4.70673E+01 1.62774E+00 4.35566E+00
 -1      7214 4.96135E+01 1.72784E+00 4.05275E+00
 -1      7215 5.13896E+01 1.86746E+00 4.05275E+00
 -1      7216 5.39620E+01 1.82040E+00 4.02171E+00
 -1      7217 5.72493E+01 1.66168E+00 4.05275E+00
 -1      7218 5.83377E+01 1.39750E+00 4.29628E+00
 -1      7219 5.80392E+01 1.89347E+00 4.01781E+00
 -1      7220 5.93320E+01 1.91268E+00 4.03819E+00
 -1      7221 6.15871E+01 1.23979E+00 4.08714E+00
 -1      7222 7.07040E+01 1.55984E+00 4.24223E+00
 -1      7223 7.62472E+01 1.60649E+00 4.26650E+00
 -1      7224 7.93747E+01 1.89888E+00 4.05275E+00
 -1      7225 8.16417E+01 1.39750E+00 4.31652E+00
 -1      7226 8.18833E+01 1.90115E+00 4.26237E+00
 -1      7227 8.28883E+01 1.70297E+00 4.06254E+00
 -1      7228 8.60340E+01 1.88143E+00 4.12263E+00
 -1      7229 8.90298E+01 1.43221E+00 4.46357E+00
 -1      7230 9.04131E+01 1.71893E+00 4.05275E+00
 -1      7231 9.25846E+01 1.81675E+00 3.84382E+00
 -1      7232 9.38830E+01 1.80828E+00 4.23755E+00
 -1      7233 9.51942E+01 1.75563E+00 4.05275E+00
 -1      7234 9.72339E+01 1.66759E+00 4.05275E+00
 -1      7235 9.80738E+01 1.84656E+00 4.05275E+00
 -1      7236 9.92365E+01 1.99780E+00 3.88789E+00
 -1      7237 1.25731E+01 2.14213E+00 4.04566E+00
 -1      7238 1.39750E+01 2.03831E+00 4.19250E+00
 -1      7239 1.92599E+01 2.11281E+00 4.05155E+00
 -1      7240 2.05221E+01 1.81811E+00 4.33225E+00
 -1      7241 2.46196E+01 2.29248E+00 4.20621E+00
 -1      7242 3.26610E+01 1.98922E+00 4.05275E+00
 -1      7243 4.50177E+01 1.36858E+00 4.33225E+00
 -1      7244 6.06515E+01 2.05464E+00 4.19250E+00
 -1      7245 1.44040E+01 2.51550E+00 4.33972E+00
 -1      7246 3.22654E+01 2.51550E+00 4.33843E+00
 -1      7247 5.54137E+01 2.82342E+00 4.07022E+00
 -1      7248 6.10733E+01 2.51550E+00 4.34097E+00
 -1      7249 7.22569E+01 2.51550E+00 4.34239E+00
 -1      7250 8.49159E+01 2.12197E+00 4.55549E+00
 -1      7251 8.58326E+01 2.59657E+00 4.19250E+00
 -1      7252 5.56553E+00 2.51550E+00 4.34381E+00
 -1      7253 1.22128E+01 2.51550E+00 4.38640E+00
 -1      7254 2.55878E+01 2.51550E+00 4.34352E+00
 -1      7255 2.77709E+01 2.51550E+00 4.37055E+00
 -1      7256 2.88190E+01 2.69244E+00 4.07995E+00
 -1      7257 3.44589E+01 2.51550E+00 4.39088E+00
 -1      7258 4.10698E+01 2.51550E+00 4.32664E+00
 -1      7259 5.22359E+01 2.51550E+00 4.34163E+00
 -1      7260 5.40055E+01 3.00710E+00 4.14009E+00
 -1      7261 5.88845E+01 2.51550E+00 4.38170E+00
 -1      7262 7.44427E+01 2.51550E+00 4.37575E+00
 -1      7263 8.11305E+01 2.51550E+00 4.39515E+00
 -1      7264 8.77400E+01 2.51550E+00 4.32985E+00
 -1      7265 9.89063E+01 2.51550E+00 4.33932E+00
 -1      7266 1.26669E+01 3.14366E+00 3.96973E+00
 -1      7267 1.79074E+01 2.88097E+00 4.08769E+00
 -1      7268 2.07041E+01 2.96259E+00 4.12263E+00
 -1      7269 2.10821E+01 2.51550E+00 4.34606E+00
 -1      7270 2.72788E+01 3.08701E+00 4.17372E+00
 -1      7271 3.54491E+01 2.87749E+00 4.01781E+00
 -1      7272 4.55542E+01 2.51550E+00 4.35003E+00
 -1      7273 4.74502E+01 2.81564E+00 4.22744E+00
 -1      7274 6.07175E+01 2.95307E+00 4.24491E+00
 -1      7275 7.26267E+01 2.90317E+00 4.12263E+00
 -1      7276 7.40805E+01 2.90105E+00 4.04860E+00
 -1      7277 7.78356E+01 2.65525E+00 4.12263E+00
 -1      7278 8.07859E+01 2.80928E+00 4.05275E+00
 -1      7279 9.22243E+01 2.51550E+00 4.34821E+00
 -1      7280 9.45450E+01 2.51550E+00 4.49072E+00
 -1      7281 1.94922E+00 3.15671E+00 4.05275E+00
 -1      7282 7.37011E+00 2.96626E+00 4.26237E+00
 -1      7283 1.14309E+01 3.04571E+00 4.24598E+00
 -1      7284 3.14350E+01 3.21233E+00 4.05275E+00
 -1      7285 3.28310E+01 3.23811E+00 4.36719E+00
 -1      7286 3.81354E+01 3.25002E+00 4.04023E+00
 -1      7287 6.73454E+01 3.03002E+00 4.12263E+00
 -1      7288 6.77541E+01 2.51550E+00 4.35229E+00
 -1      7289 6.84775E+01 3.07450E+00 3.58133E+00
 -1      7290 6.87234E+01 2.73064E+00 4.20246E+00
 -1      7291 7.81061E+01 3.20235E+00 3.98288E+00
 -1      7292 8.46796E+01 3.08716E+00 4.05275E+00
 -1      7293 8.74133E+01 3.21425E+00 3.84436E+00
 -1      7294 9.13661E+01 3.09673E+00 4.12263E+00
 -1      7295 9.39218E+01 3.21611E+00 4.12263E+00
 -1      7296 9.80782E+01 3.18226E+00 4.05275E+00
 -1      7297 6.08594E+00 3.30197E+00 4.03877E+00
 -1      7298 1.62974E+01 3.31530E+00 4.12263E+00
 -1      7299 1.81828E+01 3.33672E+00 4.05275E+00
 -1      7300 2.04423E+01 3.68133E+00 4.08913E+00
 -1      7301 2.20522E+01 2.73377E+00 4.20497E+00
 -1      7302 3.06417E+01 3.38319E+00 4.19250E+00
 -1      7303 3.49847E+01 3.63350E+00 4.15136E+00
 -1      7304 3.89438E+01 2.51550E+00 4.33236E+00
 -1      7305 4.83273E+01 3.67450E+00 4.19250E+00
 -1      7306 5.27551E+01 3.30444E+00 4.04070E+00
 -1      7307 5.80188E+01 2.90487E+00 4.27984E+00
 -1      7308 6.16789E+01 3.66273E+00 4.33225E+00
 -1      7309 6.29721E+01 3.31330E+00 4.12263E+00
 -1      7310 6.50192E+01 3.63350E+00 4.37012E+00
 -1      7311 6.83428E+01 3.63350E+00 4.33225E+00
 -1      7312 7.17267E+01 3.80493E+00 3.92396E+00
 -1      7313 7.38444E+01 3.31461E+00 4.34972E+00
 -1      7314 7.95080E+01 3.79060E+00 3.97007E+00
 -1      7315 7.93270E+01 2.93475E+00 4.33225E+00
 -1      7316 8.50587E+01 3.72476E+00 4.66206E+00
 -1      7317 8.61172E+01 3.21712E+00 4.23677E+00
 -1      7318 9.50482E+01 3.43218E+00 4.27145E+00
 -1      7319 2.24483E+00 3.56849E+00 4.15756E+00
 -1      7320 4.48702E+00 3.57493E+00 4.22744E+00
 -1      7321 6.16889E+00 3.87252E+00 3.91300E+00
 -1      7322 9.27672E+00 3.42744E+00 4.01781E+00
 -1      7323 1.16924E+01 3.63350E+00 4.31735E+00
 -1      7324 1.72053E+01 3.34798E+00 4.05275E+00
 -1      7325 1.77612E+01 3.57632E+00 4.07011E+00
 -1      7326 2.22522E+01 3.61396E+00 3.91300E+00
 -1      7327 2.26418E+01 3.47238E+00 4.31283E+00
 -1      7328 2.44716E+01 3.66717E+00 4.50122E+00
 -1      7329 2.89271E+01 3.58259E+00 4.19250E+00
 -1      7330 3.55401E+01 3.58869E+00 4.31478E+00
 -1      7331 3.64110E+01 3.28656E+00 4.12263E+00
 -1      7332 3.85503E+01 3.88684E+00 4.09027E+00
 -1      7333 4.40258E+01 3.40242E+00 4.05275E+00
 -1      7334 4.61517E+01 3.84371E+00 3.91300E+00
 -1      7335 4.61336E+01 3.23656E+00 4.24243E+00
 -1      7336 4.89200E+01 3.56483E+00 4.15756E+00
 -1      7337 5.16958E+01 3.63350E+00 4.25263E+00
 -1      7338 5.28410E+01 3.88148E+00 3.91300E+00
 -1      7339 5.56202E+01 3.54900E+00 4.12263E+00
 -1      7340 5.78403E+01 3.64510E+00 3.96241E+00
 -1      7341 6.44540E+01 3.67204E+00 4.57234E+00
 -1      7342 6.82596E+01 4.01781E+00 3.93608E+00
 -1      7343 6.93171E+01 3.47056E+00 4.31273E+00
 -1      7344 7.73136E+01 3.38474E+00 4.19250E+00
 -1      7345 8.22136E+01 3.58640E+00 4.31478E+00
 -1      7346 8.30862E+01 3.28494E+00 4.12263E+00
 -1      7347 9.06997E+01 3.40538E+00 4.05275E+00
 -1      7348 9.28052E+01 3.24236E+00 4.24426E+00
 -1      7349 9.47773E+01 3.88724E+00 4.09125E+00
 -1      7350 5.03026E+00 3.63350E+00 4.19529E+00
 -1      7351 3.56346E+01 4.05275E+00 3.63719E+00
 -1      7352 6.62698E+01 3.71665E+00 4.09545E+00
 -1      7353 6.68005E+01 4.28535E+00 4.04738E+00
 -1      7354 7.29518E+01 3.73502E+00 4.10248E+00
 -1      7355 8.52539E+01 3.91479E+00 4.06109E+00
 -1      7356 9.83473E+01 3.63350E+00 4.32847E+00
 -1      7357 1.34160E+01 4.06950E+00 4.35281E+00
 -1      7358 1.99580E+01 4.12994E+00 4.17397E+00
 -1      7359 2.62814E+01 3.73067E+00 4.10078E+00
 -1      7360 6.00925E+01 4.34577E+00 4.07491E+00
 -1      7361 3.32398E+00 4.46151E+00 4.05275E+00
 -1      7362 4.28400E+00 4.64592E+00 4.01181E+00
 -1      7363 9.28934E+00 4.64481E+00 4.33225E+00
 -1      7364 1.34160E+01 4.61175E+00 3.94959E+00
 -1      7365 1.55821E+01 4.58181E+00 3.87709E+00
 -1      7366 1.65690E+01 4.47583E+00 4.05275E+00
 -1      7367 2.01240E+01 4.61175E+00 3.88665E+00
 -1      7368 2.21504E+01 4.67584E+00 3.97871E+00
 -1      7369 3.01941E+01 4.46839E+00 4.05275E+00
 -1      7370 3.08648E+01 4.65024E+00 4.03215E+00
 -1      7371 3.52170E+01 4.62133E+00 3.91300E+00
 -1      7372 3.66034E+01 4.47079E+00 4.05275E+00
 -1      7373 4.25415E+01 4.68188E+00 4.33225E+00
 -1      7374 4.33187E+01 4.45599E+00 4.08769E+00
 -1      7375 4.66765E+01 4.01549E+00 4.61175E+00
 -1      7376 4.99952E+01 4.46171E+00 4.05275E+00
 -1      7377 5.59646E+01 4.64086E+00 4.33225E+00
 -1      7378 6.22484E+01 4.79241E+00 4.47200E+00
 -1      7379 6.31700E+01 4.41175E+00 4.26729E+00
 -1      7380 6.88269E+01 4.67518E+00 3.97892E+00
 -1      7381 8.24120E+01 4.65177E+00 4.55351E+00
 -1      7382 8.32747E+01 4.46904E+00 4.05275E+00
 -1      7383 9.66660E+01 4.46190E+00 4.05275E+00
 -1      7384 2.79500E+00 4.57150E+00 4.33225E+00
 -1      7385 1.81675E+01 4.75150E+00 4.02206E+00
 -1      7386 2.48755E+01 4.75150E+00 4.02202E+00
 -1      7387 3.58700E+01 4.68286E+00 4.33225E+00
 -1      7388 3.75342E+01 4.71854E+00 4.33225E+00
 -1      7389 3.83064E+01 5.03100E+00 4.61175E+00
 -1      7390 4.66765E+01 4.89125E+00 4.11788E+00
 -1      7391 4.92617E+01 4.65732E+00 4.33225E+00
 -1      7392 6.02251E+01 4.89125E+00 3.92221E+00
 -1      7393 7.15520E+01 4.75150E+00 4.02214E+00
 -1      7394 7.61638E+01 4.58044E+00 4.26237E+00
 -1      7395 8.14727E+01 4.77132E+00 4.00960E+00
 -1      7396 8.42058E+01 4.72067E+00 4.33225E+00
 -1      7397 8.51114E+01 5.03100E+00 4.47584E+00
 -1      7398 8.89934E+01 4.77424E+00 4.33225E+00
 -1      7399 8.95967E+01 4.53484E+00 4.26237E+00
 -1      7400 9.33530E+01 4.65385E+00 4.11811E+00
 -1      7401 9.59370E+01 4.65343E+00 4.33225E+00
 -1      7402 8.66450E+01 4.65302E+00 4.11597E+00
 -1      7403 5.40336E-02 5.45025E+00 4.00134E+00
 -1      7404 3.99685E+01 5.40894E+00 4.10688E+00
 -1      7405 4.66765E+01 5.45025E+00 4.07298E+00
 -1      7406 6.11313E+01 5.03100E+00 4.24333E+00
 -1      7407 7.21953E+01 5.03100E+00 4.24370E+00
 -1      7408 7.99370E+01 5.24063E+00 4.05775E+00
 -1      7409 8.66450E+01 5.47490E+00 4.08250E+00
 -1      7410 9.48903E+01 5.46473E+00 3.91300E+00
 -1      7411 2.90845E+00 5.52351E+00 4.27984E+00
 -1      7412 4.34906E+00 5.26794E+00 4.33225E+00
 -1      7413 1.00648E+01 5.57773E+00 4.08769E+00
 -1      7414 1.07522E+01 5.35551E+00 4.19250E+00
 -1      7415 1.58074E+01 5.33951E+00 4.29731E+00
 -1      7416 1.63361E+01 5.62636E+00 4.31487E+00
 -1      7417 2.65525E+01 5.45025E+00 3.89995E+00
 -1      7418 2.91437E+01 5.32358E+00 4.33225E+00
 -1      7419 3.00760E+01 5.59615E+00 4.09366E+00
 -1      7420 3.09323E+01 5.41801E+00 4.56001E+00
 -1      7421 3.66856E+01 5.59262E+00 4.03528E+00
 -1      7422 3.60555E+01 5.43428E+00 4.05275E+00
 -1      7423 4.29033E+01 5.50420E+00 4.22744E+00
 -1      7424 4.40911E+01 5.45706E+00 3.96212E+00
 -1      7425 5.02320E+01 5.82457E+00 4.49818E+00
 -1      7426 5.10217E+01 5.26589E+00 4.33225E+00
 -1      7427 6.47043E+01 5.27086E+00 4.11295E+00
 -1      7428 6.66891E+01 5.77894E+00 4.04127E+00
 -1      7429 6.83145E+01 5.03100E+00 4.58441E+00
 -1      7430 6.98874E+01 5.56141E+00 4.04526E+00
 -1      7431 7.08553E+01 5.33535E+00 4.33225E+00
 -1      7432 7.13424E+01 5.23735E+00 4.18211E+00
 -1      7433 7.76051E+01 5.41583E+00 4.56102E+00
 -1      7434 8.22680E+01 5.66075E+00 3.75743E+00
 -1      7435 8.27320E+01 5.45772E+00 4.26237E+00
 -1      7436 8.33610E+01 5.59386E+00 4.03528E+00
 -1      7437 8.43697E+01 5.27063E+00 4.36719E+00
 -1      7438 8.89652E+01 5.68540E+00 3.73294E+00
 -1      7439 8.98989E+01 5.56647E+00 4.07022E+00
 -1      7440 9.05396E+01 5.51606E+00 4.27619E+00
 -1      7441 9.11170E+01 5.49510E+00 3.83075E+00
 -1      7442 9.55135E+01 5.23423E+00 4.33225E+00
 -1      7443 9.62616E+01 5.53262E+00 4.27984E+00
 -1      7444 9.73359E+01 5.50333E+00 3.89998E+00
 -1      7445 9.81045E+01 5.42078E+00 3.91300E+00
 -1      7446 9.76943E+01 5.26386E+00 4.33225E+00
 -1      7447 3.58354E+00 5.61840E+00 4.26237E+00
 -1      7448 1.37628E+01 6.41834E+00 4.14787E+00
 -1      7449 2.38973E+01 5.55245E+00 3.83320E+00
 -1      7450 2.45261E+01 5.45014E+00 3.88193E+00
 -1      7451 2.82987E+01 6.28875E+00 4.16260E+00
 -1      7452 5.73543E+01 5.38399E+00 4.15756E+00
 -1      7453 6.05116E+01 6.27537E+00 3.95947E+00
 -1      7454 6.28027E+01 5.47909E+00 4.30605E+00
 -1      7455 6.35973E+01 5.55176E+00 4.05275E+00
 -1      7456 6.83378E+01 6.28875E+00 3.93627E+00
 -1      7457 7.32290E+01 5.84108E+00 4.22649E+00
 -1      7458 7.67525E+01 5.59700E+00 4.09897E+00
 -1      7459 5.00729E+00 6.42850E+00 4.17374E+00
 -1      7460 4.43693E+01 6.47208E+00 4.01377E+00
 -1      7461 6.71439E+01 6.40966E+00 4.05039E+00
 -1      7462 7.11605E+01 6.40087E+00 4.07100E+00
 -1      7463 7.99370E+01 6.11256E+00 4.53155E+00
 -1      7464 9.12516E+01 6.35086E+00 3.97555E+00
 -1      7465 1.99203E+00 6.56783E+00 4.23775E+00
 -1      7466 8.09010E+00 6.12848E+00 4.06506E+00
 -1      7467 9.08890E+00 6.45980E+00 4.37542E+00
 -1      7468 2.25274E+01 6.59238E+00 4.05275E+00
 -1      7469 2.92675E+01 6.62032E+00 4.05275E+00
 -1      7470 3.56362E+01 6.52022E+00 4.12263E+00
 -1      7471 4.16494E+01 6.42850E+00 4.20898E+00
 -1      7472 4.23210E+01 6.48305E+00 4.32520E+00
 -1      7473 4.89268E+01 6.47997E+00 4.16153E+00
 -1      7474 5.11225E+01 6.41036E+00 3.91300E+00
 -1      7475 5.16729E+01 6.42850E+00 4.16070E+00
 -1      7476 5.47625E+01 6.12250E+00 4.06992E+00
 -1      7477 5.57648E+01 6.46152E+00 4.37573E+00
 -1      7478 6.24643E+01 6.56598E+00 4.05275E+00
 -1      7479 6.89648E+01 6.42033E+00 4.41405E+00
 -1      7480 8.23826E+01 6.47644E+00 4.35138E+00
 -1      7481 8.89969E+01 6.48556E+00 4.32542E+00
 -1      7482 9.83415E+01 6.42850E+00 4.14824E+00
 -1      7483 4.10709E-01 6.66945E+00 4.35681E+00
 -1      7484 3.87701E+00 6.69778E+00 4.05275E+00
 -1      7485 4.71580E+00 6.90048E+00 4.05275E+00
 -1      7486 1.14082E+01 6.86720E+00 4.05275E+00
 -1      7487 1.50317E+01 6.37696E+00 4.47200E+00
 -1      7488 1.60660E+01 6.67763E+00 4.05275E+00
 -1      7489 2.39400E+01 6.67416E+00 4.05275E+00
 -1      7490 2.47432E+01 6.66139E+00 3.92520E+00
 -1      7491 3.15835E+01 6.70800E+00 3.84232E+00
 -1      7492 3.39980E+01 6.99036E+00 4.18527E+00
 -1      7493 3.62213E+01 6.72638E+00 4.06039E+00
 -1      7494 4.29187E+01 6.73519E+00 4.06185E+00
 -1      7495 4.37320E+01 6.74568E+00 4.05275E+00
 -1      7496 4.59860E+01 6.84775E+00 3.91300E+00
 -1      7497 4.70847E+01 6.68049E+00 4.35589E+00
 -1      7498 5.05485E+01 6.69597E+00 4.05275E+00
 -1      7499 5.26720E+01 6.96535E+00 4.03918E+00
 -1      7500 5.39601E+01 6.70800E+00 3.93298E+00
 -1      7501 5.72357E+01 6.68825E+00 4.05275E+00
 -1      7502 6.17069E+01 6.37862E+00 4.47200E+00
 -1      7503 6.39235E+01 6.68033E+00 4.05275E+00
 -1      7504 6.49900E+01 6.42850E+00 4.33225E+00
 -1      7505 6.59948E+01 6.96978E+00 4.05275E+00
 -1      7506 7.06118E+01 6.67221E+00 4.05275E+00
 -1      7507 7.56048E+01 6.50679E+00 4.12263E+00
 -1      7508 7.72566E+01 6.58330E+00 4.30798E+00
 -1      7509 7.82600E+01 6.70800E+00 3.82938E+00
 -1      7510 7.93723E+01 6.92780E+00 4.05275E+00
 -1      7511 8.06693E+01 6.99599E+00 4.18351E+00
 -1      7512 8.18867E+01 6.93105E+00 4.26237E+00
 -1      7513 8.28953E+01 6.72850E+00 4.06076E+00
 -1      7514 8.60878E+01 6.82431E+00 4.14009E+00
 -1      7515 8.95926E+01 6.73725E+00 4.06216E+00
 -1      7516 9.05333E+01 6.70172E+00 4.05275E+00
 -1      7517 9.25836E+01 6.84775E+00 3.84418E+00
 -1      7518 9.37411E+01 6.66185E+00 4.35499E+00
 -1      7519 9.61538E+01 6.69675E+00 4.08769E+00
 -1      7520 9.72200E+01 6.69415E+00 4.05275E+00
 -1      7521 1.25707E+01 7.16982E+00 4.04605E+00
 -1      7522 1.39738E+01 7.00297E+00 4.30412E+00
 -1      7523 2.74046E+01 7.10503E+00 4.13664E+00
 -1      7524 3.26596E+01 7.01603E+00 4.05275E+00
 -1      7525 3.68899E+01 6.79501E+00 4.05275E+00
 -1      7526 4.50303E+01 6.42850E+00 4.33225E+00
 -1      7527 5.80357E+01 6.92120E+00 4.01781E+00
 -1      7528 5.93711E+01 6.98737E+00 4.17244E+00
 -1      7529 6.06515E+01 7.07715E+00 4.19250E+00
 -1      7530 7.15520E+01 6.70800E+00 3.88730E+00
 -1      7531 8.35650E+01 6.79357E+00 4.05275E+00
 -1      7532 5.57076E+00 7.54650E+00 4.34678E+00
 -1      7533 7.71968E+00 7.54650E+00 4.33579E+00
 -1      7534 1.43977E+01 7.54650E+00 4.34151E+00
 -1      7535 1.92579E+01 7.14071E+00 4.05250E+00
 -1      7536 3.22716E+01 7.54650E+00 4.34024E+00
 -1      7537 3.80032E+01 6.97530E+00 4.05536E+00
 -1      7538 6.10670E+01 7.54650E+00 4.34273E+00
 -1      7539 7.22633E+01 7.54650E+00 4.34413E+00
 -1      7540 7.89409E+01 7.54650E+00 4.33891E+00
 -1      7541 9.16968E+01 6.42850E+00 4.33225E+00
 -1      7542 9.43801E+01 7.54650E+00 4.33239E+00
 -1      7543 9.55565E+01 7.47563E+00 3.97978E+00
 -1      7544 1.22176E+01 7.54650E+00 4.39128E+00
 -1      7545 1.53747E+01 7.24520E+00 4.23932E+00
 -1      7546 2.77662E+01 7.54650E+00 4.37569E+00
 -1      7547 3.44539E+01 7.54650E+00 4.39568E+00
 -1      7548 4.10645E+01 7.54650E+00 4.33042E+00
 -1      7549 5.21045E+01 7.54650E+00 4.49681E+00
 -1      7550 5.43891E+01 7.54650E+00 4.33724E+00
 -1      7551 5.79817E+01 7.64277E+00 4.30054E+00
 -1      7552 5.88893E+01 7.54650E+00 4.38666E+00
 -1      7553 6.77496E+01 7.54650E+00 4.35767E+00
 -1      7554 8.11255E+01 7.54650E+00 4.39987E+00
 -1      7555 8.73748E+00 7.96134E+00 4.05275E+00
 -1      7556 1.26684E+01 8.17311E+00 3.96865E+00
 -1      7557 1.40444E+01 7.98496E+00 4.24491E+00
 -1      7558 1.80108E+01 7.86844E+00 4.27984E+00
 -1      7559 2.72764E+01 8.11399E+00 4.17352E+00
 -1      7560 2.88175E+01 7.72148E+00 4.07993E+00
 -1      7561 3.11710E+01 7.68625E+00 4.12263E+00
 -1      7562 3.26260E+01 7.92462E+00 4.12263E+00
 -1      7563 4.55596E+01 7.54650E+00 4.35284E+00
 -1      7564 5.93394E+01 8.17749E+00 3.97212E+00
 -1      7565 6.55774E+01 7.54650E+00 4.36474E+00
 -1      7566 7.78377E+01 7.68625E+00 4.12263E+00
 -1      7567 9.22297E+01 7.54650E+00 4.35107E+00
 -1      7568 9.54279E+01 7.96575E+00 3.91300E+00
 -1      7569 2.00102E+00 8.10550E+00 3.91300E+00
 -1      7570 1.13987E+01 7.98764E+00 4.24491E+00
 -1      7571 1.54056E+01 7.94271E+00 4.06546E+00
 -1      7572 2.06738E+01 8.06183E+00 4.12263E+00
 -1      7573 2.10777E+01 7.54650E+00 4.35152E+00
 -1      7574 3.14543E+01 8.42029E+00 4.20997E+00
 -1      7575 3.81344E+01 8.27316E+00 4.04159E+00
 -1      7576 5.39662E+01 8.13285E+00 4.12263E+00
 -1      7577 5.81287E+01 8.22279E+00 4.15756E+00
 -1      7578 6.73459E+01 8.04758E+00 4.05275E+00
 -1      7579 7.40782E+01 7.92881E+00 4.04820E+00
 -1      7580 7.81113E+01 8.23108E+00 3.98288E+00
 -1      7581 8.48716E+01 8.35730E+00 4.14497E+00
 -1      7582 8.74123E+01 8.24525E+00 3.84407E+00
 -1      7583 9.13697E+01 8.12560E+00 4.12263E+00
 -1      7584 9.92609E+01 8.18739E+00 3.87258E+00
 -1      7585 6.37238E-01 8.60877E+00 3.87332E+00
 -1      7586 1.65246E+00 8.70287E+00 4.19250E+00
 -1      7587 8.41237E+00 8.43911E+00 4.03341E+00
 -1      7588 1.38488E+01 8.80425E+00 3.96093E+00
 -1      7589 1.63017E+01 8.33520E+00 4.12263E+00
 -1      7590 1.81863E+01 8.36319E+00 4.05275E+00
 -1      7591 2.20514E+01 7.76318E+00 4.20452E+00
 -1      7592 2.60774E+01 8.15162E+00 4.50694E+00
 -1      7593 3.93338E+01 7.96575E+00 4.33225E+00
 -1      7594 5.50096E+01 8.70834E+00 4.47200E+00
 -1      7595 5.59696E+01 8.48152E+00 4.24448E+00
 -1      7596 6.16505E+01 8.66450E+00 4.33225E+00
 -1      7597 6.29770E+01 8.33295E+00 4.12263E+00
 -1      7598 6.96775E+01 8.32346E+00 4.12263E+00
 -1      7599 7.28416E+01 8.27255E+00 4.33225E+00
 -1      7600 2.64231E+00 8.42394E+00 4.05275E+00
 -1      7601 6.17451E+00 8.89579E+00 3.91300E+00
 -1      7602 1.16933E+01 8.66450E+00 4.31927E+00
 -1      7603 1.72194E+01 8.37572E+00 4.05275E+00
 -1      7604 1.77585E+01 8.60672E+00 4.04809E+00
 -1      7605 1.95250E+01 8.66953E+00 4.04500E+00
 -1      7606 2.21725E+01 8.62074E+00 4.22744E+00
 -1      7607 3.05612E+01 8.38264E+00 4.19250E+00
 -1      7608 3.55149E+01 8.61823E+00 4.31478E+00
 -1      7609 3.73454E+01 8.41641E+00 4.19250E+00
 -1      7610 4.26182E+01 8.43344E+00 4.05275E+00
 -1      7611 4.61575E+01 8.86914E+00 3.91300E+00
 -1      7612 4.61315E+01 8.25910E+00 4.24193E+00
 -1      7613 5.11661E+01 8.60197E+00 4.22744E+00
 -1      7614 5.28465E+01 8.90413E+00 3.91300E+00
 -1      7615 5.84601E+01 8.73438E+00 4.70307E+00
 -1      7616 6.05312E+01 8.80425E+00 3.93718E+00
 -1      7617 6.44332E+01 8.60925E+00 4.05076E+00
 -1      7618 6.82568E+01 9.04881E+00 3.93046E+00
 -1      7619 6.88460E+01 8.61808E+00 4.22744E+00
 -1      7620 7.72354E+01 8.38465E+00 4.19250E+00
 -1      7621 8.21896E+01 8.61555E+00 4.31478E+00
 -1      7622 8.52208E+01 8.91725E+00 4.09352E+00
 -1      7623 8.61384E+01 8.38500E+00 4.07063E+00
 -1      7624 8.92924E+01 8.43045E+00 4.05275E+00
 -1      7625 9.28072E+01 8.27002E+00 4.24373E+00
 -1      7626 9.59208E+01 8.45916E+00 4.01781E+00
 -1      7627 9.76853E+01 8.54174E+00 4.12263E+00
 -1      7628 9.83683E+01 8.66450E+00 4.28328E+00
 -1      7629 2.62844E+01 8.75947E+00 4.09953E+00
 -1      7630 3.49828E+01 8.66450E+00 4.15993E+00
 -1      7631 5.17016E+01 8.66450E+00 4.21676E+00
 -1      7632 7.82689E+01 8.58895E+00 4.47394E+00
 -1      7633 8.16484E+01 8.66450E+00 4.17205E+00
 -1      7634 8.45436E+01 8.62974E+00 4.34609E+00
 -1      7635 1.34160E+01 9.09614E+00 4.34853E+00
 -1      7636 2.01240E+01 9.42320E+00 4.04464E+00
 -1      7637 2.65525E+01 9.35741E+00 4.04551E+00
 -1      7638 6.63103E+01 8.87790E+00 4.08667E+00
 -1      7639 7.29539E+01 8.96115E+00 4.01014E+00
 -1      7640 7.32290E+01 9.39312E+00 4.05946E+00
 -1      7641 7.99370E+01 8.96561E+00 4.50292E+00
 -1      7642 2.61044E+00 9.67100E+00 4.33225E+00
 -1      7643 3.32272E+00 9.48980E+00 4.05275E+00
 -1      7644 9.34342E+00 9.64374E+00 4.29731E+00
 -1      7645 1.01459E+01 9.46891E+00 4.05275E+00
 -1      7646 1.34160E+01 9.64275E+00 3.94959E+00
 -1      7647 1.65902E+01 9.45938E+00 4.15969E+00
 -1      7648 3.09830E+01 9.61487E+00 3.93372E+00
 -1      7649 3.75700E+01 9.66493E+00 4.01231E+00
 -1      7650 4.15057E+01 9.63294E+00 3.91300E+00
 -1      7651 4.33217E+01 9.48373E+00 4.08769E+00
 -1      7652 4.92587E+01 9.68018E+00 4.33225E+00
 -1      7653 4.99931E+01 9.49000E+00 4.05275E+00
 -1      7654 5.09656E+01 9.67353E+00 4.01375E+00
 -1      7655 5.57879E+01 9.74523E+00 4.33225E+00
 -1      7656 5.65661E+01 9.50900E+00 4.05275E+00
 -1      7657 6.21189E+01 9.70297E+00 3.98299E+00
 -1      7658 6.88263E+01 9.80999E+00 4.39405E+00
 -1      7659 7.76584E+01 9.61579E+00 3.93432E+00
 -1      7660 7.99370E+01 9.64275E+00 3.98126E+00
 -1      7661 8.32837E+01 9.49623E+00 4.05275E+00
 -1      7662 8.42303E+01 9.70254E+00 4.24222E+00
 -1      7663 8.66450E+01 9.61213E+00 4.08195E+00
 -1      7664 8.89690E+01 9.77565E+00 4.47200E+00
 -1      7665 8.99934E+01 9.48208E+00 4.08769E+00
 -1      7666 9.57201E+01 9.76824E+00 4.33225E+00
 -1      7667 9.62924E+01 9.54475E+00 4.22744E+00
 -1      7668 9.77444E+01 9.71308E+00 4.06270E+00
 -1      7669 8.32382E-02 9.85238E+00 4.07644E+00
 -1      7670 1.82924E+01 9.93977E+00 4.29354E+00
 -1      7671 2.80331E+01 9.84700E+00 4.03403E+00
 -1      7672 2.91330E+01 9.73468E+00 4.33225E+00
 -1      7673 3.47965E+01 9.80005E+00 4.01313E+00
 -1      7674 3.58656E+01 9.70627E+00 4.33225E+00
 -1      7675 4.27635E+01 9.60916E+00 4.33225E+00
 -1      7676 5.18514E+01 9.79623E+00 4.01646E+00
 -1      7677 7.16918E+01 9.85376E+00 4.11636E+00
 -1      7678 7.44865E+01 9.99492E+00 4.14814E+00
 -1      7679 7.58082E+01 9.73113E+00 4.33225E+00
 -1      7680 8.14717E+01 9.79834E+00 4.01480E+00
 -1      7681 8.27320E+01 9.62412E+00 4.33225E+00
 -1      7682 5.71125E+00 1.00758E+01 4.09427E+00
 -1      7683 7.83988E+00 1.00295E+01 4.22744E+00
 -1      7684 1.98445E+01 1.00620E+01 4.07449E+00
 -1      7685 2.03860E+01 1.02273E+01 4.22414E+00
 -1      7686 2.65525E+01 1.01001E+01 4.15072E+00
 -1      7687 2.75965E+01 1.01136E+01 4.19250E+00
 -1      7688 4.66765E+01 9.68427E+00 4.13155E+00
 -1      7689 5.45156E+01 1.00276E+01 4.22744E+00
 -1      7690 6.03021E+01 1.01243E+01 4.07349E+00
 -1      7691 6.60539E+01 1.00645E+01 3.89959E+00
 -1      7692 7.22371E+01 1.00336E+01 4.22646E+00
 -1      7693 9.44864E+01 1.00208E+01 4.20857E+00
 -1      7694 6.49837E+00-2.53996E-01 4.37471E+00
 -1      7695 7.18220E+00-2.30004E-01 4.33739E+00
 -1      7696 1.28570E+01-2.38905E-01 4.29564E+00
 -1      7697 1.93948E+01-2.46563E-01 4.44906E+00
 -1      7698 2.64128E+01-1.41829E-01 4.21183E+00
 -1      7699 3.22523E+01 4.70790E-02 4.19250E+00
 -1      7700 3.40990E+01-1.34609E-01 4.19250E+00
 -1      7701 3.98288E+01-2.55020E-01 4.36831E+00
 -1      7702 3.85919E+01-8.54332E-03 4.44047E+00
 -1      7703 4.11122E+01-1.25982E-01 4.51258E+00
 -1      7704 4.05358E+01-2.61607E-01 4.39289E+00
 -1      7705 4.62572E+01-2.30455E-01 4.30255E+00
 -1      7706 4.56083E+01-6.60496E-02 4.34550E+00
 -1      7707 4.70957E+01-2.84207E-01 4.40213E+00
 -1      7708 4.78135E+01-5.25787E-02 4.38074E+00
 -1      7709 5.23768E+01-1.82843E-01 4.54650E+00
 -1      7710 5.31749E+01-2.53600E-01 4.37141E+00
 -1      7711 5.38554E+01-2.29494E-01 4.33871E+00
 -1      7712 5.90520E+01-6.59127E-02 4.26237E+00
 -1      7713 6.62415E+01-2.38608E-01 4.28474E+00
 -1      7714 7.30892E+01-1.39814E-01 4.21359E+00
 -1      7715 7.97973E+01-1.93394E-01 4.29093E+00
 -1      7716 8.05099E+01-2.64641E-01 4.38682E+00
 -1      7717 8.52663E+01-1.00965E-02 4.44046E+00
 -1      7718 8.77869E+01-1.23485E-01 4.51304E+00
 -1      7719 8.67848E+01-3.83079E-01 4.60964E+00
 -1      7720 9.29338E+01-2.29934E-01 4.30048E+00
 -1      7721 9.21195E+01 1.87596E-02 4.26857E+00
 -1      7722 9.37024E+01-2.68996E-01 4.40030E+00
 -1      7723 9.44895E+01-5.00463E-02 4.38077E+00
 -1      7724 9.90515E+01-1.85118E-01 4.54595E+00
 -1      7725 7.21671E-02-1.65302E-01 4.37140E+00
 -1      7726 1.33734E+00 2.88204E-02 4.28661E+00
 -1      7727 4.35757E+00 2.42377E-01 4.33225E+00
 -1      7728 4.87476E+00 5.23092E-02 4.61175E+00
 -1      7729 8.37865E+00 9.93823E-02 4.38466E+00
 -1      7730 1.47408E+01-6.88767E-02 4.57681E+00
 -1      7731 1.54834E+01 2.12262E-01 4.55934E+00
 -1      7732 2.82428E+01 7.56704E-02 4.29731E+00
 -1      7733 2.87898E+01 1.98394E-01 4.54187E+00
 -1      7734 3.54266E+01 2.06300E-01 4.61175E+00
 -1      7735 3.59079E+01 3.68100E-01 4.40213E+00
 -1      7736 4.15792E+01 5.23974E-02 4.40213E+00
 -1      7737 4.20997E+01 1.63098E-01 4.40213E+00
 -1      7738 4.26154E+01 3.89339E-01 4.40213E+00
 -1      7739 5.10303E+01 2.40329E-01 4.33225E+00
 -1      7740 5.15466E+01 5.00870E-02 4.61175E+00
 -1      7741 5.49845E+01 6.76482E-02 4.40213E+00
 -1      7742 5.54808E+01 1.94800E-01 4.50694E+00
 -1      7743 6.16965E+01 5.02522E-02 4.63795E+00
 -1      7744 6.39322E+01 4.27109E-01 4.33225E+00
 -1      7745 6.45461E+01 2.19855E-01 4.54892E+00
 -1      7746 6.83378E+01 2.00929E-01 4.10793E+00
 -1      7747 7.55326E+01 2.19586E-01 4.50694E+00
 -1      7748 7.76114E+01 3.88714E-01 4.56038E+00
 -1      7749 8.17538E+01 1.73263E-01 4.15047E+00
 -1      7750 8.21031E+01 2.11121E-01 4.61175E+00
 -1      7751 8.25818E+01 3.71902E-01 4.40213E+00
 -1      7752 8.42996E+01 2.64609E-01 4.19250E+00
 -1      7753 8.87762E+01 1.66613E-01 4.40213E+00
 -1      7754 8.92906E+01 3.93838E-01 4.40213E+00
 -1      7755 9.51313E+01 1.04141E-01 4.47200E+00
 -1      7756 9.57138E+01 2.72396E-01 4.33225E+00
 -1      7757 1.00189E+02-5.83555E-02 4.52576E+00
 -1      7758 1.04502E+01 8.64289E-01 4.63661E+00
 -1      7759 1.10494E+01 2.33864E-01 4.33225E+00
 -1      7760 1.74587E+01 3.35836E-01 4.33225E+00
 -1      7761 4.44088E+01 2.45470E-01 4.47200E+00
 -1      7762 5.68965E+01 6.58135E-01 4.40270E+00
 -1      7763 6.90427E+01 2.72319E-01 4.34972E+00
 -1      7764 7.61638E+01 4.26355E-01 4.19250E+00
 -1      7765 9.10109E+01 2.46937E-01 4.33225E+00
 -1      7766 9.69093E+01 7.93656E-01 4.49915E+00
 -1      7767 9.77029E+01 2.38295E-01 4.33225E+00
 -1      7768 3.32605E+01 1.10000E+00 4.49998E+00
 -1      7769 4.63648E+01 1.31216E+00 4.27984E+00
 -1      7770 5.33845E+01 1.07033E+00 4.54704E+00
 -1      7771 9.30428E+01 1.27309E+00 4.26237E+00
 -1      7772 6.70800E+00 1.05718E+00 4.56827E+00
 -1      7773 3.17470E+01 1.37308E+00 4.61175E+00
 -1      7774 3.99685E+01 1.04421E+00 4.58942E+00
 -1      7775 4.66765E+01 1.00701E+00 4.61175E+00
 -1      7776 5.50074E+01 1.34690E+00 4.47200E+00
 -1      7777 7.32290E+01 1.18766E+00 4.60390E+00
 -1      7778 7.83172E+01 1.34697E+00 4.47200E+00
 -1      7779 2.37677E+00 1.26280E+00 4.61777E+00
 -1      7780 2.70646E+01 1.53152E+00 4.19250E+00
 -1      7781 3.11375E+01 1.49314E+00 4.35170E+00
 -1      7782 3.79795E+01 1.38743E+00 4.33225E+00
 -1      7783 4.90517E+01 1.26316E+00 4.61759E+00
 -1      7784 6.04047E+01 1.60331E+00 4.40213E+00
 -1      7785 7.16808E+01 1.39750E+00 4.33225E+00
 -1      7786 7.29300E+01 1.62784E+00 4.33225E+00
 -1      7787 8.46509E+01 1.38556E+00 4.33225E+00
 -1      7788 9.49505E+01 1.24725E+00 4.76150E+00
 -1      7789 6.00863E+00 1.95277E+00 4.47494E+00
 -1      7790 8.33582E+00 1.34930E+00 4.47200E+00
 -1      7791 1.72192E+01 1.55615E+00 4.36091E+00
 -1      7792 2.50070E+01 1.39750E+00 4.33225E+00
 -1      7793 3.82693E+01 1.59765E+00 4.34723E+00
 -1      7794 4.04927E+01 1.77836E+00 4.31696E+00
 -1      7795 5.28287E+01 1.81599E+00 4.33225E+00
 -1      7796 5.37011E+01 1.59884E+00 4.61175E+00
 -1      7797 7.39683E+01 1.99485E+00 4.33191E+00
 -1      7798 8.49360E+01 1.59057E+00 4.34152E+00
 -1      7799 8.71643E+01 1.78415E+00 4.31506E+00
 -1      7800 8.69786E+01 1.42294E+00 4.79693E+00
 -1      7801 8.96564E+01 1.60021E+00 4.34334E+00
 -1      7802 9.28383E+01 1.79429E+00 4.33225E+00
 -1      7803 9.37492E+01 1.53682E+00 4.76663E+00
 -1      7804 9.94079E+01 1.85564E+00 4.54176E+00
 -1      7805 1.27575E+01 1.83685E+00 4.54187E+00
 -1      7806 1.52462E+01 2.05488E+00 4.35594E+00
 -1      7807 1.68224E+01 1.18599E+00 4.56324E+00
 -1      7808 2.17987E+01 1.92976E+00 4.47300E+00
 -1      7809 2.72977E+01 1.93909E+00 4.50694E+00
 -1      7810 3.29456E+01 1.59541E+00 4.33225E+00
 -1      7811 3.64922E+01 1.38752E+00 4.52573E+00
 -1      7812 4.58309E+01 2.04421E+00 4.59244E+00
 -1      7813 6.37885E+01 1.54069E+00 4.36023E+00
 -1      7814 6.86194E+01 2.08287E+00 4.33225E+00
 -1      7815 7.72901E+01 1.54789E+00 4.36236E+00
 -1      7816 8.38656E-01 2.23587E+00 4.47200E+00
 -1      7817 7.72573E+00 2.51550E+00 4.33389E+00
 -1      7818 1.13125E+01 2.30588E+00 4.33225E+00
 -1      7819 3.39854E+01 2.03458E+00 4.40213E+00
 -1      7820 5.23291E+01 2.07561E+00 4.69595E+00
 -1      7821 5.43952E+01 2.51550E+00 4.33537E+00
 -1      7822 7.89348E+01 2.51550E+00 4.33707E+00
 -1      7823 5.79861E+01 2.39012E+00 4.33873E+00
 -1      7824 1.52607E+01 2.91940E+00 4.36903E+00
 -1      7825 1.93274E+01 2.95911E+00 4.33225E+00
 -1      7826 2.47491E+01 3.03298E+00 4.34068E+00
 -1      7827 4.84094E+01 2.87294E+00 4.55984E+00
 -1      7828 6.46235E+01 2.94497E+00 4.19250E+00
 -1      7829 6.55729E+01 2.51550E+00 4.35945E+00
 -1      7830 6.59655E+01 2.92759E+00 4.33225E+00
 -1      7831 7.04144E-01 2.94460E+00 4.40213E+00
 -1      7832 3.37357E+01 3.39139E+00 4.33225E+00
 -1      7833 4.04155E+01 3.36127E+00 4.54187E+00
 -1      7834 5.95210E+01 3.29220E+00 4.53822E+00
 -1      7835 8.04164E+01 3.36755E+00 4.41959E+00
 -1      7836 8.20189E+01 2.58538E+00 4.32820E+00
 -1      7837 8.70851E+01 3.35767E+00 4.54187E+00
 -1      7838 1.76526E-01 3.82562E+00 4.42730E+00
 -1      7839 1.01615E+01 3.43815E+00 4.35345E+00
 -1      7840 1.50044E+01 3.66368E+00 4.33225E+00
 -1      7841 1.96069E+01 3.50367E+00 4.19250E+00
 -1      7842 2.16698E+01 3.63350E+00 4.33225E+00
 -1      7843 2.31985E+01 3.26516E+00 4.19250E+00
 -1      7844 3.73307E+01 3.38978E+00 4.19250E+00
 -1      7845 4.16356E+01 3.65015E+00 4.33225E+00
 -1      7846 4.35321E+01 3.39892E+00 4.34528E+00
 -1      7847 4.69984E+01 3.70338E+00 4.22161E+00
 -1      7848 5.50074E+01 3.68170E+00 4.47200E+00
 -1      7849 5.65987E+01 3.45034E+00 4.36385E+00
 -1      7850 6.98750E+01 3.26367E+00 4.19250E+00
 -1      7851 8.40028E+01 3.39138E+00 4.19250E+00
 -1      7852 9.02086E+01 3.39861E+00 4.34503E+00
 -1      7853 6.32906E+00 3.43902E+00 4.54187E+00
 -1      7854 1.37235E+01 3.42140E+00 4.33225E+00
 -1      7855 1.58966E+01 3.54187E+00 4.43387E+00
 -1      7856 1.83798E+01 3.63350E+00 4.46796E+00
 -1      7857 2.65525E+01 3.80882E+00 4.61175E+00
 -1      7858 3.11297E+01 3.64559E+00 4.48561E+00
 -1      7859 3.16396E+01 3.67798E+00 4.47200E+00
 -1      7860 3.77135E+01 3.68568E+00 4.53074E+00
 -1      7861 3.99685E+01 3.98252E+00 4.57811E+00
 -1      7862 4.45601E+01 3.60527E+00 4.33225E+00
 -1      7863 5.30001E+01 3.44604E+00 4.54187E+00
 -1      7864 6.00925E+01 3.85141E+00 4.60728E+00
 -1      7865 6.03950E+01 3.41120E+00 4.33225E+00
 -1      7866 6.25731E+01 3.54038E+00 4.43372E+00
 -1      7867 6.70389E+01 3.46011E+00 4.44925E+00
 -1      7868 7.11446E+01 3.66729E+00 4.50078E+00
 -1      7869 7.78066E+01 3.63483E+00 4.40880E+00
 -1      7870 7.83151E+01 3.67966E+00 4.47200E+00
 -1      7871 8.16528E+01 3.63350E+00 4.16336E+00
 -1      7872 8.66450E+01 3.99551E+00 4.59867E+00
 -1      7873 8.83070E+01 3.65752E+00 4.33225E+00
 -1      7874 9.12340E+01 3.60777E+00 4.33225E+00
 -1      7875 9.33530E+01 3.99813E+00 4.60285E+00
 -1      7876 8.33357E+00 3.68155E+00 4.47200E+00
 -1      7877 7.32290E+01 3.83702E+00 4.60242E+00
 -1      7878 9.54618E+01 3.59787E+00 4.33225E+00
 -1      7879 6.70800E+00 3.96936E+00 4.55750E+00
 -1      7880 5.33845E+01 3.95600E+00 4.53683E+00
 -1      7881 9.96828E+01 3.50727E+00 4.61175E+00
 -1      7882 1.00044E+02 4.47200E+00 4.19250E+00
 -1      7883 2.27189E+00 4.76821E+00 4.48947E+00
 -1      7884 4.99157E+00 5.03100E+00 4.59844E+00
 -1      7885 1.09237E+01 4.74252E+00 4.33225E+00
 -1      7886 1.16693E+01 5.03100E+00 4.59214E+00
 -1      7887 1.55421E+01 4.81226E+00 4.47200E+00
 -1      7888 1.76124E+01 4.74964E+00 4.47200E+00
 -1      7889 2.16455E+01 5.03100E+00 4.58338E+00
 -1      7890 2.26192E+01 4.61559E+00 4.41438E+00
 -1      7891 2.39473E+01 4.52591E+00 4.53240E+00
 -1      7892 2.50236E+01 5.03100E+00 4.58239E+00
 -1      7893 2.83225E+01 5.03100E+00 4.58802E+00
 -1      7894 2.88568E+01 4.78844E+00 4.54187E+00
 -1      7895 3.08109E+01 4.58543E+00 4.60071E+00
 -1      7896 4.42204E+01 4.73404E+00 4.19250E+00
 -1      7897 5.83386E+01 5.03100E+00 4.59080E+00
 -1      7898 5.75950E+01 4.74452E+00 4.33225E+00
 -1      7899 6.92915E+01 4.61300E+00 4.41391E+00
 -1      7900 7.06164E+01 4.52658E+00 4.53334E+00
 -1      7901 7.16926E+01 5.03100E+00 4.58145E+00
 -1      7902 7.49917E+01 5.03100E+00 4.58925E+00
 -1      7903 7.55320E+01 4.78404E+00 4.54187E+00
 -1      7904 7.76066E+01 4.71348E+00 4.54187E+00
 -1      7905 9.08919E+01 4.73565E+00 4.19250E+00
 -1      7906 9.83302E+01 5.03100E+00 4.59531E+00
 -1      7907 1.00218E+02 4.89125E+00 4.44741E+00
 -1      7908-1.28455E-01 5.10087E+00 4.33724E+00
 -1      7909 7.93379E+00 5.03100E+00 4.28622E+00
 -1      7910 8.35947E+00 5.03100E+00 4.61175E+00
 -1      7911 2.55236E+01 5.03100E+00 4.24405E+00
 -1      7912 3.16424E+01 5.03100E+00 4.61175E+00
 -1      7913 3.22147E+01 5.03100E+00 4.24282E+00
 -1      7914 3.87417E+01 5.03100E+00 4.28481E+00
 -1      7915 4.51309E+01 5.03100E+00 4.46074E+00
 -1      7916 5.46091E+01 5.03100E+00 4.28771E+00
 -1      7917 5.50255E+01 5.03100E+00 4.61175E+00
 -1      7918 7.83085E+01 5.03100E+00 4.61175E+00
 -1      7919 8.78790E+01 5.03100E+00 4.27549E+00
 -1      7920 9.16523E+01 5.03100E+00 4.60220E+00
 -1      7921 9.21195E+01 5.03100E+00 4.27608E+00
 -1      7922 2.36700E+00 5.28378E+00 4.40213E+00
 -1      7923 1.50239E+01 5.03100E+00 4.61175E+00
 -1      7924 1.74476E+01 5.36249E+00 4.33225E+00
 -1      7925 2.22605E+01 5.26592E+00 4.45453E+00
 -1      7926 2.41356E+01 5.35302E+00 4.33225E+00
 -1      7927 3.49999E+01 5.03100E+00 4.59355E+00
 -1      7928 3.55636E+01 5.27973E+00 4.57681E+00
 -1      7929 3.76184E+01 5.29123E+00 4.19250E+00
 -1      7930 4.16778E+01 5.03100E+00 4.60011E+00
 -1      7931 4.23397E+01 5.27166E+00 4.40213E+00
 -1      7932 4.88077E+01 5.20034E+00 4.40213E+00
 -1      7933 4.93217E+01 5.43188E+00 4.40213E+00
 -1      7934 5.16609E+01 5.03100E+00 4.59685E+00
 -1      7935 5.72988E+01 5.74105E+00 4.69915E+00
 -1      7936 6.16380E+01 5.03100E+00 4.58036E+00
 -1      7937 6.89761E+01 5.26536E+00 4.36719E+00
 -1      7938 7.55721E+01 5.27802E+00 4.55934E+00
 -1      7939 7.88883E+01 5.03100E+00 4.24261E+00
 -1      7940 8.22408E+01 5.28311E+00 4.54187E+00
 -1      7941 8.83472E+01 5.03100E+00 4.60184E+00
 -1      7942 8.92274E+01 5.38873E+00 4.43706E+00
 -1      7943 9.10727E+01 5.27245E+00 4.48947E+00
 -1      7944 4.44006E+01 5.27503E+00 4.48947E+00
 -1      7945 6.41194E+01 5.36022E+00 4.33225E+00
 -1      7946 9.69054E+01 5.82070E+00 4.49957E+00
 -1      7947 3.32605E+01 6.12592E+00 4.50952E+00
 -1      7948 3.99685E+01 6.07100E+00 4.60139E+00
 -1      7949 4.63630E+01 6.34106E+00 4.27984E+00
 -1      7950 8.66450E+01 6.05421E+00 4.61175E+00
 -1      7951 6.70800E+00 6.08379E+00 4.57970E+00
 -1      7952 1.34160E+01 6.18481E+00 4.61944E+00
 -1      7953 2.66648E+01 6.24396E+00 4.40096E+00
 -1      7954 3.16436E+01 6.37529E+00 4.47200E+00
 -1      7955 3.96880E+01 6.34097E+00 4.26783E+00
 -1      7956 5.33845E+01 6.09674E+00 4.55791E+00
 -1      7957 5.49657E+01 6.33318E+00 4.65037E+00
 -1      7958 6.63203E+01 6.48397E+00 4.25657E+00
 -1      7959 6.68005E+01 6.26985E+00 4.61175E+00
 -1      7960 7.32290E+01 6.21237E+00 4.60543E+00
 -1      7961 7.83178E+01 6.37488E+00 4.47200E+00
 -1      7962 9.30414E+01 6.30200E+00 4.26237E+00
 -1      7963 9.97473E+01 6.28475E+00 4.40213E+00
 -1      7964 8.23351E+00 6.34653E+00 4.73451E+00
 -1      7965 1.16565E+01 6.42850E+00 4.47200E+00
 -1      7966 1.83205E+01 6.42850E+00 4.47200E+00
 -1      7967 2.62560E+01 6.66468E+00 4.33225E+00
 -1      7968 2.70670E+01 6.55994E+00 4.19250E+00
 -1      7969 3.79658E+01 6.41399E+00 4.33225E+00
 -1      7970 5.83187E+01 6.42850E+00 4.47200E+00
 -1      7971 6.44316E+01 6.48080E+00 4.33225E+00
 -1      7972 7.16164E+01 6.38060E+00 4.47200E+00
 -1      7973 7.29276E+01 6.65455E+00 4.33225E+00
 -1      7974 7.37361E+01 6.56663E+00 4.19250E+00
 -1      7975 8.49936E+01 6.38543E+00 4.19250E+00
 -1      7976 8.70370E+01 6.63258E+00 4.39382E+00
 -1      7977 9.33530E+01 6.05004E+00 4.61175E+00
 -1      7978 6.15554E+00 6.84897E+00 4.33225E+00
 -1      7979 1.27560E+01 6.86139E+00 4.54187E+00
 -1      7980 1.71062E+01 6.56922E+00 4.35777E+00
 -1      7981 2.22192E+01 6.39534E+00 4.48369E+00
 -1      7982 2.44547E+01 6.47389E+00 4.33225E+00
 -1      7983 3.82618E+01 6.62551E+00 4.34030E+00
 -1      7984 4.04953E+01 6.80608E+00 4.31757E+00
 -1      7985 9.28344E+01 6.82308E+00 4.33225E+00
 -1      7986 9.94064E+01 6.88124E+00 4.54037E+00
 -1      7987 1.66303E+01 6.74328E+00 4.24245E+00
 -1      7988 2.03966E+01 6.62461E+00 4.33225E+00
 -1      7989 2.17999E+01 6.95823E+00 4.47298E+00
 -1      7990 3.06083E+01 6.57553E+00 4.36030E+00
 -1      7991 3.29432E+01 6.62241E+00 4.33225E+00
 -1      7992 4.58289E+01 7.07246E+00 4.58962E+00
 -1      7993 6.03916E+01 6.61351E+00 4.54187E+00
 -1      7994 6.86212E+01 7.11190E+00 4.33225E+00
 -1      7995 8.98593E+01 6.41231E+00 4.49445E+00
 -1      7996 1.26443E+00 7.54650E+00 4.51649E+00
 -1      7997 3.89498E+01 7.54650E+00 4.33428E+00
 -1      7998 8.56193E+01 7.54650E+00 4.33272E+00
 -1      7999 8.78465E+01 7.54650E+00 4.47461E+00
 -1      8000 1.89056E+01 7.54650E+00 4.37034E+00
 -1      8001 7.44380E+01 7.54650E+00 4.38081E+00
 -1      8002 1.93863E+01 8.13844E+00 4.54187E+00
 -1      8003 2.47513E+01 8.06190E+00 4.34057E+00
 -1      8004 4.84094E+01 7.90339E+00 4.55971E+00
 -1      8005 8.59819E+01 7.96629E+00 4.33225E+00
 -1      8006 9.92100E+01 7.81870E+00 4.33225E+00
 -1      8007 4.15984E-01 8.40654E+00 4.48947E+00
 -1      8008 4.85693E+00 8.15472E+00 4.37847E+00
 -1      8009 6.18390E+00 8.28291E+00 4.31768E+00
 -1      8010 3.37325E+01 8.41961E+00 4.33225E+00
 -1      8011 4.04105E+01 8.39008E+00 4.54187E+00
 -1      8012 4.73724E+01 7.96448E+00 4.40213E+00
 -1      8013 5.28555E+01 8.28878E+00 4.31957E+00
 -1      8014 6.61476E+01 8.28004E+00 4.55934E+00
 -1      8015 8.06365E+01 8.11884E+00 4.47540E+00
 -1      8016 8.70801E+01 8.38647E+00 4.54187E+00
 -1      8017 8.84501E+01 7.68625E+00 4.50263E+00
 -1      8018 9.37644E+01 8.38700E+00 4.47200E+00
 -1      8019 9.95271E+01 8.29467E+00 4.32149E+00
 -1      8020 9.35406E+00 8.50491E+00 4.36646E+00
 -1      8021 1.37211E+01 8.44826E+00 4.33225E+00
 -1      8022 1.50071E+01 8.69284E+00 4.33225E+00
 -1      8023 2.01812E+01 8.61065E+00 4.56576E+00
 -1      8024 3.28466E+01 8.28556E+00 4.43706E+00
 -1      8025 3.96485E+01 8.46765E+00 4.61175E+00
 -1      8026 4.38182E+01 8.44123E+00 4.29160E+00
 -1      8027 4.83862E+01 8.47353E+00 4.34256E+00
 -1      8028 6.86198E+01 7.79581E+00 4.35118E+00
 -1      8029 7.38086E+01 8.29702E+00 4.29731E+00
 -1      8030 7.95195E+01 8.26740E+00 4.54187E+00
 -1      8031 8.40174E+01 8.41801E+00 4.19250E+00
 -1      8032 9.04925E+01 8.44179E+00 4.29115E+00
 -1      8033 9.50578E+01 8.46653E+00 4.34076E+00
 -1      8034 6.70800E+00 8.99582E+00 4.54735E+00
 -1      8035 8.80008E+00 8.61527E+00 4.26237E+00
 -1      8036 1.58966E+01 8.56639E+00 4.43570E+00
 -1      8037 1.83779E+01 8.66450E+00 4.46412E+00
 -1      8038 2.65525E+01 8.83142E+00 4.61175E+00
 -1      8039 3.83403E+01 8.71001E+00 4.47200E+00
 -1      8040 3.99685E+01 9.00919E+00 4.56744E+00
 -1      8041 4.16327E+01 8.68490E+00 4.33225E+00
 -1      8042 4.66765E+01 9.03799E+00 4.61157E+00
 -1      8043 5.33845E+01 8.98224E+00 4.52722E+00
 -1      8044 6.03926E+01 8.43796E+00 4.33225E+00
 -1      8045 6.25731E+01 8.56490E+00 4.43552E+00
 -1      8046 6.50517E+01 8.66450E+00 4.47423E+00
 -1      8047 6.70759E+01 8.42943E+00 4.43706E+00
 -1      8048 7.11542E+01 8.69518E+00 4.50391E+00
 -1      8049 7.32290E+01 8.86170E+00 4.60098E+00
 -1      8050 8.66450E+01 9.02237E+00 4.58750E+00
 -1      8051 8.83042E+01 8.69121E+00 4.33225E+00
 -1      8052 9.29059E+01 8.56374E+00 4.88059E+00
 -1      8053 9.98188E+01 8.86633E+00 4.37014E+00
 -1      8054 1.77441E-01 8.94400E+00 4.32957E+00
 -1      8055 8.33380E+00 8.71004E+00 4.47200E+00
 -1      8056 4.87811E+01 8.62475E+00 4.33225E+00
 -1      8057 6.00925E+01 8.87614E+00 4.60578E+00
 -1      8058 9.33530E+01 9.02503E+00 4.59157E+00
 -1      8059 9.54550E+01 8.62230E+00 4.33225E+00
 -1      8060 4.25091E+00 9.76577E+00 4.19250E+00
 -1      8061 8.52475E+00 9.84013E+00 4.11560E+00
 -1      8062 1.09375E+01 9.77230E+00 4.19250E+00
 -1      8063 1.15939E+01 9.94949E+00 4.31316E+00
 -1      8064 1.58082E+01 9.73656E+00 4.33225E+00
 -1      8065 1.76226E+01 9.77736E+00 4.33225E+00
 -1      8066 2.22222E+01 9.82287E+00 4.47200E+00
 -1      8067 2.28398E+01 9.55714E+00 4.36719E+00
 -1      8068 2.34431E+01 9.16443E+00 4.55948E+00
 -1      8069 3.08179E+01 9.61425E+00 4.59872E+00
 -1      8070 3.16886E+01 9.96521E+00 4.31488E+00
 -1      8071 3.83862E+01 9.98934E+00 4.33225E+00
 -1      8072 4.22443E+01 9.80106E+00 4.48947E+00
 -1      8073 4.12012E+01 1.00294E+01 4.26940E+00
 -1      8074 4.42337E+01 9.75399E+00 4.33225E+00
 -1      8075 5.52012E+01 9.83933E+00 4.11590E+00
 -1      8076 5.76078E+01 9.77107E+00 4.33225E+00
 -1      8077 5.82616E+01 9.97639E+00 4.53239E+00
 -1      8078 6.26160E+01 9.66561E+00 4.36719E+00
 -1      8079 6.42938E+01 9.77931E+00 4.33225E+00
 -1      8080 6.95139E+01 9.55312E+00 4.36719E+00
 -1      8081 7.06267E+01 9.55650E+00 4.53230E+00
 -1      8082 7.76176E+01 9.74118E+00 4.54187E+00
 -1      8083 7.83627E+01 9.96633E+00 4.31460E+00
 -1      8084 8.22227E+01 9.81107E+00 4.48947E+00
 -1      8085 8.78771E+01 1.00282E+01 4.26982E+00
 -1      8086 9.09068E+01 9.76228E+00 4.19250E+00
 -1      8087 1.37681E+00 1.00608E+01 4.44105E+00
 -1      8088 2.08528E+00 9.85787E+00 4.61175E+00
 -1      8089 1.23679E+01 1.01423E+01 4.33225E+00
 -1      8090 1.35557E+01 1.01887E+01 4.23081E+00
 -1      8091 1.88689E+01 1.00546E+01 4.28330E+00
 -1      8092 2.55639E+01 1.00323E+01 4.22676E+00
 -1      8093 3.40591E+01 1.02189E+01 4.32700E+00
 -1      8094 4.50237E+01 1.00535E+01 4.61175E+00
 -1      8095 4.56456E+01 1.02097E+01 4.54980E+00
 -1      8096 4.84147E+01 1.00049E+01 4.61175E+00
 -1      8097 5.90444E+01 1.01462E+01 4.33225E+00
 -1      8098 6.56849E+01 1.00934E+01 4.26514E+00
 -1      8099 8.10089E+01 1.01289E+01 4.34328E+00
 -1      8100 9.23192E+01 1.02119E+01 4.54941E+00
 -1      8101 5.59000E-01 1.02808E+01 4.33225E+00
 -1      8102 1.28506E+01 1.03195E+01 4.39522E+00
 -1      8103 2.71115E+01 1.02922E+01 4.30963E+00
 -1      8104 4.05275E+01 1.02882E+01 4.33225E+00
 -1      8105 4.66765E+01 1.03229E+01 4.47200E+00
 -1      8106 4.72355E+01 1.02782E+01 4.33225E+00
 -1      8107 5.35242E+01 1.03137E+01 4.38316E+00
 -1      8108 5.95255E+01 1.03201E+01 4.39370E+00
 -1      8109 7.37880E+01 1.02923E+01 4.31210E+00
 -1      8110 8.04960E+01 1.02918E+01 4.32535E+00
 -1      8111 8.72040E+01 1.02861E+01 4.33225E+00
 -1      8112 9.39120E+01 1.02755E+01 4.33225E+00
 -1      8113 9.98832E+01 1.02351E+01 4.41906E+00
 -1      8114 5.67932E+00-2.11762E-01 4.61175E+00
 -1      8115 7.82883E+00-1.58865E-01 4.93492E+00
 -1      8116 2.58672E+01-3.33907E-01 5.03100E+00
 -1      8117 2.72043E+01-2.68246E-01 4.44997E+00
 -1      8118 2.80024E+01-9.27331E-02 4.85631E+00
 -1      8119 3.44678E+01-1.69950E-01 4.83884E+00
 -1      8120 3.49542E+01-1.90361E-02 4.61175E+00
 -1      8121 4.84889E+01 6.57944E-02 4.61175E+00
 -1      8122 5.45115E+01-1.70534E-01 4.64669E+00
 -1      8123 6.04816E+01-3.15617E-01 4.54035E+00
 -1      8124 6.70075E+01-3.18917E-01 4.54398E+00
 -1      8125 6.78426E+01-1.65272E-01 4.75150E+00
 -1      8126 6.83549E+01 9.22342E-03 4.61175E+00
 -1      8127 7.33688E+01-3.83993E-01 4.59556E+00
 -1      8128 7.43674E+01-2.22184E-01 4.94366E+00
 -1      8129 7.49450E+01-1.29257E-02 4.66669E+00
 -1      8130 8.11430E+01-1.66341E-01 4.83884E+00
 -1      8131 8.16284E+01-1.61275E-02 4.61175E+00
 -1      8132 9.82184E+01 4.78752E-02 4.61175E+00
 -1      8133 1.00047E+02-5.22002E-01 5.06566E+00
 -1      8134 1.81510E+00 6.25357E-02 4.61175E+00
 -1      8135 1.15629E+01 4.30397E-02 4.61175E+00
 -1      8136 1.84013E+01 3.04659E-02 4.82137E+00
 -1      8137 2.50459E+01-1.43788E-02 4.47200E+00
 -1      8138 3.17550E+01-3.28887E-02 4.61175E+00
 -1      8139 4.49909E+01 5.34058E-08 4.47200E+00
 -1      8140 5.82347E+01 4.08624E-02 4.61175E+00
 -1      8141 5.77554E+01 7.23779E-01 4.88546E+00
 -1      8142 6.50735E+01 2.73997E-02 4.82137E+00
 -1      8143 7.17355E+01-2.62536E-02 4.61175E+00
 -1      8144 8.83269E+01-3.73614E-03 4.61175E+00
 -1      8145 9.15301E+01 5.72425E-02 4.61175E+00
 -1      8146-9.48824E-02 9.13535E-01 4.92619E+00
 -1      8147 3.43436E+00 1.04494E+00 4.51606E+00
 -1      8148 1.09005E+01 5.59000E-01 4.81450E+00
 -1      8149 4.40686E+01 8.38500E-01 4.78715E+00
 -1      8150 5.60397E+01 4.43045E-01 4.47200E+00
 -1      8151 6.28875E+01 5.46168E-01 4.47200E+00
 -1      8152 7.01021E+01 1.03358E+00 4.54227E+00
 -1      8153 9.04547E+01 5.67891E-01 4.49737E+00
 -1      8154 9.78840E+01 9.47831E-01 4.87864E+00
 -1      8155 9.21617E+00 1.04751E+00 4.75431E+00
 -1      8156 1.59085E+01 1.03032E+00 4.73825E+00
 -1      8157 3.00987E+01 1.03357E+00 4.54261E+00
 -1      8158 3.66891E+01 8.43141E-01 4.49341E+00
 -1      8159 4.34695E+01 9.28331E-01 4.53888E+00
 -1      8160 5.58309E+01 1.23824E+00 4.69219E+00
 -1      8161 6.33067E+01 9.73534E-01 4.55099E+00
 -1      8162 8.33997E+01 9.16766E-01 4.52496E+00
 -1      8163 8.66450E+01 1.03141E+00 4.61049E+00
 -1      8164 9.00729E+01 1.09478E+00 4.52915E+00
 -1      8165 1.34160E+01 1.16077E+00 4.61498E+00
 -1      8166 2.01240E+01 1.23060E+00 4.61175E+00
 -1      8167 6.68005E+01 1.24736E+00 4.61175E+00
 -1      8168 1.53725E+00 1.25775E+00 4.85752E+00
 -1      8169 2.82907E+01 1.39750E+00 4.53166E+00
 -1      8170 4.82137E+01 1.25775E+00 4.85308E+00
 -1      8171 6.00925E+01 1.17333E+00 4.60884E+00
 -1      8172 8.83520E+01 1.78853E+00 4.55682E+00
 -1      8173 3.98288E+00 1.42706E+00 4.55928E+00
 -1      8174 9.35527E+00 1.60069E+00 3.99071E+00
 -1      8175 1.02716E+01 1.35720E+00 4.53281E+00
 -1      8176 1.95570E+01 1.52993E+00 4.90349E+00
 -1      8177 2.25362E+01 1.14799E+00 4.71377E+00
 -1      8178 2.37051E+01 1.35659E+00 4.55969E+00
 -1      8179 2.41612E+01 8.38500E-01 4.79827E+00
 -1      8180 2.96270E+01 1.51945E+00 4.47200E+00
 -1      8181 2.92367E+01 1.14654E+00 4.71095E+00
 -1      8182 3.59171E+01 1.21460E+00 4.71117E+00
 -1      8183 4.31827E+01 1.38589E+00 4.49669E+00
 -1      8184 4.25499E+01 1.19400E+00 4.69046E+00
 -1      8185 4.39514E+01 1.42689E+00 4.55955E+00
 -1      8186 5.06594E+01 1.42708E+00 4.55910E+00
 -1      8187 5.13147E+01 1.27675E+00 4.64286E+00
 -1      8188 5.16757E+01 1.74688E+00 4.58937E+00
 -1      8189 5.60260E+01 1.61587E+00 4.00548E+00
 -1      8190 5.71184E+01 1.25236E+00 4.60298E+00
 -1      8191 5.94315E+01 1.83838E+00 4.57681E+00
 -1      8192 6.26924E+01 9.78250E-01 4.76944E+00
 -1      8193 6.73630E+01 1.70708E+00 4.84154E+00
 -1      8194 6.92109E+01 1.14768E+00 4.71315E+00
 -1      8195 7.40687E+01 1.71318E+00 4.87828E+00
 -1      8196 7.51769E+01 2.02638E+00 4.47200E+00
 -1      8197 7.59114E+01 1.14615E+00 4.71020E+00
 -1      8198 7.68276E+01 1.25775E+00 4.59180E+00
 -1      8199 8.25577E+01 1.09618E+00 4.73839E+00
 -1      8200 8.31513E+01 1.45706E+00 4.49098E+00
 -1      8201 8.39651E+01 1.20242E+00 4.66978E+00
 -1      8202 9.06279E+01 1.42696E+00 4.55951E+00
 -1      8203 9.62878E+01 1.45571E+00 4.52144E+00
 -1      8204 9.58674E+01 1.04803E+00 4.75682E+00
 -1      8205 9.72998E+01 1.20267E+00 4.65603E+00
 -1      8206 1.71778E+00 2.09625E+00 4.58679E+00
 -1      8207 7.54650E+00 2.13016E+00 4.63554E+00
 -1      8208 8.30245E+00 2.19773E+00 4.61582E+00
 -1      8209 1.81273E+01 2.58538E+00 4.48062E+00
 -1      8210 1.92348E+01 2.00584E+00 4.61856E+00
 -1      8211 2.58826E+01 2.00682E+00 4.65489E+00
 -1      8212 3.15264E+01 2.09625E+00 4.52334E+00
 -1      8213 3.25806E+01 1.99337E+00 4.63977E+00
 -1      8214 3.52064E+01 2.27813E+00 4.47289E+00
 -1      8215 3.81770E+01 2.09625E+00 4.51545E+00
 -1      8216 4.17429E+01 2.02638E+00 4.56046E+00
 -1      8217 4.83918E+01 2.16613E+00 4.56504E+00
 -1      8218 6.17879E+01 1.90331E+00 4.49366E+00
 -1      8219 6.48271E+01 2.37575E+00 4.49819E+00
 -1      8220 6.62308E+01 1.52730E+00 4.90052E+00
 -1      8221 7.15395E+01 1.91232E+00 4.49117E+00
 -1      8222 7.25567E+01 2.00368E+00 4.65155E+00
 -1      8223 7.84926E+01 2.21285E+00 4.64325E+00
 -1      8224 7.92548E+01 1.99008E+00 4.63576E+00
 -1      8225 9.18469E+01 1.90682E+00 4.72889E+00
 -1      8226 9.14201E+01 2.23600E+00 4.44997E+00
 -1      8227 9.50659E+01 2.16613E+00 4.56091E+00
 -1      8228 1.44677E+01 2.12966E+00 4.69376E+00
 -1      8229 2.84664E+01 2.69019E+00 4.51055E+00
 -1      8230 3.91300E+01 1.79973E+00 4.90726E+00
 -1      8231 4.47490E+01 2.23600E+00 4.44445E+00
 -1      8232 5.50662E+01 2.41069E+00 4.54395E+00
 -1      8233 6.11431E+01 2.13017E+00 4.69603E+00
 -1      8234 8.53839E+01 2.51550E+00 4.51776E+00
 -1      8235 9.24388E+01 2.11923E+00 4.62576E+00
 -1      8236 1.26850E+00 2.51550E+00 4.51097E+00
 -1      8237 4.17765E+01 2.65525E+00 4.50529E+00
 -1      8238 4.49768E+01 3.23893E+00 4.55464E+00
 -1      8239 4.78719E+01 2.51550E+00 4.48562E+00
 -1      8240 5.16248E+01 3.07450E+00 4.56698E+00
 -1      8241 7.50577E+01 2.65525E+00 4.54548E+00
 -1      8242 8.84503E+01 2.65525E+00 4.50147E+00
 -1      8243 9.16484E+01 3.24106E+00 4.55666E+00
 -1      8244 1.73601E+00 2.87248E+00 4.56480E+00
 -1      8245 8.49685E+00 2.93475E+00 4.50668E+00
 -1      8246 3.16853E+01 2.95940E+00 4.63045E+00
 -1      8247 3.82026E+01 2.79500E+00 4.53741E+00
 -1      8248 5.49836E+01 2.95590E+00 4.62305E+00
 -1      8249 6.16559E+01 2.96322E+00 4.62754E+00
 -1      8250 7.16830E+01 3.05668E+00 4.61338E+00
 -1      8251 7.83692E+01 2.91083E+00 4.62607E+00
 -1      8252 9.50828E+01 2.87345E+00 4.55476E+00
 -1      8253 4.92978E+00 3.00463E+00 4.56398E+00
 -1      8254 1.28499E+01 3.26790E+00 4.61175E+00
 -1      8255 2.61458E+01 3.23820E+00 4.61175E+00
 -1      8256 3.83119E+01 3.30336E+00 4.55913E+00
 -1      8257 4.08836E+01 2.91237E+00 4.62660E+00
 -1      8258 7.28370E+01 3.22427E+00 4.54187E+00
 -1      8259 8.75573E+01 2.90959E+00 4.62828E+00
 -1      8260 9.82963E+01 3.07450E+00 4.56990E+00
 -1      8261 1.52956E+00 3.71227E+00 4.75890E+00
 -1      8262 1.93875E+01 3.28980E+00 4.74533E+00
 -1      8263 2.03504E+01 3.50954E+00 4.75306E+00
 -1      8264 2.16233E+01 3.12325E+00 4.62891E+00
 -1      8265 3.94729E+01 3.26049E+00 4.61951E+00
 -1      8266 6.60626E+01 3.29659E+00 4.74512E+00
 -1      8267 7.94376E+01 3.46822E+00 4.90795E+00
 -1      8268 2.65525E+00 3.57545E+00 4.53723E+00
 -1      8269 3.21368E+00 3.97809E+00 4.54176E+00
 -1      8270 4.02099E+00 3.97611E+00 4.71838E+00
 -1      8271 9.36325E+00 3.57365E+00 4.53656E+00
 -1      8272 1.10885E+01 3.67262E+00 4.57392E+00
 -1      8273 1.34160E+01 3.86183E+00 4.89125E+00
 -1      8274 1.65778E+01 3.99555E+00 4.54217E+00
 -1      8275 1.72074E+01 4.05275E+00 4.72605E+00
 -1      8276 1.78350E+01 3.71339E+00 4.64256E+00
 -1      8277 1.98287E+01 3.70545E+00 4.61175E+00
 -1      8278 2.31985E+01 3.95427E+00 4.57464E+00
 -1      8279 2.96969E+01 3.60194E+00 4.52886E+00
 -1      8280 3.06532E+01 4.05275E+00 4.77428E+00
 -1      8281 3.61953E+01 3.57009E+00 4.53013E+00
 -1      8282 3.65467E+01 3.94597E+00 4.54487E+00
 -1      8283 4.26237E+01 3.57704E+00 4.53744E+00
 -1      8284 4.31831E+01 3.89176E+00 4.53133E+00
 -1      8285 4.40079E+01 3.97660E+00 4.71783E+00
 -1      8286 4.93317E+01 3.57499E+00 4.53711E+00
 -1      8287 4.98900E+01 3.97895E+00 4.54097E+00
 -1      8288 5.08007E+01 3.75945E+00 4.68552E+00
 -1      8289 5.60397E+01 3.57328E+00 4.53635E+00
 -1      8290 5.75770E+01 3.71390E+00 4.67531E+00
 -1      8291 6.31321E+01 3.77325E+00 4.59487E+00
 -1      8292 6.38815E+01 4.05275E+00 4.72902E+00
 -1      8293 6.65830E+01 3.72390E+00 4.59890E+00
 -1      8294 6.98750E+01 3.95427E+00 4.57302E+00
 -1      8295 7.63734E+01 3.60189E+00 4.52748E+00
 -1      8296 8.28717E+01 3.57009E+00 4.52958E+00
 -1      8297 8.32239E+01 3.94507E+00 4.54120E+00
 -1      8298 8.42401E+01 3.76882E+00 4.71710E+00
 -1      8299 8.81518E+01 3.12292E+00 4.73020E+00
 -1      8300 8.93002E+01 3.57653E+00 4.53740E+00
 -1      8301 8.98593E+01 3.89104E+00 4.52867E+00
 -1      8302 9.06787E+01 3.97644E+00 4.71802E+00
 -1      8303 9.36933E+01 3.46361E+00 4.68163E+00
 -1      8304 9.60083E+01 3.57456E+00 4.53696E+00
 -1      8305 9.65664E+01 3.97983E+00 4.54017E+00
 -1      8306 9.75455E+01 3.74511E+00 4.69469E+00
 -1      8307 3.32605E+01 3.92582E+00 4.49105E+00
 -1      8308 4.70239E+01 3.46715E+00 4.68163E+00
 -1      8309 4.82048E+01 3.71314E+00 4.75403E+00
 -1      8310-2.50134E-01 4.46894E+00 4.67825E+00
 -1      8311 9.95607E+00 4.12050E+00 4.52207E+00
 -1      8312 1.60628E+01 4.51952E+00 4.53541E+00
 -1      8313 2.98716E+01 4.09155E+00 4.55246E+00
 -1      8314 3.76314E+01 4.33225E+00 4.87487E+00
 -1      8315 5.04641E+01 4.21512E+00 4.65274E+00
 -1      8316 5.66335E+01 4.12236E+00 4.52163E+00
 -1      8317 5.71391E+01 4.05275E+00 4.70155E+00
 -1      8318 7.65481E+01 4.08968E+00 4.54988E+00
 -1      8319 7.73935E+01 4.20997E+00 4.77946E+00
 -1      8320 8.40783E+01 4.33225E+00 4.77375E+00
 -1      8321 9.71244E+01 4.05275E+00 4.69536E+00
 -1      8322 4.48014E+00 4.76749E+00 4.67013E+00
 -1      8323 4.44565E+01 4.75793E+00 4.65948E+00
 -1      8324 5.11542E+01 4.77047E+00 4.67355E+00
 -1      8325 8.16692E+01 5.03100E+00 4.59501E+00
 -1      8326 9.11306E+01 4.76092E+00 4.66275E+00
 -1      8327 9.78282E+01 4.77344E+00 4.67702E+00
 -1      8328 3.76822E+01 5.50055E+00 4.79635E+00
 -1      8329 1.00278E+02 5.59000E+00 4.75150E+00
 -1      8330 1.04490E+01 5.89355E+00 4.63693E+00
 -1      8331 1.69692E+01 5.80290E+00 4.53779E+00
 -1      8332 2.35051E+01 5.96222E+00 4.60307E+00
 -1      8333 3.61988E+01 6.00925E+00 4.70031E+00
 -1      8334 3.71256E+01 5.57575E+00 4.49004E+00
 -1      8335 4.34683E+01 5.95660E+00 4.54062E+00
 -1      8336 6.40396E+01 5.81801E+00 4.75603E+00
 -1      8337 6.94549E+01 5.51149E+00 4.46986E+00
 -1      8338 8.37972E+01 5.57431E+00 4.49188E+00
 -1      8339 9.78844E+01 5.97671E+00 4.87725E+00
 -1      8340-9.23456E-02 5.93901E+00 4.92619E+00
 -1      8341 3.42604E+00 6.12082E+00 4.53598E+00
 -1      8342 9.08709E+00 6.10600E+00 4.78671E+00
 -1      8343 3.00987E+01 6.06267E+00 4.54260E+00
 -1      8344 3.67199E+01 5.94056E+00 4.52647E+00
 -1      8345 4.66765E+01 6.02957E+00 4.61175E+00
 -1      8346 5.57620E+01 6.08811E+00 4.78308E+00
 -1      8347 6.33067E+01 6.00362E+00 4.55281E+00
 -1      8348 7.00148E+01 5.83662E+00 4.49659E+00
 -1      8349 7.67752E+01 6.06267E+00 4.54291E+00
 -1      8350 8.32048E+01 5.97687E+00 4.58402E+00
 -1      8351 9.01456E+01 5.96023E+00 4.54194E+00
 -1      8352 1.00037E+02 6.04295E+00 4.75150E+00
 -1      8353 2.01240E+01 6.25318E+00 4.61175E+00
 -1      8354 6.00925E+01 6.19809E+00 4.61045E+00
 -1      8355 1.96153E+01 6.54350E+00 4.79067E+00
 -1      8356 3.48836E+01 6.35863E+00 4.68671E+00
 -1      8357 4.46086E+01 6.30697E+00 4.64032E+00
 -1      8358 6.22663E+01 6.35109E+00 4.62258E+00
 -1      8359 8.15538E+01 6.35863E+00 4.67992E+00
 -1      8360 8.81124E+01 6.28875E+00 4.83894E+00
 -1      8361 9.12828E+01 6.30616E+00 4.64051E+00
 -1      8362 9.48903E+01 6.28875E+00 4.84376E+00
 -1      8363 2.57509E+00 6.22402E+00 4.68357E+00
 -1      8364 3.98504E+00 6.16273E+00 4.69508E+00
 -1      8365 4.63264E+00 6.30431E+00 4.64090E+00
 -1      8366 5.07734E+00 6.87545E+00 4.64821E+00
 -1      8367 7.14539E+00 6.61198E+00 4.76517E+00
 -1      8368 1.02716E+01 6.38610E+00 4.53040E+00
 -1      8369 2.36876E+01 6.45535E+00 4.52804E+00
 -1      8370 2.72551E+01 6.83623E+00 4.68163E+00
 -1      8371 2.92366E+01 6.17551E+00 4.70772E+00
 -1      8372 3.57760E+01 6.31348E+00 4.68166E+00
 -1      8373 3.64747E+01 6.48424E+00 4.49040E+00
 -1      8374 3.72902E+01 6.23232E+00 4.66495E+00
 -1      8375 4.31827E+01 6.41277E+00 4.49607E+00
 -1      8376 4.39514E+01 6.45581E+00 4.55291E+00
 -1      8377 4.90811E+01 6.24688E+00 4.71730E+00
 -1      8378 5.06594E+01 6.45599E+00 4.55207E+00
 -1      8379 5.26934E+01 6.88361E+00 4.68090E+00
 -1      8380 5.69481E+01 6.38607E+00 4.53216E+00
 -1      8381 6.26922E+01 6.00925E+00 4.76869E+00
 -1      8382 6.36561E+01 6.45568E+00 4.52426E+00
 -1      8383 6.73635E+01 6.73203E+00 4.84008E+00
 -1      8384 7.03816E+01 6.38534E+00 4.55768E+00
 -1      8385 7.40699E+01 6.73865E+00 4.87693E+00
 -1      8386 7.51787E+01 7.05737E+00 4.47200E+00
 -1      8387 7.59303E+01 6.17512E+00 4.70130E+00
 -1      8388 7.63035E+01 6.54169E+00 4.47200E+00
 -1      8389 8.31513E+01 6.48391E+00 4.48926E+00
 -1      8390 8.39199E+01 6.45551E+00 4.55304E+00
 -1      8391 8.49614E+01 6.81912E+00 4.55599E+00
 -1      8392 8.51170E+01 6.34799E+00 4.74438E+00
 -1      8393 9.06279E+01 6.45588E+00 4.55278E+00
 -1      8394 9.57567E+01 6.24656E+00 4.71705E+00
 -1      8395 9.73006E+01 6.23262E+00 4.65237E+00
 -1      8396 7.54650E+00 7.15683E+00 4.63052E+00
 -1      8397 8.30273E+00 7.22772E+00 4.61599E+00
 -1      8398 1.82955E+01 7.40675E+00 4.55497E+00
 -1      8399 1.92313E+01 7.03302E+00 4.61707E+00
 -1      8400 2.59151E+01 6.99962E+00 4.65499E+00
 -1      8401 3.15147E+01 7.12725E+00 4.52264E+00
 -1      8402 3.51770E+01 6.98750E+00 4.47200E+00
 -1      8403 3.81769E+01 7.12725E+00 4.51646E+00
 -1      8404 4.79375E+01 7.54650E+00 4.51959E+00
 -1      8405 5.42230E+01 7.15981E+00 4.63577E+00
 -1      8406 5.85739E+01 6.97506E+00 4.75302E+00
 -1      8407 6.18176E+01 7.12725E+00 4.51555E+00
 -1      8408 6.48969E+01 7.37181E+00 4.53015E+00
 -1      8409 6.62285E+01 6.55612E+00 4.89669E+00
 -1      8410 7.15873E+01 7.33687E+00 4.51762E+00
 -1      8411 7.25892E+01 6.99648E+00 4.65061E+00
 -1      8412 7.84835E+01 7.24226E+00 4.63628E+00
 -1      8413 7.93930E+01 6.88706E+00 4.65226E+00
 -1      8414 8.84156E+01 7.05737E+00 4.55693E+00
 -1      8415 9.48386E+01 7.16447E+00 4.64874E+00
 -1      8416 1.75968E+00 7.05737E+00 4.54991E+00
 -1      8417 5.79253E+00 7.10512E+00 4.67184E+00
 -1      8418 1.18894E+01 7.04466E+00 4.74199E+00
 -1      8419 1.44673E+01 7.15695E+00 4.69050E+00
 -1      8420 2.54747E+01 7.54650E+00 4.49796E+00
 -1      8421 2.84664E+01 7.72119E+00 4.51155E+00
 -1      8422 3.89532E+01 6.83140E+00 4.89220E+00
 -1      8423 4.47487E+01 7.26700E+00 4.44528E+00
 -1      8424 5.18020E+01 6.90366E+00 4.66671E+00
 -1      8425 5.48368E+01 7.30120E+00 4.63222E+00
 -1      8426 6.11428E+01 7.15748E+00 4.69282E+00
 -1      8427 8.47338E+01 7.26700E+00 4.42713E+00
 -1      8428 9.14198E+01 7.26700E+00 4.45071E+00
 -1      8429 9.24364E+01 7.14750E+00 4.62290E+00
 -1      8430 9.81080E+01 7.33836E+00 4.47062E+00
 -1      8431 2.48544E+01 6.94845E+00 4.47947E+00
 -1      8432 3.50772E+01 7.61637E+00 4.53916E+00
 -1      8433 4.17763E+01 7.68625E+00 4.50654E+00
 -1      8434 5.14417E+01 7.68625E+00 4.46460E+00
 -1      8435 7.50602E+01 7.68625E+00 4.54572E+00
 -1      8436 8.17538E+01 7.61637E+00 4.53486E+00
 -1      8437 9.16497E+01 8.27107E+00 4.55688E+00
 -1      8438 9.87784E+01 7.54650E+00 4.49230E+00
 -1      8439 1.73601E+00 7.90292E+00 4.56476E+00
 -1      8440 8.49670E+00 7.96575E+00 4.50540E+00
 -1      8441 1.49828E+01 7.99133E+00 4.63097E+00
 -1      8442 3.16851E+01 7.98946E+00 4.63075E+00
 -1      8443 3.82029E+01 7.82600E+00 4.53800E+00
 -1      8444 4.49781E+01 8.26893E+00 4.55483E+00
 -1      8445 5.49489E+01 7.98589E+00 4.65493E+00
 -1      8446 6.16558E+01 7.99338E+00 4.62796E+00
 -1      8447 6.53413E+01 7.99124E+00 4.72851E+00
 -1      8448 7.16831E+01 8.08578E+00 4.61365E+00
 -1      8449 7.83695E+01 7.93988E+00 4.62682E+00
 -1      8450 8.51605E+01 7.92215E+00 4.65273E+00
 -1      8451 8.75548E+01 7.93786E+00 4.63112E+00
 -1      8452 9.50828E+01 7.90391E+00 4.55455E+00
 -1      8453 9.82978E+01 8.10550E+00 4.57046E+00
 -1      8454 1.30122E+01 8.51367E+00 4.61175E+00
 -1      8455 4.08812E+01 7.94063E+00 4.62949E+00
 -1      8456 5.17622E+01 8.24525E+00 4.69324E+00
 -1      8457 5.95245E+01 8.29955E+00 4.61175E+00
 -1      8458 7.46820E+01 8.09039E+00 4.73771E+00
 -1      8459 2.17951E+01 8.20100E+00 4.48273E+00
 -1      8460 2.83608E+01 8.66450E+00 4.47200E+00
 -1      8461 4.15542E+01 8.24525E+00 4.70127E+00
 -1      8462 2.65525E+00 8.60217E+00 4.54131E+00
 -1      8463 3.21358E+00 9.00843E+00 4.54104E+00
 -1      8464 4.05659E+00 8.92947E+00 4.72547E+00
 -1      8465 9.93870E+00 8.90720E+00 4.52934E+00
 -1      8466 1.10924E+01 8.69831E+00 4.57665E+00
 -1      8467 1.65254E+01 8.80425E+00 4.59487E+00
 -1      8468 1.72070E+01 9.08375E+00 4.72572E+00
 -1      8469 2.29889E+01 8.63116E+00 4.53801E+00
 -1      8470 2.38973E+01 8.59805E+00 4.53793E+00
 -1      8471 2.44855E+01 8.69991E+00 4.57417E+00
 -1      8472 2.96969E+01 8.63081E+00 4.53223E+00
 -1      8473 3.06532E+01 9.08375E+00 4.77494E+00
 -1      8474 3.10245E+01 8.73318E+00 4.67276E+00
 -1      8475 3.61953E+01 8.59684E+00 4.53322E+00
 -1      8476 3.65446E+01 8.97346E+00 4.54416E+00
 -1      8477 3.73456E+01 9.08375E+00 4.78369E+00
 -1      8478 4.26237E+01 8.60375E+00 4.54171E+00
 -1      8479 4.31831E+01 8.93774E+00 4.54349E+00
 -1      8480 4.40095E+01 9.00711E+00 4.72062E+00
 -1      8481 4.93317E+01 8.60171E+00 4.54114E+00
 -1      8482 4.98898E+01 9.00926E+00 4.54024E+00
 -1      8483 5.08690E+01 8.77463E+00 4.70069E+00
 -1      8484 5.66155E+01 8.90808E+00 4.52922E+00
 -1      8485 5.75770E+01 8.74079E+00 4.68084E+00
 -1      8486 6.32543E+01 9.02468E+00 4.54159E+00
 -1      8487 6.38812E+01 9.08375E+00 4.72873E+00
 -1      8488 6.44467E+01 8.69444E+00 4.57528E+00
 -1      8489 6.66617E+01 8.77130E+00 4.60056E+00
 -1      8490 6.94557E+01 8.59763E+00 4.53707E+00
 -1      8491 6.98750E+01 8.98434E+00 4.57292E+00
 -1      8492 7.18496E+01 8.71774E+00 4.74938E+00
 -1      8493 7.63734E+01 8.63076E+00 4.53080E+00
 -1      8494 7.77010E+01 8.73277E+00 4.67179E+00
 -1      8495 8.16518E+01 8.31513E+00 4.59173E+00
 -1      8496 8.28717E+01 8.59684E+00 4.53262E+00
 -1      8497 8.32247E+01 8.97534E+00 4.54043E+00
 -1      8498 8.82086E+01 8.11784E+00 4.67728E+00
 -1      8499 8.93002E+01 8.60324E+00 4.54161E+00
 -1      8500 8.98593E+01 8.93693E+00 4.54057E+00
 -1      8501 9.06803E+01 9.00695E+00 4.72086E+00
 -1      8502 9.60083E+01 8.60127E+00 4.54094E+00
 -1      8503 9.65662E+01 9.01011E+00 4.53943E+00
 -1      8504 9.75455E+01 8.74392E+00 4.68215E+00
 -1      8505 4.70184E+01 8.49599E+00 4.68163E+00
 -1      8506-3.47036E-01 9.92225E+00 4.62161E+00
 -1      8507 2.98716E+01 9.12076E+00 4.55068E+00
 -1      8508 3.75054E+01 9.61974E+00 4.60675E+00
 -1      8509 5.04677E+01 9.17512E+00 4.65155E+00
 -1      8510 5.60540E+01 9.15886E+00 4.69643E+00
 -1      8511 7.73952E+01 9.24097E+00 4.77859E+00
 -1      8512 7.65481E+01 9.11891E+00 4.54806E+00
 -1      8513 8.41458E+01 9.11719E+00 4.76707E+00
 -1      8514 9.71383E+01 9.17605E+00 4.65268E+00
 -1      8515 9.74704E+01 9.58426E+00 4.63107E+00
 -1      8516 5.03840E+00 1.00596E+01 4.61175E+00
 -1      8517 4.48359E+00 9.79244E+00 4.66499E+00
 -1      8518 8.15385E+00 1.00891E+01 4.76897E+00
 -1      8519 8.66450E+00 9.90203E+00 4.61175E+00
 -1      8520 1.14631E+01 9.89090E+00 4.81328E+00
 -1      8521 1.49007E+01 1.00536E+01 4.75150E+00
 -1      8522 1.82731E+01 9.90292E+00 4.91814E+00
 -1      8523 2.15027E+01 1.00759E+01 4.78644E+00
 -1      8524 2.49624E+01 1.00281E+01 4.61175E+00
 -1      8525 2.84850E+01 9.94218E+00 4.71407E+00
 -1      8526 3.51565E+01 9.92697E+00 4.72497E+00
 -1      8527 4.14327E+01 1.00970E+01 4.82137E+00
 -1      8528 5.16031E+01 1.00149E+01 4.62922E+00
 -1      8529 5.48273E+01 1.00860E+01 4.76897E+00
 -1      8530 5.53410E+01 9.89742E+00 4.61175E+00
 -1      8531 6.15754E+01 1.00499E+01 4.75150E+00
 -1      8532 6.49461E+01 1.00214E+01 4.61175E+00
 -1      8533 6.83694E+01 1.00292E+01 4.61175E+00
 -1      8534 7.16341E+01 1.00302E+01 4.61175E+00
 -1      8535 7.51585E+01 9.93914E+00 4.71358E+00
 -1      8536 8.16189E+01 1.00634E+01 4.61175E+00
 -1      8537 8.50125E+01 1.00499E+01 4.47200E+00
 -1      8538 8.81079E+01 1.00929E+01 4.82137E+00
 -1      8539 9.16950E+01 1.00554E+01 4.61175E+00
 -1      8540 9.11340E+01 9.78608E+00 4.65758E+00
 -1      8541 9.51204E+01 9.98802E+00 4.61175E+00
 -1      8542 9.82412E+01 1.00054E+01 4.61175E+00
 -1      8543 1.00375E+02 9.92225E+00 4.64786E+00
 -1      8544 1.75476E-07 1.04184E+01 4.61856E+00
 -1      8545 6.70800E+00 1.04253E+01 4.61175E+00
 -1      8546 1.96805E+01 1.03695E+01 4.53074E+00
 -1      8547 2.57535E+01 1.03277E+01 4.89125E+00
 -1      8548 2.65874E+01 1.04190E+01 4.60199E+00
 -1      8549 3.32605E+01 1.03415E+01 4.46022E+00
 -1      8550 3.99685E+01 1.03339E+01 4.47200E+00
 -1      8551 5.28949E+01 1.04122E+01 4.64561E+00
 -1      8552 6.08234E+01 1.03480E+01 4.96113E+00
 -1      8553 6.63561E+01 1.03710E+01 4.53022E+00
 -1      8554 6.77680E+01 1.02507E+01 4.89125E+00
 -1      8555 7.28563E+01 1.03332E+01 4.45546E+00
 -1      8556 7.99370E+01 1.03415E+01 4.46488E+00
 -1      8557 8.66450E+01 1.03291E+01 4.47200E+00
 -1      8558 8.56578E+01 1.02887E+01 4.89125E+00
 -1      8559 7.56410E-01-3.33236E-01 5.06594E+00
 -1      8560-2.34992E-02-5.36921E-01 5.13537E+00
 -1      8561 6.14900E+00-4.14710E-01 4.89125E+00
 -1      8562 6.69992E+00-5.30116E-01 5.06538E+00
 -1      8563 7.26700E+00-3.79599E-01 5.17075E+00
 -1      8564 1.25404E+01-2.83980E-01 5.10087E+00
 -1      8565 1.30666E+01-4.27756E-01 4.75150E+00
 -1      8566 2.04645E+01-4.34560E-01 5.17283E+00
 -1      8567 2.10929E+01-1.93721E-01 4.96113E+00
 -1      8568 2.67443E+01-5.31123E-01 5.17313E+00
 -1      8569 2.75205E+01-3.11068E-01 4.96113E+00
 -1      8570 3.22744E+01-2.24004E-01 4.89125E+00
 -1      8571 3.31360E+01-5.41331E-01 5.17746E+00
 -1      8572 3.38842E+01-4.21394E-01 5.10087E+00
 -1      8573 3.89238E+01-1.16619E-01 5.08761E+00
 -1      8574 3.93799E+01-3.45084E-01 5.11241E+00
 -1      8575 3.99979E+01-5.35450E-01 5.06930E+00
 -1      8576 4.07371E+01-3.39743E-01 5.10087E+00
 -1      8577 4.67096E+01-5.27093E-01 5.06547E+00
 -1      8578 4.56975E+01-2.56573E-01 4.89125E+00
 -1      8579 4.74323E+01-3.28985E-01 5.06594E+00
 -1      8580 5.29652E+01-4.37905E-01 4.82137E+00
 -1      8581 5.34331E+01-5.45798E-01 5.13951E+00
 -1      8582 5.40833E+01-3.35535E-01 5.10087E+00
 -1      8583 6.58447E+01-3.16622E-01 4.89125E+00
 -1      8584 6.74235E+01-3.06637E-01 5.17075E+00
 -1      8585 7.25386E+01-3.35882E-01 5.03100E+00
 -1      8586 7.34189E+01-5.30751E-01 5.17340E+00
 -1      8587 7.89077E+01-1.13109E-01 5.08151E+00
 -1      8588 7.99189E+01-5.50424E-01 5.14286E+00
 -1      8589 8.06358E+01-3.87124E-01 5.10087E+00
 -1      8590 8.56346E+01-2.35407E-01 4.89125E+00
 -1      8591 8.66477E+01-5.57766E-01 5.13480E+00
 -1      8592 8.73438E+01-3.68750E-01 5.10087E+00
 -1      8593 9.33842E+01-5.26885E-01 5.06544E+00
 -1      8594 9.23703E+01-2.58953E-01 4.89125E+00
 -1      8595 9.41083E+01-3.24716E-01 5.06594E+00
 -1      8596 9.92948E+01-5.69749E-02 5.43170E+00
 -1      8597 1.41166E+01-3.20228E-01 5.03100E+00
 -1      8598 1.92343E+01-3.01463E-01 5.17075E+00
 -1      8599 2.51555E+01 3.38511E-01 5.14496E+00
 -1      8600 5.91525E+01-3.08153E-01 4.89125E+00
 -1      8601 6.07907E+01-3.16824E-01 5.03100E+00
 -1      8602 7.84213E+01 4.92235E-02 4.90175E+00
 -1      8603 4.40685E+00 4.57840E-01 4.81345E+00
 -1      8604 1.78561E+01 2.70119E-01 4.76372E+00
 -1      8605 3.84440E+01 4.41053E-01 5.15713E+00
 -1      8606 3.78415E+01 5.85333E-01 4.91626E+00
 -1      8607 5.11505E+01 6.64249E-01 4.92437E+00
 -1      8608 7.12151E+01 2.62713E-01 4.77351E+00
 -1      8609 8.48931E+01 4.89125E-01 5.09367E+00
 -1      8610 8.43596E+01 4.70021E-01 4.79722E+00
 -1      8611 9.12070E+01 5.80393E-01 4.92734E+00
 -1      8612-5.22772E-01 4.71920E-08 5.06575E+00
 -1      8613 1.74257E+01 8.73438E-01 4.79178E+00
 -1      8614 2.91725E+01 5.32544E-01 4.74517E+00
 -1      8615 6.40387E+01 8.73438E-01 4.77067E+00
 -1      8616 7.07381E+01 8.03563E-01 4.77806E+00
 -1      8617 3.98683E+00 9.43313E-01 4.77346E+00
 -1      8618 3.06578E+01 9.78250E-01 4.77187E+00
 -1      8619 3.73271E+01 9.78250E-01 4.77314E+00
 -1      8620 5.06595E+01 9.43313E-01 4.77570E+00
 -1      8621 7.73307E+01 9.78250E-01 4.77414E+00
 -1      8622 8.92885E+01 9.90197E-01 4.78517E+00
 -1      8623 9.07076E+01 9.78250E-01 4.79086E+00
 -1      8624 1.11451E+01 1.07853E+00 4.84764E+00
 -1      8625 1.20723E+01 9.94084E-01 5.04929E+00
 -1      8626 1.19491E+01 1.95079E+00 4.75874E+00
 -1      8627 2.16556E+01 1.23382E+00 4.78640E+00
 -1      8628 2.49454E+01 1.19098E+00 4.80594E+00
 -1      8629 3.47977E+01 1.25775E+00 4.88627E+00
 -1      8630 3.84313E+01 1.25775E+00 4.84284E+00
 -1      8631 3.95971E+01 1.52315E+00 4.85917E+00
 -1      8632 4.15057E+01 1.18788E+00 4.84836E+00
 -1      8633 4.45802E+01 1.18053E+00 4.81206E+00
 -1      8634 4.51393E+01 1.18788E+00 4.84681E+00
 -1      8635 5.19171E+01 1.25775E+00 4.86461E+00
 -1      8636 5.86651E+01 1.09948E+00 4.97951E+00
 -1      8637 6.16297E+01 1.20602E+00 4.80222E+00
 -1      8638 6.83309E+01 1.23273E+00 4.78449E+00
 -1      8639 7.12026E+01 1.17706E+00 4.80642E+00
 -1      8640 7.79106E+01 1.17691E+00 4.80824E+00
 -1      8641 8.14743E+01 1.25775E+00 4.88283E+00
 -1      8642 8.51078E+01 1.25775E+00 4.84757E+00
 -1      8643 8.81823E+01 1.18788E+00 4.84738E+00
 -1      8644 9.12568E+01 1.18037E+00 4.81249E+00
 -1      8645 9.18158E+01 1.18788E+00 4.84729E+00
 -1      8646 9.29548E+01 1.43642E+00 4.92158E+00
 -1      8647 9.85936E+01 1.25775E+00 4.87163E+00
 -1      8648 1.39323E+01 1.62459E+00 4.87305E+00
 -1      8649 2.64758E+01 1.31543E+00 4.96815E+00
 -1      8650 4.07371E+01 1.59973E+00 4.96797E+00
 -1      8651 4.51733E+01 1.90608E+00 4.72573E+00
 -1      8652 5.85644E+01 2.05001E+00 4.73490E+00
 -1      8653 6.07912E+01 1.62767E+00 4.99614E+00
 -1      8654 6.81920E+01 1.82686E+00 4.74955E+00
 -1      8655 7.46721E+01 1.53725E+00 4.87829E+00
 -1      8656 7.68625E-01 1.59958E+00 4.97534E+00
 -1      8657 5.29327E+00 2.06836E+00 4.72369E+00
 -1      8658 7.30443E+00 1.63090E+00 4.92141E+00
 -1      8659 1.85998E+01 2.01566E+00 4.76268E+00
 -1      8660 2.07529E+01 1.75556E+00 4.87593E+00
 -1      8661 3.19982E+01 2.11854E+00 4.73400E+00
 -1      8662 3.87018E+01 2.06476E+00 4.76821E+00
 -1      8663 6.52732E+01 2.01575E+00 4.76458E+00
 -1      8664 6.57989E+01 1.98058E+00 4.76297E+00
 -1      8665 7.19687E+01 2.11300E+00 4.73164E+00
 -1      8666 7.95279E+01 1.49798E+00 4.94976E+00
 -1      8667 8.56667E+01 1.78093E+00 4.90838E+00
 -1      8668 8.62041E+01 1.59147E+00 4.85624E+00
 -1      8669 9.43313E+01 1.60059E+00 5.00680E+00
 -1      8670 9.86089E+01 2.07147E+00 4.75123E+00
 -1      8671 2.52942E+01 2.01651E+00 4.77269E+00
 -1      8672 4.74451E+01 1.59908E+00 4.97737E+00
 -1      8673 8.08454E+01 1.78980E+00 4.87858E+00
 -1      8674 9.78250E-01 3.10579E+00 4.85449E+00
 -1      8675 7.97397E+00 2.96507E+00 4.77020E+00
 -1      8676 1.46776E+01 3.10098E+00 4.82306E+00
 -1      8677 2.51528E+01 3.00180E+00 4.73507E+00
 -1      8678 2.78742E+01 2.97380E+00 4.72687E+00
 -1      8679 3.87107E+01 2.85366E+00 4.72595E+00
 -1      8680 4.14783E+01 3.12226E+00 4.73331E+00
 -1      8681 4.76547E+01 3.10499E+00 4.85586E+00
 -1      8682 6.53422E+01 2.96248E+00 4.72657E+00
 -1      8683 7.46817E+01 3.06105E+00 4.73617E+00
 -1      8684 9.43313E+01 3.10425E+00 4.85712E+00
 -1      8685 7.40675E+00 3.32689E+00 4.93945E+00
 -1      8686 1.41147E+01 3.39958E+00 4.99780E+00
 -1      8687 2.08485E+01 3.05204E+00 4.76091E+00
 -1      8688 3.27714E+01 3.52988E+00 5.01361E+00
 -1      8689 3.39556E+01 3.39446E+00 4.92026E+00
 -1      8690 3.46447E+01 2.96043E+00 4.74771E+00
 -1      8691 5.42573E+01 3.56692E+00 5.03425E+00
 -1      8692 5.91143E+01 3.39878E+00 5.00840E+00
 -1      8693 6.10009E+01 3.30653E+00 4.95056E+00
 -1      8694 6.75224E+01 3.04980E+00 4.76329E+00
 -1      8695 6.81230E+01 3.07450E+00 4.77125E+00
 -1      8696 8.09851E+01 3.01742E+00 4.76901E+00
 -1      8697 8.15625E+01 3.21425E+00 4.71208E+00
 -1      8698 8.60161E+01 3.39945E+00 4.95313E+00
 -1      8699 3.54197E-01 3.47337E+00 4.75150E+00
 -1      8700 5.17075E+00 3.84313E+00 4.85888E+00
 -1      8701 2.73225E+01 3.44684E+00 4.95856E+00
 -1      8702 4.60476E+01 3.40425E+00 4.93908E+00
 -1      8703 9.27241E+01 3.40587E+00 4.93428E+00
 -1      8704 9.48903E+01 3.77325E+00 4.85309E+00
 -1      8705 2.52342E+01 3.68055E+00 4.80597E+00
 -1      8706 3.83582E+01 3.94327E+00 4.92119E+00
 -1      8707 4.15057E+01 3.84313E+00 4.85808E+00
 -1      8708 5.18473E+01 3.77325E+00 4.88420E+00
 -1      8709 7.19082E+01 3.67839E+00 4.81204E+00
 -1      8710 7.47026E+01 3.84246E+00 4.89083E+00
 -1      8711 8.14044E+01 3.77325E+00 4.87561E+00
 -1      8712 8.81823E+01 3.84313E+00 4.85756E+00
 -1      8713 9.85238E+01 3.77325E+00 4.88797E+00
 -1      8714 2.09625E+00 3.84606E+00 4.81490E+00
 -1      8715 2.64084E+00 4.05275E+00 4.78652E+00
 -1      8716 4.61175E+00 3.84680E+00 4.81684E+00
 -1      8717 8.80425E+00 3.84574E+00 4.81263E+00
 -1      8718 8.24525E+00 4.02206E+00 4.96380E+00
 -1      8719 9.34919E+00 4.05275E+00 4.77011E+00
 -1      8720 1.04673E+01 4.05275E+00 4.69934E+00
 -1      8721 1.18787E+01 3.77325E+00 4.89580E+00
 -1      8722 1.58343E+01 4.08769E+00 4.82315E+00
 -1      8723 2.25241E+01 4.08769E+00 4.81678E+00
 -1      8724 2.39054E+01 4.05275E+00 4.73840E+00
 -1      8725 2.47859E+01 4.24205E+00 5.00777E+00
 -1      8726 2.91803E+01 4.12263E+00 4.82871E+00
 -1      8727 3.19394E+01 3.84966E+00 4.93703E+00
 -1      8728 3.56048E+01 4.30661E+00 4.87189E+00
 -1      8729 3.47279E+01 3.77325E+00 4.88239E+00
 -1      8730 3.60648E+01 4.05275E+00 4.75554E+00
 -1      8731 4.20648E+01 3.84659E+00 4.81641E+00
 -1      8732 4.26177E+01 4.05275E+00 4.79471E+00
 -1      8733 4.51393E+01 3.77325E+00 4.86688E+00
 -1      8734 4.91835E+01 4.22744E+00 4.81480E+00
 -1      8735 5.11795E+01 4.33225E+00 4.97911E+00
 -1      8736 5.59135E+01 4.08769E+00 4.80722E+00
 -1      8737 6.21189E+01 3.88266E+00 4.83442E+00
 -1      8738 6.25867E+01 4.22744E+00 4.78050E+00
 -1      8739 6.91982E+01 4.08769E+00 4.81427E+00
 -1      8740 7.05795E+01 4.05275E+00 4.74129E+00
 -1      8741 7.14592E+01 4.24207E+00 5.00909E+00
 -1      8742 7.53253E+01 3.84865E+00 4.81912E+00
 -1      8743 7.58538E+01 4.12263E+00 4.82617E+00
 -1      8744 8.21084E+01 4.14115E+00 4.93792E+00
 -1      8745 8.27367E+01 4.05275E+00 4.75370E+00
 -1      8746 8.87413E+01 3.84640E+00 4.81596E+00
 -1      8747 8.92916E+01 4.05275E+00 4.79217E+00
 -1      8748 9.18158E+01 3.77325E+00 4.87121E+00
 -1      8749 9.59970E+01 4.05275E+00 4.77731E+00
 -1      8750 1.00049E+02 4.05349E+00 4.89125E+00
 -1      8751-1.31003E-01 4.28975E+00 5.24063E+00
 -1      8752 2.18170E+00 4.36719E+00 4.94714E+00
 -1      8753 4.50485E+00 4.33225E+00 4.97572E+00
 -1      8754 1.08761E+01 4.34149E+00 4.82693E+00
 -1      8755 4.22638E+01 4.56874E+00 4.80935E+00
 -1      8756 8.89378E+01 4.56687E+00 4.80681E+00
 -1      8757 9.11538E+01 4.33225E+00 4.96818E+00
 -1      8758 9.54601E+01 4.33225E+00 4.98600E+00
 -1      8759-5.23130E-01 5.02938E+00 5.06575E+00
 -1      8760 8.81001E+00 4.33225E+00 4.97905E+00
 -1      8761 1.13701E+01 4.33225E+00 5.05299E+00
 -1      8762 4.44791E+01 4.33225E+00 4.96473E+00
 -1      8763 4.87623E+01 4.77355E+00 4.76079E+00
 -1      8764 8.45675E+01 4.33225E+00 4.99382E+00
 -1      8765 9.79430E+01 4.36719E+00 5.01844E+00
 -1      8766 1.80626E+01 4.33225E+00 5.06176E+00
 -1      8767 5.80430E+01 4.33225E+00 5.05510E+00
 -1      8768 6.47353E+01 4.33225E+00 5.06381E+00
 -1      8769 4.47611E+00 5.69508E+00 4.92212E+00
 -1      8770 1.09005E+01 5.59000E+00 4.81924E+00
 -1      8771 1.78494E+01 5.29907E+00 4.76616E+00
 -1      8772 2.50458E+01 5.53759E+00 5.15451E+00
 -1      8773 5.14252E+01 5.55506E+00 5.04696E+00
 -1      8774 6.47816E+01 5.52013E+00 5.04182E+00
 -1      8775 7.11705E+01 5.32119E+00 4.77585E+00
 -1      8776 1.00402E+02 5.01353E+00 5.44476E+00
 -1      8777 1.58859E+01 6.03827E+00 4.78733E+00
 -1      8778 1.74257E+01 5.90444E+00 4.79208E+00
 -1      8779 2.27122E+01 6.00925E+00 4.76209E+00
 -1      8780 2.41970E+01 5.65987E+00 4.80693E+00
 -1      8781 3.54180E+01 5.72975E+00 5.01186E+00
 -1      8782 4.26156E+01 6.02052E+00 4.78609E+00
 -1      8783 4.41676E+01 5.83456E+00 4.82495E+00
 -1      8784 5.07645E+01 5.78216E+00 4.78822E+00
 -1      8785 6.93851E+01 6.00925E+00 4.76000E+00
 -1      8786 7.07378E+01 5.83456E+00 4.77951E+00
 -1      8787 8.25931E+01 6.02137E+00 4.79259E+00
 -1      8788 8.41402E+01 5.83456E+00 4.81287E+00
 -1      8789 9.08428E+01 5.83456E+00 4.82868E+00
 -1      8790 3.06597E+01 6.00925E+00 4.77160E+00
 -1      8791 7.73325E+01 6.00925E+00 4.77384E+00
 -1      8792 1.53725E+00 6.28875E+00 4.85246E+00
 -1      8793 5.24063E+00 6.28875E+00 4.85508E+00
 -1      8794 1.11451E+01 6.10740E+00 4.84452E+00
 -1      8795 1.19901E+01 6.12922E+00 4.97363E+00
 -1      8796 2.14490E+01 6.34505E+00 4.87952E+00
 -1      8797 2.41571E+01 6.17722E+00 4.77807E+00
 -1      8798 2.49494E+01 6.26664E+00 4.78408E+00
 -1      8799 3.11642E+01 6.20775E+00 4.80466E+00
 -1      8800 3.84313E+01 6.28875E+00 4.83827E+00
 -1      8801 4.15057E+01 6.28875E+00 4.86530E+00
 -1      8802 4.51393E+01 6.21887E+00 4.83663E+00
 -1      8803 4.82137E+01 6.28875E+00 4.84817E+00
 -1      8804 5.12882E+01 6.20645E+00 4.81011E+00
 -1      8805 5.19171E+01 6.28875E+00 4.86226E+00
 -1      8806 5.78216E+01 6.10724E+00 4.84598E+00
 -1      8807 5.88056E+01 6.33456E+00 5.00601E+00
 -1      8808 6.44248E+01 6.20661E+00 4.80009E+00
 -1      8809 6.49919E+01 6.23526E+00 4.80998E+00
 -1      8810 6.83312E+01 6.26048E+00 4.78101E+00
 -1      8811 7.19451E+01 6.03409E+00 5.05678E+00
 -1      8812 7.19692E+01 6.95486E+00 4.81353E+00
 -1      8813 7.49990E+01 6.25819E+00 4.81750E+00
 -1      8814 7.78408E+01 6.20779E+00 4.80520E+00
 -1      8815 8.62537E+01 6.47780E+00 4.93342E+00
 -1      8816 8.87413E+01 6.20709E+00 4.80910E+00
 -1      8817 8.92882E+01 6.02023E+00 4.78449E+00
 -1      8818 9.18856E+01 6.28875E+00 4.83739E+00
 -1      8819 9.29524E+01 6.46417E+00 4.91771E+00
 -1      8820 9.85936E+01 6.28875E+00 4.86919E+00
 -1      8821 6.29609E+00 6.42850E+00 4.92072E+00
 -1      8822 1.39345E+01 6.65116E+00 4.87144E+00
 -1      8823 2.52947E+01 6.95257E+00 4.81192E+00
 -1      8824 2.64753E+01 6.33872E+00 4.96763E+00
 -1      8825 3.28770E+01 6.56574E+00 4.90241E+00
 -1      8826 4.07371E+01 6.62642E+00 4.96434E+00
 -1      8827 4.51734E+01 6.93598E+00 4.72509E+00
 -1      8828 5.94622E+01 6.59573E+00 4.90890E+00
 -1      8829 6.52742E+01 7.04562E+00 4.76280E+00
 -1      8830 6.81909E+01 6.85968E+00 4.74938E+00
 -1      8831 7.46265E+01 6.70800E+00 4.91070E+00
 -1      8832 7.95562E+01 6.49077E+00 4.94639E+00
 -1      8833 8.57366E+01 6.61298E+00 4.99938E+00
 -1      8834 9.17898E+01 6.97165E+00 4.67546E+00
 -1      8835 9.85507E+01 7.03034E+00 4.72052E+00
 -1      8836 7.68625E-01 6.62638E+00 4.97191E+00
 -1      8837 1.86008E+01 7.04553E+00 4.76096E+00
 -1      8838 2.07529E+01 6.77994E+00 4.87444E+00
 -1      8839 3.19985E+01 7.14640E+00 4.73193E+00
 -1      8840 5.39806E+01 6.65982E+00 4.92054E+00
 -1      8841 6.57955E+01 7.00833E+00 4.75993E+00
 -1      8842 8.53776E+01 7.09445E+00 4.76599E+00
 -1      8843 9.41216E+01 6.62523E+00 4.97597E+00
 -1      8844 2.77404E+01 6.68179E+00 4.95848E+00
 -1      8845 4.74451E+01 6.62592E+00 4.97400E+00
 -1      8846 8.09153E+01 6.65082E+00 5.00460E+00
 -1      8847 8.74136E+01 6.62663E+00 4.96685E+00
 -1      8848 9.78250E-01 8.13342E+00 4.85806E+00
 -1      8849 7.97428E+00 7.99391E+00 4.77265E+00
 -1      8850 2.51518E+01 8.03139E+00 4.73578E+00
 -1      8851 2.78743E+01 8.00205E+00 4.72954E+00
 -1      8852 3.47050E+01 8.11721E+00 4.75022E+00
 -1      8853 3.87107E+01 7.88030E+00 4.72836E+00
 -1      8854 4.76547E+01 8.13260E+00 4.85938E+00
 -1      8855 8.11947E+01 7.98908E+00 4.78408E+00
 -1      8856 9.43313E+01 8.12182E+00 4.85404E+00
 -1      8857 7.40675E+00 8.35455E+00 4.94391E+00
 -1      8858 2.08452E+01 8.07978E+00 4.76405E+00
 -1      8859 2.13810E+01 8.17537E+00 4.82340E+00
 -1      8860 3.39499E+01 8.42413E+00 4.92169E+00
 -1      8861 5.24062E+01 8.43091E+00 5.01214E+00
 -1      8862 5.40833E+01 8.42932E+00 4.99570E+00
 -1      8863 6.80540E+01 8.17537E+00 4.82042E+00
 -1      8864 7.26001E+01 8.30177E+00 4.87773E+00
 -1      8865 7.39617E+01 8.29667E+00 4.82765E+00
 -1      8866 8.60480E+01 8.42712E+00 4.92311E+00
 -1      8867 9.90827E+01 8.42915E+00 5.01200E+00
 -1      8868 1.52899E+00 8.74340E+00 4.76081E+00
 -1      8869 5.17075E+00 8.80425E+00 4.88566E+00
 -1      8870 1.43244E+01 8.36738E+00 4.96788E+00
 -1      8871 2.73213E+01 8.47446E+00 4.96175E+00
 -1      8872 3.17919E+01 8.79025E+00 4.79775E+00
 -1      8873 4.60476E+01 8.43194E+00 4.94451E+00
 -1      8874 4.81671E+01 8.72171E+00 4.81201E+00
 -1      8875 5.46560E+01 8.38500E+00 4.84500E+00
 -1      8876 6.10669E+01 8.39506E+00 4.97080E+00
 -1      8877 8.53343E+01 8.44197E+00 4.87764E+00
 -1      8878 9.48415E+01 8.72149E+00 4.81093E+00
 -1      8879 1.34160E+01 8.88415E+00 4.89125E+00
 -1      8880 1.47357E+01 8.70246E+00 4.82889E+00
 -1      8881 2.15090E+01 8.76071E+00 4.75852E+00
 -1      8882 2.52348E+01 8.71101E+00 4.80637E+00
 -1      8883 3.47279E+01 8.80425E+00 4.88518E+00
 -1      8884 4.15057E+01 8.87413E+00 4.86823E+00
 -1      8885 5.18473E+01 8.87413E+00 4.86945E+00
 -1      8886 7.46569E+01 8.68779E+00 4.89924E+00
 -1      8887 8.14044E+01 8.80425E+00 4.87806E+00
 -1      8888 8.50341E+01 8.96833E+00 4.92457E+00
 -1      8889 8.81823E+01 8.80425E+00 4.87713E+00
 -1      8890 9.85238E+01 8.80425E+00 4.89366E+00
 -1      8891 2.17722E-02 8.96755E+00 4.89125E+00
 -1      8892 2.50854E+00 9.25844E+00 4.81721E+00
 -1      8893 9.35018E+00 9.08375E+00 4.77020E+00
 -1      8894 1.04666E+01 9.08375E+00 4.69857E+00
 -1      8895 1.18787E+01 8.80425E+00 4.90184E+00
 -1      8896 1.52327E+01 8.87953E+00 4.82504E+00
 -1      8897 1.58651E+01 9.18856E+00 4.80723E+00
 -1      8898 2.21504E+01 8.91073E+00 4.83542E+00
 -1      8899 2.26371E+01 9.25844E+00 4.75908E+00
 -1      8900 2.39606E+01 9.08375E+00 4.76594E+00
 -1      8901 2.47865E+01 9.27148E+00 5.00909E+00
 -1      8902 2.91811E+01 9.15363E+00 4.82880E+00
 -1      8903 3.56051E+01 9.33707E+00 4.86995E+00
 -1      8904 3.60655E+01 9.08375E+00 4.75564E+00
 -1      8905 4.20648E+01 8.87330E+00 4.81975E+00
 -1      8906 4.24812E+01 9.25844E+00 4.82966E+00
 -1      8907 4.51393E+01 8.80425E+00 4.87175E+00
 -1      8908 4.87728E+01 8.87267E+00 4.81755E+00
 -1      8909 4.93228E+01 9.08375E+00 4.78080E+00
 -1      8910 5.54844E+01 9.25844E+00 4.96104E+00
 -1      8911 5.71777E+01 9.08375E+00 4.71344E+00
 -1      8912 6.21189E+01 8.91151E+00 4.83878E+00
 -1      8913 6.25862E+01 9.25844E+00 4.77886E+00
 -1      8914 6.91615E+01 9.22350E+00 4.83075E+00
 -1      8915 7.05791E+01 9.08375E+00 4.74119E+00
 -1      8916 7.14871E+01 9.03999E+00 4.93631E+00
 -1      8917 7.53253E+01 8.87536E+00 4.82281E+00
 -1      8918 7.58546E+01 9.15363E+00 4.82622E+00
 -1      8919 7.83299E+01 9.00661E+00 4.93567E+00
 -1      8920 8.24014E+01 9.13614E+00 4.81177E+00
 -1      8921 8.91564E+01 9.25844E+00 4.82580E+00
 -1      8922 9.18158E+01 8.80425E+00 4.87624E+00
 -1      8923 9.54492E+01 8.87258E+00 4.81698E+00
 -1      8924 9.59980E+01 9.08375E+00 4.77751E+00
 -1      8925 9.79690E+01 9.36325E+00 5.02152E+00
 -1      8926 1.00101E+02 9.13591E+00 4.89125E+00
 -1      8927-9.89428E-02 9.39034E+00 5.30736E+00
 -1      8928 4.50495E+00 9.36325E+00 4.97494E+00
 -1      8929 4.85699E+01 9.36325E+00 5.06838E+00
 -1      8930 8.59763E+00 9.46806E+00 5.04256E+00
 -1      8931 4.44792E+01 9.36325E+00 4.96380E+00
 -1      8932 5.11796E+01 9.36325E+00 4.97839E+00
 -1      8933 6.47975E+01 9.57288E+00 5.04166E+00
 -1      8934 6.42850E+01 9.38938E+00 4.85038E+00
 -1      8935 9.11539E+01 9.36325E+00 4.96730E+00
 -1      8936 9.52452E+01 9.46806E+00 5.05101E+00
 -1      8937 7.15025E+01 9.57288E+00 5.10020E+00
 -1      8938 1.08913E+00 1.02179E+01 4.99326E+00
 -1      8939 5.69092E+00 1.03023E+01 4.89125E+00
 -1      8940 7.40780E+00 1.03828E+01 5.03100E+00
 -1      8941 1.23789E+01 1.03109E+01 4.89125E+00
 -1      8942 1.40756E+01 1.03782E+01 5.04847E+00
 -1      8943 1.90730E+01 1.03229E+01 4.75150E+00
 -1      8944 2.08130E+01 1.03519E+01 5.03100E+00
 -1      8945 2.76048E+01 1.02951E+01 4.99606E+00
 -1      8946 3.24338E+01 1.03361E+01 5.03100E+00
 -1      8947 3.18769E+01 1.00687E+01 4.94081E+00
 -1      8948 3.43555E+01 1.02750E+01 4.85631E+00
 -1      8949 3.89880E+01 1.02875E+01 4.89125E+00
 -1      8950 4.09709E+01 1.03046E+01 4.89125E+00
 -1      8951 4.58183E+01 1.01216E+01 5.35805E+00
 -1      8952 4.76644E+01 1.02935E+01 4.89125E+00
 -1      8953 5.23627E+01 1.03043E+01 4.89125E+00
 -1      8954 5.42227E+01 1.03384E+01 4.89125E+00
 -1      8955 5.90506E+01 1.03130E+01 4.89125E+00
 -1      8956 6.57446E+01 1.03244E+01 4.75150E+00
 -1      8957 6.73566E+01 1.03811E+01 5.17075E+00
 -1      8958 7.24185E+01 1.03285E+01 5.03100E+00
 -1      8959 7.41052E+01 1.03579E+01 5.04847E+00
 -1      8960 7.46265E+01 1.01661E+01 4.89125E+00
 -1      8961 7.91053E+01 1.03384E+01 5.03100E+00
 -1      8962 7.86509E+01 9.78250E+00 5.28039E+00
 -1      8963 8.10308E+01 1.02716E+01 4.85631E+00
 -1      8964 8.76439E+01 1.03020E+01 4.89125E+00
 -1      8965 9.24896E+01 1.01222E+01 5.36044E+00
 -1      8966 9.44757E+01 1.02232E+01 4.92619E+00
 -1      8967 9.90344E+01 1.03064E+01 4.89125E+00
 -1      8968 6.64358E+00 1.06093E+01 5.17179E+00
 -1      8969 1.31365E+01 1.05137E+01 4.82137E+00
 -1      8970 3.38644E+01 1.04460E+01 5.17075E+00
 -1      8971 3.97884E+01 1.05610E+01 5.10158E+00
 -1      8972 4.05275E+01 1.04586E+01 5.17075E+00
 -1      8973 4.67882E+01 1.05384E+01 5.15746E+00
 -1      8974 5.33044E+01 1.06144E+01 5.17313E+00
 -1      8975 5.38037E+01 1.04825E+01 5.17075E+00
 -1      8976 5.98130E+01 1.05152E+01 4.82137E+00
 -1      8977 6.00537E+01 1.05256E+01 5.33022E+00
 -1      8978 7.31143E+01 1.05703E+01 5.15341E+00
 -1      8979 7.98831E+01 1.05949E+01 5.13683E+00
 -1      8980 8.06239E+01 1.04109E+01 5.17075E+00
 -1      8981 8.66466E+01 1.05808E+01 5.06568E+00
 -1      8982 9.33112E+01 1.05965E+01 5.13703E+00
 -1      8983 9.39120E+01 1.04348E+01 5.17075E+00
 -1      8984 1.00154E+02 1.04926E+01 5.23773E+00
 -1      8985 5.86931E+00 8.30015E-03 5.42959E+00
 -1      8986 1.33584E+01-5.46126E-01 5.24379E+00
 -1      8987 1.97707E+01-5.29242E-01 5.31429E+00
 -1      8988 5.25428E+01 7.37516E-03 5.43246E+00
 -1      8989 6.00270E+01-5.46214E-01 5.24357E+00
 -1      8990 6.66826E+01-5.29526E-01 5.24503E+00
 -1      8991 1.00445E+02-3.49374E-02 5.42591E+00
 -1      8992 1.39750E+00-2.63276E-02 5.03100E+00
 -1      8993 1.14942E+01 5.24063E-01 5.07283E+00
 -1      8994 3.18525E+01 2.12287E-01 5.16497E+00
 -1      8995 4.13660E+01-4.45772E-02 5.03100E+00
 -1      8996 4.80740E+01-2.05999E-02 5.03100E+00
 -1      8997 5.85769E+01 2.93034E-01 5.19991E+00
 -1      8998 8.79028E+01-1.16291E-01 5.03100E+00
 -1      8999 9.47505E+01-1.48572E-02 5.03100E+00
 -1      9000 9.87815E+01 3.49375E-01 5.32383E+00
 -1      9001 4.83773E+00 5.59000E-01 5.09004E+00
 -1      9002 8.59768E+00 8.95939E-01 5.00963E+00
 -1      9003 1.81757E+01 6.46344E-01 5.08057E+00
 -1      9004 2.19181E+01 7.10636E-01 5.06044E+00
 -1      9005 3.53027E+01 6.98750E-01 5.05026E+00
 -1      9006 4.51516E+01 4.54188E-01 5.20776E+00
 -1      9007 5.15915E+01 3.49375E-01 5.08225E+00
 -1      9008 5.52029E+01 8.94955E-01 5.03100E+00
 -1      9009 6.48510E+01 6.46344E-01 5.08374E+00
 -1      9010 6.85908E+01 7.10276E-01 5.05875E+00
 -1      9011 7.17765E+01 1.86023E-01 5.08426E+00
 -1      9012 7.81900E+01 7.77294E-01 5.03700E+00
 -1      9013 8.19756E+01 6.98750E-01 5.04815E+00
 -1      9014 9.18269E+01 4.54188E-01 5.21154E+00
 -1      9015 9.51556E+01 4.35718E-01 5.07806E+00
 -1      9016 9.82655E+01 3.49375E-01 5.08645E+00
 -1      9017 2.01561E+00 6.98750E-01 5.03434E+00
 -1      9018 1.52263E+01 7.11991E-01 5.06743E+00
 -1      9019 2.47493E+01 6.98750E-01 5.06683E+00
 -1      9020 2.86102E+01 6.98750E-01 5.05895E+00
 -1      9021 3.14463E+01 6.98750E-01 5.07750E+00
 -1      9022 4.19955E+01 6.98750E-01 5.04132E+00
 -1      9023 4.46849E+01 6.98750E-01 5.04500E+00
 -1      9024 4.86886E+01 6.98750E-01 5.03213E+00
 -1      9025 6.18989E+01 7.11691E-01 5.06578E+00
 -1      9026 7.16274E+01 7.68625E-01 5.10703E+00
 -1      9027 8.86685E+01 6.98750E-01 5.03915E+00
 -1      9028 1.00169E+02 4.28606E-01 5.47811E+00
 -1      9029 7.51863E+01 6.28875E-01 5.10103E+00
 -1      9030 5.24063E+00 1.25775E+00 4.85703E+00
 -1      9031 7.83077E+00 1.25775E+00 5.03343E+00
 -1      9032 1.88451E+01 1.03401E+00 5.06789E+00
 -1      9033 2.11673E+01 1.19978E+00 5.04580E+00
 -1      9034 2.55827E+01 1.00317E+00 5.12007E+00
 -1      9035 2.78302E+01 1.03321E+00 5.06251E+00
 -1      9036 3.20504E+01 8.53822E-01 5.13962E+00
 -1      9037 3.89160E+01 1.33005E+00 5.06349E+00
 -1      9038 4.55487E+01 1.03043E+00 5.12880E+00
 -1      9039 5.44996E+01 1.25775E+00 5.02988E+00
 -1      9040 6.55203E+01 1.03487E+00 5.07334E+00
 -1      9041 6.78431E+01 1.19927E+00 5.04009E+00
 -1      9042 7.22579E+01 1.00438E+00 5.12507E+00
 -1      9043 8.55211E+01 1.03051E+00 5.12327E+00
 -1      9044 9.22242E+01 1.03040E+00 5.13038E+00
 -1      9045 1.24245E+01 1.50118E+00 5.06111E+00
 -1      9046 1.90577E+01 1.51344E+00 5.03022E+00
 -1      9047 2.02987E+01 1.02415E+00 5.24793E+00
 -1      9048 2.56556E+01 1.51836E+00 5.03802E+00
 -1      9049 2.77404E+01 1.58316E+00 4.96769E+00
 -1      9050 3.22877E+01 1.52864E+00 5.02611E+00
 -1      9051 4.56930E+01 1.56557E+00 5.01727E+00
 -1      9052 4.64079E+01 1.30170E+00 4.98651E+00
 -1      9053 6.03021E+01 1.00597E+00 5.24746E+00
 -1      9054 6.10652E+01 1.00600E+00 5.13094E+00
 -1      9055 6.57330E+01 1.51351E+00 5.03104E+00
 -1      9056 7.22609E+01 1.56301E+00 5.00979E+00
 -1      9057 7.45055E+01 1.03247E+00 5.05764E+00
 -1      9058 7.88928E+01 1.21857E+00 5.06106E+00
 -1      9059 9.23684E+01 1.56687E+00 5.01766E+00
 -1      9060 5.90011E+00 1.38012E+00 5.11853E+00
 -1      9061 1.35554E+01 1.10694E+00 5.16769E+00
 -1      9062 1.43202E+01 1.00273E+00 5.16750E+00
 -1      9063 2.72513E+01 1.06729E+00 5.29128E+00
 -1      9064 3.28689E+01 1.44186E+00 5.01606E+00
 -1      9065 3.42387E+01 1.62561E+00 5.00673E+00
 -1      9066 4.03877E+01 1.18358E+00 5.16448E+00
 -1      9067 5.25761E+01 1.38059E+00 5.11812E+00
 -1      9068 5.40833E+01 1.62366E+00 4.98894E+00
 -1      9069 5.91697E+01 1.47767E+00 5.05830E+00
 -1      9070 7.29495E+01 1.38767E+00 5.03100E+00
 -1      9071 7.39277E+01 1.06468E+00 5.29121E+00
 -1      9072 7.89588E+01 1.72982E+00 4.95991E+00
 -1      9073 8.76233E+01 1.61540E+00 5.00763E+00
 -1      9074 9.93623E+01 1.24427E+00 5.19737E+00
 -1      9075 1.87265E+01 3.49375E+00 4.93814E+00
 -1      9076 5.86041E+01 3.68815E+00 4.85496E+00
 -1      9077 1.05728E+00 3.69294E+00 5.07536E+00
 -1      9078 5.72975E+00 3.40639E+00 5.00989E+00
 -1      9079 7.75864E+00 3.70297E+00 5.06128E+00
 -1      9080 1.24377E+01 3.39973E+00 5.00886E+00
 -1      9081 2.10200E+01 3.50455E+00 5.01856E+00
 -1      9082 2.58538E+01 3.39754E+00 5.00216E+00
 -1      9083 2.79173E+01 3.78780E+00 4.98039E+00
 -1      9084 3.88416E+01 3.69708E+00 5.02044E+00
 -1      9085 4.09546E+01 3.45952E+00 5.02015E+00
 -1      9086 4.77674E+01 3.84722E+00 5.10063E+00
 -1      9087 5.24062E+01 3.40438E+00 5.00978E+00
 -1      9088 6.54030E+01 3.49375E+00 4.94431E+00
 -1      9089 6.76952E+01 3.50450E+00 5.01659E+00
 -1      9090 7.25303E+01 3.39804E+00 5.00091E+00
 -1      9091 7.41454E+01 3.70319E+00 5.13270E+00
 -1      9092 8.06358E+01 3.57280E+00 5.08545E+00
 -1      9093 8.76301E+01 3.46062E+00 5.01980E+00
 -1      9094 9.44425E+01 3.84833E+00 5.09805E+00
 -1      9095 9.90827E+01 3.40265E+00 5.00958E+00
 -1      9096 1.44532E+01 3.81933E+00 5.05686E+00
 -1      9097 4.62572E+01 3.95137E+00 5.28129E+00
 -1      9098 6.03720E+01 3.64373E+00 5.03100E+00
 -1      9099 6.11896E+01 4.05626E+00 5.14600E+00
 -1      9100 6.61018E+01 3.95490E+00 5.29354E+00
 -1      9101 6.70800E+01 3.63350E+00 5.04985E+00
 -1      9102 7.89962E+01 4.03638E+00 5.16670E+00
 -1      9103 8.62956E+01 3.82509E+00 5.15835E+00
 -1      9104 9.30036E+01 3.84477E+00 5.15534E+00
 -1      9105 1.88102E+01 3.99664E+00 5.06392E+00
 -1      9106 2.00541E+01 3.99416E+00 5.18908E+00
 -1      9107 2.12442E+01 4.31163E+00 5.20531E+00
 -1      9108 2.63778E+01 4.00340E+00 5.25063E+00
 -1      9109 4.10988E+01 3.99958E+00 5.13615E+00
 -1      9110 5.48519E+01 4.03433E+00 4.96729E+00
 -1      9111 5.88176E+01 4.08498E+00 5.11817E+00
 -1      9112 5.97781E+01 3.96373E+00 5.23520E+00
 -1      9113 6.55204E+01 3.99579E+00 5.07424E+00
 -1      9114 6.67306E+01 3.99096E+00 5.18919E+00
 -1      9115 6.78081E+01 4.14656E+00 5.16996E+00
 -1      9116 8.77745E+01 3.99954E+00 5.13458E+00
 -1      9117 1.53088E+00 4.58969E+00 5.16654E+00
 -1      9118 1.50208E+01 4.26237E+00 5.11453E+00
 -1      9119 2.19251E+01 4.33225E+00 5.06484E+00
 -1      9120 2.55828E+01 4.02756E+00 5.12090E+00
 -1      9121 2.83981E+01 4.36719E+00 5.11916E+00
 -1      9122 3.15149E+01 4.35265E+00 5.10008E+00
 -1      9123 4.18084E+01 4.33225E+00 5.10396E+00
 -1      9124 4.85065E+01 4.33225E+00 5.09405E+00
 -1      9125 5.53479E+01 4.33225E+00 5.03391E+00
 -1      9126 6.19019E+01 4.33225E+00 5.07319E+00
 -1      9127 6.86073E+01 4.33225E+00 5.05812E+00
 -1      9128 7.50739E+01 4.36719E+00 5.11611E+00
 -1      9129 7.81196E+01 4.31744E+00 5.07168E+00
 -1      9130 8.83100E+01 4.50694E+00 5.15977E+00
 -1      9131 9.48401E+01 4.47200E+00 5.22423E+00
 -1      9132 1.00160E+02 4.42286E+00 5.30561E+00
 -1      9133 2.13654E+01 5.03100E+00 5.09083E+00
 -1      9134 1.19479E+01 5.03100E+00 5.08501E+00
 -1      9135 3.47236E+01 5.03100E+00 5.08125E+00
 -1      9136 4.14110E+01 5.03100E+00 5.06546E+00
 -1      9137 4.80983E+01 5.03100E+00 5.04965E+00
 -1      9138 5.19322E+01 5.03100E+00 5.07297E+00
 -1      9139 7.47079E+01 5.03100E+00 5.09329E+00
 -1      9140 8.13952E+01 5.03100E+00 5.07750E+00
 -1      9141 9.47699E+01 5.03100E+00 5.04589E+00
 -1      9142 9.86038E+01 5.03100E+00 5.07673E+00
 -1      9143 2.01560E+00 5.72975E+00 5.03390E+00
 -1      9144 5.26060E+00 5.03100E+00 5.06921E+00
 -1      9145 1.14938E+01 5.55506E+00 5.07415E+00
 -1      9146 1.81757E+01 5.67734E+00 5.08005E+00
 -1      9147 2.19179E+01 5.74068E+00 5.05990E+00
 -1      9148 3.15502E+01 5.54572E+00 5.06993E+00
 -1      9149 3.81445E+01 5.72975E+00 5.08662E+00
 -1      9150 4.48157E+01 5.59000E+00 5.08138E+00
 -1      9151 4.52448E+01 5.03100E+00 5.05717E+00
 -1      9152 4.86886E+01 5.72975E+00 5.03173E+00
 -1      9153 5.81673E+01 5.55506E+00 5.07734E+00
 -1      9154 7.15578E+01 5.55506E+00 5.10470E+00
 -1      9155 7.51868E+01 5.62940E+00 5.09232E+00
 -1      9156 7.81908E+01 5.78096E+00 5.06933E+00
 -1      9157 8.19755E+01 5.72975E+00 5.04750E+00
 -1      9158 8.48186E+01 5.59000E+00 5.08816E+00
 -1      9159 8.86684E+01 5.72975E+00 5.03864E+00
 -1      9160 9.14892E+01 5.59000E+00 5.08434E+00
 -1      9161 9.19164E+01 5.03100E+00 5.06093E+00
 -1      9162 9.53995E+01 5.72975E+00 5.01777E+00
 -1      9163 1.52262E+01 5.74200E+00 5.06678E+00
 -1      9164 2.85133E+01 5.66455E+00 5.10031E+00
 -1      9165 4.19955E+01 5.72975E+00 5.04077E+00
 -1      9166 5.51688E+01 5.73630E+00 5.08351E+00
 -1      9167 6.18988E+01 5.74171E+00 5.06516E+00
 -1      9168 6.85906E+01 5.74032E+00 5.05824E+00
 -1      9169 1.89690E+01 6.37328E+00 5.03228E+00
 -1      9170 2.11176E+01 5.81136E+00 5.22970E+00
 -1      9171 2.55826E+01 6.03387E+00 5.11917E+00
 -1      9172 2.78303E+01 6.06381E+00 5.06156E+00
 -1      9173 3.22183E+01 6.24572E+00 5.05632E+00
 -1      9174 3.45332E+01 5.97291E+00 5.10774E+00
 -1      9175 3.88463E+01 6.06046E+00 5.11780E+00
 -1      9176 4.10223E+01 5.92053E+00 5.20503E+00
 -1      9177 5.44991E+01 6.28875E+00 5.02976E+00
 -1      9178 6.54050E+01 5.74769E+00 5.19641E+00
 -1      9179 6.78432E+01 6.23009E+00 5.03904E+00
 -1      9180 7.45056E+01 6.06306E+00 5.05610E+00
 -1      9181 7.88932E+01 6.24972E+00 5.06056E+00
 -1      9182 8.53117E+01 5.95564E+00 5.10137E+00
 -1      9183 1.28570E+01 6.18081E+00 5.18573E+00
 -1      9184 1.35546E+01 6.13301E+00 5.16416E+00
 -1      9185 2.02987E+01 6.05020E+00 5.24537E+00
 -1      9186 2.56560E+01 6.54704E+00 5.03610E+00
 -1      9187 3.42387E+01 6.65219E+00 5.00421E+00
 -1      9188 3.95898E+01 6.47910E+00 4.96119E+00
 -1      9189 4.64026E+01 6.33051E+00 4.98286E+00
 -1      9190 5.94636E+01 5.90878E+00 5.38016E+00
 -1      9191 6.07912E+01 6.65418E+00 4.99298E+00
 -1      9192 6.10900E+01 5.81340E+00 5.24086E+00
 -1      9193 6.57334E+01 6.54226E+00 5.02864E+00
 -1      9194 7.29495E+01 6.40986E+00 5.03100E+00
 -1      9195 7.32989E+01 6.05818E+00 5.17217E+00
 -1      9196 7.39277E+01 6.09135E+00 5.28897E+00
 -1      9197 9.93623E+01 6.27357E+00 5.19361E+00
 -1      9198 5.72141E+00 6.53771E+00 5.04934E+00
 -1      9199 1.24248E+01 6.52884E+00 5.05924E+00
 -1      9200 2.72513E+01 6.09391E+00 5.28900E+00
 -1      9201 3.22822E+01 6.75834E+00 4.95616E+00
 -1      9202 4.57656E+01 6.44106E+00 5.10054E+00
 -1      9203 5.26857E+01 6.27390E+00 5.19385E+00
 -1      9204 7.23905E+01 6.54759E+00 5.06364E+00
 -1      9205 7.89588E+01 6.75851E+00 4.95702E+00
 -1      9206 8.02165E+01 6.26814E+00 5.03100E+00
 -1      9207 9.23687E+01 6.50013E+00 5.06099E+00
 -1      9208 1.89361E+01 8.47413E+00 4.97402E+00
 -1      9209 3.25617E+01 8.42693E+00 4.99944E+00
 -1      9210 7.92383E+01 8.42795E+00 4.99781E+00
 -1      9211 1.08785E+00 8.91114E+00 5.12306E+00
 -1      9212 5.72975E+00 8.43296E+00 5.01221E+00
 -1      9213 7.93205E+00 8.88904E+00 5.01735E+00
 -1      9214 1.24377E+01 8.42618E+00 5.01139E+00
 -1      9215 2.09155E+01 8.54406E+00 5.03746E+00
 -1      9216 2.58538E+01 8.42397E+00 5.00514E+00
 -1      9217 2.79175E+01 8.81847E+00 4.98185E+00
 -1      9218 3.88413E+01 8.72662E+00 5.02095E+00
 -1      9219 3.92697E+01 8.43193E+00 4.99181E+00
 -1      9220 4.09549E+01 8.48719E+00 5.02224E+00
 -1      9221 4.77637E+01 8.91218E+00 5.12098E+00
 -1      9222 5.91143E+01 8.42522E+00 5.01098E+00
 -1      9223 6.56126E+01 8.47405E+00 4.97676E+00
 -1      9224 6.75907E+01 8.54395E+00 5.03675E+00
 -1      9225 8.07056E+01 8.54085E+00 5.06802E+00
 -1      9226 8.76233E+01 8.48831E+00 5.02619E+00
 -1      9227 9.44394E+01 8.91332E+00 5.11882E+00
 -1      9228 1.94253E+01 8.98339E+00 5.29586E+00
 -1      9229 2.03910E+01 8.66450E+00 5.04116E+00
 -1      9230 2.63778E+01 8.99926E+00 5.24339E+00
 -1      9231 3.23211E+01 9.06827E+00 5.16157E+00
 -1      9232 3.83582E+01 8.96904E+00 4.92446E+00
 -1      9233 4.63271E+01 8.86425E+00 5.15774E+00
 -1      9234 5.44315E+01 8.83919E+00 5.06717E+00
 -1      9235 6.03720E+01 8.66593E+00 5.03100E+00
 -1      9236 6.61018E+01 8.98132E+00 5.29587E+00
 -1      9237 6.70800E+01 8.66450E+00 5.05757E+00
 -1      9238 7.30194E+01 9.03547E+00 5.24855E+00
 -1      9239 7.89012E+01 9.13730E+00 5.18632E+00
 -1      9240 7.99370E+01 8.94810E+00 5.01647E+00
 -1      9241 1.88558E+01 9.02060E+00 5.11749E+00
 -1      9242 2.00541E+01 9.01864E+00 5.19163E+00
 -1      9243 2.11322E+01 9.17566E+00 5.17574E+00
 -1      9244 4.10994E+01 9.02950E+00 5.14002E+00
 -1      9245 5.97781E+01 8.98859E+00 5.23726E+00
 -1      9246 6.10329E+01 9.21078E+00 5.22158E+00
 -1      9247 6.54856E+01 9.02649E+00 5.07053E+00
 -1      9248 6.67306E+01 9.01544E+00 5.19174E+00
 -1      9249 6.78081E+01 9.17636E+00 5.17226E+00
 -1      9250 8.56540E+01 9.08375E+00 5.15855E+00
 -1      9251 8.77750E+01 9.02946E+00 5.13838E+00
 -1      9252 9.96769E+01 8.96834E+00 5.22084E+00
 -1      9253 1.83261E+00 9.46806E+00 5.08462E+00
 -1      9254 1.13536E+01 9.36325E+00 5.04498E+00
 -1      9255 1.45318E+01 9.12418E+00 5.14595E+00
 -1      9256 1.51607E+01 9.57288E+00 5.06344E+00
 -1      9257 1.80627E+01 9.36325E+00 5.06246E+00
 -1      9258 2.19331E+01 9.36325E+00 5.06155E+00
 -1      9259 2.55829E+01 9.05833E+00 5.12293E+00
 -1      9260 2.83978E+01 9.39819E+00 5.12031E+00
 -1      9261 3.14464E+01 9.26227E+00 5.04948E+00
 -1      9262 3.78556E+01 9.36325E+00 4.97808E+00
 -1      9263 4.18582E+01 9.78250E+00 4.97855E+00
 -1      9264 5.81142E+01 9.50300E+00 5.05940E+00
 -1      9265 6.16187E+01 9.57288E+00 5.15244E+00
 -1      9266 6.84775E+01 9.36325E+00 5.10815E+00
 -1      9267 7.50737E+01 9.39819E+00 5.11720E+00
 -1      9268 7.44354E+01 9.27447E+00 5.22988E+00
 -1      9269 7.79770E+01 9.36325E+00 5.03100E+00
 -1      9270 8.18691E+01 9.53794E+00 5.05452E+00
 -1      9271 8.45677E+01 9.36325E+00 4.99349E+00
 -1      9272 8.84828E+01 9.36325E+00 5.10277E+00
 -1      9273 1.00161E+02 9.44729E+00 5.30635E+00
 -1      9274-5.45208E-01 1.00085E+01 5.17057E+00
 -1      9275 4.92217E+00 9.72710E+00 5.05984E+00
 -1      9276 3.18955E+01 9.64275E+00 5.25483E+00
 -1      9277 3.82707E+01 9.65047E+00 5.10584E+00
 -1      9278 9.15726E+01 9.72509E+00 5.05189E+00
 -1      9279 1.00552E+02 9.92225E+00 5.17075E+00
 -1      9280 5.53473E+00 9.85238E+00 5.32728E+00
 -1      9281 4.54527E+01 9.64275E+00 5.34325E+00
 -1      9282 4.80887E+01 9.78359E+00 5.18860E+00
 -1      9283 5.48326E+01 9.71263E+00 5.21299E+00
 -1      9284 5.86906E+01 9.50300E+00 5.31050E+00
 -1      9285 8.79286E+01 9.71263E+00 5.32342E+00
 -1      9286 9.88523E+01 9.67769E+00 5.36160E+00
 -1      9287 1.54881E-01 1.05591E+01 5.17051E+00
 -1      9288 1.26241E+01 9.99213E+00 5.53561E+00
 -1      9289 1.33950E+01 1.05241E+01 5.36052E+00
 -1      9290 2.00541E+01 1.05879E+01 5.24063E+00
 -1      9291 1.93917E+01 1.00620E+01 5.56758E+00
 -1      9292 2.67621E+01 1.05858E+01 5.24063E+00
 -1      9293 3.31474E+01 1.05916E+01 5.17244E+00
 -1      9294 5.93680E+01 1.00620E+01 5.55528E+00
 -1      9295 6.67306E+01 1.05876E+01 5.24063E+00
 -1      9296 6.61357E+01 1.00620E+01 5.60607E+00
 -1      9297 8.72040E+01 1.04541E+01 5.17075E+00
 -1      9298 3.30511E+01-2.27788E-01 5.63018E+00
 -1      9299 4.57578E+01 7.55058E-02 5.41391E+00
 -1      9300 7.26001E+01 3.49376E-02 5.50489E+00
 -1      9301 7.92436E+01 1.39750E-01 5.51374E+00
 -1      9302 8.63045E+01-6.18577E-02 5.63540E+00
 -1      9303 9.24313E+01 7.50437E-02 5.41710E+00
 -1      9304 1.21290E+01 3.49375E-01 5.33052E+00
 -1      9305 1.88597E+01 3.99681E-01 5.34637E+00
 -1      9306 2.11306E+01 4.89125E-01 5.35419E+00
 -1      9307 2.59236E+01 1.48194E-01 5.50519E+00
 -1      9308 3.24919E+01 2.44563E-01 5.46593E+00
 -1      9309 3.92711E+01 1.39750E-01 5.52563E+00
 -1      9310 5.92382E+01 3.48459E-03 5.44443E+00
 -1      9311 6.55339E+01 3.99915E-01 5.34878E+00
 -1      9312 6.78188E+01 5.59000E-01 5.34587E+00
 -1      9313 6.70925E+01-8.60868E-02 5.62218E+00
 -1      9314 8.55231E+01 2.79500E-01 5.35229E+00
 -1      9315 1.22048E+00 4.19250E-01 5.33983E+00
 -1      9316 7.91295E+00 4.19250E-01 5.33103E+00
 -1      9317 1.44301E+01 4.89125E-01 5.36306E+00
 -1      9318 2.80960E+01 5.59000E-01 5.26695E+00
 -1      9319 3.45092E+01 4.19250E-01 5.35473E+00
 -1      9320 4.78933E+01 4.19250E-01 5.33776E+00
 -1      9321 5.20760E+01 4.19250E-01 5.33048E+00
 -1      9322 5.45858E+01 4.19250E-01 5.32890E+00
 -1      9323 6.11048E+01 4.89125E-01 5.36098E+00
 -1      9324 7.22320E+01 4.19250E-01 5.37900E+00
 -1      9325 7.46301E+01 5.59000E-01 5.31050E+00
 -1      9326 7.88396E+01 5.59000E-01 5.29824E+00
 -1      9327 8.11818E+01 4.19250E-01 5.35276E+00
 -1      9328 8.78738E+01 4.19250E-01 5.34435E+00
 -1      9329 9.45661E+01 4.19250E-01 5.33568E+00
 -1      9330 1.75476E-07 5.25835E-01 5.56617E+00
 -1      9331 4.12010E+01 4.19250E-01 5.34637E+00
 -1      9332 4.19250E-01 1.07598E+00 5.27963E+00
 -1      9333 5.37848E+00 3.51451E-01 5.29394E+00
 -1      9334 7.33687E+00 9.58494E-01 5.27152E+00
 -1      9335 1.27172E+01 9.94531E-01 5.32293E+00
 -1      9336 1.94253E+01 1.00738E+00 5.32540E+00
 -1      9337 2.63079E+01 7.43907E-01 5.43919E+00
 -1      9338 3.38195E+01 1.09150E+00 5.29604E+00
 -1      9339 4.06655E+01 7.67752E-01 5.37421E+00
 -1      9340 4.61175E+01 9.65308E-01 5.35464E+00
 -1      9341 4.70957E+01 1.07679E+00 5.28107E+00
 -1      9342 5.40134E+01 9.58611E-01 5.26831E+00
 -1      9343 6.61018E+01 9.55038E-01 5.34258E+00
 -1      9344 7.29844E+01 7.42290E-01 5.44076E+00
 -1      9345 8.04960E+01 1.09196E+00 5.29662E+00
 -1      9346 8.72040E+01 1.09245E+00 5.29821E+00
 -1      9347 9.29687E+01 8.67244E-01 5.39274E+00
 -1      9348 9.37722E+01 1.07746E+00 5.28241E+00
 -1      9349 9.98746E+01 8.99058E-01 5.30466E+00
 -1      9350 6.42850E+00 7.71076E-01 5.43077E+00
 -1      9351 3.30159E+01 7.34081E-01 5.44790E+00
 -1      9352 3.96191E+01 7.58652E-01 5.45670E+00
 -1      9353 4.66765E+01 6.97657E-01 5.42661E+00
 -1      9354 5.32098E+01 7.75340E-01 5.40841E+00
 -1      9355 6.66608E+01 7.11903E-01 5.46339E+00
 -1      9356 6.72198E+01 1.01761E+00 5.30879E+00
 -1      9357 7.96575E+01 8.33131E-01 5.39555E+00
 -1      9358 5.93937E+01 9.98129E-01 5.32366E+00
 -1      9359 8.62956E+01 7.58522E-01 5.45734E+00
 -1      9360 2.72862E+01 3.97107E+00 5.29237E+00
 -1      9361 3.24919E+01 4.26627E+00 5.34634E+00
 -1      9362 4.19250E-01 4.01492E+00 5.31049E+00
 -1      9363 6.00407E+00 4.06313E+00 5.30532E+00
 -1      9364 6.91763E+00 4.12428E+00 5.33764E+00
 -1      9365 1.28570E+01 3.93543E+00 5.29809E+00
 -1      9366 1.36606E+01 4.28945E+00 5.44607E+00
 -1      9367 1.94253E+01 3.95693E+00 5.29358E+00
 -1      9368 2.04734E+01 4.27198E+00 5.44752E+00
 -1      9369 3.31208E+01 4.05909E+00 5.30757E+00
 -1      9370 3.38894E+01 4.05821E+00 5.35335E+00
 -1      9371 4.04227E+01 4.13298E+00 5.39930E+00
 -1      9372 4.69560E+01 4.20111E+00 5.39681E+00
 -1      9373 5.26737E+01 4.06323E+00 5.30514E+00
 -1      9374 5.38037E+01 4.07008E+00 5.35189E+00
 -1      9375 6.04419E+01 4.27560E+00 5.45611E+00
 -1      9376 6.71499E+01 4.27234E+00 5.44555E+00
 -1      9377 7.22580E+01 4.02639E+00 5.12600E+00
 -1      9378 7.30194E+01 4.08266E+00 5.32695E+00
 -1      9379 7.37880E+01 4.06482E+00 5.36338E+00
 -1      9380 8.05659E+01 4.05809E+00 5.35200E+00
 -1      9381 8.70992E+01 4.13303E+00 5.39917E+00
 -1      9382 9.37024E+01 4.27136E+00 5.46105E+00
 -1      9383 9.96418E+01 3.95795E+00 5.27170E+00
 -1      9384 7.12135E-01 4.75150E+00 5.54760E+00
 -1      9385 7.70324E+00 4.33225E+00 5.29715E+00
 -1      9386 1.43244E+01 4.33225E+00 5.30577E+00
 -1      9387 2.77775E+01 4.49079E+00 5.32087E+00
 -1      9388 3.88565E+01 4.54187E+00 5.31952E+00
 -1      9389 4.59622E+01 4.40409E+00 5.42392E+00
 -1      9390 4.74451E+01 4.34563E+00 5.37363E+00
 -1      9391 5.44929E+01 4.47200E+00 5.30109E+00
 -1      9392 7.45241E+01 4.38624E+00 5.28784E+00
 -1      9393 8.59202E+01 4.34047E+00 5.38602E+00
 -1      9394 8.53329E+01 4.33225E+00 5.24322E+00
 -1      9395 9.26594E+01 4.26481E+00 5.37441E+00
 -1      9396 9.40561E+01 4.75150E+00 5.54395E+00
 -1      9397 1.21635E+01 4.61175E+00 5.35765E+00
 -1      9398 1.46677E+01 5.03100E+00 5.12030E+00
 -1      9399 1.87077E+01 4.82137E+00 5.25551E+00
 -1      9400 2.55246E+01 4.78644E+00 5.30862E+00
 -1      9401 3.19975E+01 4.61175E+00 5.28979E+00
 -1      9402 4.12705E+01 4.61175E+00 5.32552E+00
 -1      9403 5.21444E+01 4.61175E+00 5.35124E+00
 -1      9404 5.88360E+01 4.61175E+00 5.35962E+00
 -1      9405 6.12105E+01 5.03100E+00 5.21876E+00
 -1      9406 6.52845E+01 4.61175E+00 5.27135E+00
 -1      9407 6.79185E+01 5.03100E+00 5.18717E+00
 -1      9408 7.21840E+01 4.54187E+00 5.34288E+00
 -1      9409 7.86704E+01 4.61175E+00 5.29222E+00
 -1      9410 8.12516E+01 4.61175E+00 5.33335E+00
 -1      9411 8.54996E+01 4.89125E+00 5.31939E+00
 -1      9412 9.88171E+01 4.61175E+00 5.35326E+00
 -1      9413 7.67762E+00 4.89125E+00 5.39555E+00
 -1      9414 1.15450E+00 5.27556E+00 5.34039E+00
 -1      9415 2.79500E+01 5.03100E+00 5.16310E+00
 -1      9416 3.23074E+01 5.10087E+00 5.35927E+00
 -1      9417 5.43430E+01 4.96113E+00 5.36864E+00
 -1      9418 5.88284E+01 5.34544E+00 5.33880E+00
 -1      9419 6.56692E+01 5.17075E+00 5.37983E+00
 -1      9420 7.21791E+01 5.27556E+00 5.33542E+00
 -1      9421 7.91797E+01 5.20569E+00 5.46968E+00
 -1      9422 8.75294E+01 4.92619E+00 5.46190E+00
 -1      9423 9.44829E+01 5.36291E+00 5.34103E+00
 -1      9424 7.95782E+00 5.52013E+00 5.28805E+00
 -1      9425 1.44301E+01 5.52013E+00 5.36063E+00
 -1      9426 1.88426E+01 5.49236E+00 5.33351E+00
 -1      9427 3.21645E+01 5.59000E+00 5.29327E+00
 -1      9428 3.45092E+01 5.45025E+00 5.35370E+00
 -1      9429 3.41983E+01 4.82137E+00 5.46736E+00
 -1      9430 5.45858E+01 5.45025E+00 5.32831E+00
 -1      9431 7.44882E+01 5.45025E+00 5.36071E+00
 -1      9432 7.88398E+01 5.59000E+00 5.29620E+00
 -1      9433 8.11818E+01 5.45025E+00 5.35177E+00
 -1      9434 8.53661E+01 5.45025E+00 5.31254E+00
 -1      9435 3.49377E-02 5.36156E+00 5.64837E+00
 -1      9436 2.79557E+01 5.59000E+00 5.31050E+00
 -1      9437 3.86933E+01 5.45025E+00 5.31006E+00
 -1      9438 4.78438E+01 5.38037E+00 5.33346E+00
 -1      9439 5.21299E+01 5.79963E+00 5.20982E+00
 -1      9440 6.78180E+01 5.59000E+00 5.34314E+00
 -1      9441 8.78909E+01 5.74588E+00 5.22911E+00
 -1      9442 4.19250E-01 6.10244E+00 5.27644E+00
 -1      9443 6.79942E-01 5.51860E+00 5.47901E+00
 -1      9444 5.40499E+00 5.45025E+00 5.32808E+00
 -1      9445 6.00925E+00 6.07159E+00 5.30097E+00
 -1      9446 1.41147E+01 5.99852E+00 5.27515E+00
 -1      9447 2.58538E+01 5.38037E+00 5.49376E+00
 -1      9448 2.62730E+01 5.86838E+00 5.38853E+00
 -1      9449 3.38195E+01 6.11788E+00 5.29334E+00
 -1      9450 3.92697E+01 5.24063E+00 5.52561E+00
 -1      9451 4.59659E+01 5.31050E+00 5.54877E+00
 -1      9452 4.70957E+01 6.10323E+00 5.27795E+00
 -1      9453 5.40134E+01 5.98732E+00 5.26676E+00
 -1      9454 7.26001E+01 5.88783E+00 5.32373E+00
 -1      9455 8.06506E+01 5.99391E+00 5.30224E+00
 -1      9456 8.60860E+01 5.99289E+00 5.34814E+00
 -1      9457 9.26379E+01 5.31050E+00 5.55051E+00
 -1      9458 9.37722E+01 6.10391E+00 5.27935E+00
 -1      9459 9.86900E+01 5.59000E+00 5.30356E+00
 -1      9460 9.98730E+01 5.83533E+00 5.35612E+00
 -1      9461 6.49837E+00 5.73112E+00 5.46513E+00
 -1      9462 7.42943E+00 5.71826E+00 5.37614E+00
 -1      9463 1.94253E+01 5.98283E+00 5.33872E+00
 -1      9464 3.30509E+01 5.93685E+00 5.33511E+00
 -1      9465 3.96191E+01 5.78851E+00 5.45315E+00
 -1      9466 4.61175E+01 5.99395E+00 5.35186E+00
 -1      9467 4.66765E+01 5.72646E+00 5.42021E+00
 -1      9468 5.31749E+01 5.73202E+00 5.46554E+00
 -1      9469 6.03021E+01 5.96955E+00 5.31925E+00
 -1      9470 7.96575E+01 5.86190E+00 5.39212E+00
 -1      9471 8.66450E+01 5.72876E+00 5.42543E+00
 -1      9472 8.72040E+01 6.11876E+00 5.29578E+00
 -1      9473 9.27940E+01 5.99411E+00 5.35281E+00
 -1      9474 9.33530E+01 5.72837E+00 5.42457E+00
 -1      9475 6.61716E+01 5.78690E+00 5.43762E+00
 -1      9476 6.72198E+01 6.04523E+00 5.30628E+00
 -1      9477 2.72862E+01 8.99982E+00 5.29515E+00
 -1      9478 7.39627E+01 9.00118E+00 5.29404E+00
 -1      9479 9.27940E+01 8.96003E+00 5.30302E+00
 -1      9480 4.19250E-01 9.10016E+00 5.35468E+00
 -1      9481 6.00224E+00 9.09175E+00 5.30655E+00
 -1      9482 6.98750E+00 9.22644E+00 5.40201E+00
 -1      9483 1.28570E+01 8.96175E+00 5.30079E+00
 -1      9484 1.36606E+01 9.31742E+00 5.44818E+00
 -1      9485 2.04734E+01 9.30182E+00 5.45032E+00
 -1      9486 3.30509E+01 9.08380E+00 5.31494E+00
 -1      9487 3.38894E+01 9.08803E+00 5.35652E+00
 -1      9488 3.93396E+01 9.09907E+00 5.27791E+00
 -1      9489 4.05275E+01 8.95992E+00 5.30284E+00
 -1      9490 4.70259E+01 9.30137E+00 5.46524E+00
 -1      9491 5.28255E+01 8.96021E+00 5.30230E+00
 -1      9492 5.36640E+01 9.22547E+00 5.40222E+00
 -1      9493 6.04419E+01 9.30487E+00 5.45872E+00
 -1      9494 6.71499E+01 9.30218E+00 5.44827E+00
 -1      9495 7.22581E+01 9.05719E+00 5.12691E+00
 -1      9496 8.05659E+01 9.08791E+00 5.35510E+00
 -1      9497 8.62258E+01 8.97517E+00 5.28870E+00
 -1      9498 8.70992E+01 9.16162E+00 5.40243E+00
 -1      9499 9.37024E+01 9.30120E+00 5.46461E+00
 -1      9500 7.79092E+00 9.53794E+00 5.32271E+00
 -1      9501 2.78498E+01 9.48580E+00 5.29172E+00
 -1      9502 4.01432E+01 9.28597E+00 5.41322E+00
 -1      9503 4.59155E+01 9.23066E+00 5.33340E+00
 -1      9504 5.44658E+01 9.36325E+00 5.27589E+00
 -1      9505 1.29090E+00 9.64275E+00 5.31722E+00
 -1      9506 1.21638E+01 9.57288E+00 5.34834E+00
 -1      9507 1.46982E+01 9.64275E+00 5.28161E+00
 -1      9508 1.85729E+01 9.64275E+00 5.25525E+00
 -1      9509 2.13330E+01 9.67769E+00 5.29546E+00
 -1      9510 2.53050E+01 9.64275E+00 5.27910E+00
 -1      9511 2.58538E+01 9.46622E+00 5.40690E+00
 -1      9512 3.47920E+01 9.64275E+00 5.24073E+00
 -1      9513 3.87435E+01 9.64275E+00 5.32551E+00
 -1      9514 4.12534E+01 9.71263E+00 5.32731E+00
 -1      9515 5.22068E+01 9.85238E+00 5.33028E+00
 -1      9516 6.52849E+01 9.64275E+00 5.27091E+00
 -1      9517 6.80059E+01 9.67769E+00 5.29282E+00
 -1      9518 7.22191E+01 9.57288E+00 5.36276E+00
 -1      9519 7.44890E+01 9.78250E+00 5.35017E+00
 -1      9520 8.11863E+01 9.78250E+00 5.33529E+00
 -1      9521 8.54175E+01 9.64275E+00 5.32834E+00
 -1      9522 9.21254E+01 9.64275E+00 5.34536E+00
 -1      9523 9.44743E+01 9.78250E+00 5.35066E+00
 -1      9524 7.66186E+00 1.00620E+01 5.34565E+00
 -1      9525 3.41867E+01 9.92225E+00 5.46316E+00
 -1      9526 3.92683E+01 9.78250E+00 5.54184E+00
 -1      9527 8.59403E+01 9.78250E+00 5.54371E+00
 -1      9528 1.40449E+01 9.92225E+00 5.52196E+00
 -1      9529 2.07686E+01 9.92225E+00 5.50436E+00
 -1      9530 2.61853E+01 1.00620E+01 5.63086E+00
 -1      9531 2.74600E+01 9.88731E+00 5.47568E+00
 -1      9532 3.31667E+01 1.02098E+01 5.66015E+00
 -1      9533 3.24220E+01 9.94995E+00 5.41678E+00
 -1      9534 4.06879E+01 9.92225E+00 5.54231E+00
 -1      9535 4.73044E+01 9.99213E+00 5.55356E+00
 -1      9536 5.40109E+01 9.92225E+00 5.53698E+00
 -1      9537 6.07912E+01 9.92225E+00 5.49465E+00
 -1      9538 6.74432E+01 9.92225E+00 5.50060E+00
 -1      9539 7.98405E+01 1.02099E+01 5.66091E+00
 -1      9540 8.73609E+01 9.92225E+00 5.53943E+00
 -1      9541 9.94662E+01 1.00620E+01 5.60720E+00
 -1      9542 7.08196E-01 9.92225E+00 5.53302E+00
 -1      9543 5.98311E+00 1.00620E+01 5.52865E+00
 -1      9544 6.82934E+00 1.00609E+01 5.66732E+00
 -1      9545 5.26548E+01 1.00620E+01 5.53144E+00
 -1      9546 9.36664E+01 1.02360E+01 5.59734E+00
 -1      9547-1.44232E-01-1.30288E-01 5.66023E+00
 -1      9548 6.56825E+00-1.58464E-01 5.70823E+00
 -1      9549 1.33811E+01-1.57678E-01 5.69480E+00
 -1      9550 1.98556E+01-1.54980E-01 5.68468E+00
 -1      9551 2.04209E+01-8.64818E-02 5.62358E+00
 -1      9552 2.65935E+01-2.26595E-01 5.66899E+00
 -1      9553 3.36679E+01-6.98749E-02 5.66522E+00
 -1      9554 3.98462E+01-1.23636E-01 5.67861E+00
 -1      9555 4.05531E+01 1.03015E-01 5.58584E+00
 -1      9556 4.67464E+01-7.93549E-02 5.70968E+00
 -1      9557 5.32448E+01-1.58325E-01 5.71007E+00
 -1      9558 5.37883E+01 5.34058E-08 5.64545E+00
 -1      9559 6.00576E+01-1.57413E-01 5.69474E+00
 -1      9560 6.65310E+01-1.55445E-01 5.68613E+00
 -1      9561 7.32687E+01-2.26928E-01 5.66923E+00
 -1      9562 7.99370E+01-4.41214E-02 5.69641E+00
 -1      9563 8.71680E+01-8.16766E-02 5.59499E+00
 -1      9564 9.34229E+01-7.93328E-02 5.70880E+00
 -1      9565 9.99212E+01-3.16312E-01 5.65772E+00
 -1      9566 6.34095E-01 1.39137E-01 5.56423E+00
 -1      9567 7.11683E+00 5.34058E-08 5.64749E+00
 -1      9568 1.26799E+01 1.39750E-01 5.55895E+00
 -1      9569 1.39119E+01 5.34058E-08 5.59000E+00
 -1      9570 1.94863E+01 3.49375E-01 5.56112E+00
 -1      9571 2.71782E+01 5.34058E-08 5.62089E+00
 -1      9572 6.05784E+01 5.34058E-08 5.59000E+00
 -1      9573 6.61610E+01 3.49375E-01 5.56396E+00
 -1      9574 7.38498E+01 5.34058E-08 5.61870E+00
 -1      9575 8.05373E+01 5.34058E-08 5.60943E+00
 -1      9576 3.39354E+01 4.29104E-01 5.52802E+00
 -1      9577 6.72048E+01 4.36694E-01 5.54237E+00
 -1      9578 8.73139E+01 4.23723E-01 5.51636E+00
 -1      9579 7.02244E+00 6.12650E-01 5.50595E+00
 -1      9580 1.34859E+01 5.23745E-01 5.57611E+00
 -1      9581 2.04035E+01 4.92892E-01 5.56726E+00
 -1      9582 6.01624E+01 5.22388E-01 5.57575E+00
 -1      9583 3.96541E+01 4.41566E+00 5.50998E+00
 -1      9584-1.58464E-01 4.76583E+00 5.65011E+00
 -1      9585 7.12725E+00 4.61175E+00 5.57650E+00
 -1      9586 1.27391E+01 4.59998E+00 5.53244E+00
 -1      9587 1.94421E+01 4.59552E+00 5.54093E+00
 -1      9588 2.08228E+01 4.75150E+00 5.50864E+00
 -1      9589 2.61561E+01 4.80093E+00 5.59363E+00
 -1      9590 2.66923E+01 4.48500E+00 5.58332E+00
 -1      9591 2.72152E+01 4.61175E+00 5.55103E+00
 -1      9592 3.34002E+01 4.48756E+00 5.58177E+00
 -1      9593 3.28534E+01 4.79719E+00 5.60275E+00
 -1      9594 4.06952E+01 4.75150E+00 5.55334E+00
 -1      9595 5.27114E+01 4.60341E+00 5.52541E+00
 -1      9596 5.33146E+01 4.89125E+00 5.74248E+00
 -1      9597 5.38037E+01 4.61175E+00 5.57403E+00
 -1      9598 5.94144E+01 4.59891E+00 5.53454E+00
 -1      9599 6.07912E+01 4.68163E+00 5.50407E+00
 -1      9600 6.61173E+01 4.59449E+00 5.54282E+00
 -1      9601 6.74993E+01 4.75150E+00 5.50504E+00
 -1      9602 7.28301E+01 4.79999E+00 5.59584E+00
 -1      9603 7.39906E+01 4.75150E+00 5.56616E+00
 -1      9604 7.95225E+01 4.69157E+00 5.57341E+00
 -1      9605 8.65052E+01 4.49860E+00 5.57652E+00
 -1      9606 9.93867E+01 4.60235E+00 5.52766E+00
 -1      9607 5.98289E+00 5.31050E+00 5.55430E+00
 -1      9608 1.41147E+01 4.82137E+00 5.50748E+00
 -1      9609 3.98986E+01 5.03100E+00 5.73554E+00
 -1      9610 4.74496E+01 4.89125E+00 5.49834E+00
 -1      9611 8.06786E+01 4.75150E+00 5.55896E+00
 -1      9612 8.65751E+01 5.03100E+00 5.73669E+00
 -1      9613 9.27129E+01 4.74157E+00 5.57432E+00
 -1      9614 7.12163E+00 5.29965E+00 5.60114E+00
 -1      9615 1.32762E+01 5.03100E+00 5.76819E+00
 -1      9616 1.94622E+01 5.45025E+00 5.55029E+00
 -1      9617 2.71960E+01 5.18399E+00 5.60450E+00
 -1      9618 5.26548E+01 5.31050E+00 5.55600E+00
 -1      9619 5.37955E+01 5.29897E+00 5.59937E+00
 -1      9620 5.93433E+01 5.31050E+00 5.56303E+00
 -1      9621 6.04926E+01 5.29573E+00 5.59162E+00
 -1      9622 7.33688E+01 5.03100E+00 5.76987E+00
 -1      9623 8.59463E+01 5.24063E+00 5.52936E+00
 -1      9624 9.34578E+01 4.96113E+00 5.72739E+00
 -1      9625 9.93267E+01 5.31050E+00 5.55769E+00
 -1      9626 1.26715E+01 5.31050E+00 5.56138E+00
 -1      9627 2.05287E+01 5.46756E+00 5.54131E+00
 -1      9628 3.28412E+01 5.45025E+00 5.56339E+00
 -1      9629 3.39346E+01 5.45922E+00 5.52565E+00
 -1      9630 6.72039E+01 5.46662E+00 5.53962E+00
 -1      9631 7.28098E+01 5.45025E+00 5.55489E+00
 -1      9632 7.39069E+01 5.46248E+00 5.53201E+00
 -1      9633 8.06099E+01 5.45821E+00 5.52357E+00
 -1      9634 9.39120E+01 5.31050E+00 5.58904E+00
 -1      9635 1.38187E+01 5.29656E+00 5.59351E+00
 -1      9636 4.70972E+01 5.37203E+00 5.60565E+00
 -1      9637 5.99528E+01 5.03100E+00 5.76904E+00
 -1      9638 8.73131E+01 5.45398E+00 5.51427E+00
 -1      9639 1.99843E+01 5.03100E+00 5.77075E+00
 -1      9640 2.66923E+01 5.03100E+00 5.77039E+00
 -1      9641 3.34002E+01 5.03100E+00 5.76719E+00
 -1      9642 6.66608E+01 5.03100E+00 5.77096E+00
 -1      9643 8.00768E+01 5.03100E+00 5.76606E+00
 -1      9644 1.00061E+02 5.40062E+00 5.64825E+00
 -1      9645 2.64826E+01 9.53396E+00 5.57867E+00
 -1      9646 3.27931E+01 9.58131E+00 5.46521E+00
 -1      9647 7.31591E+01 9.53222E+00 5.57924E+00
 -1      9648 7.39749E+01 9.92225E+00 5.56328E+00
 -1      9649 7.95178E+01 9.52053E+00 5.52007E+00
 -1      9650 8.00768E+01 9.51470E+00 5.58374E+00
 -1      9651 8.65052E+01 9.52479E+00 5.57902E+00
 -1      9652-7.92149E-02 1.01671E+01 5.65264E+00
 -1      9653 7.31436E+01 1.02094E+01 5.65717E+00
 -1      9654 8.06678E+01 9.92225E+00 5.55147E+00
 -1      9655 1.00180E+02 9.92225E+00 5.67698E+00
 -1      9656 1.99843E+01 1.02017E+01 5.72725E+00
 -1      9657 3.98986E+01 1.01402E+01 5.70479E+00
 -1      9658 5.33496E+01 1.01648E+01 5.69502E+00
 -1      9659 6.01593E+01 1.00698E+01 5.69474E+00
 -1      9660 6.66608E+01 1.02017E+01 5.72747E+00
 -1      9661 8.65751E+01 1.01403E+01 5.70579E+00
 -1      9662 2.66923E+01 1.02166E+01 5.71420E+00
 -1      9663 4.65368E+01 9.99213E+00 5.74098E+00
 -1      9664 6.63813E+00 4.89125E+00 5.74197E+00
 -1      9665 4.66765E+01 4.96113E+00 5.73870E+00
 -1      9666 1.33461E+01 9.92225E+00 5.74481E+00
 -1      9667 9.32831E+01 9.92225E+00 5.74205E+00
 -1      9668 4.74473E+01 9.36420E+00 6.79219E-01
 -1      9669 1.99594E+01 5.09808E+00 3.24748E-01
 -1      9670 6.67436E+01 4.94282E+00 4.81217E+00
 -1      9671 1.34344E+01 5.00127E+00 4.86329E+00
 -1      9672 4.58266E+01 7.19591E-01 4.49849E+00
 -1      9673 6.59756E+01 5.68043E+00 4.52491E+00
 -1      9674 3.29650E+01 5.07744E+00 4.77857E+00
 -1      9675 2.70553E+01 4.83954E+00 4.51055E-01
 -3
    3C                         24308                                     1
 -1     20391    3    0    1
 -2      8422      9188      9465      9175
 -1     20392    3    0    1
 -2      2915       539      3484      2951
 -1     20393    3    0    1
 -2      8898      8881      9243      9258
 -1     20394    3    0    1
 -2      9182      9456      9434      7409
 -1     20395    3    0    1
 -2      1362      3112      1932      1957
 -1     20396    3    0    1
 -2      1622      1004      1696      1003
 -1     20397    3    0    1
 -2      9447      7911      7417      9589
 -1     20398    3    0    1
 -2      3414      2297      3958      3980
 -1     20399    3    0    1
 -2      2070      2589      2071      3144
 -1     20400    3    0    1
 -2      4728      4700      3876      4954
 -1     20401    3    0    1
 -2      9620      7392      9598      6593
 -1     20402    3    0    1
 -2      9590      9640      7417      9589
 -1     20403    3    0    1
 -2      9624      9423      7400      9634
 -1     20404    3    0    1
 -2      9613      7921      9161      9624
 -1     20405    3    0    1
 -2      9456      9623      9434      7409
 -1     20406    3    0    1
 -2      9030      8114      9333      7111
 -1     20407    3    0    1
 -2       303      1339      1299       701
 -1     20408    3    0    1
 -2      7402      9471      9638      7409
 -1     20409    3    0    1
 -2      9617      9640      7417      9590
 -1     20410    3    0    1
 -2      9456      9182      7950      7409
 -1     20411    3    0    1
 -2      9623      9471      7402      7409
 -1     20412    3    0    1
 -2      5683      8832      8412      9205
 -1     20413    3    0    1
 -2       116       496       430      2705
 -1     20414    3    0    1
 -2      6588      5292      5968      5969
 -1     20415    3    0    1
 -2       250      2460      2973      2488
 -1     20416    3    0    1
 -2      9501      7687      9217      9477
 -1     20417    3    0    1
 -2      7409      9182      7950      6015
 -1     20418    3    0    1
 -2      3385       919      2795      2293
 -1     20419    3    0    1
 -2      6006      6732      6005      6752
 -1     20420    3    0    1
 -2      8635      8988      9321      7709
 -1     20421    3    0    1
 -2      3783      1372      2568      2032
 -1     20422    3    0    1
 -2      9598      7392      9620      9637
 -1     20423    3    0    1
 -2      9356      9041      9312      7150
 -1     20424    3    0    1
 -2      6506      9391      9110      7916
 -1     20425    3    0    1
 -2      5482      4414      5062      5483
 -1     20426    3    0    1
 -2      7417      6561      9590      9589
 -1     20427    3    0    1
 -2       326      1343      1315       710
 -1     20428    3    0    1
 -2       149      1049      1018       528
 -1     20429    3    0    1
 -2      8887      8099      7680      6104
 -1     20430    3    0    1
 -2      8079      8486      7044      8487
 -1     20431    3    0    1
 -2      8055      8020      8035      8893
 -1     20432    3    0    1
 -2       933       467       426       903
 -1     20433    3    0    1
 -2      9591      9617      6561      9590
 -1     20434    3    0    1
 -2      9217      7687      6063      9477
 -1     20435    3    0    1
 -2      6561      9617      7417      9590
 -1     20436    3    0    1
 -2      2973      2460       250      2939
 -1     20437    3    0    1
 -2        91       926       489       927
 -1     20438    3    0    1
 -2      8345      9610      9636      7405
 -1     20439    3    0    1
 -2      7911      6722      6623      9171
 -1     20440    3    0    1
 -2      2975       627      2462      2977
 -1     20441    3    0    1
 -2      9638      7950      7919      7409
 -1     20442    3    0    1
 -2      6629      7457      9632      6612
 -1     20443    3    0    1
 -2      2614      2591      2154      1343
 -1     20444    3    0    1
 -2      3555       226       212      3009
 -1     20445    3    0    1
 -2      9598      7392      7360      6593
 -1     20446    3    0    1
 -2      9384      9362      8310      6526
 -1     20447    3    0    1
 -2      3008      2979       682      3009
 -1     20448    3    0    1
 -2      8192      7743      7148      8151
 -1     20449    3    0    1
 -2      7457      9631      9454      7407
 -1     20450    3    0    1
 -2      7720      7156      7721      9044
 -1     20451    3    0    1
 -2      1252      1201       660      1918
 -1     20452    3    0    1
 -2      7406      7392      9599      9621
 -1     20453    3    0    1
 -2       496       430      2705      2787
 -1     20454    3    0    1
 -2      4682      3247      4303      4251
 -1     20455    3    0    1
 -2      7457      9632      9622      6629
 -1     20456    3    0    1
 -2       213       629       656      3009
 -1     20457    3    0    1
 -2      1581      1530       889       946
 -1     20458    3    0    1
 -2       656       629      3010      3009
 -1     20459    3    0    1
 -2      6590      9618      9595      6646
 -1     20460    3    0    1
 -2      8632      7258      8216      7794
 -1     20461    3    0    1
 -2      2814       910      1640      3379
 -1     20462    3    0    1
 -2      2979       271       682      3009
 -1     20463    3    0    1
 -2      8594      7720      7721      9044
 -1     20464    3    0    1
 -2      2171       115       803      2229
 -1     20465    3    0    1
 -2      3777      4665      3778      4293
 -1     20466    3    0    1
 -2       460       405        93      1454
 -1     20467    3    0    1
 -2       587      2927      1131      3529
 -1     20468    3    0    1
 -2      3005      2965       643      3021
 -1     20469    3    0    1
 -2      7150      9041      9312      6148
 -1     20470    3    0    1
 -2      9236      9248      8489      7045
 -1     20471    3    0    1
 -2      2979      3555       212      3009
 -1     20472    3    0    1
 -2      7409      5952      9182      6015
 -1     20473    3    0    1
 -2      2979       212       271      3009
 -1     20474    3    0    1
 -2       463       115      2171      2229
 -1     20475    3    0    1
 -2      9631      9622      9602      6629
 -1     20476    3    0    1
 -2      2169       462      2750      2229
 -1     20477    3    0    1
 -2      9587      9616      9639      7367
 -1     20478    3    0    1
 -2      2831      1560      1636      3376
 -1     20479    3    0    1
 -2      9420      9454      9631      7407
 -1     20480    3    0    1
 -2      9587      9368      9367      9106
 -1     20481    3    0    1
 -2      9182      9434      5952      7409
 -1     20482    3    0    1
 -2      5427      4748      5219      5428
 -1     20483    3    0    1
 -2      5746      7032      6995      7075
 -1     20484    3    0    1
 -2      7360      7392      9598      9637
 -1     20485    3    0    1
 -2      2169      2750      2170      2229
 -1     20486    3    0    1
 -2       165       230       194      3003
 -1     20487    3    0    1
 -2      9627      9639      6638      7367
 -1     20488    3    0    1
 -2      9030      8114      8985      9333
 -1     20489    3    0    1
 -2      7407      9631      9602      6629
 -1     20490    3    0    1
 -2      9420      9631      9602      7407
 -1     20491    3    0    1
 -2       193       229       228      3557
 -1     20492    3    0    1
 -2      6404      7773      6346      8212
 -1     20493    3    0    1
 -2      9041      9356      8167      7150
 -1     20494    3    0    1
 -2      9453      7916      6730      7476
 -1     20495    3    0    1
 -2      3171      3239      2664      1344
 -1     20496    3    0    1
 -2       516       515       135      2353
 -1     20497    3    0    1
 -2      6617      7977      9423      6712
 -1     20498    3    0    1
 -2      9356      9577      9355      7150
 -1     20499    3    0    1
 -2      9621      9599      7406      9405
 -1     20500    3    0    1
 -2       720      3175      2667      3201
 -1     20501    3    0    1
 -2      9094      7349      6522      6617
 -1     20502    3    0    1
 -2       193       160      2947      2922
 -1     20503    3    0    1
 -2      5952      9623      7402      7409
 -1     20504    3    0    1
 -2      2469       689       617      1212
 -1     20505    3    0    1
 -2      9650      9654      9496      8110
 -1     20506    3    0    1
 -2      2979       682      1199      3008
 -1     20507    3    0    1
 -2      9441      7950      7919      9638
 -1     20508    3    0    1
 -2      3926      3357      2791      4401
 -1     20509    3    0    1
 -2      2989       539      2915      2951
 -1     20510    3    0    1
 -2      2569      2568      1966      3145
 -1     20511    3    0    1
 -2       629       213       568      3009
 -1     20512    3    0    1
 -2      4851      4181      3030      4516
 -1     20513    3    0    1
 -2      3760      2611      2585      3165
 -1     20514    3    0    1
 -2      9474      9634      7400      6633
 -1     20515    3    0    1
 -2      2964       643      2965      3021
 -1     20516    3    0    1
 -2      9248      9237      8489      7045
 -1     20517    3    0    1
 -2      7402      7919      6615      7409
 -1     20518    3    0    1
 -2      2232       476       398      2181
 -1     20519    3    0    1
 -2      7170      8166      9336      7133
 -1     20520    3    0    1
 -2      7911      7417      6722      9171
 -1     20521    3    0    1
 -2      5995      7968      7953      9172
 -1     20522    3    0    1
 -2      6149      9041      7150      6148
 -1     20523    3    0    1
 -2      2910       188       153      3573
 -1     20524    3    0    1
 -2       741      2611      2641      3758
 -1     20525    3    0    1
 -2      4983      3282      4729      4368
 -1     20526    3    0    1
 -2      9603      9091      6612      9392
 -1     20527    3    0    1
 -2       644       645      2458      2967
 -1     20528    3    0    1
 -2      5952      9434      9623      7409
 -1     20529    3    0    1
 -2      9523      8058      8112      7693
 -1     20530    3    0    1
 -2      9570      9336      8166      7133
 -1     20531    3    0    1
 -2      4420      2885      3489      4011
 -1     20532    3    0    1
 -2      9393      7355      7402      7872
 -1     20533    3    0    1
 -2       595       170       586      2991
 -1     20534    3    0    1
 -2       213       226      3555      3009
 -1     20535    3    0    1
 -2      2234       894       460      2168
 -1     20536    3    0    1
 -2      7477      6695      6693      6765
 -1     20537    3    0    1
 -2      2651      1444      2115      3247
 -1     20538    3    0    1
 -2      3628      1871      1872      1851
 -1     20539    3    0    1
 -2      9268      9478      8109      7640
 -1     20540    3    0    1
 -2       250       653      2460      2488
 -1     20541    3    0    1
 -2      1073      1072      2393      1740
 -1     20542    3    0    1
 -2      2646       781       751      1403
 -1     20543    3    0    1
 -2       410       451        57       409
 -1     20544    3    0    1
 -2       996       125      2347       512
 -1     20545    3    0    1
 -2      3010       629      2980      3009
 -1     20546    3    0    1
 -2      7603      8037      7604      8468
 -1     20547    3    0    1
 -2      9636      7405      9467      8345
 -1     20548    3    0    1
 -2       905       469       101      2237
 -1     20549    3    0    1
 -2      9622      9631      7457      6629
 -1     20550    3    0    1
 -2      3202      3203       753      2648
 -1     20551    3    0    1
 -2      4011      2905      2884      4051
 -1     20552    3    0    1
 -2      2964      1134       643      3021
 -1     20553    3    0    1
 -2       902      2756      2174      1549
 -1     20554    3    0    1
 -2       531       193       228      3557
 -1     20555    3    0    1
 -2      6593      9620      7392      6626
 -1     20556    3    0    1
 -2      9441      7919      7950      6737
 -1     20557    3    0    1
 -2      6561      7417      7911      9589
 -1     20558    3    0    1
 -2      7914      6641      6725      7955
 -1     20559    3    0    1
 -2       140       142       246      3569
 -1     20560    3    0    1
 -2      2771       915      2232       476
 -1     20561    3    0    1
 -2      7457      9454      8811      7407
 -1     20562    3    0    1
 -2      7402      7355      9393      5952
 -1     20563    3    0    1
 -2      3447      4492      4471      4076
 -1     20564    3    0    1
 -2      6590      9595      6591      6646
 -1     20565    3    0    1
 -2      7082      7680      8099      6104
 -1     20566    3    0    1
 -2      8941      9483      8089      8102
 -1     20567    3    0    1
 -2      1456       803       115      2229
 -1     20568    3    0    1
 -2      7045      8489      9236      7638
 -1     20569    3    0    1
 -2      2973      1193       250      2488
 -1     20570    3    0    1
 -2      2454      2994       636      2455
 -1     20571    3    0    1
 -2      2228      2742       942      2717
 -1     20572    3    0    1
 -2      4520      5598      5599      5095
 -1     20573    3    0    1
 -2      9598      9375      7360      9637
 -1     20574    3    0    1
 -2      9339      6272      7774      9066
 -1     20575    3    0    1
 -2        17        89        42        16
 -1     20576    3    0    1
 -2       938       478      2184      2183
 -1     20577    3    0    1
 -2      2184       478       414      2183
 -1     20578    3    0    1
 -2      2735      2750       462      2229
 -1     20579    3    0    1
 -2      9654      9650      8980      8110
 -1     20580    3    0    1
 -2      1019       150       151      2921
 -1     20581    3    0    1
 -2      9091      9392      8710      6612
 -1     20582    3    0    1
 -2       673      3016      2449      1233
 -1     20583    3    0    1
 -2      9319      6197      7700      9338
 -1     20584    3    0    1
 -2      3011       256       214      3573
 -1     20585    3    0    1
 -2       947       488       455      1582
 -1     20586    3    0    1
 -2      8099      7660      7082      6104
 -1     20587    3    0    1
 -2      3203       721       753      2648
 -1     20588    3    0    1
 -2       209       174       130      2963
 -1     20589    3    0    1
 -2      6634      7349      9094      6617
 -1     20590    3    0    1
 -2      9116      5937      6551      7919
 -1     20591    3    0    1
 -2       636       672      2455      1213
 -1     20592    3    0    1
 -2      7640      8109      9268      7678
 -1     20593    3    0    1
 -2      5952      5986      9182      6015
 -1     20594    3    0    1
 -2      1630       986       591      1698
 -1     20595    3    0    1
 -2      8112      8966      9523      7693
 -1     20596    3    0    1
 -2       142       140      3520      3569
 -1     20597    3    0    1
 -2      2994       636      2993      1806
 -1     20598    3    0    1
 -2      9619      9417      6591      6646
 -1     20599    3    0    1
 -2      3652      3697      2542      4220
 -1     20600    3    0    1
 -2       723       298      3180      2650
 -1     20601    3    0    1
 -2      2306       518      1007      2862
 -1     20602    3    0    1
 -2      6606      9620      9598      6593
 -1     20603    3    0    1
 -2      2932      2386       519      2933
 -1     20604    3    0    1
 -2      9614      9585      9664      6582
 -1     20605    3    0    1
 -2      9589      9447      7911      9400
 -1     20606    3    0    1
 -2      8114      9350      8561      7694
 -1     20607    3    0    1
 -2       187       213       150      3555
 -1     20608    3    0    1
 -2      3540      2980       629      3009
 -1     20609    3    0    1
 -2       142       140      2908      3520
 -1     20610    3    0    1
 -2      8811      7457      7407      6733
 -1     20611    3    0    1
 -2      7977      8362      9423      6712
 -1     20612    3    0    1
 -2       638      1904      1859      1236
 -1     20613    3    0    1
 -2      9115      7342      7353      6610
 -1     20614    3    0    1
 -2      9496      9240      9650      8110
 -1     20615    3    0    1
 -2       130       174      2962      2963
 -1     20616    3    0    1
 -2       226       271       212      3009
 -1     20617    3    0    1
 -2       463       422       901      2171
 -1     20618    3    0    1
 -2      9452      9610      9636      8345
 -1     20619    3    0    1
 -2      7360      7392      9599      7406
 -1     20620    3    0    1
 -2      6590      9439      9618      6646
 -1     20621    3    0    1
 -2       451       470      2266      2239
 -1     20622    3    0    1
 -2      2149      2140       276      3207
 -1     20623    3    0    1
 -2      2938       525      3473      3553
 -1     20624    3    0    1
 -2      8303      7280      7295      8684
 -1     20625    3    0    1
 -2      2648       721       753      1443
 -1     20626    3    0    1
 -2      6729      9439      8805      5956
 -1     20627    3    0    1
 -2       516       133      2353       135
 -1     20628    3    0    1
 -2       209       174      2963       238
 -1     20629    3    0    1
 -2      9596      9595      9618      6646
 -1     20630    3    0    1
 -2      1539       460        93      1454
 -1     20631    3    0    1
 -2      7838      8310      9362      6526
 -1     20632    3    0    1
 -2      6617      6633      7977      6712
 -1     20633    3    0    1
 -2      3540       629       568      3009
 -1     20634    3    0    1
 -2      9094      7400      7875      9396
 -1     20635    3    0    1
 -2      9248      9236      8553      7045
 -1     20636    3    0    1
 -2       251       604       185      3554
 -1     20637    3    0    1
 -2       586       169       585      2379
 -1     20638    3    0    1
 -2      6967      8097      7615      6067
 -1     20639    3    0    1
 -2      6522      7400      9094      6617
 -1     20640    3    0    1
 -2      7671      7687      6063      9217
 -1     20641    3    0    1
 -2      2658       693      3195      3164
 -1     20642    3    0    1
 -2       187      1019      3540      2921
 -1     20643    3    0    1
 -2      2170      2750      2735      2229
 -1     20644    3    0    1
 -2      2975      1801       627      2977
 -1     20645    3    0    1
 -2      7949      5945      8345      7915
 -1     20646    3    0    1
 -2      2994      1090      1806      3462
 -1     20647    3    0    1
 -2      9100      8293      7353      9670
 -1     20648    3    0    1
 -2      2664       711      3171      1344
 -1     20649    3    0    1
 -2      8952      8106      7096      9221
 -1     20650    3    0    1
 -2      6484      5953      6553      7347
 -1     20651    3    0    1
 -2      7466      6743      5962      7909
 -1     20652    3    0    1
 -2       170       265       231      2453
 -1     20653    3    0    1
 -2      2460       652       248      3007
 -1     20654    3    0    1
 -2      9636      9467      7405      7390
 -1     20655    3    0    1
 -2       150      1019       187      2921
 -1     20656    3    0    1
 -2      1300       703       278      3207
 -1     20657    3    0    1
 -2      8230      8631      9352      9037
 -1     20658    3    0    1
 -2      6470      6427      7340      8290
 -1     20659    3    0    1
 -2      7872      6551      7402      7919
 -1     20660    3    0    1
 -2      2591      2662      2154      1343
 -1     20661    3    0    1
 -2      2908      1135       521      3450
 -1     20662    3    0    1
 -2      7916      9453      9177      7476
 -1     20663    3    0    1
 -2       901      2698      2230      2171
 -1     20664    3    0    1
 -2      7713      9040      9343      7171
 -1     20665    3    0    1
 -2      2962       209       130      2963
 -1     20666    3    0    1
 -2      2174      2756      2736      1549
 -1     20667    3    0    1
 -2      9195      9622      9631      7457
 -1     20668    3    0    1
 -2      9376      9101      9114      9670
 -1     20669    3    0    1
 -2       647      2933      2480      3025
 -1     20670    3    0    1
 -2      2296      1002      1674      3429
 -1     20671    3    0    1
 -2      3643       636      2455      1213
 -1     20672    3    0    1
 -2      1440      2595       712      1345
 -1     20673    3    0    1
 -2      3006      2933       223      9675
 -1     20674    3    0    1
 -2      5474      7199      6261      7787
 -1     20675    3    0    1
 -2      9268      8886      9478      6090
 -1     20676    3    0    1
 -2      8110      8963      9496      8099
 -1     20677    3    0    1
 -2      9637      7392      9620      6626
 -1     20678    3    0    1
 -2      7687      7671      9501      9217
 -1     20679    3    0    1
 -2      8110      9240      9650      8556
 -1     20680    3    0    1
 -2      3555       150       187      2921
 -1     20681    3    0    1
 -2      7953      6722      7417      9171
 -1     20682    3    0    1
 -2       151       149      1019      2921
 -1     20683    3    0    1
 -2      3557       193      2947      2922
 -1     20684    3    0    1
 -2      2771       915       476      1594
 -1     20685    3    0    1
 -2      5037      4499      5053      4454
 -1     20686    3    0    1
 -2      6634      6597      7349      6617
 -1     20687    3    0    1
 -2      6638      9639      9616      7367
 -1     20688    3    0    1
 -2      6730      9177      9453      7476
 -1     20689    3    0    1
 -2      2979       212      3555      2921
 -1     20690    3    0    1
 -2       463       900       115      2229
 -1     20691    3    0    1
 -2      7170      9336      7697      7133
 -1     20692    3    0    1
 -2      3024      2479      3587      3646
 -1     20693    3    0    1
 -2      7156      7771      7721      9044
 -1     20694    3    0    1
 -2       298       723      3180      1293
 -1     20695    3    0    1
 -2      7770      7709      9067      6205
 -1     20696    3    0    1
 -2      9308      9351      7699      9036
 -1     20697    3    0    1
 -2      7914      7404      6641      7955
 -1     20698    3    0    1
 -2      6522      7400      7875      9094
 -1     20699    3    0    1
 -2      9113      8293      7352      7353
 -1     20700    3    0    1
 -2      8167      9356      9355      7150
 -1     20701    3    0    1
 -2      2230       463       901      2171
 -1     20702    3    0    1
 -2       170       595       265      2991
 -1     20703    3    0    1
 -2      2376       579      2946      1712
 -1     20704    3    0    1
 -2      7963      9197      9459      8352
 -1     20705    3    0    1
 -2       273       617      2454      2469
 -1     20706    3    0    1
 -2       115       114      2161      2229
 -1     20707    3    0    1
 -2      7635      8102      8089      9483
 -1     20708    3    0    1
 -2      7407      7457      9631      6629
 -1     20709    3    0    1
 -2      9221      8106      7096      8042
 -1     20710    3    0    1
 -2      7704      7703      7774      9339
 -1     20711    3    0    1
 -2      2935       142      3520      3569
 -1     20712    3    0    1
 -2       437       398       476      2181
 -1     20713    3    0    1
 -2       587      2927      3529      1088
 -1     20714    3    0    1
 -2      7640      9268      9478      6090
 -1     20715    3    0    1
 -2      3291      2704      2705      2763
 -1     20716    3    0    1
 -2      3202       753       754      2648
 -1     20717    3    0    1
 -2       352       351      1448       386
 -1     20718    3    0    1
 -2      2180       437       476      2181
 -1     20719    3    0    1
 -2      2754      2679      4368      3877
 -1     20720    3    0    1
 -2      2328       995       996      2347
 -1     20721    3    0    1
 -2      9455      9633      7408      6614
 -1     20722    3    0    1
 -2      9378      8258      9090      7877
 -1     20723    3    0    1
 -2      7466      7909      9424      9462
 -1     20724    3    0    1
 -2      3555       212       150      2921
 -1     20725    3    0    1
 -2      3643      2993       636      1213
 -1     20726    3    0    1
 -2       742       317      1279      3760
 -1     20727    3    0    1
 -2       433       411       471      1461
 -1     20728    3    0    1
 -2      9362      9384      6598      6526
 -1     20729    3    0    1
 -2      8110      9496      7641      8099
 -1     20730    3    0    1
 -2       587      3529      1714      1088
 -1     20731    3    0    1
 -2      8310      6598      9384      6526
 -1     20732    3    0    1
 -2       231       168       170      2453
 -1     20733    3    0    1
 -2       278       277       276      2149
 -1     20734    3    0    1
 -2      8555      8109      9647      7640
 -1     20735    3    0    1
 -2       359       309       308      2674
 -1     20736    3    0    1
 -2       209       130       175      2962
 -1     20737    3    0    1
 -2       935      2765      2767       966
 -1     20738    3    0    1
 -2      8166      9047      9570      7133
 -1     20739    3    0    1
 -2      3453       564      2909      2975
 -1     20740    3    0    1
 -2      5364      7084      7052      5777
 -1     20741    3    0    1
 -2      1334      1333      2024      1988
 -1     20742    3    0    1
 -2      1461       799       411      2739
 -1     20743    3    0    1
 -2       586       169      2379      2387
 -1     20744    3    0    1
 -2      3538      1013       185      3497
 -1     20745    3    0    1
 -2      7392      9637      9621      6626
 -1     20746    3    0    1
 -2      3003       215       194      2923
 -1     20747    3    0    1
 -2      9494      9237      9248      7045
 -1     20748    3    0    1
 -2      2171      2230       463      2229
 -1     20749    3    0    1
 -2       260      1205       261      2451
 -1     20750    3    0    1
 -2      3012       660      3037      3011
 -1     20751    3    0    1
 -2      4809      4496      4477      4789
 -1     20752    3    0    1
 -2       213       226       150      3555
 -1     20753    3    0    1
 -2      5789      7780      7163      9035
 -1     20754    3    0    1
 -2      7703      6272      7774      9339
 -1     20755    3    0    1
 -2       613       682      1199      2979
 -1     20756    3    0    1
 -2      8599      8137      7137      9019
 -1     20757    3    0    1
 -2      8092      7637      9511      9259
 -1     20758    3    0    1
 -2      9185      9639      6638      9627
 -1     20759    3    0    1
 -2      9638      9471      7402      9612
 -1     20760    3    0    1
 -2      8263      9106      9368      7358
 -1     20761    3    0    1
 -2      5474      4759      5459      5438
 -1     20762    3    0    1
 -2      8886      9268      7678      6090
 -1     20763    3    0    1
 -2      8293      9113      9100      7353
 -1     20764    3    0    1
 -2      2045      2666       748      1323
 -1     20765    3    0    1
 -2      2485       247      1188      2970
 -1     20766    3    0    1
 -2      7960      9454      9194      9204
 -1     20767    3    0    1
 -2      2906       516       552      2353
 -1     20768    3    0    1
 -2      1124      1026      2945      2944
 -1     20769    3    0    1
 -2       683       213       656      3009
 -1     20770    3    0    1
 -2      1441      3837      3198      2598
 -1     20771    3    0    1
 -2      2233       915       477      2232
 -1     20772    3    0    1
 -2      7837      7264      7293      8259
 -1     20773    3    0    1
 -2      7622      7106      9250      7012
 -1     20774    3    0    1
 -2      6606      9598      7360      6593
 -1     20775    3    0    1
 -2      3540      3555       187      2921
 -1     20776    3    0    1
 -2       617      3065      2469      1212
 -1     20777    3    0    1
 -2      2379      2991       586      2387
 -1     20778    3    0    1
 -2      1016       564       148      2909
 -1     20779    3    0    1
 -2      3195       706      3232      3708
 -1     20780    3    0    1
 -2      9171      7417      7953      9448
 -1     20781    3    0    1
 -2      5268      5952      5574      5527
 -1     20782    3    0    1
 -2      2497       630       255      2943
 -1     20783    3    0    1
 -2      3258      2667      3175      3201
 -1     20784    3    0    1
 -2       748      2666      1424      1323
 -1     20785    3    0    1
 -2       405       460       818      1454
 -1     20786    3    0    1
 -2        58       411       799      2739
 -1     20787    3    0    1
 -2      5970      4827      5631      5630
 -1     20788    3    0    1
 -2      2488      2973      1193      3057
 -1     20789    3    0    1
 -2      7956      9618      9439      6646
 -1     20790    3    0    1
 -2       826       433       471      1461
 -1     20791    3    0    1
 -2      8871      9217      6063      9477
 -1     20792    3    0    1
 -2      2656       704      1303      2555
 -1     20793    3    0    1
 -2      9230      7592      9216      8038
 -1     20794    3    0    1
 -2      2353      2930       178      9669
 -1     20795    3    0    1
 -2      3183      2673      2160      1350
 -1     20796    3    0    1
 -2      8567      9581      9047      7133
 -1     20797    3    0    1
 -2       717      2600      3242      2045
 -1     20798    3    0    1
 -2      1143       639      1156      1184
 -1     20799    3    0    1
 -2      1458        46       391      1457
 -1     20800    3    0    1
 -2      6591      7916      5947      6646
 -1     20801    3    0    1
 -2      7104      7639      7692      6071
 -1     20802    3    0    1
 -2      2983       660       214      3011
 -1     20803    3    0    1
 -2      9417      9619      9453      6646
 -1     20804    3    0    1
 -2      9203      9439      8805      6729
 -1     20805    3    0    1
 -2      9218      6996      7092      8040
 -1     20806    3    0    1
 -2      5945      7405      6644      7949
 -1     20807    3    0    1
 -2      7833      7258      6384      8257
 -1     20808    3    0    1
 -2      2963      2965       643      3005
 -1     20809    3    0    1
 -2      9218      7092      6996      9232
 -1     20810    3    0    1
 -2      2149       276       278      3207
 -1     20811    3    0    1
 -2      8110      9650      8980      8556
 -1     20812    3    0    1
 -2      2385       597       124      2956
 -1     20813    3    0    1
 -2       818       460       894      2168
 -1     20814    3    0    1
 -2      6512      9091      8710      6612
 -1     20815    3    0    1
 -2      3597      1138      1199      2979
 -1     20816    3    0    1
 -2      2648       753       754      1443
 -1     20817    3    0    1
 -2      9413      9585      9614      6582
 -1     20818    3    0    1
 -2      8897      8521      8896      9256
 -1     20819    3    0    1
 -2      9638      9471      7950      7409
 -1     20820    3    0    1
 -2       653       250      1193      2488
 -1     20821    3    0    1
 -2      7025      6060      5765      8089
 -1     20822    3    0    1
 -2       398       437      2180      2181
 -1     20823    3    0    1
 -2      1454      1539       460      2168
 -1     20824    3    0    1
 -2      8887      9496      9520      8099
 -1     20825    3    0    1
 -2       347       753       721      1443
 -1     20826    3    0    1
 -2      2032       744      3783      1372
 -1     20827    3    0    1
 -2      8880      7588      8021      9255
 -1     20828    3    0    1
 -2       142       140       141      2908
 -1     20829    3    0    1
 -2      7713      9040      7171      6147
 -1     20830    3    0    1
 -2      2938       525       526      3473
 -1     20831    3    0    1
 -2      7916      6591      9417      6646
 -1     20832    3    0    1
 -2       229       193      2947      3557
 -1     20833    3    0    1
 -2      9408      9602      9378      7407
 -1     20834    3    0    1
 -2       541       609       232       203
 -1     20835    3    0    1
 -2      9494      9248      8553      7045
 -1     20836    3    0    1
 -2      1220       246       142      3569
 -1     20837    3    0    1
 -2      7678      9268      7640      6090
 -1     20838    3    0    1
 -2       241      2930      3550      9669
 -1     20839    3    0    1
 -2       114       115       900      2229
 -1     20840    3    0    1
 -2      2787      2705      2704      2763
 -1     20841    3    0    1
 -2      9616      9463      9185      8353
 -1     20842    3    0    1
 -2      9612      9471      7402      9623
 -1     20843    3    0    1
 -2      8710      6574      6595      7902
 -1     20844    3    0    1
 -2      1441      2145      3837      2598
 -1     20845    3    0    1
 -2      9211      8938      8101      9480
 -1     20846    3    0    1
 -2      2654      1339       303      3159
 -1     20847    3    0    1
 -2      3570      1136      2935      2970
 -1     20848    3    0    1
 -2      1442      3199      3241      2598
 -1     20849    3    0    1
 -2      7405      5945      8345      7949
 -1     20850    3    0    1
 -2      9439      9618      9138      6590
 -1     20851    3    0    1
 -2      7655      7066      6065      8075
 -1     20852    3    0    1
 -2      9587      9367      9105      7358
 -1     20853    3    0    1
 -2      1801       605       564      2975
 -1     20854    3    0    1
 -2      2742       444       942      2717
 -1     20855    3    0    1
 -2      9595      9596      6591      6646
 -1     20856    3    0    1
 -2      3006       647      2933      2480
 -1     20857    3    0    1
 -2      8310      7908      6598      6526
 -1     20858    3    0    1
 -2      2611      2585       317      3760
 -1     20859    3    0    1
 -2      2436      1152      1845      2435
 -1     20860    3    0    1
 -2      1461       471       826      2738
 -1     20861    3    0    1
 -2       597       123       124      2956
 -1     20862    3    0    1
 -2      9182      8815      7950      6015
 -1     20863    3    0    1
 -2      2140       303       276      3207
 -1     20864    3    0    1
 -2      2650       298      3180      1349
 -1     20865    3    0    1
 -2      1192      1137       248      3007
 -1     20866    3    0    1
 -2      9353      7775      7705      9672
 -1     20867    3    0    1
 -2      3520      2908       142      2935
 -1     20868    3    0    1
 -2      8946      7091      9646      9231
 -1     20869    3    0    1
 -2      9362      6618      9384      9117
 -1     20870    3    0    1
 -2      1026      2945      2944      2913
 -1     20871    3    0    1
 -2      3207      2140       303      3159
 -1     20872    3    0    1
 -2       911       474       828      2709
 -1     20873    3    0    1
 -2      7457      9196      9632      6612
 -1     20874    3    0    1
 -2      2501      1979      3044      1921
 -1     20875    3    0    1
 -2      8946      9646      9533      9231
 -1     20876    3    0    1
 -2      3252      2611       791      3760
 -1     20877    3    0    1
 -2      9062      7160      6239      6129
 -1     20878    3    0    1
 -2      3007      1192      1137      2972
 -1     20879    3    0    1
 -2       645      1867      2458      2967
 -1     20880    3    0    1
 -2      3468      4012      3490      3413
 -1     20881    3    0    1
 -2      6649      8811      7407      6733
 -1     20882    3    0    1
 -2      9598      9375      9112      7360
 -1     20883    3    0    1
 -2      7635      8089      6060      8454
 -1     20884    3    0    1
 -2       527       185      1013      3497
 -1     20885    3    0    1
 -2       411       471        58       433
 -1     20886    3    0    1
 -2       115       114         6      2161
 -1     20887    3    0    1
 -2       218       219      2450      3531
 -1     20888    3    0    1
 -2       531       193      3557      2922
 -1     20889    3    0    1
 -2      9596      9468      9619      6646
 -1     20890    3    0    1
 -2       942       485       486      2717
 -1     20891    3    0    1
 -2        93        92        43       405
 -1     20892    3    0    1
 -2      7406      9621      9405      9192
 -1     20893    3    0    1
 -2      9413      9385      9585      6582
 -1     20894    3    0    1
 -2      2698       901       422      2171
 -1     20895    3    0    1
 -2      9422      9381      7402      7919
 -1     20896    3    0    1
 -2      1222       652      2460      3007
 -1     20897    3    0    1
 -2      3558       666      3637      1228
 -1     20898    3    0    1
 -2      9100      9114      8293      9670
 -1     20899    3    0    1
 -2       150       226       212      3555
 -1     20900    3    0    1
 -2      7875      7400      6554      7921
 -1     20901    3    0    1
 -2      2157      2145       714      2598
 -1     20902    3    0    1
 -2      7120      7168      6260      9058
 -1     20903    3    0    1
 -2       617       273       689      2469
 -1     20904    3    0    1
 -2       303       365       767      2139
 -1     20905    3    0    1
 -2      1432       278       703      3207
 -1     20906    3    0    1
 -2      2595      1440      2077      1345
 -1     20907    3    0    1
 -2       527      1011       146      3497
 -1     20908    3    0    1
 -2      2614      2154       326      1343
 -1     20909    3    0    1
 -2      9221      7096      6999      8042
 -1     20910    3    0    1
 -2      9403      9595      9373      6590
 -1     20911    3    0    1
 -2      7168      7120      9326      9058
 -1     20912    3    0    1
 -2      2614       710      2591      1343
 -1     20913    3    0    1
 -2      9435      9414      7908      9443
 -1     20914    3    0    1
 -2      3161      2062      1360      3815
 -1     20915    3    0    1
 -2      1469       942      2717      2228
 -1     20916    3    0    1
 -2       471      1461      2739      2738
 -1     20917    3    0    1
 -2      1300       276       303      3207
 -1     20918    3    0    1
 -2      9634      9474      7977      6633
 -1     20919    3    0    1
 -2       214      2983      3011      3573
 -1     20920    3    0    1
 -2      2454       617      2954      2469
 -1     20921    3    0    1
 -2      1447       720      2667      3201
 -1     20922    3    0    1
 -2      7963      9459      9197      8820
 -1     20923    3    0    1
 -2      7960      9454      8811      7457
 -1     20924    3    0    1
 -2      9268      9267      8886      7678
 -1     20925    3    0    1
 -2       601      4075      3491      2967
 -1     20926    3    0    1
 -2      8101      7086      8087      8054
 -1     20927    3    0    1
 -2      2756       902       495      1549
 -1     20928    3    0    1
 -2      3203       721      2648      3211
 -1     20929    3    0    1
 -2       130       129       131      2905
 -1     20930    3    0    1
 -2      3006       647       223      2933
 -1     20931    3    0    1
 -2      2675       311       308      2674
 -1     20932    3    0    1
 -2      9379      9091      6512      6612
 -1     20933    3    0    1
 -2      3252      3235      2132      4309
 -1     20934    3    0    1
 -2       568       213       187      3555
 -1     20935    3    0    1
 -2      2345       541      1090      1039
 -1     20936    3    0    1
 -2      2908       141       142      2935
 -1     20937    3    0    1
 -2      1867       241       623      2930
 -1     20938    3    0    1
 -2      8340      7403      6658      9442
 -1     20939    3    0    1
 -2      6508      7360      9099      7406
 -1     20940    3    0    1
 -2      2266      2178       451      2239
 -1     20941    3    0    1
 -2      6206      6276      5844      6207
 -1     20942    3    0    1
 -2      9368      9107      7358      7367
 -1     20943    3    0    1
 -2      9624      7921      9161      9457
 -1     20944    3    0    1
 -2      2453       170       265      2991
 -1     20945    3    0    1
 -2      1197       655       627      2462
 -1     20946    3    0    1
 -2       246       182       140      3569
 -1     20947    3    0    1
 -2      9091      7877      9379      6512
 -1     20948    3    0    1
 -2      8629      6197      7700      9319
 -1     20949    3    0    1
 -2      8091      7636      7684      9228
 -1     20950    3    0    1
 -2      2736      2729      2174      1549
 -1     20951    3    0    1
 -2      6591      9597      9417      9619
 -1     20952    3    0    1
 -2      6612      7457      9180      6008
 -1     20953    3    0    1
 -2      6633      7977      9423      6617
 -1     20954    3    0    1
 -2      7149      7713      7171      5796
 -1     20955    3    0    1
 -2       417       418      2250      2743
 -1     20956    3    0    1
 -2       126       207      3531       218
 -1     20957    3    0    1
 -2      7360      9111      9112      6606
 -1     20958    3    0    1
 -2       599       221       175      2962
 -1     20959    3    0    1
 -2      8114      8985      9333      7728
 -1     20960    3    0    1
 -2      9434      7397      9182      5952
 -1     20961    3    0    1
 -2      7872      9116      6551      7919
 -1     20962    3    0    1
 -2      8124      9355      9577      7150
 -1     20963    3    0    1
 -2      7171      8167      9343      7150
 -1     20964    3    0    1
 -2       209       175       221      2962
 -1     20965    3    0    1
 -2       599       550      1134      2965
 -1     20966    3    0    1
 -2      7916      6730      7476      5947
 -1     20967    3    0    1
 -2       768       278      1432      3207
 -1     20968    3    0    1
 -2       254       654       681       252
 -1     20969    3    0    1
 -2      3003       194       165      2923
 -1     20970    3    0    1
 -2      2714       442      2796      2190
 -1     20971    3    0    1
 -2      7913      9173      9427      9674
 -1     20972    3    0    1
 -2      6587      7832      6535      5889
 -1     20973    3    0    1
 -2       348       794      3176      1290
 -1     20974    3    0    1
 -2      1138      1049      2979      2942
 -1     20975    3    0    1
 -2      2230      2698       901      2752
 -1     20976    3    0    1
 -2      9417      9391      6591      7916
 -1     20977    3    0    1
 -2      8643      7175      7121      7718
 -1     20978    3    0    1
 -2      2160       355      3183      1350
 -1     20979    3    0    1
 -2      3241       716      3199      1442
 -1     20980    3    0    1
 -2      9588      9627      6602      7367
 -1     20981    3    0    1
 -2      6561      9108      9590      9589
 -1     20982    3    0    1
 -2      5739      7585      7086      8054
 -1     20983    3    0    1
 -2      1796       597      2385      2956
 -1     20984    3    0    1
 -2       643       221      2965      2963
 -1     20985    3    0    1
 -2      8167      9355      9343      7150
 -1     20986    3    0    1
 -2      6205      7770      7709      6204
 -1     20987    3    0    1
 -2      3171       711      2664      1319
 -1     20988    3    0    1
 -2      8950      8104      9244      9489
 -1     20989    3    0    1
 -2      3453      3477      1738      3501
 -1     20990    3    0    1
 -2      7660      8110      8099      7082
 -1     20991    3    0    1
 -2       169       586       170      2387
 -1     20992    3    0    1
 -2      3314      4735      3909      4698
 -1     20993    3    0    1
 -2      7950      8815      9182      9456
 -1     20994    3    0    1
 -2      6517      9380      8711      6614
 -1     20995    3    0    1
 -2       737      2009      3230      2579
 -1     20996    3    0    1
 -2       531       228      1127      3557
 -1     20997    3    0    1
 -2      9576      9319      7700      9338
 -1     20998    3    0    1
 -2       451       470        57      2266
 -1     20999    3    0    1
 -2      7605      7636      8091      9228
 -1     21000    3    0    1
 -2      2908       521       520      3450
 -1     21001    3    0    1
 -2      9106      9367      9587      7358
 -1     21002    3    0    1
 -2      2173       930       396      2172
 -1     21003    3    0    1
 -2       638      2450      3046      2929
 -1     21004    3    0    1
 -2       721      2648      3211      1443
 -1     21005    3    0    1
 -2      8163      9314      9359      9043
 -1     21006    3    0    1
 -2      1450      2250       418      3263
 -1     21007    3    0    1
 -2      5739      7585      6107      7086
 -1     21008    3    0    1
 -2       754       753      3202      1287
 -1     21009    3    0    1
 -2      8710      6595      6512      6612
 -1     21010    3    0    1
 -2      7390      7405      9636      9610
 -1     21011    3    0    1
 -2       627      3031      2462      2977
 -1     21012    3    0    1
 -2       411       433       826      1461
 -1     21013    3    0    1
 -2       150      1019       152       187
 -1     21014    3    0    1
 -2      9453      7916      9417      6646
 -1     21015    3    0    1
 -2      2965      1134       643      2964
 -1     21016    3    0    1
 -2      3229      1428       692      3192
 -1     21017    3    0    1
 -2      4522      5957      5639      5637
 -1     21018    3    0    1
 -2       552      2906      2353      2967
 -1     21019    3    0    1
 -2      2174        95       902      1549
 -1     21020    3    0    1
 -2      3637      3043      3003      1228
 -1     21021    3    0    1
 -2      9211      8101      8054      9480
 -1     21022    3    0    1
 -2       303      1300      3207      3159
 -1     21023    3    0    1
 -2      2979       149       212      2921
 -1     21024    3    0    1
 -2      1350       355      3183      1335
 -1     21025    3    0    1
 -2      9395      7875      6554      7921
 -1     21026    3    0    1
 -2      7402      9381      7872      7919
 -1     21027    3    0    1
 -2      2748      2746       819      2694
 -1     21028    3    0    1
 -2      7953      8824      9171      9448
 -1     21029    3    0    1
 -2      8089      6060      7087      7635
 -1     21030    3    0    1
 -2       741      2611      1435      2641
 -1     21031    3    0    1
 -2      2450       219       208      3531
 -1     21032    3    0    1
 -2      2173       930      2172      3324
 -1     21033    3    0    1
 -2      2154      2662       776      1343
 -1     21034    3    0    1
 -2      7641      8110      8099      7660
 -1     21035    3    0    1
 -2      9552      8569      9337      9571
 -1     21036    3    0    1
 -2       564      3453      1801      2975
 -1     21037    3    0    1
 -2      1300       278       276      3207
 -1     21038    3    0    1
 -2      9498      9251      8111      8964
 -1     21039    3    0    1
 -2      9166      9453      7916      9430
 -1     21040    3    0    1
 -2      1785      2385       124      2956
 -1     21041    3    0    1
 -2       154       214       256      3573
 -1     21042    3    0    1
 -2      2863      2908      3450      3494
 -1     21043    3    0    1
 -2      8087      8938      9211      9505
 -1     21044    3    0    1
 -2      7951      6743      7466      7909
 -1     21045    3    0    1
 -2       391        47        46      1458
 -1     21046    3    0    1
 -2      4676      5726      5349      5161
 -1     21047    3    0    1
 -2      6587      9429      9629      9674
 -1     21048    3    0    1
 -2       124       510       597      2385
 -1     21049    3    0    1
 -2      2727      2173      3268      3324
 -1     21050    3    0    1
 -2      3217      2072      1397      1398
 -1     21051    3    0    1
 -2      3787      4246      3173      3821
 -1     21052    3    0    1
 -2      9111      5911      6592      6606
 -1     21053    3    0    1
 -2      7950      9441      9472      9638
 -1     21054    3    0    1
 -2      8360      7919      9441      6737
 -1     21055    3    0    1
 -2      2991       170       586      2387
 -1     21056    3    0    1
 -2      7163      7114      5789      9035
 -1     21057    3    0    1
 -2      7902      8710      9392      6612
 -1     21058    3    0    1
 -2      7770      9342      7711      6142
 -1     21059    3    0    1
 -2      7660      8099      7641      6104
 -1     21060    3    0    1
 -2      2910       153      2943      3573
 -1     21061    3    0    1
 -2       277       278       768      2149
 -1     21062    3    0    1
 -2      5911      9111      7360      6606
 -1     21063    3    0    1
 -2      8085      8111      9251      8964
 -1     21064    3    0    1
 -2       915        61       477      2232
 -1     21065    3    0    1
 -2      9121      9387      7893      9083
 -1     21066    3    0    1
 -2       221       209      2962      2963
 -1     21067    3    0    1
 -2      8887      7680      7633      6104
 -1     21068    3    0    1
 -2       645      2967       210      9669
 -1     21069    3    0    1
 -2      9622      6573      9602      6629
 -1     21070    3    0    1
 -2      8058      9523      9227      7693
 -1     21071    3    0    1
 -2       271       682       613      2979
 -1     21072    3    0    1
 -2       652      1192       248      3007
 -1     21073    3    0    1
 -2      2994      1090      3462      2388
 -1     21074    3    0    1
 -2      2945       663      1202      2464
 -1     21075    3    0    1
 -2      6720      7573      7988      5655
 -1     21076    3    0    1
 -2       112        93        19      1454
 -1     21077    3    0    1
 -2      7702      7774      7188      9037
 -1     21078    3    0    1
 -2      9380      9092      6517      8711
 -1     21079    3    0    1
 -2      6551      7402      7919      6615
 -1     21080    3    0    1
 -2       260      2452      2451      2946
 -1     21081    3    0    1
 -2      1785       124       123      2956
 -1     21082    3    0    1
 -2      7054      7693      8058      7014
 -1     21083    3    0    1
 -2      9620      9418      9190      6606
 -1     21084    3    0    1
 -2      2232      2741      2771      2181
 -1     21085    3    0    1
 -2      2233       477        61      2232
 -1     21086    3    0    1
 -2      2449      3016       673      2996
 -1     21087    3    0    1
 -2      9385      9079      7909      8718
 -1     21088    3    0    1
 -2      8005      8050      7623      8866
 -1     21089    3    0    1
 -2      9527      9497      9250      8050
 -1     21090    3    0    1
 -2      1469      2164      2228      2717
 -1     21091    3    0    1
 -2      9592      9370      8307      9674
 -1     21092    3    0    1
 -2      7768      7700      6197      9338
 -1     21093    3    0    1
 -2       930       464      2172      3324
 -1     21094    3    0    1
 -2      2595      2664      1440      1319
 -1     21095    3    0    1
 -2      9589      7911      6561      9400
 -1     21096    3    0    1
 -2      7408      9633      9611      6614
 -1     21097    3    0    1
 -2      2908       523       141      2935
 -1     21098    3    0    1
 -2      7045      9249      9237      7006
 -1     21099    3    0    1
 -2      9501      9531      7687      9477
 -1     21100    3    0    1
 -2      8101      8087      8938      9211
 -1     21101    3    0    1
 -2      7342      7353      6610      5929
 -1     21102    3    0    1
 -2      9339      7774      7704      9555
 -1     21103    3    0    1
 -2      9131      9094      9396      9141
 -1     21104    3    0    1
 -2      3620       654       251      3554
 -1     21105    3    0    1
 -2      9382      9094      7875      9396
 -1     21106    3    0    1
 -2       766       727      1445      3186
 -1     21107    3    0    1
 -2      2132       791       742      3760
 -1     21108    3    0    1
 -2      7342      7867      9115      7353
 -1     21109    3    0    1
 -2      9439      6729      6590      5956
 -1     21110    3    0    1
 -2       147       564       605      2975
 -1     21111    3    0    1
 -2       440       414       478      2183
 -1     21112    3    0    1
 -2       222       223      2933      9675
 -1     21113    3    0    1
 -2      9229      7636      9242      9485
 -1     21114    3    0    1
 -2      2652       766      1445      3186
 -1     21115    3    0    1
 -2      7150      7172      9041      6149
 -1     21116    3    0    1
 -2      4575      5079      4873      4543
 -1     21117    3    0    1
 -2      9438      6605      7405      8345
 -1     21118    3    0    1
 -2      4423      5073      4491      4469
 -1     21119    3    0    1
 -2      9570      9336      9047      8166
 -1     21120    3    0    1
 -2      9587      6601      9616      7367
 -1     21121    3    0    1
 -2      7921      9613      9395      7400
 -1     21122    3    0    1
 -2      9227      8058      7693      7014
 -1     21123    3    0    1
 -2      7389      6536      6501      7388
 -1     21124    3    0    1
 -2      8953      8551      9491      7097
 -1     21125    3    0    1
 -2      9387      9360      6585      9083
 -1     21126    3    0    1
 -2      2915       539      2989      2387
 -1     21127    3    0    1
 -2      2731      2185       938      2730
 -1     21128    3    0    1
 -2      3558       666      1140      3637
 -1     21129    3    0    1
 -2      2991      2453       170      2387
 -1     21130    3    0    1
 -2      2353      2967      3517      9669
 -1     21131    3    0    1
 -2      9649      9650      9240      8556
 -1     21132    3    0    1
 -2      1138       613      1199      2979
 -1     21133    3    0    1
 -2      6488      9079      7909      6487
 -1     21134    3    0    1
 -2      1217      1866       644      2458
 -1     21135    3    0    1
 -2      9314      8163      8590      9043
 -1     21136    3    0    1
 -2      9511      7686      7637      8547
 -1     21137    3    0    1
 -2      5980      7405      6605      8345
 -1     21138    3    0    1
 -2      6521      5937      6551      9116
 -1     21139    3    0    1
 -2       221      2962      2965      2963
 -1     21140    3    0    1
 -2      9364      9664      9585      6582
 -1     21141    3    0    1
 -2      3040      3013      1204      1920
 -1     21142    3    0    1
 -2       510       597      2385      1796
 -1     21143    3    0    1
 -2       154       189       214      3573
 -1     21144    3    0    1
 -2      8963      9496      9654      8110
 -1     21145    3    0    1
 -2       161       193       160      2947
 -1     21146    3    0    1
 -2      9650      9649      8979      8556
 -1     21147    3    0    1
 -2      2353       517       178      2930
 -1     21148    3    0    1
 -2      2973       250      1149      2939
 -1     21149    3    0    1
 -2      8629      6197      9319      9338
 -1     21150    3    0    1
 -2      8569      9337      9571      9063
 -1     21151    3    0    1
 -2      7463      7939      9181      6754
 -1     21152    3    0    1
 -2      5980      6605      6645      8345
 -1     21153    3    0    1
 -2       930      2173      2727      3324
 -1     21154    3    0    1
 -2      3336      3335      2712      1596
 -1     21155    3    0    1
 -2       238       209       269      2963
 -1     21156    3    0    1
 -2      7457      8811      7960      6733
 -1     21157    3    0    1
 -2      8798      6722      9186      9171
 -1     21158    3    0    1
 -2      7718      7175      8163      9346
 -1     21159    3    0    1
 -2      2555      2656       704      3160
 -1     21160    3    0    1
 -2      2185       501       938      2730
 -1     21161    3    0    1
 -2      9100      9113      9600      9670
 -1     21162    3    0    1
 -2      7838      9362      6598      6526
 -1     21163    3    0    1
 -2      7688      7096      8106      8042
 -1     21164    3    0    1
 -2       348       794       721      3176
 -1     21165    3    0    1
 -2        93        92       405       460
 -1     21166    3    0    1
 -2      9218      9513      7092      9232
 -1     21167    3    0    1
 -2       409       451        57      2178
 -1     21168    3    0    1
 -2      9384      7908      6598      8310
 -1     21169    3    0    1
 -2      2558      3198      3837      2598
 -1     21170    3    0    1
 -2      2585      1279       317      3760
 -1     21171    3    0    1
 -2      5683      4881      4866      5664
 -1     21172    3    0    1
 -2      9624      9423      9396      7400
 -1     21173    3    0    1
 -2       645      1867      2967      9669
 -1     21174    3    0    1
 -2       590      2460      3553      2940
 -1     21175    3    0    1
 -2       704       280       769      2656
 -1     21176    3    0    1
 -2      9112      9598      7360      6606
 -1     21177    3    0    1
 -2       803        24       115      2171
 -1     21178    3    0    1
 -2      2908       140       182      3520
 -1     21179    3    0    1
 -2      9596      9618      9468      6646
 -1     21180    3    0    1
 -2      9420      8811      9454      7407
 -1     21181    3    0    1
 -2      7168      6154      6222      9345
 -1     21182    3    0    1
 -2      3242       793       717      2045
 -1     21183    3    0    1
 -2       218       219       677      2450
 -1     21184    3    0    1
 -2      2962       599       221      2965
 -1     21185    3    0    1
 -2      7709      9354      8580      7710
 -1     21186    3    0    1
 -2      8895      6060      8089      8454
 -1     21187    3    0    1
 -2      1205       260      2452      2451
 -1     21188    3    0    1
 -2      9299      9353      7705      9672
 -1     21189    3    0    1
 -2      9542      9211      8938      9505
 -1     21190    3    0    1
 -2      9420      9602      9408      7407
 -1     21191    3    0    1
 -2      7400      7875      9395      7921
 -1     21192    3    0    1
 -2      2188      2244      3338      2245
 -1     21193    3    0    1
 -2      2174      2729       406      1549
 -1     21194    3    0    1
 -2      7150      8124      9355      7149
 -1     21195    3    0    1
 -2      9423      9634      7977      6633
 -1     21196    3    0    1
 -2       443       442      2714      2190
 -1     21197    3    0    1
 -2      6704      6734      6703      7507
 -1     21198    3    0    1
 -2      2943       569       529      2894
 -1     21199    3    0    1
 -2      7696      9335      9568      8565
 -1     21200    3    0    1
 -2      3837      4272      2558      2598
 -1     21201    3    0    1
 -2      2250       418       417      1450
 -1     21202    3    0    1
 -2      3195       773        11      2676
 -1     21203    3    0    1
 -2      2144      2156      2664      1319
 -1     21204    3    0    1
 -2      1455       112        19      1454
 -1     21205    3    0    1
 -2      1424       749       748      1323
 -1     21206    3    0    1
 -2      9181      9156      7939      9432
 -1     21207    3    0    1
 -2       973       506      1594      2771
 -1     21208    3    0    1
 -2      9619      6591      9596      6646
 -1     21209    3    0    1
 -2      3241      3255      1442      2598
 -1     21210    3    0    1
 -2      3065      2954       617      2469
 -1     21211    3    0    1
 -2      9218      7092      9488      8040
 -1     21212    3    0    1
 -2      8345      9610      7405      9438
 -1     21213    3    0    1
 -2      3176       794       721      3211
 -1     21214    3    0    1
 -2      2750       420       462      2169
 -1     21215    3    0    1
 -2      9355      9573      9343      7713
 -1     21216    3    0    1
 -2      2989       670       594      1130
 -1     21217    3    0    1
 -2      9434      9623      7397      5952
 -1     21218    3    0    1
 -2      2980      3540      3010      3009
 -1     21219    3    0    1
 -2      9120      6561      7911      9400
 -1     21220    3    0    1
 -2       187       567       568      3540
 -1     21221    3    0    1
 -2      7688      6999      7039      7096
 -1     21222    3    0    1
 -2      9450      9437      9175      7914
 -1     21223    3    0    1
 -2       822      2727       930      1458
 -1     21224    3    0    1
 -2      7768      5809      7699      9036
 -1     21225    3    0    1
 -2      7355      7397      9393      5952
 -1     21226    3    0    1
 -2       753       347       754      1443
 -1     21227    3    0    1
 -2      2656       769       704      3160
 -1     21228    3    0    1
 -2       474       911      2241      2709
 -1     21229    3    0    1
 -2      6142      7711      7770      6204
 -1     21230    3    0    1
 -2      8087      8101      8054      9211
 -1     21231    3    0    1
 -2      3520       140       182      3569
 -1     21232    3    0    1
 -2       643       269      2963      3005
 -1     21233    3    0    1
 -2      3211      2648      2668      1443
 -1     21234    3    0    1
 -2      9131      9094      9141      6634
 -1     21235    3    0    1
 -2      2949       230       165      3003
 -1     21236    3    0    1
 -2      2178      1476       451      2239
 -1     21237    3    0    1
 -2      1156      1143      1184      1808
 -1     21238    3    0    1
 -2      1011       527      1013      3497
 -1     21239    3    0    1
 -2       189       573       214      3573
 -1     21240    3    0    1
 -2      9116      9093      7837      8712
 -1     21241    3    0    1
 -2      8840      9177      6730      7476
 -1     21242    3    0    1
 -2       529      2943      2894      2910
 -1     21243    3    0    1
 -2      9442      7403      6658      9443
 -1     21244    3    0    1
 -2      9621      7406      7392      6626
 -1     21245    3    0    1
 -2      2233        61      2182      2232
 -1     21246    3    0    1
 -2      2947      2451       229      3557
 -1     21247    3    0    1
 -2      7771      8645      5803      9044
 -1     21248    3    0    1
 -2      9421      7939      9470      7408
 -1     21249    3    0    1
 -2      9156      7939      7961      9181
 -1     21250    3    0    1
 -2      9238      9495      8555      7640
 -1     21251    3    0    1
 -2      6722      5978      6623      9171
 -1     21252    3    0    1
 -2      6614      9455      6755      6651
 -1     21253    3    0    1
 -2      9180      9196      7457      6612
 -1     21254    3    0    1
 -2      9463      9616      6638      8353
 -1     21255    3    0    1
 -2      2918      2928      1043      2347
 -1     21256    3    0    1
 -2      8950      8104      8073      9244
 -1     21257    3    0    1
 -2      1805      3065       617      1212
 -1     21258    3    0    1
 -2      9336      9570      7697      7133
 -1     21259    3    0    1
 -2      8087      7086      6107      8054
 -1     21260    3    0    1
 -2      2183      2184       938      2772
 -1     21261    3    0    1
 -2      9404      9112      9111      6606
 -1     21262    3    0    1
 -2      8866      9250      7623      7622
 -1     21263    3    0    1
 -2      3010       683       656      3009
 -1     21264    3    0    1
 -2      7402      9422      9638      9612
 -1     21265    3    0    1
 -2      7402      9411      9623      5952
 -1     21266    3    0    1
 -2       229       615      1127      3557
 -1     21267    3    0    1
 -2      7721      7771      5803      9044
 -1     21268    3    0    1
 -2      1192       652      1222      3007
 -1     21269    3    0    1
 -2      3023       623      3052      2930
 -1     21270    3    0    1
 -2       463       115        24      2171
 -1     21271    3    0    1
 -2      9484      8102      9483      8941
 -1     21272    3    0    1
 -2      8565      7696      9335      6128
 -1     21273    3    0    1
 -2      9561      8128      9344      9574
 -1     21274    3    0    1
 -2      7697      9032      9336      7170
 -1     21275    3    0    1
 -2       226       213       683      3009
 -1     21276    3    0    1
 -2        93       112      1539      1454
 -1     21277    3    0    1
 -2       464       396       930      2172
 -1     21278    3    0    1
 -2      2979      1049      2366      2942
 -1     21279    3    0    1
 -2       894       460       491       928
 -1     21280    3    0    1
 -2      2450       268       638      3046
 -1     21281    3    0    1
 -2      7585      6107      7086      8054
 -1     21282    3    0    1
 -2      2149       278       768      3207
 -1     21283    3    0    1
 -2      8807      9190      9418      6606
 -1     21284    3    0    1
 -2      7446      9142      7906      8339
 -1     21285    3    0    1
 -2      9661      9498      9297      9540
 -1     21286    3    0    1
 -2      7636      8023      9229      9242
 -1     21287    3    0    1
 -2       617       200       273      2454
 -1     21288    3    0    1
 -2      9175      7914      7955      7948
 -1     21289    3    0    1
 -2      9072      6260      8666      9058
 -1     21290    3    0    1
 -2      8569      8568      9337      8117
 -1     21291    3    0    1
 -2      8117      7163      9337      9063
 -1     21292    3    0    1
 -2      7955      7914      7404      7948
 -1     21293    3    0    1
 -2      7699      7115      9351      9308
 -1     21294    3    0    1
 -2      4887      6059      5686      5347
 -1     21295    3    0    1
 -2      2708       435       473      2163
 -1     21296    3    0    1
 -2       485       942       444      2717
 -1     21297    3    0    1
 -2      9117      9077      9362      7838
 -1     21298    3    0    1
 -2      8707      7833      9085      9109
 -1     21299    3    0    1
 -2      8804      8805      8773      6691
 -1     21300    3    0    1
 -2       165       263       230      2949
 -1     21301    3    0    1
 -2      7080      8098      7691      7045
 -1     21302    3    0    1
 -2      9139      9392      9603      6612
 -1     21303    3    0    1
 -2      7115      7699      8570      9308
 -1     21304    3    0    1
 -2      2600      3257      3242      2045
 -1     21305    3    0    1
 -2      9195      9631      9454      7457
 -1     21306    3    0    1
 -2      2179       472       453        59
 -1     21307    3    0    1
 -2      1201       214       660      3011
 -1     21308    3    0    1
 -2      9361      6499      7913      8307
 -1     21309    3    0    1
 -2       520      2908      3450      2863
 -1     21310    3    0    1
 -2      6147      7171      7713      5796
 -1     21311    3    0    1
 -2       804      2236       426      1549
 -1     21312    3    0    1
 -2      9488      9513      7092      9218
 -1     21313    3    0    1
 -2      7094      7611      7688      8095
 -1     21314    3    0    1
 -2      7895      7858      7912      8280
 -1     21315    3    0    1
 -2      9136      7404      6589      9594
 -1     21316    3    0    1
 -2      5947      7916      6730      6646
 -1     21317    3    0    1
 -2       247       246       142      1220
 -1     21318    3    0    1
 -2      5936      7354      6511      7407
 -1     21319    3    0    1
 -2      8946      9646      7091      8549
 -1     21320    3    0    1
 -2       799        82        58      2739
 -1     21321    3    0    1
 -2      2983      3037       660      3011
 -1     21322    3    0    1
 -2       677       208       640      2450
 -1     21323    3    0    1
 -2      9415      9436      9200      9617
 -1     21324    3    0    1
 -2      2979      3008      3572      3009
 -1     21325    3    0    1
 -2      9362      6618      9117      7838
 -1     21326    3    0    1
 -2      1090      2994      1806       541
 -1     21327    3    0    1
 -2      9474      7400      9457      6633
 -1     21328    3    0    1
 -2      2161      1456       115      2229
 -1     21329    3    0    1
 -2      9249      7045      7103      7006
 -1     21330    3    0    1
 -2      6503      6463      8707      9109
 -1     21331    3    0    1
 -2      9603      9091      9379      6612
 -1     21332    3    0    1
 -2       426       903      2236      2757
 -1     21333    3    0    1
 -2      8811      9454      7960      9204
 -1     21334    3    0    1
 -2      1300       303       701      3159
 -1     21335    3    0    1
 -2      2182       916       438      2233
 -1     21336    3    0    1
 -2       905       961       469      2237
 -1     21337    3    0    1
 -2       894       893       459      1472
 -1     21338    3    0    1
 -2       216       669       616       594
 -1     21339    3    0    1
 -2      9266      8554      9249      9517
 -1     21340    3    0    1
 -2      1204       615       665      3557
 -1     21341    3    0    1
 -2      3221      2651       786      2610
 -1     21342    3    0    1
 -2      7723      7722      8595      9348
 -1     21343    3    0    1
 -2      7407      9602      6573      6629
 -1     21344    3    0    1
 -2      7400      9624      9634      9474
 -1     21345    3    0    1
 -2      2979      1049       149      2366
 -1     21346    3    0    1
 -2       257       663      2945      2465
 -1     21347    3    0    1
 -2      9204      7960      8811      6733
 -1     21348    3    0    1
 -2      8886      8865      9478      8029
 -1     21349    3    0    1
 -2      1549      2756      2736      2262
 -1     21350    3    0    1
 -2      7096      7688      6999      8042
 -1     21351    3    0    1
 -2      9519      8959      8960      9268
 -1     21352    3    0    1
 -2      9380      9410      8711      6614
 -1     21353    3    0    1
 -2      3555       187       568      3540
 -1     21354    3    0    1
 -2      7723      7177      7156      9348
 -1     21355    3    0    1
 -2      8718      9079      7909      6488
 -1     21356    3    0    1
 -2      7716      6154      7168      9345
 -1     21357    3    0    1
 -2       741       740       315      2611
 -1     21358    3    0    1
 -2      7366      7887      7365      8312
 -1     21359    3    0    1
 -2      9047      9306      8567      7133
 -1     21360    3    0    1
 -2       146      2920      3538      3497
 -1     21361    3    0    1
 -2      9392      9128      8710      7902
 -1     21362    3    0    1
 -2       241       554       623      2930
 -1     21363    3    0    1
 -2       693      2658      3194      3164
 -1     21364    3    0    1
 -2       826       471       434      2738
 -1     21365    3    0    1
 -2      2464      2945       663      2465
 -1     21366    3    0    1
 -2      2182       438       916      2710
 -1     21367    3    0    1
 -2      8883      8093      6995      9487
 -1     21368    3    0    1
 -2      6920      6901      6849      6851
 -1     21369    3    0    1
 -2      2656      1427       769      3160
 -1     21370    3    0    1
 -2      1201       256       214      3011
 -1     21371    3    0    1
 -2       241      1867      3550      2930
 -1     21372    3    0    1
 -2      9413      7909      9385      6582
 -1     21373    3    0    1
 -2      7732      6193      7114      9035
 -1     21374    3    0    1
 -2      1447       798       294      3201
 -1     21375    3    0    1
 -2      5986      9182      7397      5952
 -1     21376    3    0    1
 -2      2140       276       366      2149
 -1     21377    3    0    1
 -2       794       348       755      1290
 -1     21378    3    0    1
 -2        80        79       114      2229
 -1     21379    3    0    1
 -2      7669      7086      8101      8054
 -1     21380    3    0    1
 -2      2761       905       101      2237
 -1     21381    3    0    1
 -2      2910       573       189      3573
 -1     21382    3    0    1
 -2      2910       154       188      3573
 -1     21383    3    0    1
 -2      2742      2228      2716      2717
 -1     21384    3    0    1
 -2      6521      5937      9116      8712
 -1     21385    3    0    1
 -2      8547      7637      9511      8092
 -1     21386    3    0    1
 -2       504       955      2750      1584
 -1     21387    3    0    1
 -2      8054      7585      6107      9211
 -1     21388    3    0    1
 -2      2244      2188       107      2245
 -1     21389    3    0    1
 -2      7689      8043      8954      7079
 -1     21390    3    0    1
 -2      9423      9458      8362      7977
 -1     21391    3    0    1
 -2      7605      7636      9228      9242
 -1     21392    3    0    1
 -2      6587      7832      8307      6535
 -1     21393    3    0    1
 -2      2704      2705       842      3291
 -1     21394    3    0    1
 -2       704       280       306       769
 -1     21395    3    0    1
 -2      2947       160       161      2922
 -1     21396    3    0    1
 -2      1339       701       303      3159
 -1     21397    3    0    1
 -2      3324      3268      2727      2806
 -1     21398    3    0    1
 -2      7710      7709      9354      7770
 -1     21399    3    0    1
 -2      7358      6601      9587      7367
 -1     21400    3    0    1
 -2      9308      7699      8570      9036
 -1     21401    3    0    1
 -2      3718      1348      2551      3717
 -1     21402    3    0    1
 -2      2241       912       911      2768
 -1     21403    3    0    1
 -2       794      3176      2669      3211
 -1     21404    3    0    1
 -2      7700      7768      9576      9338
 -1     21405    3    0    1
 -2       221       643       269      2963
 -1     21406    3    0    1
 -2      7810      7768      9064      9050
 -1     21407    3    0    1
 -2       460        92       405       818
 -1     21408    3    0    1
 -2      7087      5765      6060      8089
 -1     21409    3    0    1
 -2      2677      3311       813      3262
 -1     21410    3    0    1
 -2      7916      9417      9430      9453
 -1     21411    3    0    1
 -2      6691      6729      8805      5956
 -1     21412    3    0    1
 -2      2160      2673       355      1350
 -1     21413    3    0    1
 -2      9591      9360      6585      9387
 -1     21414    3    0    1
 -2      2741       915      2232      2771
 -1     21415    3    0    1
 -2      1454       460       818      2168
 -1     21416    3    0    1
 -2      3195       706      2142      3232
 -1     21417    3    0    1
 -2      8868      6107      7585      9211
 -1     21418    3    0    1
 -2      6262      8163      7174      9043
 -1     21419    3    0    1
 -2      7700      6133      6197      8629
 -1     21420    3    0    1
 -2       219       218       126      3531
 -1     21421    3    0    1
 -2       277       366       276      2149
 -1     21422    3    0    1
 -2      9429      9370      9592      9674
 -1     21423    3    0    1
 -2      9466      9189      8345      7949
 -1     21424    3    0    1
 -2      2962       129       174      2905
 -1     21425    3    0    1
 -2      1312       320      3236      3776
 -1     21426    3    0    1
 -2       208       620       640      2450
 -1     21427    3    0    1
 -2      2741       915      2771      1594
 -1     21428    3    0    1
 -2      7075      6995      7673      8093
 -1     21429    3    0    1
 -2      1030       531      1127      3557
 -1     21430    3    0    1
 -2      9035      8117      8569      9063
 -1     21431    3    0    1
 -2      2032       744      1316      3783
 -1     21432    3    0    1
 -2       928       894       460      2234
 -1     21433    3    0    1
 -2      1043       125      2347      2928
 -1     21434    3    0    1
 -2      2979      1019       149      2921
 -1     21435    3    0    1
 -2      2912       572       571      2910
 -1     21436    3    0    1
 -2       506       476      1594      2771
 -1     21437    3    0    1
 -2      7916      6506      6591      5947
 -1     21438    3    0    1
 -2      3462      3485      1760      3511
 -1     21439    3    0    1
 -2      2983       572      2912      2910
 -1     21440    3    0    1
 -2       666       606       215      1228
 -1     21441    3    0    1
 -2       717       750       341      3242
 -1     21442    3    0    1
 -2      1381      2101      2100      2109
 -1     21443    3    0    1
 -2      3207      1300       703      3190
 -1     21444    3    0    1
 -2      6588      7404      6641      7914
 -1     21445    3    0    1
 -2      1201       272       256      3011
 -1     21446    3    0    1
 -2      9463      6747      6601      9169
 -1     21447    3    0    1
 -2      1796      2385      3443      2956
 -1     21448    3    0    1
 -2      7770      6275      6142      6204
 -1     21449    3    0    1
 -2      2983       573       572      2910
 -1     21450    3    0    1
 -2      8882      7629      6049      9259
 -1     21451    3    0    1
 -2      7105      8556      8961      7660
 -1     21452    3    0    1
 -2      9525      8883      8948      9512
 -1     21453    3    0    1
 -2      1867       241      3550      9669
 -1     21454    3    0    1
 -2       803      1456      2171      2229
 -1     21455    3    0    1
 -2       398        35        60      1464
 -1     21456    3    0    1
 -2      1123      3037      2983      2982
 -1     21457    3    0    1
 -2      9442      8340      7403      9443
 -1     21458    3    0    1
 -2      9463      6747      9169      8355
 -1     21459    3    0    1
 -2      8963      9520      9496      8099
 -1     21460    3    0    1
 -2      7646      7087      8089      8102
 -1     21461    3    0    1
 -2      2452       260      1206      2946
 -1     21462    3    0    1
 -2      8095      7077      7611      9503
 -1     21463    3    0    1
 -2      2353      2931       517      2930
 -1     21464    3    0    1
 -2      9217      6063      6909      8871
 -1     21465    3    0    1
 -2      9354      7709      9067      7770
 -1     21466    3    0    1
 -2      6587      7832      5889      8729
 -1     21467    3    0    1
 -2      7722      7723      7156      9348
 -1     21468    3    0    1
 -2      7902      6595      8710      6612
 -1     21469    3    0    1
 -2      2241       911       912      2709
 -1     21470    3    0    1
 -2      7410      6712      8362      6655
 -1     21471    3    0    1
 -2      6154      7716      8130      9345
 -1     21472    3    0    1
 -2       442       502       920      2797
 -1     21473    3    0    1
 -2      6397      6435      5479      7281
 -1     21474    3    0    1
 -2      8803      9438      9452      8345
 -1     21475    3    0    1
 -2      9639      9185      6638      9616
 -1     21476    3    0    1
 -2      8054      8927      8101      7669
 -1     21477    3    0    1
 -2      2746       819       449      2748
 -1     21478    3    0    1
 -2      5406      6231      6177      5477
 -1     21479    3    0    1
 -2      2940      2939      2460      3001
 -1     21480    3    0    1
 -2      9115      9089      7867      7342
 -1     21481    3    0    1
 -2      2154       776       326      1343
 -1     21482    3    0    1
 -2      9197      9625      9459      8352
 -1     21483    3    0    1
 -2      7880      9391      6506      7916
 -1     21484    3    0    1
 -2      2731       938      2184      2772
 -1     21485    3    0    1
 -2       209       221       269      2963
 -1     21486    3    0    1
 -2      8569      9337      9063      8117
 -1     21487    3    0    1
 -2      9348      7177      7803      8669
 -1     21488    3    0    1
 -2      8400      9186      6021      7967
 -1     21489    3    0    1
 -2      2946       532       579      2376
 -1     21490    3    0    1
 -2      7939      9470      9432      9421
 -1     21491    3    0    1
 -2      7774      6167      7703      7704
 -1     21492    3    0    1
 -2       655      1197      1249      2462
 -1     21493    3    0    1
 -2      2178       451        57      2266
 -1     21494    3    0    1
 -2      6469      5893      7849      5895
 -1     21495    3    0    1
 -2      4657      4261      4895      4917
 -1     21496    3    0    1
 -2      1188       651       247      2485
 -1     21497    3    0    1
 -2      8776      9460      9625      9644
 -1     21498    3    0    1
 -2      3243      3204      3176      1290
 -1     21499    3    0    1
 -2      8547      9511      7686      8548
 -1     21500    3    0    1
 -2      8117      8118      9035      8569
 -1     21501    3    0    1
 -2      7717      7174      5801      9043
 -1     21502    3    0    1
 -2      8793      6581      9445      9444
 -1     21503    3    0    1
 -2      8117      7163      7698      9337
 -1     21504    3    0    1
 -2      2176       427       428      2785
 -1     21505    3    0    1
 -2      1399      3169      2075      1374
 -1     21506    3    0    1
 -2      6598      6618      9384      9362
 -1     21507    3    0    1
 -2      7334      5945      7915      9389
 -1     21508    3    0    1
 -2      3230       705       737      2579
 -1     21509    3    0    1
 -2       558       142       141      2935
 -1     21510    3    0    1
 -2      6175      7723      6160      7177
 -1     21511    3    0    1
 -2      7909      7466      7951      9462
 -1     21512    3    0    1
 -2      7893      6562      9121      9083
 -1     21513    3    0    1
 -2       523       141       522      2908
 -1     21514    3    0    1
 -2      2642      3238      2661      9668
 -1     21515    3    0    1
 -2      2724      2165       456      2745
 -1     21516    3    0    1
 -2      1456       115         6      2161
 -1     21517    3    0    1
 -2      6593      6606      9620      6626
 -1     21518    3    0    1
 -2      2656      1303      2040      2555
 -1     21519    3    0    1
 -2      1347      1979      2561      2562
 -1     21520    3    0    1
 -2      9353      9340      7775      9672
 -1     21521    3    0    1
 -2      9044      7771      8645      9059
 -1     21522    3    0    1
 -2      9354      7711      7710      7770
 -1     21523    3    0    1
 -2      7810      5809      7768      9050
 -1     21524    3    0    1
 -2      7711      9354      9342      7770
 -1     21525    3    0    1
 -2      8643      7175      7718      9346
 -1     21526    3    0    1
 -2       146       148       564      2909
 -1     21527    3    0    1
 -2       717       341       793      3242
 -1     21528    3    0    1
 -2      8541      9227      9523      7693
 -1     21529    3    0    1
 -2      2114      3183       355      1335
 -1     21530    3    0    1
 -2      2909      1016       564      3453
 -1     21531    3    0    1
 -2      7390      9438      7405      9610
 -1     21532    3    0    1
 -2      1026       530      1124      2945
 -1     21533    3    0    1
 -2      2150       367       280      2656
 -1     21534    3    0    1
 -2      2956      2957       237      2442
 -1     21535    3    0    1
 -2       462        80       114      2229
 -1     21536    3    0    1
 -2      9468      9618      7956      6646
 -1     21537    3    0    1
 -2      1455      1539       112      1454
 -1     21538    3    0    1
 -2      9311      9040      8583      6147
 -1     21539    3    0    1
 -2       861      2213       860      2196
 -1     21540    3    0    1
 -2       195       215       606      2923
 -1     21541    3    0    1
 -2      7359      6561      7911      9120
 -1     21542    3    0    1
 -2      8116      9307      9337      9034
 -1     21543    3    0    1
 -2      7221      8637      9054      6146
 -1     21544    3    0    1
 -2       469       100       101      2237
 -1     21545    3    0    1
 -2      3255      3241      3172      2598
 -1     21546    3    0    1
 -2      8954      9504      8043      7689
 -1     21547    3    0    1
 -2      7640      7081      8109      7678
 -1     21548    3    0    1
 -2      2944      1026      2913      1683
 -1     21549    3    0    1
 -2      1643      1664       972      2290
 -1     21550    3    0    1
 -2       398       476        60       437
 -1     21551    3    0    1
 -2      2145       714       288      2157
 -1     21552    3    0    1
 -2      8047      9237      9249      7006
 -1     21553    3    0    1
 -2      2045      2018      2666      1323
 -1     21554    3    0    1
 -2      8587      7715      7120      9326
 -1     21555    3    0    1
 -2      2746       449       895      2748
 -1     21556    3    0    1
 -2       110        76         1       392
 -1     21557    3    0    1
 -2       214       573       660      2983
 -1     21558    3    0    1
 -2       750      2645      3242      2046
 -1     21559    3    0    1
 -2      2234       460      1539      2168
 -1     21560    3    0    1
 -2      6308      5789      7114      9035
 -1     21561    3    0    1
 -2       242      3006       223      9675
 -1     21562    3    0    1
 -2      9480      8938      8101      9542
 -1     21563    3    0    1
 -2      6650      6612      7902      9180
 -1     21564    3    0    1
 -2      2453       168       170      2387
 -1     21565    3    0    1
 -2      8871      6063      8038      9477
 -1     21566    3    0    1
 -2      7397      7355      6579      5952
 -1     21567    3    0    1
 -2      9360      8701      6497      9083
 -1     21568    3    0    1
 -2      8022      7588      8021      8880
 -1     21569    3    0    1
 -2      3637      3003      3558      1228
 -1     21570    3    0    1
 -2       119        61       915      2232
 -1     21571    3    0    1
 -2      7963      9459      8820      5955
 -1     21572    3    0    1
 -2      9116      5512      6521      8712
 -1     21573    3    0    1
 -2      2943       529       153      2910
 -1     21574    3    0    1
 -2      7939      7463      9470      7408
 -1     21575    3    0    1
 -2      3242      2600       717      1284
 -1     21576    3    0    1
 -2      2165       456       488      2724
 -1     21577    3    0    1
 -2      1449       296       297      1448
 -1     21578    3    0    1
 -2      6266      7124      6232      8647
 -1     21579    3    0    1
 -2       483       105       107      2245
 -1     21580    3    0    1
 -2      3415       523      2908      2935
 -1     21581    3    0    1
 -2      9404      9112      6606      9598
 -1     21582    3    0    1
 -2      3251       790      3230      2579
 -1     21583    3    0    1
 -2      8117      8118      7114      9035
 -1     21584    3    0    1
 -2      1549       495      2756      2262
 -1     21585    3    0    1
 -2      7629      7637      8092      9259
 -1     21586    3    0    1
 -2       457       815      3323      2167
 -1     21587    3    0    1
 -2      1237       677       640      2450
 -1     21588    3    0    1
 -2      3232      3233      3195      3754
 -1     21589    3    0    1
 -2      7714      8585      9324      6150
 -1     21590    3    0    1
 -2      3043      3637      1896      1228
 -1     21591    3    0    1
 -2      1762      1784       588       543
 -1     21592    3    0    1
 -2      8635      9067      7709      6205
 -1     21593    3    0    1
 -2       702       703      1300      2057
 -1     21594    3    0    1
 -2      6601      9426      9463      9169
 -1     21595    3    0    1
 -2       438       477        61      2233
 -1     21596    3    0    1
 -2       593       149       212      2979
 -1     21597    3    0    1
 -2      4830      5981      5662      5109
 -1     21598    3    0    1
 -2      6635      7909      9413      6582
 -1     21599    3    0    1
 -2       462      2750      2735      1584
 -1     21600    3    0    1
 -2      9627      6638      6602      7367
 -1     21601    3    0    1
 -2      7100      9222      8457      8057
 -1     21602    3    0    1
 -2      2667      3258      1447      3201
 -1     21603    3    0    1
 -2      8521      7059      6109      8064
 -1     21604    3    0    1
 -2      7120      9012      9326      9058
 -1     21605    3    0    1
 -2       676      1183      1215      2442
 -1     21606    3    0    1
 -2      8941      9484      9288      9506
 -1     21607    3    0    1
 -2      8641      6222      6154      9345
 -1     21608    3    0    1
 -2      7181      9316      9031      6125
 -1     21609    3    0    1
 -2      8070      8473      8069      7648
 -1     21610    3    0    1
 -2      2162       409        57      2178
 -1     21611    3    0    1
 -2       208       620      2450      3532
 -1     21612    3    0    1
 -2       161       229       193      2947
 -1     21613    3    0    1
 -2      9246      9235      8876      9493
 -1     21614    3    0    1
 -2       510       123       124       597
 -1     21615    3    0    1
 -2      9369      9592      8307      9674
 -1     21616    3    0    1
 -2        95       495       902      1549
 -1     21617    3    0    1
 -2       517       553      1112      2931
 -1     21618    3    0    1
 -2      2543      3691      4590      1975
 -1     21619    3    0    1
 -2      2353       178       134      9669
 -1     21620    3    0    1
 -2      2236       467       426      1549
 -1     21621    3    0    1
 -2       935       471      2739      2738
 -1     21622    3    0    1
 -2      9244      8073      6997      8040
 -1     21623    3    0    1
 -2       900       463      2230      2229
 -1     21624    3    0    1
 -2       427       428      2785      2702
 -1     21625    3    0    1
 -2      3003      3558       215      2923
 -1     21626    3    0    1
 -2      8711      7395      6517      6614
 -1     21627    3    0    1
 -2      9549      8597      9580      9569
 -1     21628    3    0    1
 -2      2650      3180      2672      1349
 -1     21629    3    0    1
 -2       584       197       594       539
 -1     21630    3    0    1
 -2       930        45       396       464
 -1     21631    3    0    1
 -2       606       666      3558      1228
 -1     21632    3    0    1
 -2       359       310       369      2674
 -1     21633    3    0    1
 -2      7921      9457      7400      6633
 -1     21634    3    0    1
 -2      7172      9041      8167      7150
 -1     21635    3    0    1
 -2       720       762       344      2667
 -1     21636    3    0    1
 -2       773        11       284      3195
 -1     21637    3    0    1
 -2       471        58       935      2739
 -1     21638    3    0    1
 -2       617       608       200      2954
 -1     21639    3    0    1
 -2      1488       435       473      2708
 -1     21640    3    0    1
 -2       564       147      2920      2975
 -1     21641    3    0    1
 -2      2932      2862      2386      2933
 -1     21642    3    0    1
 -2      3242      3257       793      2045
 -1     21643    3    0    1
 -2      1201       660      3012      3011
 -1     21644    3    0    1
 -2      2160      3183       355      2114
 -1     21645    3    0    1
 -2      9633      9455      9433      6614
 -1     21646    3    0    1
 -2      1673      1620      1621      2839
 -1     21647    3    0    1
 -2      8568      8117      7698      9337
 -1     21648    3    0    1
 -2      8979      8980      9650      8556
 -1     21649    3    0    1
 -2      8107      7689      8954      7079
 -1     21650    3    0    1
 -2      8833      8815      9182      6015
 -1     21651    3    0    1
 -2       723       353       298      2650
 -1     21652    3    0    1
 -2      1090      2388      2345      3462
 -1     21653    3    0    1
 -2      2954       200       617      2454
 -1     21654    3    0    1
 -2       830       916       438      2710
 -1     21655    3    0    1
 -2      9438      7405      6605      7390
 -1     21656    3    0    1
 -2      7650      6997      8041      8884
 -1     21657    3    0    1
 -2      5601      5981      5662      4830
 -1     21658    3    0    1
 -2      2157       714       289      2598
 -1     21659    3    0    1
 -2       192       575       576      3556
 -1     21660    3    0    1
 -2      3554      2920       253      2976
 -1     21661    3    0    1
 -2       649       648      1116      3026
 -1     21662    3    0    1
 -2      9319      7700      8119      9576
 -1     21663    3    0    1
 -2      7106      8050      9250      7012
 -1     21664    3    0    1
 -2      1584       955      2750      1602
 -1     21665    3    0    1
 -2      9619      9468      7956      6646
 -1     21666    3    0    1
 -2      2884       514       547      2961
 -1     21667    3    0    1
 -2       644      2458      2968      2967
 -1     21668    3    0    1
 -2      1459      2175       804      2729
 -1     21669    3    0    1
 -2      7956      9439      9203      6729
 -1     21670    3    0    1
 -2       261      1205       686      2451
 -1     21671    3    0    1
 -2      8561      9350      8562      7694
 -1     21672    3    0    1
 -2      6755      8359      9455      6614
 -1     21673    3    0    1
 -2      2249      3312      3886      3918
 -1     21674    3    0    1
 -2      7614      6053      7631      7003
 -1     21675    3    0    1
 -2      9383      7882      9412      9606
 -1     21676    3    0    1
 -2       207       218      2450      3531
 -1     21677    3    0    1
 -2      9334      8563      9579      7695
 -1     21678    3    0    1
 -2       360      2153       287      9668
 -1     21679    3    0    1
 -2      7354      6611      6511      7407
 -1     21680    3    0    1
 -2      9099      5924      6508      7406
 -1     21681    3    0    1
 -2      6250      6203      7191      6202
 -1     21682    3    0    1
 -2       656       629      3035      3010
 -1     21683    3    0    1
 -2      9351      7768      7699      9036
 -1     21684    3    0    1
 -2      1056      2385      3443      1796
 -1     21685    3    0    1
 -2      6573      9379      7877      6512
 -1     21686    3    0    1
 -2      9054      7118      6146      7743
 -1     21687    3    0    1
 -2      2353      2906      3517      2967
 -1     21688    3    0    1
 -2      7680      6119      6074      6104
 -1     21689    3    0    1
 -2      6737      8360      7919      6653
 -1     21690    3    0    1
 -2        43        19        20        93
 -1     21691    3    0    1
 -2      2962       174       130      2905
 -1     21692    3    0    1
 -2      1907      3048      3005      3021
 -1     21693    3    0    1
 -2      6551      5512      6521      9116
 -1     21694    3    0    1
 -2      3199      3172      3241      2598
 -1     21695    3    0    1
 -2      6237      7130      8174      7169
 -1     21696    3    0    1
 -2      9350      8114      8561      8985
 -1     21697    3    0    1
 -2      8093      6995      7673      8883
 -1     21698    3    0    1
 -2      8907      7563      8444      7612
 -1     21699    3    0    1
 -2      7405      9451      9467      8345
 -1     21700    3    0    1
 -2      8307      6587      9370      8729
 -1     21701    3    0    1
 -2      7097      9491      8885      7614
 -1     21702    3    0    1
 -2      9139      9180      7902      6612
 -1     21703    3    0    1
 -2      7939      7463      9181      9432
 -1     21704    3    0    1
 -2      7014      7693      9227      6097
 -1     21705    3    0    1
 -2       554      2930       241      9669
 -1     21706    3    0    1
 -2      2385      1056       510      1796
 -1     21707    3    0    1
 -2      8170      7775      6247      7708
 -1     21708    3    0    1
 -2      6589      6537      9109      9371
 -1     21709    3    0    1
 -2      2957      1183       237      2442
 -1     21710    3    0    1
 -2      2166      2732      3265      3846
 -1     21711    3    0    1
 -2      9421      9102      9409      7939
 -1     21712    3    0    1
 -2      7872      9381      9116      7919
 -1     21713    3    0    1
 -2      1026       530      2945      2913
 -1     21714    3    0    1
 -2       558       141       523      2935
 -1     21715    3    0    1
 -2       769       280       367      2656
 -1     21716    3    0    1
 -2      3468      1134       550      2965
 -1     21717    3    0    1
 -2       699       727      3186      3156
 -1     21718    3    0    1
 -2      2232       398      1464      2181
 -1     21719    3    0    1
 -2      9491      9515      8953      7097
 -1     21720    3    0    1
 -2      6882      7628      7584      6923
 -1     21721    3    0    1
 -2      7338      8708      9373      6590
 -1     21722    3    0    1
 -2      7585      7586      6107      8868
 -1     21723    3    0    1
 -2      3452      2941       561      2939
 -1     21724    3    0    1
 -2      7695      9334      6125      6163
 -1     21725    3    0    1
 -2      9634      9474      9458      7977
 -1     21726    3    0    1
 -2      9255      8090      7635      8942
 -1     21727    3    0    1
 -2       433       471       434       826
 -1     21728    3    0    1
 -2      9115      7353      9101      9670
 -1     21729    3    0    1
 -2      7682      7601      8034      9481
 -1     21730    3    0    1
 -2      3538      2920       185      3554
 -1     21731    3    0    1
 -2      5683      9181      7939      6754
 -1     21732    3    0    1
 -2      8713      7881      6525      9383
 -1     21733    3    0    1
 -2       402       419       403       456
 -1     21734    3    0    1
 -2       182      1220      3569       246
 -1     21735    3    0    1
 -2        65       120       938       501
 -1     21736    3    0    1
 -2        44        46        45       391
 -1     21737    3    0    1
 -2       237       122      1807       236
 -1     21738    3    0    1
 -2       554       178       517      2930
 -1     21739    3    0    1
 -2       465      2699      2726      1473
 -1     21740    3    0    1
 -2       133       516      2353       552
 -1     21741    3    0    1
 -2       119        60        35      1464
 -1     21742    3    0    1
 -2      6205      9067      7770      6251
 -1     21743    3    0    1
 -2      1441      3198       290      2598
 -1     21744    3    0    1
 -2       114        79      2161      2229
 -1     21745    3    0    1
 -2      9426      9616      6601      9463
 -1     21746    3    0    1
 -2      6512      6573      9379      6612
 -1     21747    3    0    1
 -2      2497       658       630      2943
 -1     21748    3    0    1
 -2      8632      6272      7703      9339
 -1     21749    3    0    1
 -2      2768      2241       912      2709
 -1     21750    3    0    1
 -2      9614      9461      6635      9664
 -1     21751    3    0    1
 -2      1127      1052      1030      3557
 -1     21752    3    0    1
 -2      2651      2115       786      2610
 -1     21753    3    0    1
 -2       182       139       140      2908
 -1     21754    3    0    1
 -2      7712      8636      6253      6144
 -1     21755    3    0    1
 -2      9328      8643      7718      9346
 -1     21756    3    0    1
 -2      8972      8104      8950      9534
 -1     21757    3    0    1
 -2       108        83       502       442
 -1     21758    3    0    1
 -2       512      1043       125      2347
 -1     21759    3    0    1
 -2       807      1462      2179      2739
 -1     21760    3    0    1
 -2      7614      7676      6115      7003
 -1     21761    3    0    1
 -2      8362      9458      8843      7977
 -1     21762    3    0    1
 -2      2785       904       427      2702
 -1     21763    3    0    1
 -2      6587      6535      9429      9674
 -1     21764    3    0    1
 -2      3222      2653       731      3188
 -1     21765    3    0    1
 -2      8667      8668      9359      9043
 -1     21766    3    0    1
 -2      8352      8329      9625      6657
 -1     21767    3    0    1
 -2      3557      1030       531      2875
 -1     21768    3    0    1
 -2      5601      5662      5311      4830
 -1     21769    3    0    1
 -2       808        33       117      1463
 -1     21770    3    0    1
 -2      7949      5970      5945      7915
 -1     21771    3    0    1
 -2       459       460       894       818
 -1     21772    3    0    1
 -2       640       219       208       677
 -1     21773    3    0    1
 -2      9268      8959      8960      7678
 -1     21774    3    0    1
 -2       759       741      2641      3758
 -1     21775    3    0    1
 -2       151       150      1019       152
 -1     21776    3    0    1
 -2      7902      9392      9139      6612
 -1     21777    3    0    1
 -2       617       608      2954      1805
 -1     21778    3    0    1
 -2      8114      9350      7694      7772
 -1     21779    3    0    1
 -2      2668      3211      1443      2159
 -1     21780    3    0    1
 -2      2353       133      2967      9669
 -1     21781    3    0    1
 -2      5967      6587      9629      9674
 -1     21782    3    0    1
 -2      9623      7397      9411      9434
 -1     21783    3    0    1
 -2      7865      9099      7308      6508
 -1     21784    3    0    1
 -2      4050      4418      2857      2389
 -1     21785    3    0    1
 -2      8963      9654      8980      8110
 -1     21786    3    0    1
 -2      9000      8647      7124      9016
 -1     21787    3    0    1
 -2      3628      1871      1851      3028
 -1     21788    3    0    1
 -2      5791      4755      5790      5808
 -1     21789    3    0    1
 -2       703      1432      3207      3190
 -1     21790    3    0    1
 -2      2983       214       573      3573
 -1     21791    3    0    1
 -2      7723      7156      7122      7722
 -1     21792    3    0    1
 -2       289       335       288      2157
 -1     21793    3    0    1
 -2      7684      8546      8091      9228
 -1     21794    3    0    1
 -2      9521      9250      8888      8537
 -1     21795    3    0    1
 -2      9423      9634      9458      7977
 -1     21796    3    0    1
 -2      9251      8085      6105      6096
 -1     21797    3    0    1
 -2      3037       660      1123      2983
 -1     21798    3    0    1
 -2      9117      9077      6618      8261
 -1     21799    3    0    1
 -2      9151      9665      7390      9451
 -1     21800    3    0    1
 -2      8091      7605      9228      9241
 -1     21801    3    0    1
 -2      9193      6751      7958      9673
 -1     21802    3    0    1
 -2      5581      6636      4821      6599
 -1     21803    3    0    1
 -2      6742      7963      8820      5955
 -1     21804    3    0    1
 -2      2450       620       640      3018
 -1     21805    3    0    1
 -2      7463      7939      9470      9432
 -1     21806    3    0    1
 -2       694      2026      3195      3164
 -1     21807    3    0    1
 -2      9316      9334      9031      6125
 -1     21808    3    0    1
 -2       257       663       190      2945
 -1     21809    3    0    1
 -2      2659      2611      3774      3758
 -1     21810    3    0    1
 -2      2961       238       269      2963
 -1     21811    3    0    1
 -2      9299      9340      9353      9672
 -1     21812    3    0    1
 -2      3043      3003      3558      3637
 -1     21813    3    0    1
 -2       894      2234      2693      2168
 -1     21814    3    0    1
 -2       178      2930       554      9669
 -1     21815    3    0    1
 -2      2765       935      2767      2740
 -1     21816    3    0    1
 -2       627       655       254      2462
 -1     21817    3    0    1
 -2       396       930      2173      1457
 -1     21818    3    0    1
 -2      9645      9531      8103      8548
 -1     21819    3    0    1
 -2       337       341       793       717
 -1     21820    3    0    1
 -2      6167      6272      7774      7703
 -1     21821    3    0    1
 -2      7930      6503      8707      9109
 -1     21822    3    0    1
 -2      7676      7097      8885      7614
 -1     21823    3    0    1
 -2      1134       622       643      3021
 -1     21824    3    0    1
 -2      7031      9261      8474      8872
 -1     21825    3    0    1
 -2      8946      9276      8947      9231
 -1     21826    3    0    1
 -2       131       132       130      2905
 -1     21827    3    0    1
 -2      9315      9566      9332      8559
 -1     21828    3    0    1
 -2      5554      6547      6517      6614
 -1     21829    3    0    1
 -2      8773      7426      8804      6691
 -1     21830    3    0    1
 -2      2057       703      1300      3190
 -1     21831    3    0    1
 -2      9282      8952      7096      9221
 -1     21832    3    0    1
 -2      9115      9101      9376      9670
 -1     21833    3    0    1
 -2      8054      6107      8087      9211
 -1     21834    3    0    1
 -2       320      1446      3236      3776
 -1     21835    3    0    1
 -2       295       352       351      1448
 -1     21836    3    0    1
 -2      8582      9354      9342      7711
 -1     21837    3    0    1
 -2       786       697      3221      2610
 -1     21838    3    0    1
 -2      7832      6587      8307      8729
 -1     21839    3    0    1
 -2      6638      8355      9463      8353
 -1     21840    3    0    1
 -2      7035      6997      7076      8073
 -1     21841    3    0    1
 -2      7133      7697      7170      6130
 -1     21842    3    0    1
 -2      7694      8563      7695      9579
 -1     21843    3    0    1
 -2      9489      9502      8104      8040
 -1     21844    3    0    1
 -2      8176      8166      9336      7170
 -1     21845    3    0    1
 -2      6624      7404      6589      7948
 -1     21846    3    0    1
 -2      3550      2930      2353      9669
 -1     21847    3    0    1
 -2      1124       190       530      1026
 -1     21848    3    0    1
 -2      6573      9378      9602      7407
 -1     21849    3    0    1
 -2      2611       315       741      1435
 -1     21850    3    0    1
 -2      8104      8972      9502      9534
 -1     21851    3    0    1
 -2      9337      7163      7698      9034
 -1     21852    3    0    1
 -2      8927      9480      8101      9542
 -1     21853    3    0    1
 -2        79        80      2170      2229
 -1     21854    3    0    1
 -2      3450      1697       520      2863
 -1     21855    3    0    1
 -2       478       104       938      1465
 -1     21856    3    0    1
 -2      9240      9496      7641      8110
 -1     21857    3    0    1
 -2      3239      3171      3170      1344
 -1     21858    3    0    1
 -2       620       208       598      3532
 -1     21859    3    0    1
 -2      7698      7163      6165      9034
 -1     21860    3    0    1
 -2       903       467       426      2236
 -1     21861    3    0    1
 -2      3180      3212      3809      2672
 -1     21862    3    0    1
 -2      9116      7837      5512      8712
 -1     21863    3    0    1
 -2      9186      6021      6722      8798
 -1     21864    3    0    1
 -2      7079      7098      7689      7004
 -1     21865    3    0    1
 -2      6956      8471      6957      8470
 -1     21866    3    0    1
 -2        61      1464      2182      2232
 -1     21867    3    0    1
 -2      9473      9457      7921      6633
 -1     21868    3    0    1
 -2      2369       571      1024      2910
 -1     21869    3    0    1
 -2      6554      8748      9395      7921
 -1     21870    3    0    1
 -2      2009       737       705      2579
 -1     21871    3    0    1
 -2      2230      3260      2698      3852
 -1     21872    3    0    1
 -2       805       100        99       427
 -1     21873    3    0    1
 -2      7406      9599      9099      9405
 -1     21874    3    0    1
 -2       468       427       100      2785
 -1     21875    3    0    1
 -2       487        85       888      1508
 -1     21876    3    0    1
 -2        93        19        20       112
 -1     21877    3    0    1
 -2      9462      6635      7909      9413
 -1     21878    3    0    1
 -2      3453      1016       564      1801
 -1     21879    3    0    1
 -2      2955      1055      2996      2902
 -1     21880    3    0    1
 -2      5804      7723      6160      6175
 -1     21881    3    0    1
 -2      7406      9192      6731      7453
 -1     21882    3    0    1
 -2      7006      7103      9249      7618
 -1     21883    3    0    1
 -2       481       831      2244      2186
 -1     21884    3    0    1
 -2      3555      2979      3572      3009
 -1     21885    3    0    1
 -2       218       219       268       677
 -1     21886    3    0    1
 -2      5360      5337      5344      5361
 -1     21887    3    0    1
 -2       685       260      1205       261
 -1     21888    3    0    1
 -2      8124      7713      9355      7149
 -1     21889    3    0    1
 -2      7077      7611      7094      8095
 -1     21890    3    0    1
 -2      2676        12        11       283
 -1     21891    3    0    1
 -2      9120      7892      7911      8705
 -1     21892    3    0    1
 -2      5478      7699      5809      9036
 -1     21893    3    0    1
 -2      8756      8712      5937      8746
 -1     21894    3    0    1
 -2       645      1867      1218      2458
 -1     21895    3    0    1
 -2       513       129      2905       131
 -1     21896    3    0    1
 -2       645       239      1867      9669
 -1     21897    3    0    1
 -2      9352      8574      8575      9554
 -1     21898    3    0    1
 -2      6071      5206      7104      5755
 -1     21899    3    0    1
 -2      6574      8710      9128      7902
 -1     21900    3    0    1
 -2      8974      8975      9658      8107
 -1     21901    3    0    1
 -2      8693      9099      7308      7865
 -1     21902    3    0    1
 -2      3324      2727       930      2806
 -1     21903    3    0    1
 -2      5597      5081      5595      5310
 -1     21904    3    0    1
 -2       208      2450      3531      3532
 -1     21905    3    0    1
 -2      7914      7332      7861      9084
 -1     21906    3    0    1
 -2       677       219       208      2450
 -1     21907    3    0    1
 -2        19        21        20       112
 -1     21908    3    0    1
 -2      9550      9570      9581      8566
 -1     21909    3    0    1
 -2      2610       697      3221      3184
 -1     21910    3    0    1
 -2      1127       228       229      3557
 -1     21911    3    0    1
 -2      5850      6312      7794      8216
 -1     21912    3    0    1
 -2      8583      9040      7713      6147
 -1     21913    3    0    1
 -2      9467      9451      9466      8345
 -1     21914    3    0    1
 -2      9431      9632      9196      6612
 -1     21915    3    0    1
 -2      8945      7687      9531      8103
 -1     21916    3    0    1
 -2      9350      8114      9060      7772
 -1     21917    3    0    1
 -2      2150       280      2040      2656
 -1     21918    3    0    1
 -2      9441      7950      8360      6737
 -1     21919    3    0    1
 -2      2665      2595      1440      2077
 -1     21920    3    0    1
 -2       584       594      1130       539
 -1     21921    3    0    1
 -2       930      2727      1473      2726
 -1     21922    3    0    1
 -2      2750       462       504      1584
 -1     21923    3    0    1
 -2      3242       717       750      1284
 -1     21924    3    0    1
 -2      8041      8011      9220      8884
 -1     21925    3    0    1
 -2       682       683      3008      3009
 -1     21926    3    0    1
 -2      7772      8114      9060      7111
 -1     21927    3    0    1
 -2       538       539      3484      2915
 -1     21928    3    0    1
 -2       503       417        88      2250
 -1     21929    3    0    1
 -2      6601      6638      9616      7367
 -1     21930    3    0    1
 -2      2189      3338      3339      2245
 -1     21931    3    0    1
 -2      7867      9101      9115      7353
 -1     21932    3    0    1
 -2      2216      2265      3316      2786
 -1     21933    3    0    1
 -2      3339       107      2189      2245
 -1     21934    3    0    1
 -2      8039      9218      6996      9232
 -1     21935    3    0    1
 -2      6640      6587      7927      9174
 -1     21936    3    0    1
 -2      7722      7156      7122      8593
 -1     21937    3    0    1
 -2      9148      9427      7913      9173
 -1     21938    3    0    1
 -2       663       684      1202      2464
 -1     21939    3    0    1
 -2      9488      9526      9502      8040
 -1     21940    3    0    1
 -2      2748       819       449      2694
 -1     21941    3    0    1
 -2       673      2449      2996      1233
 -1     21942    3    0    1
 -2       442       443       812      2190
 -1     21943    3    0    1
 -2      3474       526      3473      3495
 -1     21944    3    0    1
 -2      8579      7708      7707      9341
 -1     21945    3    0    1
 -2      9204      7973      7960      6733
 -1     21946    3    0    1
 -2      6119      5706      5360      5361
 -1     21947    3    0    1
 -2       282       281       280      2150
 -1     21948    3    0    1
 -2      2910      2983       573      3573
 -1     21949    3    0    1
 -2       541       609      2994      1806
 -1     21950    3    0    1
 -2      3208      1309      2675      3251
 -1     21951    3    0    1
 -2      6626      6606      8807      6003
 -1     21952    3    0    1
 -2       167       169       170      2387
 -1     21953    3    0    1
 -2      1305       735       734      3139
 -1     21954    3    0    1
 -2      2464       663       684      2465
 -1     21955    3    0    1
 -2      9180      8813      7902      6650
 -1     21956    3    0    1
 -2      9596      9597      6591      9619
 -1     21957    3    0    1
 -2      7769      7812      6246      9672
 -1     21958    3    0    1
 -2      9071      8127      6173      7119
 -1     21959    3    0    1
 -2      4666      4285      3763      4318
 -1     21960    3    0    1
 -2      9521      9250      8537      7106
 -1     21961    3    0    1
 -2       630       659       658      2497
 -1     21962    3    0    1
 -2      8058      8100      7108      7084
 -1     21963    3    0    1
 -2      9579      7695      7694      6163
 -1     21964    3    0    1
 -2      1594      1611       973      2771
 -1     21965    3    0    1
 -2      8361      7943      7441      6654
 -1     21966    3    0    1
 -2      8011      9244      9220      8884
 -1     21967    3    0    1
 -2      9238      8555      9647      7640
 -1     21968    3    0    1
 -2      1290      3176       348      1289
 -1     21969    3    0    1
 -2      2905      2962       129      2961
 -1     21970    3    0    1
 -2      5979      5679      7913      9173
 -1     21971    3    0    1
 -2      7120      6260      5473      9058
 -1     21972    3    0    1
 -2      2932       519      1115      2933
 -1     21973    3    0    1
 -2      2731      2184       938      1465
 -1     21974    3    0    1
 -2       916       477       438      2233
 -1     21975    3    0    1
 -2      2386      2357       509      9675
 -1     21976    3    0    1
 -2      5986      5666      9182      6015
 -1     21977    3    0    1
 -2       648       649      1871      3026
 -1     21978    3    0    1
 -2      9501      7687      9531      8945
 -1     21979    3    0    1
 -2      2915       167       539      2387
 -1     21980    3    0    1
 -2      9186      6722      6021      7967
 -1     21981    3    0    1
 -2      9575      7716      7168      9345
 -1     21982    3    0    1
 -2      3023      1867       623      2930
 -1     21983    3    0    1
 -2      6109      7588      6987      9255
 -1     21984    3    0    1
 -2      8750      7882      7881      9383
 -1     21985    3    0    1
 -2      8736      7917      7848      9125
 -1     21986    3    0    1
 -2       290      2145      1441      2598
 -1     21987    3    0    1
 -2      2939       144      2938      2940
 -1     21988    3    0    1
 -2      2945      3526       257      2465
 -1     21989    3    0    1
 -2      3540      1019      2891      2921
 -1     21990    3    0    1
 -2      1871      1851      1812      1180
 -1     21991    3    0    1
 -2      2647      3150       719      3201
 -1     21992    3    0    1
 -2      2182       438        61      2233
 -1     21993    3    0    1
 -2      8970      8549      8093      9487
 -1     21994    3    0    1
 -2      1807       123       237      2956
 -1     21995    3    0    1
 -2      9607      6635      9461      9664
 -1     21996    3    0    1
 -2      7698      8116      9337      9034
 -1     21997    3    0    1
 -2      1192      1222      1247      3007
 -1     21998    3    0    1
 -2       571      2369      2912      2910
 -1     21999    3    0    1
 -2      2600      3242      2046      1284
 -1     22000    3    0    1
 -2      2979       149      1019      2366
 -1     22001    3    0    1
 -2      1140       606       666      3558
 -1     22002    3    0    1
 -2      5684      4885      5685      5149
 -1     22003    3    0    1
 -2      3788      3150      2647      3201
 -1     22004    3    0    1
 -2      8034      8939      7682      9481
 -1     22005    3    0    1
 -2      1469       942       486      2717
 -1     22006    3    0    1
 -2      8043      9491      7097      7614
 -1     22007    3    0    1
 -2      4283      1338      1445      3248
 -1     22008    3    0    1
 -2      2938       145       144      2939
 -1     22009    3    0    1
 -2       237      1807      2956      2442
 -1     22010    3    0    1
 -2       326       710      2614      1343
 -1     22011    3    0    1
 -2      9467      9451      7405      7390
 -1     22012    3    0    1
 -2      7096      7039      7688      7095
 -1     22013    3    0    1
 -2       124       171      2385      1785
 -1     22014    3    0    1
 -2      9197      9460      9625      8352
 -1     22015    3    0    1
 -2       685      1205       260      2452
 -1     22016    3    0    1
 -2      1110       598       546      3532
 -1     22017    3    0    1
 -2      2558      3198      4272      3837
 -1     22018    3    0    1
 -2      1052      1030      3557      2875
 -1     22019    3    0    1
 -2      7456      8810      9179      6702
 -1     22020    3    0    1
 -2       296       353       387      1449
 -1     22021    3    0    1
 -2      8104      9244      9489      8040
 -1     22022    3    0    1
 -2      3265      2732      3875      3846
 -1     22023    3    0    1
 -2      9513      8071      7092      9232
 -1     22024    3    0    1
 -2      3065       617      2954      1805
 -1     22025    3    0    1
 -2      2241       828       474      2709
 -1     22026    3    0    1
 -2      6606      9190      9620      6626
 -1     22027    3    0    1
 -2      2938       526       145      2939
 -1     22028    3    0    1
 -2      9350      9579      8562      7694
 -1     22029    3    0    1
 -2      9403      7934      9138      6590
 -1     22030    3    0    1
 -2      8169      7256      6345      8229
 -1     22031    3    0    1
 -2       685       260      1206      2452
 -1     22032    3    0    1
 -2       665       229      2451      3557
 -1     22033    3    0    1
 -2      4660      4293      4683      3776
 -1     22034    3    0    1
 -2      7914      7332      6537      7861
 -1     22035    3    0    1
 -2      3556       664       259      2465
 -1     22036    3    0    1
 -2      7601      7682      8869      9481
 -1     22037    3    0    1
 -2      9235      8876      8044      7616
 -1     22038    3    0    1
 -2      8565      8165      6128      9335
 -1     22039    3    0    1
 -2        94        46      1458      1457
 -1     22040    3    0    1
 -2       130       129      2905       174
 -1     22041    3    0    1
 -2      1442       715      3199      2598
 -1     22042    3    0    1
 -2      7636      7605      8023      9242
 -1     22043    3    0    1
 -2      7357      9386      6620      9671
 -1     22044    3    0    1
 -2      2938       590       525      3553
 -1     22045    3    0    1
 -2      2894       155       529      2910
 -1     22046    3    0    1
 -2      8107      8954      8043      7079
 -1     22047    3    0    1
 -2       360       287       324      9668
 -1     22048    3    0    1
 -2      3531       173       208      3532
 -1     22049    3    0    1
 -2       915       476       119      2232
 -1     22050    3    0    1
 -2      8092      6049      7629      9259
 -1     22051    3    0    1
 -2      8166      9033      9047      7133
 -1     22052    3    0    1
 -2       257       191      3526      2945
 -1     22053    3    0    1
 -2      7637      7629      8038      9259
 -1     22054    3    0    1
 -2      1202      1124       663      2945
 -1     22055    3    0    1
 -2       692      1309      3229      3192
 -1     22056    3    0    1
 -2       328       377      2155      2614
 -1     22057    3    0    1
 -2       802       112        21      1455
 -1     22058    3    0    1
 -2      7406      9621      9192      6626
 -1     22059    3    0    1
 -2      1202      2945      2464      2984
 -1     22060    3    0    1
 -2      9047      9306      9581      8567
 -1     22061    3    0    1
 -2      8100      8058      9479      7084
 -1     22062    3    0    1
 -2      1713      3558       535      2948
 -1     22063    3    0    1
 -2      2671      2670       295      1349
 -1     22064    3    0    1
 -2       734       735       307      1433
 -1     22065    3    0    1
 -2      7032      6995      8093      9487
 -1     22066    3    0    1
 -2      7715      7168      9326      9357
 -1     22067    3    0    1
 -2      8593      7722      7156      9564
 -1     22068    3    0    1
 -2      3867      2180      2771      2181
 -1     22069    3    0    1
 -2      2796      2797       442      2714
 -1     22070    3    0    1
 -2      9342      8122      7711      6142
 -1     22071    3    0    1
 -2      7269      9033      8660      7240
 -1     22072    3    0    1
 -2      2005      1353      3121      3134
 -1     22073    3    0    1
 -2      6520      7355      8698      7872
 -1     22074    3    0    1
 -2      7841      9105      7358      5905
 -1     22075    3    0    1
 -2       539       197      2989      2387
 -1     22076    3    0    1
 -2      7911      8798      8772      9171
 -1     22077    3    0    1
 -2      9032      9336      9305      7697
 -1     22078    3    0    1
 -2      6463      6503      6589      9109
 -1     22079    3    0    1
 -2      7991      5979      7947      9173
 -1     22080    3    0    1
 -2      7703      6167      6135      7704
 -1     22081    3    0    1
 -2       346       721       794      2159
 -1     22082    3    0    1
 -2       630       227       255      2943
 -1     22083    3    0    1
 -2      2141      1428       692      3229
 -1     22084    3    0    1
 -2      3291      1557       908      2199
 -1     22085    3    0    1
 -2       290       714      2145      2598
 -1     22086    3    0    1
 -2      7777      9057      9071      6173
 -1     22087    3    0    1
 -2      8098      7691      7045      7638
 -1     22088    3    0    1
 -2      3526       191       157      2945
 -1     22089    3    0    1
 -2      9361      7913      9401      9674
 -1     22090    3    0    1
 -2      8804      7426      8784      7474
 -1     22091    3    0    1
 -2      1201       659       272      2497
 -1     22092    3    0    1
 -2      9326      8587      7715      9357
 -1     22093    3    0    1
 -2       597       237       123      2956
 -1     22094    3    0    1
 -2      7110      8053      8890      7018
 -1     22095    3    0    1
 -2      2963       269      2961      3000
 -1     22096    3    0    1
 -2      9386      7357      6620      9096
 -1     22097    3    0    1
 -2      9390      6605      6625      9086
 -1     22098    3    0    1
 -2      5911      6427      9111      6592
 -1     22099    3    0    1
 -2      2485      1220       247      2970
 -1     22100    3    0    1
 -2      1006       519      1115      2932
 -1     22101    3    0    1
 -2      5416      4728      5465      4970
 -1     22102    3    0    1
 -2      2797       442       502      2796
 -1     22103    3    0    1
 -2      6307      6308      6343      6345
 -1     22104    3    0    1
 -2       719       291       342      3201
 -1     22105    3    0    1
 -2      7875      7400      9395      9613
 -1     22106    3    0    1
 -2      7909      6635      5962      6582
 -1     22107    3    0    1
 -2      1183       676       237      2442
 -1     22108    3    0    1
 -2       585       169       992      2379
 -1     22109    3    0    1
 -2      3535      1116       648      3026
 -1     22110    3    0    1
 -2       629      2980      3035      3010
 -1     22111    3    0    1
 -2      7045      7102      9249      7103
 -1     22112    3    0    1
 -2      8742      8710      9128      6574
 -1     22113    3    0    1
 -2      8948      8883      9487      8093
 -1     22114    3    0    1
 -2       353       296       297      1449
 -1     22115    3    0    1
 -2      6109      8090      9255      8942
 -1     22116    3    0    1
 -2       291       719       718      3201
 -1     22117    3    0    1
 -2      9636      9467      9452      8345
 -1     22118    3    0    1
 -2      2994      1090      2388       541
 -1     22119    3    0    1
 -2       768       366       277      2149
 -1     22120    3    0    1
 -2      2970      2485      1220      2935
 -1     22121    3    0    1
 -2      7426      8804      6691      7474
 -1     22122    3    0    1
 -2      9581      8566      7697      7132
 -1     22123    3    0    1
 -2      7177      7723      9329      9348
 -1     22124    3    0    1
 -2      1449       387       296      1448
 -1     22125    3    0    1
 -2      4524      4871      5105      4820
 -1     22126    3    0    1
 -2      8957      8553      7102      7045
 -1     22127    3    0    1
 -2      3186      1296       699      3156
 -1     22128    3    0    1
 -2      9604      7939      9421      7408
 -1     22129    3    0    1
 -2      8712      9093      7837      7873
 -1     22130    3    0    1
 -2      8104      8073      9244      8040
 -1     22131    3    0    1
 -2       670      1130       669       594
 -1     22132    3    0    1
 -2      6499      6535      7913      8307
 -1     22133    3    0    1
 -2      7726      7725      8559      7126
 -1     22134    3    0    1
 -2      2946      2897      2376      1712
 -1     22135    3    0    1
 -2      7216      7770      6275      7796
 -1     22136    3    0    1
 -2      2174       406        95      1549
 -1     22137    3    0    1
 -2      9478      8049      7640      6090
 -1     22138    3    0    1
 -2        35        36       119      1464
 -1     22139    3    0    1
 -2      8110      7641      9240      8556
 -1     22140    3    0    1
 -2      6606      8807      9190      6626
 -1     22141    3    0    1
 -2       222       179       223      9675
 -1     22142    3    0    1
 -2      2266       470       497      2239
 -1     22143    3    0    1
 -2      9204      8811      7972      6733
 -1     22144    3    0    1
 -2      6156      7121      7175      7718
 -1     22145    3    0    1
 -2      9439      9138      7934      6590
 -1     22146    3    0    1
 -2      3482      1713      3558      3507
 -1     22147    3    0    1
 -2       773       284        11       707
 -1     22148    3    0    1
 -2      8271      8717      8719      7322
 -1     22149    3    0    1
 -2      3809      3180      3767      1332
 -1     22150    3    0    1
 -2       368       280       281      2150
 -1     22151    3    0    1
 -2      6594      6608      7353      9670
 -1     22152    3    0    1
 -2       739       758       706      3232
 -1     22153    3    0    1
 -2       920       442      2797      2714
 -1     22154    3    0    1
 -2      8551      8974      9658      8107
 -1     22155    3    0    1
 -2      7168      7715      7716      9357
 -1     22156    3    0    1
 -2      5809      7810      7773      9050
 -1     22157    3    0    1
 -2      7334      7915      8733      9389
 -1     22158    3    0    1
 -2      2677      3311      3844       813
 -1     22159    3    0    1
 -2      6497      6585      9360      9083
 -1     22160    3    0    1
 -2       654      3620      3594      3554
 -1     22161    3    0    1
 -2      7967      9186      6722      9171
 -1     22162    3    0    1
 -2      2353       133       552      2967
 -1     22163    3    0    1
 -2      7689      9234      8043      7004
 -1     22164    3    0    1
 -2      1332      3750      3132      3180
 -1     22165    3    0    1
 -2       191       257       190      2945
 -1     22166    3    0    1
 -2      6996      5713      7092      8040
 -1     22167    3    0    1
 -2        19        21       112      1455
 -1     22168    3    0    1
 -2      7708      7775      7707      9341
 -1     22169    3    0    1
 -2      2659      2641      2611      3758
 -1     22170    3    0    1
 -2      5139      5116      5620      5319
 -1     22171    3    0    1
 -2      8547      9645      9511      8548
 -1     22172    3    0    1
 -2      1033      1034       534      1713
 -1     22173    3    0    1
 -2      4824      5586      5967      5628
 -1     22174    3    0    1
 -2       721       346       347      2159
 -1     22175    3    0    1
 -2      7930      9136      6589      9109
 -1     22176    3    0    1
 -2       585      1131       586      2379
 -1     22177    3    0    1
 -2      9189      9466      9202      7949
 -1     22178    3    0    1
 -2      3007      1137      3553      2972
 -1     22179    3    0    1
 -2      5945      7334      7375      9389
 -1     22180    3    0    1
 -2       567       568      3540      1802
 -1     22181    3    0    1
 -2      6237      7130      7169      6183
 -1     22182    3    0    1
 -2      9572      9582      9323      8601
 -1     22183    3    0    1
 -2       808        31       435      2163
 -1     22184    3    0    1
 -2      6598      6618      9362      7838
 -1     22185    3    0    1
 -2      9465      7404      7914      7948
 -1     22186    3    0    1
 -2      7111      7772      8114      6163
 -1     22187    3    0    1
 -2      8102      8089      7646      7635
 -1     22188    3    0    1
 -2      3594      4879      4546      4862
 -1     22189    3    0    1
 -2      5683      8413      8412      8832
 -1     22190    3    0    1
 -2      7907      9625      8329      5955
 -1     22191    3    0    1
 -2      2933       647      1115      3025
 -1     22192    3    0    1
 -2      1213      2993       636      1806
 -1     22193    3    0    1
 -2      7407      6511      5936      6611
 -1     22194    3    0    1
 -2      3263      1450      2250      3321
 -1     22195    3    0    1
 -2      6585      7893      9387      9083
 -1     22196    3    0    1
 -2      5801      6155      7174      7717
 -1     22197    3    0    1
 -2      7108      8058      7084      6075
 -1     22198    3    0    1
 -2       721       348      3176      1289
 -1     22199    3    0    1
 -2       914      1566      1504      2771
 -1     22200    3    0    1
 -2      9494      9249      9237      7045
 -1     22201    3    0    1
 -2      3005       643      1907      3021
 -1     22202    3    0    1
 -2      2094      3799      3798      3141
 -1     22203    3    0    1
 -2      9575      7168      7716      9357
 -1     22204    3    0    1
 -2       558       247       142      2935
 -1     22205    3    0    1
 -2      1701       146      1011      3497
 -1     22206    3    0    1
 -2      6561      6585      9617      9591
 -1     22207    3    0    1
 -2      3772      3250      4305      4894
 -1     22208    3    0    1
 -2      7106      7663      8050      7012
 -1     22209    3    0    1
 -2      8707      8731      6503      9123
 -1     22210    3    0    1
 -2      3552      4786      3551      4474
 -1     22211    3    0    1
 -2      9511      7637      7686      9230
 -1     22212    3    0    1
 -2      1539       819       449      2746
 -1     22213    3    0    1
 -2      3446      1110       546      3532
 -1     22214    3    0    1
 -2       139       521       520      2908
 -1     22215    3    0    1
 -2      4491      4014      4423      4469
 -1     22216    3    0    1
 -2      9261      7031      6064      8872
 -1     22217    3    0    1
 -2      2670       295       764      2671
 -1     22218    3    0    1
 -2      7332      6588      7914      6537
 -1     22219    3    0    1
 -2      3162      3229      1309      3192
 -1     22220    3    0    1
 -2      8063      7025      8089      8895
 -1     22221    3    0    1
 -2        99        98       397       427
 -1     22222    3    0    1
 -2      7713      9573      9343      8583
 -1     22223    3    0    1
 -2      9185      6638      9616      8353
 -1     22224    3    0    1
 -2      8880      8021      8870      9255
 -1     22225    3    0    1
 -2      2991       586      1131      2379
 -1     22226    3    0    1
 -2      8034      8545      8939      9481
 -1     22227    3    0    1
 -2      8108      8097      9245      8955
 -1     22228    3    0    1
 -2      8636      9358      7712      6145
 -1     22229    3    0    1
 -2      6247      6169      6141      7708
 -1     22230    3    0    1
 -2       203       232       202      3548
 -1     22231    3    0    1
 -2      1019      2979      2366      2921
 -1     22232    3    0    1
 -2      2948      1713      3558      3482
 -1     22233    3    0    1
 -2      8878      8033      8856      6922
 -1     22234    3    0    1
 -2       313       693       283      3195
 -1     22235    3    0    1
 -2      9455      7463      6755      6651
 -1     22236    3    0    1
 -2        61       119      1464      2232
 -1     22237    3    0    1
 -2      7788      7177      7723      9329
 -1     22238    3    0    1
 -2        36        38        61      1464
 -1     22239    3    0    1
 -2      3754      3195      3232      3708
 -1     22240    3    0    1
 -2       667       666       215      1228
 -1     22241    3    0    1
 -2      2165      1471       456      2745
 -1     22242    3    0    1
 -2      3548       202       200      2454
 -1     22243    3    0    1
 -2      9578      7718      8163      9346
 -1     22244    3    0    1
 -2      7636      9229      9243      9485
 -1     22245    3    0    1
 -2      8555      8109      8978      9647
 -1     22246    3    0    1
 -2      3553      2938       590      2940
 -1     22247    3    0    1
 -2      9473      9207      8819      7962
 -1     22248    3    0    1
 -2       515       134       135      2353
 -1     22249    3    0    1
 -2      7390      9636      9467      9665
 -1     22250    3    0    1
 -2      6497      6562      9083      6498
 -1     22251    3    0    1
 -2      6146      9054      7221      6145
 -1     22252    3    0    1
 -2      2771      3866      2180      3867
 -1     22253    3    0    1
 -2       716       715      3199      1442
 -1     22254    3    0    1
 -2      8111      9251      8050      8085
 -1     22255    3    0    1
 -2       282       734       307       789
 -1     22256    3    0    1
 -2      7710      9558      9354      8581
 -1     22257    3    0    1
 -2      6547      9380      6517      6614
 -1     22258    3    0    1
 -2      3195       693       694      3164
 -1     22259    3    0    1
 -2      6253      8636      7712      6145
 -1     22260    3    0    1
 -2      1309       308       309      2674
 -1     22261    3    0    1
 -2      1136       523      2936      2935
 -1     22262    3    0    1
 -2      3246      3180      3809      2672
 -1     22263    3    0    1
 -2      7769      9051      7812      9672
 -1     22264    3    0    1
 -2      6074      7633      7680      6104
 -1     22265    3    0    1
 -2      9453      9619      7956      6646
 -1     22266    3    0    1
 -2      2376       987       533      1712
 -1     22267    3    0    1
 -2      3195        11       283      2676
 -1     22268    3    0    1
 -2      3807      3256      4686      4287
 -1     22269    3    0    1
 -2      9403      9373      8708      6590
 -1     22270    3    0    1
 -2      8043      9491      8551      7097
 -1     22271    3    0    1
 -2      8588      8589      7715      9562
 -1     22272    3    0    1
 -2      7838      8261      6618      9077
 -1     22273    3    0    1
 -2      3189      1339      2654      3159
 -1     22274    3    0    1
 -2      2142       773      3195      2676
 -1     22275    3    0    1
 -2      3198      2558       290      2598
 -1     22276    3    0    1
 -2      6573      7354      9377      7407
 -1     22277    3    0    1
 -2      7919      5937      6551      6615
 -1     22278    3    0    1
 -2       493       464       930      3324
 -1     22279    3    0    1
 -2      6109      8090      7635      9255
 -1     22280    3    0    1
 -2       396       391        45      1457
 -1     22281    3    0    1
 -2      9575      7716      7715      9357
 -1     22282    3    0    1
 -2      6581      6715      5961      8793
 -1     22283    3    0    1
 -2      7977      9473      8819      7962
 -1     22284    3    0    1
 -2      9603      9379      9378      6573
 -1     22285    3    0    1
 -2        33        32       117      1463
 -1     22286    3    0    1
 -2      7914      9175      9465      7948
 -1     22287    3    0    1
 -2      7468      8369      7981      8779
 -1     22288    3    0    1
 -2      8176      9336      9032      7170
 -1     22289    3    0    1
 -2      1399      1400      3169      1374
 -1     22290    3    0    1
 -2      7121      6223      5802      7175
 -1     22291    3    0    1
 -2       342       781       719      3201
 -1     22292    3    0    1
 -2      9617      7417      6585      6561
 -1     22293    3    0    1
 -2      8127      9071      8128      7119
 -1     22294    3    0    1
 -2      6168      6246      5419      9672
 -1     22295    3    0    1
 -2      2166        89       892      2732
 -1     22296    3    0    1
 -2      4295      3254      4272      3837
 -1     22297    3    0    1
 -2      9170      6638      9627      9185
 -1     22298    3    0    1
 -2       288       714       289      2157
 -1     22299    3    0    1
 -2       229       665       615      3557
 -1     22300    3    0    1
 -2      8123      7743      9054      9323
 -1     22301    3    0    1
 -2      9440      9476      9179      5950
 -1     22302    3    0    1
 -2      6292      7202      7816      5442
 -1     22303    3    0    1
 -2      2922      3557       531      2875
 -1     22304    3    0    1
 -2      6363      6277      6365      6364
 -1     22305    3    0    1
 -2      2158       291       798      3201
 -1     22306    3    0    1
 -2      2929      2450      3046      3583
 -1     22307    3    0    1
 -2      8707      6463      6503      7845
 -1     22308    3    0    1
 -2       863       470       451      2239
 -1     22309    3    0    1
 -2       158       159       192      3526
 -1     22310    3    0    1
 -2       501       938        65      2185
 -1     22311    3    0    1
 -2      1807      1785       123      2956
 -1     22312    3    0    1
 -2      9268      8109      8959      7678
 -1     22313    3    0    1
 -2       508      2357      3535      9675
 -1     22314    3    0    1
 -2       112       802      1539      1455
 -1     22315    3    0    1
 -2      2675       308      1309      2674
 -1     22316    3    0    1
 -2      3566      2933      3006      9675
 -1     22317    3    0    1
 -2      9645      9511      9530      8547
 -1     22318    3    0    1
 -2      1012      1013      1633      1700
 -1     22319    3    0    1
 -2      3335       481      2244      2186
 -1     22320    3    0    1
 -2       701       276       303      1300
 -1     22321    3    0    1
 -2      1247      1222      1934      3007
 -1     22322    3    0    1
 -2      8946      9276      9231      9533
 -1     22323    3    0    1
 -2       720      3175      3130      2667
 -1     22324    3    0    1
 -2      2894      2943       569      2893
 -1     22325    3    0    1
 -2      3254      3837      2145      2598
 -1     22326    3    0    1
 -2       190       157       191      2945
 -1     22327    3    0    1
 -2      9242      7636      7685      9485
 -1     22328    3    0    1
 -2        80        79      2170      2169
 -1     22329    3    0    1
 -2      8748      6554      6449      7921
 -1     22330    3    0    1
 -2      9196      9180      9431      6612
 -1     22331    3    0    1
 -2      2920       185       146      3538
 -1     22332    3    0    1
 -2      9603      9379      6573      6612
 -1     22333    3    0    1
 -2       656       226       213       683
 -1     22334    3    0    1
 -2      2611      3774      3758      3759
 -1     22335    3    0    1
 -2      2946       579      1128      1712
 -1     22336    3    0    1
 -2      7400      7921      6633      6596
 -1     22337    3    0    1
 -2      7741      8122      7192      6142
 -1     22338    3    0    1
 -2      9555      9352      8575      9554
 -1     22339    3    0    1
 -2      9552      8569      8568      9337
 -1     22340    3    0    1
 -2       148      1014      1016      2909
 -1     22341    3    0    1
 -2      2230      2698      3260      2171
 -1     22342    3    0    1
 -2      9630      9476      9440      9670
 -1     22343    3    0    1
 -2        45       424       396       464
 -1     22344    3    0    1
 -2       935        58        82      2739
 -1     22345    3    0    1
 -2       290       288       747      2145
 -1     22346    3    0    1
 -2      8550      9502      9526      8040
 -1     22347    3    0    1
 -2      6260      7168      8666      9058
 -1     22348    3    0    1
 -2      6561      9108      9589      9400
 -1     22349    3    0    1
 -2      8038      9531      9230      9477
 -1     22350    3    0    1
 -2      8845      7497      5980      8345
 -1     22351    3    0    1
 -2      8553      8957      9494      7045
 -1     22352    3    0    1
 -2      6551      5512      9116      7872
 -1     22353    3    0    1
 -2      6971      6972      6092      6091
 -1     22354    3    0    1
 -2      7770      7710      7709      6204
 -1     22355    3    0    1
 -2      1466       104        64      1465
 -1     22356    3    0    1
 -2      7124      5405      6177      6266
 -1     22357    3    0    1
 -2      1557       907       908      2199
 -1     22358    3    0    1
 -2      9351      8572      7115      9576
 -1     22359    3    0    1
 -2      3208      1309      3251      2579
 -1     22360    3    0    1
 -2      9250      8888      6120      7622
 -1     22361    3    0    1
 -2       575       192      1051      3556
 -1     22362    3    0    1
 -2      5662      5311      4830      5109
 -1     22363    3    0    1
 -2      6537      6589      7404      9594
 -1     22364    3    0    1
 -2      2941       562       561      2939
 -1     22365    3    0    1
 -2      1138       593       613      2979
 -1     22366    3    0    1
 -2      1043      1061      2882      1695
 -1     22367    3    0    1
 -2       169       167      2379      2387
 -1     22368    3    0    1
 -2      2660      3236      1446      3776
 -1     22369    3    0    1
 -2      8085      9251      8050      6096
 -1     22370    3    0    1
 -2      8712      5512      6521      7873
 -1     22371    3    0    1
 -2      6641      5968      6725      5969
 -1     22372    3    0    1
 -2      5978      6722      8798      9171
 -1     22373    3    0    1
 -2      7353      7342      7867      5508
 -1     22374    3    0    1
 -2       397       805        99       427
 -1     22375    3    0    1
 -2      9664      6635      9614      6582
 -1     22376    3    0    1
 -2       114       900       462      2229
 -1     22377    3    0    1
 -2      5442      7816      6292      6291
 -1     22378    3    0    1
 -2       119        60        36        35
 -1     22379    3    0    1
 -2       894       893      1472      2693
 -1     22380    3    0    1
 -2      5241      3926      5243      5004
 -1     22381    3    0    1
 -2      8966      8541      9523      7693
 -1     22382    3    0    1
 -2      7709      6205      6204      5810
 -1     22383    3    0    1
 -2      9591      6561      9360      7857
 -1     22384    3    0    1
 -2      5908      9122      7858      7859
 -1     22385    3    0    1
 -2      7082      6119      7680      6104
 -1     22386    3    0    1
 -2      9441      8360      7950      9472
 -1     22387    3    0    1
 -2      6221      7815      8621      8640
 -1     22388    3    0    1
 -2      8058      9499      9523      8112
 -1     22389    3    0    1
 -2      9117      6618      9077      7838
 -1     22390    3    0    1
 -2      2957       237      1796      2956
 -1     22391    3    0    1
 -2      1762      2996      1055      2902
 -1     22392    3    0    1
 -2      9355      9573      7713      8124
 -1     22393    3    0    1
 -2      7715      6153      7120      9326
 -1     22394    3    0    1
 -2      9399      6601      9616      9587
 -1     22395    3    0    1
 -2      8071      9513      9277      9232
 -1     22396    3    0    1
 -2      6119      6074      6104      5706
 -1     22397    3    0    1
 -2      6105      8085      7083      6096
 -1     22398    3    0    1
 -2      2408      2367      1742      3435
 -1     22399    3    0    1
 -2      7949      8802      5970      7915
 -1     22400    3    0    1
 -2      6154      7749      8641      8131
 -1     22401    3    0    1
 -2       572      1123       573      2983
 -1     22402    3    0    1
 -2      3784      3218      2122      1374
 -1     22403    3    0    1
 -2      8691      9110      7848      6506
 -1     22404    3    0    1
 -2      2888       508      2357      3535
 -1     22405    3    0    1
 -2      9284      9245      7615      8097
 -1     22406    3    0    1
 -2      1286      3152      2036      1980
 -1     22407    3    0    1
 -2      9352      8575      7701      9555
 -1     22408    3    0    1
 -2      9498      9251      8050      8111
 -1     22409    3    0    1
 -2       586      1131       595      2991
 -1     22410    3    0    1
 -2      8119      8629      7700      9319
 -1     22411    3    0    1
 -2        82       799      1462      2739
 -1     22412    3    0    1
 -2      9042      6257      6173      6150
 -1     22413    3    0    1
 -2      3211       794       721      2159
 -1     22414    3    0    1
 -2      8709      7354      7312      5936
 -1     22415    3    0    1
 -2      4983      3282      4368      3349
 -1     22416    3    0    1
 -2      9380      6517      9092      6547
 -1     22417    3    0    1
 -2      6638      8355      6747      9463
 -1     22418    3    0    1
 -2      3558       606       215      2923
 -1     22419    3    0    1
 -2      7921      7400      6554      6596
 -1     22420    3    0    1
 -2        37        38        36      1464
 -1     22421    3    0    1
 -2      8555      7692      9495      9518
 -1     22422    3    0    1
 -2      9334      8115      7695      6125
 -1     22423    3    0    1
 -2       938       500       478      2772
 -1     22424    3    0    1
 -2      2458      1866       644      2968
 -1     22425    3    0    1
 -2       813      1508      1496      3262
 -1     22426    3    0    1
 -2      5955      9625      8329      6657
 -1     22427    3    0    1
 -2      1802      3540       567      2891
 -1     22428    3    0    1
 -2       906       908       907      2199
 -1     22429    3    0    1
 -2      8958      9238      8555      9647
 -1     22430    3    0    1
 -2      7774      7188      6167      7702
 -1     22431    3    0    1
 -2      8566      7697      7132      6131
 -1     22432    3    0    1
 -2      8073      7035      6997      8040
 -1     22433    3    0    1
 -2      2681      2179      2739      2740
 -1     22434    3    0    1
 -2      6113      6996      7092      9232
 -1     22435    3    0    1
 -2      6153      7168      7120      9326
 -1     22436    3    0    1
 -2      9344      9325      8128      9071
 -1     22437    3    0    1
 -2       136       179      2386      9675
 -1     22438    3    0    1
 -2      6986      9254      8062      8466
 -1     22439    3    0    1
 -2       203       609       232      3548
 -1     22440    3    0    1
 -2       146       148       147       564
 -1     22441    3    0    1
 -2       734       789      2040      1433
 -1     22442    3    0    1
 -2      1800      3538       185      3554
 -1     22443    3    0    1
 -2      8574      8575      7701      9352
 -1     22444    3    0    1
 -2      6767      6768      8348      6005
 -1     22445    3    0    1
 -2      4159      2929      4504      3017
 -1     22446    3    0    1
 -2      7705      8578      9299      9672
 -1     22447    3    0    1
 -2       197       539       167      2387
 -1     22448    3    0    1
 -2      9562      9575      7715      9357
 -1     22449    3    0    1
 -2       669       616       594      1130
 -1     22450    3    0    1
 -2       737      2009      1434      3230
 -1     22451    3    0    1
 -2       144       143       145      2938
 -1     22452    3    0    1
 -2      9441      7919      9422      9638
 -1     22453    3    0    1
 -2      2946      2947       163      2922
 -1     22454    3    0    1
 -2      7191      8187      8620      6203
 -1     22455    3    0    1
 -2      1184      1143       639      1859
 -1     22456    3    0    1
 -2      3226      1413      2640      2626
 -1     22457    3    0    1
 -2      2941      1149       562      2939
 -1     22458    3    0    1
 -2      8872      7091      8070      9231
 -1     22459    3    0    1
 -2       368       367       280      2150
 -1     22460    3    0    1
 -2       144       143      2938       183
 -1     22461    3    0    1
 -2      3230       790       705      2579
 -1     22462    3    0    1
 -2      8050      9250      9527      8558
 -1     22463    3    0    1
 -2      5965      5643      5964      6623
 -1     22464    3    0    1
 -2      8359      8325      6614      6652
 -1     22465    3    0    1
 -2      7973      7960      9194      9204
 -1     22466    3    0    1
 -2       645       239       678      1218
 -1     22467    3    0    1
 -2      8580      8988      9354      7709
 -1     22468    3    0    1
 -2      9559      8601      9582      9572
 -1     22469    3    0    1
 -2      8261      8699      8674      9077
 -1     22470    3    0    1
 -2      6585      9415      9591      9387
 -1     22471    3    0    1
 -2      9573      9355      8990      8124
 -1     22472    3    0    1
 -2      9513      7092      8949      9488
 -1     22473    3    0    1
 -2      8943      8091      8546      9228
 -1     22474    3    0    1
 -2       550       599      2905      2965
 -1     22475    3    0    1
 -2       531      1127       228       578
 -1     22476    3    0    1
 -2      5928      7352      6609      5896
 -1     22477    3    0    1
 -2      6561      9120      9108      9400
 -1     22478    3    0    1
 -2      8593      8595      7722      9564
 -1     22479    3    0    1
 -2      7669      8101      8506      8927
 -1     22480    3    0    1
 -2      1206      3042      2452      2946
 -1     22481    3    0    1
 -2      2450       640      1237      3018
 -1     22482    3    0    1
 -2      3312      2249      2205      2780
 -1     22483    3    0    1
 -2      9311      9343      9573      8583
 -1     22484    3    0    1
 -2      8708      5946      7934      6590
 -1     22485    3    0    1
 -2      2665      2595      3742      3786
 -1     22486    3    0    1
 -2      1437      2153       360      9668
 -1     22487    3    0    1
 -2        77       403       456       402
 -1     22488    3    0    1
 -2       553       517      1002      2931
 -1     22489    3    0    1
 -2       780       341       750      3242
 -1     22490    3    0    1
 -2      2183      3271      2184      2772
 -1     22491    3    0    1
 -2      1800       185       604      3554
 -1     22492    3    0    1
 -2      6596      7921      7962      6739
 -1     22493    3    0    1
 -2      2679       822      1458      2727
 -1     22494    3    0    1
 -2       269       621       238      2961
 -1     22495    3    0    1
 -2      7914      6588      7404      6537
 -1     22496    3    0    1
 -2      9391      7880      6591      7916
 -1     22497    3    0    1
 -2      1942      1974      1256      2543
 -1     22498    3    0    1
 -2      8170      6247      7775      8672
 -1     22499    3    0    1
 -2      7640      8049      9495      7639
 -1     22500    3    0    1
 -2      2339      3443      3464      3487
 -1     22501    3    0    1
 -2      4367      3347      3895      4392
 -1     22502    3    0    1
 -2      3124      2611      3758      3759
 -1     22503    3    0    1
 -2      3435      1742      2408      2407
 -1     22504    3    0    1
 -2      8309      6625      5909      9086
 -1     22505    3    0    1
 -2      6614      5612      6755      6652
 -1     22506    3    0    1
 -2      7678      7640      7081      6090
 -1     22507    3    0    1
 -2      6176      7177      7123      7788
 -1     22508    3    0    1
 -2      6585      9415      9617      9591
 -1     22509    3    0    1
 -2      3031       627      1197      2977
 -1     22510    3    0    1
 -2      2933      2480      3025      3627
 -1     22511    3    0    1
 -2      8805      8773      6691      5956
 -1     22512    3    0    1
 -2       618       237       676      2442
 -1     22513    3    0    1
 -2      9426      6601      9616      9399
 -1     22514    3    0    1
 -2        52       467      1549       426
 -1     22515    3    0    1
 -2      8589      7716      7715      9575
 -1     22516    3    0    1
 -2      7170      7697      9032      6130
 -1     22517    3    0    1
 -2       818       894       459      1472
 -1     22518    3    0    1
 -2      9045      6128      7805      8165
 -1     22519    3    0    1
 -2        52       804       426      1549
 -1     22520    3    0    1
 -2      9306      9047      9033      7133
 -1     22521    3    0    1
 -2      2778       109       921      2192
 -1     22522    3    0    1
 -2       435       103       473      2163
 -1     22523    3    0    1
 -2      7102      9494      8957      7045
 -1     22524    3    0    1
 -2      9042      9324      9011      8143
 -1     22525    3    0    1
 -2      9105      6601      9587      7358
 -1     22526    3    0    1
 -2      8163      7175      7800      9346
 -1     22527    3    0    1
 -2      6635      5962      6743      7909
 -1     22528    3    0    1
 -2      9500      7683      8034      8940
 -1     22529    3    0    1
 -2      2737      2266       497      2239
 -1     22530    3    0    1
 -2      8805      6729      6691      7475
 -1     22531    3    0    1
 -2       648      3026      3006      9675
 -1     22532    3    0    1
 -2       488        77       456       402
 -1     22533    3    0    1
 -2      7079      7689      8043      7004
 -1     22534    3    0    1
 -2      8580      9354      8581      7710
 -1     22535    3    0    1
 -2      2622      2108      2074      2073
 -1     22536    3    0    1
 -2       100        99       427       468
 -1     22537    3    0    1
 -2      8807      9418      7897      6606
 -1     22538    3    0    1
 -2      3233      3195      2142      3232
 -1     22539    3    0    1
 -2      3290      2216      3316      2786
 -1     22540    3    0    1
 -2      4619      5180      4620      4930
 -1     22541    3    0    1
 -2      1309       790      3251      2579
 -1     22542    3    0    1
 -2      2862      1006      1675      2932
 -1     22543    3    0    1
 -2      3196      4270      3744      3240
 -1     22544    3    0    1
 -2      9657      8971      8972      9502
 -1     22545    3    0    1
 -2       789       282       734      2040
 -1     22546    3    0    1
 -2      9433      8359      8325      6614
 -1     22547    3    0    1
 -2      9393      9103      7355      7872
 -1     22548    3    0    1
 -2      5929      6610      7342      5569
 -1     22549    3    0    1
 -2      2450       638       207      2929
 -1     22550    3    0    1
 -2      2467      4200      3087      2502
 -1     22551    3    0    1
 -2      2681      3330      2767      2740
 -1     22552    3    0    1
 -2      2171      3260      2230      2229
 -1     22553    3    0    1
 -2      5924      7308      9099      6508
 -1     22554    3    0    1
 -2      3526      1051       192      3556
 -1     22555    3    0    1
 -2      8961      8979      9649      8556
 -1     22556    3    0    1
 -2      3836      4272      3198      3837
 -1     22557    3    0    1
 -2        34       117        32      1463
 -1     22558    3    0    1
 -2      4068      4094      3484      2951
 -1     22559    3    0    1
 -2      7076      6997      7650      8073
 -1     22560    3    0    1
 -2       134       517       178      2353
 -1     22561    3    0    1
 -2       173       598       208      3532
 -1     22562    3    0    1
 -2      7205      6268      7182      8175
 -1     22563    3    0    1
 -2      6104      8887      9225      6919
 -1     22564    3    0    1
 -2      5945      7405      9451      7390
 -1     22565    3    0    1
 -2      8537      9250      8888      6120
 -1     22566    3    0    1
 -2      9039      7796      7192      6275
 -1     22567    3    0    1
 -2      7463      9643      9470      7408
 -1     22568    3    0    1
 -2      8866      9250      8050      7623
 -1     22569    3    0    1
 -2      2983       572      1123      2912
 -1     22570    3    0    1
 -2      3806      3148      3822      3805
 -1     22571    3    0    1
 -2      3003       165      2949      2923
 -1     22572    3    0    1
 -2       111        16        18      1453
 -1     22573    3    0    1
 -2      2702       428      2785      2176
 -1     22574    3    0    1
 -2      7305      6442      6387      7273
 -1     22575    3    0    1
 -2      7972      7973      9204      6733
 -1     22576    3    0    1
 -2      1024       153       155      2910
 -1     22577    3    0    1
 -2      3535      3026       648      9675
 -1     22578    3    0    1
 -2      7908      7403      8340      9443
 -1     22579    3    0    1
 -2      3186      1445      2652      3156
 -1     22580    3    0    1
 -2      6247      7213      7775      8672
 -1     22581    3    0    1
 -2      7916      5551      6506      5947
 -1     22582    3    0    1
 -2      7879      7282      6487      8685
 -1     22583    3    0    1
 -2      2647      3215      3788      3201
 -1     22584    3    0    1
 -2       173       546       598      3532
 -1     22585    3    0    1
 -2      7702      7188      5467      9037
 -1     22586    3    0    1
 -2       824      3269      2237      2177
 -1     22587    3    0    1
 -2        64        62      1466      1465
 -1     22588    3    0    1
 -2      7168      6153      7715      9326
 -1     22589    3    0    1
 -2      2178      2266      2737      2239
 -1     22590    3    0    1
 -2       812        73       108      1468
 -1     22591    3    0    1
 -2      1215       618       676      2442
 -1     22592    3    0    1
 -2      1442      2157       289      2598
 -1     22593    3    0    1
 -2      1431      2650      3180      2138
 -1     22594    3    0    1
 -2      2250       889       417      2743
 -1     22595    3    0    1
 -2      2650      3180       723      1431
 -1     22596    3    0    1
 -2       706      3195      1341      3708
 -1     22597    3    0    1
 -2      7786      9042      9056      6257
 -1     22598    3    0    1
 -2      3576      1127      3040      3557
 -1     22599    3    0    1
 -2      7796      9039      7770      6275
 -1     22600    3    0    1
 -2       259       614       664      3556
 -1     22601    3    0    1
 -2       149       151      1019       528
 -1     22602    3    0    1
 -2      7694      8563      9579      8562
 -1     22603    3    0    1
 -2      2731      2184      3271      2772
 -1     22604    3    0    1
 -2      8098      9236      9247      7638
 -1     22605    3    0    1
 -2      2145       747       290      1441
 -1     22606    3    0    1
 -2      9235      8044      8057      7616
 -1     22607    3    0    1
 -2      7160      9062      6128      6129
 -1     22608    3    0    1
 -2      2347       125      1042      2928
 -1     22609    3    0    1
 -2       395        13        87      1451
 -1     22610    3    0    1
 -2      7743      9054      8637      6146
 -1     22611    3    0    1
 -2      3242      3716      2600      2046
 -1     22612    3    0    1
 -2      3013       665      1204      1920
 -1     22613    3    0    1
 -2      9322      9008      7192      9039
 -1     22614    3    0    1
 -2       402       456       488      2165
 -1     22615    3    0    1
 -2      9108      9591      9360      7857
 -1     22616    3    0    1
 -2      7921      7962      6633      6596
 -1     22617    3    0    1
 -2      3242      3257      2600      4298
 -1     22618    3    0    1
 -2      9469      9192      9621      6626
 -1     22619    3    0    1
 -2      2885      2884       547      2961
 -1     22620    3    0    1
 -2      2671      3205      2670      1349
 -1     22621    3    0    1
 -2      7913      7954      9148      9173
 -1     22622    3    0    1
 -2      3531      2450       207      2929
 -1     22623    3    0    1
 -2      1309       790      2675      3251
 -1     22624    3    0    1
 -2      2166      2732      3846      1452
 -1     22625    3    0    1
 -2      9527      9651      9497      8050
 -1     22626    3    0    1
 -2       463        24       422      2171
 -1     22627    3    0    1
 -2      1140       535      3558      2948
 -1     22628    3    0    1
 -2      1051      1081      3556      2895
 -1     22629    3    0    1
 -2       285      1446      3780      9668
 -1     22630    3    0    1
 -2      2928      1042      2347      1694
 -1     22631    3    0    1
 -2      7696      9568      8564      8565
 -1     22632    3    0    1
 -2      2912      4033      2911      2872
 -1     22633    3    0    1
 -2      2677       813      1496      3262
 -1     22634    3    0    1
 -2      2357       985       508      2888
 -1     22635    3    0    1
 -2      9575      7715      8589      9562
 -1     22636    3    0    1
 -2      2940      2460      3553      3007
 -1     22637    3    0    1
 -2       893       894      2234      2693
 -1     22638    3    0    1
 -2      3452       561       560      2939
 -1     22639    3    0    1
 -2       938       811        65      2185
 -1     22640    3    0    1
 -2       200      2954      3548      2454
 -1     22641    3    0    1
 -2      7018      7628      8890      7017
 -1     22642    3    0    1
 -2      1539       928       460      2234
 -1     22643    3    0    1
 -2      2994      3510      2388      3462
 -1     22644    3    0    1
 -2      7347      5953      6553      7874
 -1     22645    3    0    1
 -2      9118      9386      6620      9096
 -1     22646    3    0    1
 -2      3809      3212      3180      1332
 -1     22647    3    0    1
 -2      2114       355       724      1335
 -1     22648    3    0    1
 -2      2724       456       488      2745
 -1     22649    3    0    1
 -2      8408      7565      8829      6792
 -1     22650    3    0    1
 -2      2771      1504       914      2180
 -1     22651    3    0    1
 -2      7953      8824      9448      9200
 -1     22652    3    0    1
 -2      1460      2705      2704      2787
 -1     22653    3    0    1
 -2      9092      7835      6517      8711
 -1     22654    3    0    1
 -2       289       336       335      2157
 -1     22655    3    0    1
 -2      9361      9369      8307      9674
 -1     22656    3    0    1
 -2      2454       266       273      2469
 -1     22657    3    0    1
 -2      1816      1197       628      2977
 -1     22658    3    0    1
 -2      7342      7353      5929      5508
 -1     22659    3    0    1
 -2      9527      9651      8050      8557
 -1     22660    3    0    1
 -2      3330      2681      2767      3863
 -1     22661    3    0    1
 -2      6518      7395      6517      8711
 -1     22662    3    0    1
 -2      2788       826       434      2738
 -1     22663    3    0    1
 -2      9664      9607      6635      6582
 -1     22664    3    0    1
 -2      7188      6134      6167      7702
 -1     22665    3    0    1
 -2       207       218       268      2450
 -1     22666    3    0    1
 -2       397      2176       427       428
 -1     22667    3    0    1
 -2        82        58        29       799
 -1     22668    3    0    1
 -2       706       284      3195      2142
 -1     22669    3    0    1
 -2      2155      2154       376      2614
 -1     22670    3    0    1
 -2      7939      9604      5951      7408
 -1     22671    3    0    1
 -2       269       621      2961      3000
 -1     22672    3    0    1
 -2      2694      2746       819      2695
 -1     22673    3    0    1
 -2      8872      5694      6064      8024
 -1     22674    3    0    1
 -2      3799      3798      3141      3816
 -1     22675    3    0    1
 -2      6173      9057      9071      7119
 -1     22676    3    0    1
 -2       677       268       218      2450
 -1     22677    3    0    1
 -2      8712      7837      5512      7873
 -1     22678    3    0    1
 -2       160       193       162      2922
 -1     22679    3    0    1
 -2       442       812       108      2246
 -1     22680    3    0    1
 -2      7949      7496      6728      7526
 -1     22681    3    0    1
 -2      2953      1054       199      2917
 -1     22682    3    0    1
 -2      1183      2957      3622      2442
 -1     22683    3    0    1
 -2      2943      2497       658      1883
 -1     22684    3    0    1
 -2      4240      2577      2091      4255
 -1     22685    3    0    1
 -2      7934      9403      8708      6590
 -1     22686    3    0    1
 -2      7400      6522      6616      6617
 -1     22687    3    0    1
 -2       575       614       576      3556
 -1     22688    3    0    1
 -2      6223      5460      5440      5802
 -1     22689    3    0    1
 -2      2735       462       900      2229
 -1     22690    3    0    1
 -2      7867      9089      7311      7342
 -1     22691    3    0    1
 -2      4815      4489      4068      4006
 -1     22692    3    0    1
 -2      8097      9284      9245      8955
 -1     22693    3    0    1
 -2      9579      9548      9350      8562
 -1     22694    3    0    1
 -2       161       163       261      2947
 -1     22695    3    0    1
 -2      7124      6266      6231      8647
 -1     22696    3    0    1
 -2      3121      2004      2005      3134
 -1     22697    3    0    1
 -2      9365      6599      7357      6490
 -1     22698    3    0    1
 -2      9433      9455      8359      6614
 -1     22699    3    0    1
 -2      1424      2666       748      2045
 -1     22700    3    0    1
 -2      6506      6591      7880      7916
 -1     22701    3    0    1
 -2      7882      9412      9606      5955
 -1     22702    3    0    1
 -2       690       673       267      1233
 -1     22703    3    0    1
 -2       101       824      2761      2237
 -1     22704    3    0    1
 -2      8556      8110      7641      7660
 -1     22705    3    0    1
 -2      5968      6725      5658      7914
 -1     22706    3    0    1
 -2       168       231       264      2453
 -1     22707    3    0    1
 -2      2709      2768      2241      2683
 -1     22708    3    0    1
 -2      7636      6081      7605      8091
 -1     22709    3    0    1
 -2      1437      2642      2661      9668
 -1     22710    3    0    1
 -2      2647       719       781      3201
 -1     22711    3    0    1
 -2        46        94       391      1457
 -1     22712    3    0    1
 -2      7711      7710      7770      6204
 -1     22713    3    0    1
 -2      2480      1910      1243      3025
 -1     22714    3    0    1
 -2       176       177       133      9669
 -1     22715    3    0    1
 -2      6503      7930      6589      9109
 -1     22716    3    0    1
 -2       284       706       707      2142
 -1     22717    3    0    1
 -2       155       153       529      2910
 -1     22718    3    0    1
 -2      3526       157      1051      2945
 -1     22719    3    0    1
 -2      2750       955      3346      1602
 -1     22720    3    0    1
 -2       191       158       258      3526
 -1     22721    3    0    1
 -2      9465      7404      9450      7914
 -1     22722    3    0    1
 -2      6205      8635      9067      6251
 -1     22723    3    0    1
 -2      6853      7975      6852      8427
 -1     22724    3    0    1
 -2      2936       523      3415      2935
 -1     22725    3    0    1
 -2      5627      4842      5672      5112
 -1     22726    3    0    1
 -2      1579      3308      3907      1578
 -1     22727    3    0    1
 -2      3242      2600      3716      4298
 -1     22728    3    0    1
 -2      8939      7682      7073      8034
 -1     22729    3    0    1
 -2      2345       542      2388       541
 -1     22730    3    0    1
 -2      6605      7390      7375      9390
 -1     22731    3    0    1
 -2      6601      6638      6747      9463
 -1     22732    3    0    1
 -2      9096      7357      6620      6491
 -1     22733    3    0    1
 -2      6236      7181      5784      5409
 -1     22734    3    0    1
 -2       645       644       601      2967
 -1     22735    3    0    1
 -2      7133      9306      8567      6131
 -1     22736    3    0    1
 -2      3241      3172      4297      3255
 -1     22737    3    0    1
 -2      9515      9491      8885      7097
 -1     22738    3    0    1
 -2      4700      4392      4366      4969
 -1     22739    3    0    1
 -2      9498      9540      9285      8964
 -1     22740    3    0    1
 -2       295       764      2671      1448
 -1     22741    3    0    1
 -2      9511      9510      8092      9259
 -1     22742    3    0    1
 -2      2641      2611      1435      2659
 -1     22743    3    0    1
 -2      8967      8113      8926      7110
 -1     22744    3    0    1
 -2       617       635      1805      1212
 -1     22745    3    0    1
 -2      7644      7074      5740      8061
 -1     22746    3    0    1
 -2      8733      7272      8238      7335
 -1     22747    3    0    1
 -2        57      2162      2178      2266
 -1     22748    3    0    1
 -2      6114      7039      6999      7096
 -1     22749    3    0    1
 -2      3922      2238      3290      2786
 -1     22750    3    0    1
 -2      8590      8163      9314      9359
 -1     22751    3    0    1
 -2      3517      2967      3550      9669
 -1     22752    3    0    1
 -2      7712      8997      9358      8636
 -1     22753    3    0    1
 -2       638      1132       207      2929
 -1     22754    3    0    1
 -2      7077      8095      9281      9503
 -1     22755    3    0    1
 -2      9352      8573      8574      9309
 -1     22756    3    0    1
 -2      1219       647      3006      2480
 -1     22757    3    0    1
 -2      7463      9455      7408      6614
 -1     22758    3    0    1
 -2      9578      9328      7718      9346
 -1     22759    3    0    1
 -2      8050      8557      8111      7663
 -1     22760    3    0    1
 -2      6554      7875      9395      9104
 -1     22761    3    0    1
 -2      8058      8112      7693      7053
 -1     22762    3    0    1
 -2      7279      8748      7348      8243
 -1     22763    3    0    1
 -2      6590      7934      9439      5956
 -1     22764    3    0    1
 -2      7788      7280      8227      7233
 -1     22765    3    0    1
 -2      2453       216       168      2387
 -1     22766    3    0    1
 -2      5460      5440      5441      5854
 -1     22767    3    0    1
 -2      9607      9445      6581      9444
 -1     22768    3    0    1
 -2      1508       446        85      1496
 -1     22769    3    0    1
 -2      6543      9111      6592      7897
 -1     22770    3    0    1
 -2      9570      9305      9336      7697
 -1     22771    3    0    1
 -2      9380      9611      9410      6614
 -1     22772    3    0    1
 -2      2182       830       438      2710
 -1     22773    3    0    1
 -2       220       238       621      2961
 -1     22774    3    0    1
 -2      7774      6272      8650      9066
 -1     22775    3    0    1
 -2      9496      9654      9520      8963
 -1     22776    3    0    1
 -2       526      3495      2938      3473
 -1     22777    3    0    1
 -2       295       297       296      1448
 -1     22778    3    0    1
 -2      6066      8097      7615      6967
 -1     22779    3    0    1
 -2      9036      7768      5809      9050
 -1     22780    3    0    1
 -2       107       832      2188      2244
 -1     22781    3    0    1
 -2      8195      9057      7777      5799
 -1     22782    3    0    1
 -2      7641      9649      9240      8556
 -1     22783    3    0    1
 -2      8360      6737      6711      6653
 -1     22784    3    0    1
 -2      7688      8105      9503      8042
 -1     22785    3    0    1
 -2       264       231       265      2453
 -1     22786    3    0    1
 -2      3351      4322      3326      2759
 -1     22787    3    0    1
 -2      8605      8573      7702      9037
 -1     22788    3    0    1
 -2      5813      6149      7150      6148
 -1     22789    3    0    1
 -2      7463      9455      6614      6651
 -1     22790    3    0    1
 -2       623       646       241      1867
 -1     22791    3    0    1
 -2       488       395        87      1451
 -1     22792    3    0    1
 -2       462       420        80      2169
 -1     22793    3    0    1
 -2      7847      8681      6442      8309
 -1     22794    3    0    1
 -2      5533      6522      7349      6616
 -1     22795    3    0    1
 -2      3252      3235      3234      3760
 -1     22796    3    0    1
 -2       752       762       720      2667
 -1     22797    3    0    1
 -2      8043      9492      9504      8954
 -1     22798    3    0    1
 -2      3031      1197       627      2462
 -1     22799    3    0    1
 -2       259      3526      3556      2465
 -1     22800    3    0    1
 -2      6152      9057      7173      7119
 -1     22801    3    0    1
 -2      8773      7934      8805      9439
 -1     22802    3    0    1
 -2       260      1128      1206      2946
 -1     22803    3    0    1
 -2      6895      8447      8408      7565
 -1     22804    3    0    1
 -2       225       186       147      2976
 -1     22805    3    0    1
 -2      1286      2036      1287      1981
 -1     22806    3    0    1
 -2       167       170       168      2387
 -1     22807    3    0    1
 -2      9182      8392      8833      6015
 -1     22808    3    0    1
 -2      5797      7171      6147      5796
 -1     22809    3    0    1
 -2       539       538       167      2915
 -1     22810    3    0    1
 -2       223       242       647      3006
 -1     22811    3    0    1
 -2      9452      9610      8345      9438
 -1     22812    3    0    1
 -2      3254      2145      2157      2598
 -1     22813    3    0    1
 -2      3532       620      2450      2959
 -1     22814    3    0    1
 -2        37        36        35      1464
 -1     22815    3    0    1
 -2       474       911       828       475
 -1     22816    3    0    1
 -2      9643      9633      9611      7408
 -1     22817    3    0    1
 -2      3026      1116       649      3028
 -1     22818    3    0    1
 -2      7685      7636      7089      9243
 -1     22819    3    0    1
 -2      2693       818       894      2168
 -1     22820    3    0    1
 -2      9483      8941      8089      9506
 -1     22821    3    0    1
 -2      7357      7364      6619      9671
 -1     22822    3    0    1
 -2       197       216       594      2989
 -1     22823    3    0    1
 -2      5970      6728      8802      7949
 -1     22824    3    0    1
 -2       720       293      3175      3201
 -1     22825    3    0    1
 -2       916       830      2791      2710
 -1     22826    3    0    1
 -2      7777      9042      7786      6257
 -1     22827    3    0    1
 -2      9481      8545      8939      9543
 -1     22828    3    0    1
 -2      1051       157       530      2945
 -1     22829    3    0    1
 -2      1753      1751      1752      2378
 -1     22830    3    0    1
 -2      1033      1034      1713      1704
 -1     22831    3    0    1
 -2      6486      6528      8270      6454
 -1     22832    3    0    1
 -2      7701      8576      9555      8575
 -1     22833    3    0    1
 -2      9118      6620      7840      9096
 -1     22834    3    0    1
 -2      1448      2671       295      1349
 -1     22835    3    0    1
 -2      5706      6119      6074      5361
 -1     22836    3    0    1
 -2      5360      5706      5337      5361
 -1     22837    3    0    1
 -2       290       745      3198      1441
 -1     22838    3    0    1
 -2       100        53        81       101
 -1     22839    3    0    1
 -2       417       503       889      2250
 -1     22840    3    0    1
 -2      7101      8956      9247      8098
 -1     22841    3    0    1
 -2      9486      8549      8970      9487
 -1     22842    3    0    1
 -2       660       256       214      1201
 -1     22843    3    0    1
 -2       508       138       136      9675
 -1     22844    3    0    1
 -2      7354      7312      5936      6511
 -1     22845    3    0    1
 -2      3245      3180      3767      3809
 -1     22846    3    0    1
 -2      2791      2233      2710      3881
 -1     22847    3    0    1
 -2       815       457      2733      2167
 -1     22848    3    0    1
 -2      8277      9367      9106      7358
 -1     22849    3    0    1
 -2      6638      6601      9616      9463
 -1     22850    3    0    1
 -2      9040      9311      8142      6147
 -1     22851    3    0    1
 -2      9623      9411      7397      5952
 -1     22852    3    0    1
 -2      6587      5889      6500      8729
 -1     22853    3    0    1
 -2       193       531       162      2922
 -1     22854    3    0    1
 -2      7167      8638      9041      6149
 -1     22855    3    0    1
 -2      7375      7390      5945      9389
 -1     22856    3    0    1
 -2      7683      7073      8034      8940
 -1     22857    3    0    1
 -2      2931       517      1002      2353
 -1     22858    3    0    1
 -2      6235      7772      9060      7111
 -1     22859    3    0    1
 -2      5909      7847      8309      9086
 -1     22860    3    0    1
 -2      3222      3831      2653      3187
 -1     22861    3    0    1
 -2      8118      7732      7114      9035
 -1     22862    3    0    1
 -2      6611      7354      6511      5553
 -1     22863    3    0    1
 -2      7448      6718      9446      6620
 -1     22864    3    0    1
 -2       813       888        85      1508
 -1     22865    3    0    1
 -2      9105      7841      6494      5905
 -1     22866    3    0    1
 -2      4322      4321      3351      3326
 -1     22867    3    0    1
 -2      7075      7032      8093      7064
 -1     22868    3    0    1
 -2       533       579      2376      1712
 -1     22869    3    0    1
 -2      7115      8571      9351      9308
 -1     22870    3    0    1
 -2      1344      2122       777      1374
 -1     22871    3    0    1
 -2       198       200       199      2388
 -1     22872    3    0    1
 -2      6237      7130      6183      7159
 -1     22873    3    0    1
 -2       269       643       221       209
 -1     22874    3    0    1
 -2      4700      4728      4392      4969
 -1     22875    3    0    1
 -2      2211      3284       876      2261
 -1     22876    3    0    1
 -2      7854      9096      7840      6491
 -1     22877    3    0    1
 -2       278       279       277       768
 -1     22878    3    0    1
 -2      1055       544       205      1762
 -1     22879    3    0    1
 -2       440       500       499      3334
 -1     22880    3    0    1
 -2      2709      2241       828      2683
 -1     22881    3    0    1
 -2      2891      1019       566      2869
 -1     22882    3    0    1
 -2      9342      9558      9354      8582
 -1     22883    3    0    1
 -2      9361      7913      6499      8727
 -1     22884    3    0    1
 -2      6585      9415      9200      9617
 -1     22885    3    0    1
 -2      9592      9370      9369      8307
 -1     22886    3    0    1
 -2      8019      7628      7018      7584
 -1     22887    3    0    1
 -2      3195       284       773      2142
 -1     22888    3    0    1
 -2      1433       734       735      3139
 -1     22889    3    0    1
 -2      9111      7864      5911      7360
 -1     22890    3    0    1
 -2      3747      2666      2035      2018
 -1     22891    3    0    1
 -2      1458       930        94      1457
 -1     22892    3    0    1
 -2      7156      7177      7803      9348
 -1     22893    3    0    1
 -2      7723      8595      9329      9348
 -1     22894    3    0    1
 -2       707       773       284      2142
 -1     22895    3    0    1
 -2      7772      7694      8114      6163
 -1     22896    3    0    1
 -2       175       599      2962      2905
 -1     22897    3    0    1
 -2      7708      8170      7775      9341
 -1     22898    3    0    1
 -2      9587      9399      6601      9105
 -1     22899    3    0    1
 -2       259       158       192      3526
 -1     22900    3    0    1
 -2      9181      7939      7961      5683
 -1     22901    3    0    1
 -2      8551      8043      7097      7079
 -1     22902    3    0    1
 -2      1048      1068       559      1730
 -1     22903    3    0    1
 -2      4744      5468      4756      5451
 -1     22904    3    0    1
 -2      2550      1974      2543      1975
 -1     22905    3    0    1
 -2      5480      4763      5006      5061
 -1     22906    3    0    1
 -2      8590      8163      6262      9043
 -1     22907    3    0    1
 -2      9657      8971      9502      9526
 -1     22908    3    0    1
 -2      3148      3805      2097      2082
 -1     22909    3    0    1
 -2      9503      7077      7611      8907
 -1     22910    3    0    1
 -2      6239      7160      5779      6129
 -1     22911    3    0    1
 -2       460        93       491       928
 -1     22912    3    0    1
 -2      8625      9335      9304      7112
 -1     22913    3    0    1
 -2      9198      8793      8821      9445
 -1     22914    3    0    1
 -2      6133      6197      8629      7186
 -1     22915    3    0    1
 -2      8389      6709      7531      7436
 -1     22916    3    0    1
 -2      9334      9316      8115      6125
 -1     22917    3    0    1
 -2      8014      8046      9223      7638
 -1     22918    3    0    1
 -2      7390      6605      9438      9610
 -1     22919    3    0    1
 -2      7113      9317      7730      6129
 -1     22920    3    0    1
 -2      5171      5337      5345      5361
 -1     22921    3    0    1
 -2      1034       535       534      1713
 -1     22922    3    0    1
 -2      9012      7120      7778      9058
 -1     22923    3    0    1
 -2      9276      8070      8947      9231
 -1     22924    3    0    1
 -2      3837      3254      4272      2598
 -1     22925    3    0    1
 -2      7893      6585      6562      9083
 -1     22926    3    0    1
 -2      7703      7704      8576      9339
 -1     22927    3    0    1
 -2      9450      9175      9465      7914
 -1     22928    3    0    1
 -2       521       602      1135      2908
 -1     22929    3    0    1
 -2      9625      7907      9606      5955
 -1     22930    3    0    1
 -2      3805      3806      3148      2098
 -1     22931    3    0    1
 -2      1127       228       615       229
 -1     22932    3    0    1
 -2      9261      7648      7031      8474
 -1     22933    3    0    1
 -2      8113      8926      9273      8967
 -1     22934    3    0    1
 -2      8043      9491      9492      8551
 -1     22935    3    0    1
 -2       259       576       614      3556
 -1     22936    3    0    1
 -2      3043      3558      3638      3637
 -1     22937    3    0    1
 -2       239       645       210      9669
 -1     22938    3    0    1
 -2      7168      9326      9357      9058
 -1     22939    3    0    1
 -2      9339      7704      8576      9555
 -1     22940    3    0    1
 -2      6046      5696      6045      6823
 -1     22941    3    0    1
 -2      7710      9558      8581      8582
 -1     22942    3    0    1
 -2      9419      9113      9406      6608
 -1     22943    3    0    1
 -2       310       309       308       359
 -1     22944    3    0    1
 -2      5643      5965      6722      6623
 -1     22945    3    0    1
 -2      8058      8922      9479      7084
 -1     22946    3    0    1
 -2       281       282       789      2150
 -1     22947    3    0    1
 -2      7685      8546      9242      9485
 -1     22948    3    0    1
 -2      5370      5784      7181      5409
 -1     22949    3    0    1
 -2      7698      6165      6132      9034
 -1     22950    3    0    1
 -2       101       824       905      2761
 -1     22951    3    0    1
 -2      8144      7753      7121      9027
 -1     22952    3    0    1
 -2      8034      9482      9500      8940
 -1     22953    3    0    1
 -2      5973      6648      6751      5316
 -1     22954    3    0    1
 -2       513       514      2884      2905
 -1     22955    3    0    1
 -2      7972      7973      8411      9204
 -1     22956    3    0    1
 -2      9098      9099      8693      7865
 -1     22957    3    0    1
 -2       215       262       667      1228
 -1     22958    3    0    1
 -2      7813      8161      8192      6254
 -1     22959    3    0    1
 -2       700       300       364      2148
 -1     22960    3    0    1
 -2       936       911       971      2768
 -1     22961    3    0    1
 -2      9249      9494      7102      7045
 -1     22962    3    0    1
 -2      4809      4477      4496      4447
 -1     22963    3    0    1
 -2       207       268       638      2450
 -1     22964    3    0    1
 -2       380       747       288      2145
 -1     22965    3    0    1
 -2       190       530       157      2945
 -1     22966    3    0    1
 -2      9172      7968      7953      9200
 -1     22967    3    0    1
 -2      6308      7114      6193      9035
 -1     22968    3    0    1
 -2      5944      7333      7862      6538
 -1     22969    3    0    1
 -2      1131       585      2916      2379
 -1     22970    3    0    1
 -2      3260      3267      2230      2229
 -1     22971    3    0    1
 -2      6103      7103      7045      7006
 -1     22972    3    0    1
 -2      6931      6952      6078      7603
 -1     22973    3    0    1
 -2      6198      6272      6137      8632
 -1     22974    3    0    1
 -2      8114      9030      9060      7111
 -1     22975    3    0    1
 -2       753      3203      3202      1288
 -1     22976    3    0    1
 -2      2056      2006      1355      3158
 -1     22977    3    0    1
 -2      2727       930      1473       822
 -1     22978    3    0    1
 -2      8547      7686      7637      8092
 -1     22979    3    0    1
 -2      9495      9238      8555      9518
 -1     22980    3    0    1
 -2      1611       972       973      2771
 -1     22981    3    0    1
 -2      5097      5981      4830      5109
 -1     22982    3    0    1
 -2      9536      8975      8954      8107
 -1     22983    3    0    1
 -2      7951      5652      8821      7978
 -1     22984    3    0    1
 -2      2179      2681      2767      2740
 -1     22985    3    0    1
 -2      8051      6105      7013      6096
 -1     22986    3    0    1
 -2      8813      9155      9180      7902
 -1     22987    3    0    1
 -2       110        76       392      1469
 -1     22988    3    0    1
 -2      3149      3691      4590      2543
 -1     22989    3    0    1
 -2      9252      9286      8967      7110
 -1     22990    3    0    1
 -2      3236       761       760      3777
 -1     22991    3    0    1
 -2      7879      9607      6582      9363
 -1     22992    3    0    1
 -2      7305      6442      8681      8309
 -1     22993    3    0    1
 -2      1213       672      2455      1264
 -1     22994    3    0    1
 -2      9142      9459      9625      5955
 -1     22995    3    0    1
 -2      5343      5180      4619      4930
 -1     22996    3    0    1
 -2       609       541      2994      2388
 -1     22997    3    0    1
 -2      8442      7562      8872      8024
 -1     22998    3    0    1
 -2      8307      9370      8689      8729
 -1     22999    3    0    1
 -2      9036      5809      7773      9050
 -1     23000    3    0    1
 -2      2188       832       107      2189
 -1     23001    3    0    1
 -2      4662      4631      3745      4678
 -1     23002    3    0    1
 -2       532       533       579      2376
 -1     23003    3    0    1
 -2       346       753       721       347
 -1     23004    3    0    1
 -2      3195       772       693      2658
 -1     23005    3    0    1
 -2       802       113       112      1539
 -1     23006    3    0    1
 -2      9109      6537      7861      9371
 -1     23007    3    0    1
 -2      7091      5745      6064      8872
 -1     23008    3    0    1
 -2      8566      9570      9581      7697
 -1     23009    3    0    1
 -2       888       943       487      1508
 -1     23010    3    0    1
 -2        56       116      1460      2266
 -1     23011    3    0    1
 -2      8890      8438      8453      7628
 -1     23012    3    0    1
 -2      7355      6520      8698      7317
 -1     23013    3    0    1
 -2       346       794       349      2159
 -1     23014    3    0    1
 -2      3758      3774      4308      3759
 -1     23015    3    0    1
 -2      9476      5950      9440      9670
 -1     23016    3    0    1
 -2       513       999       131      2905
 -1     23017    3    0    1
 -2      3064      2468       265      2990
 -1     23018    3    0    1
 -2      9502      8971      8550      9526
 -1     23019    3    0    1
 -2      2990       265      3064      1210
 -1     23020    3    0    1
 -2       107       919       483      2245
 -1     23021    3    0    1
 -2        91       111        17      1453
 -1     23022    3    0    1
 -2      9523      8983      8966      8112
 -1     23023    3    0    1
 -2      8116      7698      6132      9034
 -1     23024    3    0    1
 -2      9139      9431      9180      6612
 -1     23025    3    0    1
 -2      8545      8939      7073      8034
 -1     23026    3    0    1
 -2       326       376      2154      2614
 -1     23027    3    0    1
 -2      6605      7390      9390      9610
 -1     23028    3    0    1
 -2      1713       535      1032      2948
 -1     23029    3    0    1
 -2      2970      1220       247      2935
 -1     23030    3    0    1
 -2      9294      9493      8976      9659
 -1     23031    3    0    1
 -2       649      1871      3026      3028
 -1     23032    3    0    1
 -2      1805      2992      3065      1212
 -1     23033    3    0    1
 -2      4622      5700      5161      5160
 -1     23034    3    0    1
 -2      7084      8058      8922      6075
 -1     23035    3    0    1
 -2      9273      9541      8113      8967
 -1     23036    3    0    1
 -2       313       772       693      3195
 -1     23037    3    0    1
 -2      9250      6120      7106      7622
 -1     23038    3    0    1
 -2      6238      7112      8625      6127
 -1     23039    3    0    1
 -2      9427      9173      9464      9674
 -1     23040    3    0    1
 -2      6081      7636      7684      8091
 -1     23041    3    0    1
 -2      4831      5600      4830      5601
 -1     23042    3    0    1
 -2      9398      9386      9608      9671
 -1     23043    3    0    1
 -2      9551      9550      9581      8566
 -1     23044    3    0    1
 -2      5139      5620      4849      5319
 -1     23045    3    0    1
 -2      6236      7181      6125      5784
 -1     23046    3    0    1
 -2        85       813      1508      1496
 -1     23047    3    0    1
 -2      9407      9630      9440      9670
 -1     23048    3    0    1
 -2       456       402      1471      2165
 -1     23049    3    0    1
 -2      1466       938       104      1465
 -1     23050    3    0    1
 -2      7650      6997      6100      8041
 -1     23051    3    0    1
 -2      9323      9053      9054      8123
 -1     23052    3    0    1
 -2      6999      7000      9221      8874
 -1     23053    3    0    1
 -2      4622      4285      3763      4666
 -1     23054    3    0    1
 -2      2750      3851      2170      2735
 -1     23055    3    0    1
 -2      9113      6608      9600      9670
 -1     23056    3    0    1
 -2      7402      9381      9605      7872
 -1     23057    3    0    1
 -2       646       623      3052      3023
 -1     23058    3    0    1
 -2      8573      8574      7701      9352
 -1     23059    3    0    1
 -2      9360      6497      8701      7857
 -1     23060    3    0    1
 -2      6720      7573      5655      6777
 -1     23061    3    0    1
 -2      3661      1866      1217      2458
 -1     23062    3    0    1
 -2      6616      6597      7349      5533
 -1     23063    3    0    1
 -2      9176      6726      6624      7948
 -1     23064    3    0    1
 -2      8694      7867      9089      7287
 -1     23065    3    0    1
 -2      5777      5761      5365      5209
 -1     23066    3    0    1
 -2      1539       802       819      1455
 -1     23067    3    0    1
 -2      9453      9166      7916      9177
 -1     23068    3    0    1
 -2      9624      7400      9457      9474
 -1     23069    3    0    1
 -2       489        89       927      2732
 -1     23070    3    0    1
 -2      2641      2119       759      3758
 -1     23071    3    0    1
 -2      7717      6262      7174      9043
 -1     23072    3    0    1
 -2      7045      8553      7102      7080
 -1     23073    3    0    1
 -2       554      1112       623      2930
 -1     23074    3    0    1
 -2      8654      8638      9041      7167
 -1     23075    3    0    1
 -2       442       812      2246      2190
 -1     23076    3    0    1
 -2      1426       355      2673      1350
 -1     23077    3    0    1
 -2      7069      9267      8535      7678
 -1     23078    3    0    1
 -2      4904      4620      5180      4930
 -1     23079    3    0    1
 -2       839       876      3284      2700
 -1     23080    3    0    1
 -2       125      2918      3531      2929
 -1     23081    3    0    1
 -2      3945      2852      1635      3985
 -1     23082    3    0    1
 -2      6625      9137      6605      9390
 -1     23083    3    0    1
 -2      5719      6948      6075      5777
 -1     23084    3    0    1
 -2      7143      7705      7775      9672
 -1     23085    3    0    1
 -2      9378      9379      7877      6573
 -1     23086    3    0    1
 -2      2731      2686      2185      2730
 -1     23087    3    0    1
 -2        71       443       812       442
 -1     23088    3    0    1
 -2      9089      9115      7311      7342
 -1     23089    3    0    1
 -2      8089      8895      9483      9506
 -1     23090    3    0    1
 -2      2148      1338      2653      3248
 -1     23091    3    0    1
 -2      9350      9579      7694      7772
 -1     23092    3    0    1
 -2      8073      8104      7035      8040
 -1     23093    3    0    1
 -2      1123       660       573      2983
 -1     23094    3    0    1
 -2      8602      7120      9012      9326
 -1     23095    3    0    1
 -2      2727      2173       930      1457
 -1     23096    3    0    1
 -2       731      1410      2653      3222
 -1     23097    3    0    1
 -2      9192      7406      6626      7453
 -1     23098    3    0    1
 -2      7953      6585      5995      9172
 -1     23099    3    0    1
 -2       210      2967       133      9669
 -1     23100    3    0    1
 -2      8872      6064      5694      7574
 -1     23101    3    0    1
 -2      9504      9234      8043      7689
 -1     23102    3    0    1
 -2      7835      6516      6517      8711
 -1     23103    3    0    1
 -2      9372      9390      7390      9610
 -1     23104    3    0    1
 -2       248       590       143      2460
 -1     23105    3    0    1
 -2       927       926       489      2732
 -1     23106    3    0    1
 -2       760       761      1369      3777
 -1     23107    3    0    1
 -2      9103      8698      7355      7872
 -1     23108    3    0    1
 -2       461       895      1583      2746
 -1     23109    3    0    1
 -2      7098      7079      6116      7004
 -1     23110    3    0    1
 -2      7943      8789      8361      7441
 -1     23111    3    0    1
 -2      7338      9373      7880      6590
 -1     23112    3    0    1
 -2      6719      9146      9426      9169
 -1     23113    3    0    1
 -2      9246      9235      8057      7616
 -1     23114    3    0    1
 -2      8721      6599      9365      6490
 -1     23115    3    0    1
 -2      2785      2759       904      2702
 -1     23116    3    0    1
 -2      2996      1142      1055      2955
 -1     23117    3    0    1
 -2        90       801       815      1453
 -1     23118    3    0    1
 -2      6614      7408      7463      6651
 -1     23119    3    0    1
 -2      2725      2250      1450      3321
 -1     23120    3    0    1
 -2      3236       760      1312      3777
 -1     23121    3    0    1
 -2      9250      8866      8877      7622
 -1     23122    3    0    1
 -2      6198      5850      7794      8216
 -1     23123    3    0    1
 -2       456       455       488      2745
 -1     23124    3    0    1
 -2      1019       566       152       187
 -1     23125    3    0    1
 -2       250       562      1149      2939
 -1     23126    3    0    1
 -2       839      3284      2211      2700
 -1     23127    3    0    1
 -2       237       618      1807      2442
 -1     23128    3    0    1
 -2        33        34        32      1463
 -1     23129    3    0    1
 -2       290       714       288      2145
 -1     23130    3    0    1
 -2      7174      5474      5801      9043
 -1     23131    3    0    1
 -2      1261      1978      1977      1895
 -1     23132    3    0    1
 -2      3594      2540      1937      1936
 -1     23133    3    0    1
 -2      8872      6064      6994      8024
 -1     23134    3    0    1
 -2      4006      4068      4815      4502
 -1     23135    3    0    1
 -2      7358      9368      8263      7300
 -1     23136    3    0    1
 -2      7352      9113      7353      6608
 -1     23137    3    0    1
 -2      2788      3862       826      2738
 -1     23138    3    0    1
 -2      6997      8011      8041      8884
 -1     23139    3    0    1
 -2       497        57       470      2266
 -1     23140    3    0    1
 -2      9331      8632      7703      9339
 -1     23141    3    0    1
 -2      3679      2437      2466      1846
 -1     23142    3    0    1
 -2      9350      8114      8985      9060
 -1     23143    3    0    1
 -2      3548      2954       200      2388
 -1     23144    3    0    1
 -2      4401      3868      4716      4379
 -1     23145    3    0    1
 -2      6988      7089      7636      9243
 -1     23146    3    0    1
 -2      2908       520      1697      2863
 -1     23147    3    0    1
 -2      4960      5463      5222      5410
 -1     23148    3    0    1
 -2      6585      6497      6562      9083
 -1     23149    3    0    1
 -2      7700      6133      8629      8119
 -1     23150    3    0    1
 -2       513       129       514      2905
 -1     23151    3    0    1
 -2      1338       731      2653      3188
 -1     23152    3    0    1
 -2      2656      2040      2150      3796
 -1     23153    3    0    1
 -2      1400      3218      3169      1374
 -1     23154    3    0    1
 -2      8847      7950      8360      9472
 -1     23155    3    0    1
 -2       122       237      1807       123
 -1     23156    3    0    1
 -2      9595      9596      7880      6591
 -1     23157    3    0    1
 -2      9413      9614      6635      6582
 -1     23158    3    0    1
 -2      6604      5943      5934      6566
 -1     23159    3    0    1
 -2      8559      9566      9332      8146
 -1     23160    3    0    1
 -2      6160      7123      6175      7177
 -1     23161    3    0    1
 -2      3064       265      2468      1210
 -1     23162    3    0    1
 -2      6104      7633      8887      6919
 -1     23163    3    0    1
 -2      2622      2121      2108      2073
 -1     23164    3    0    1
 -2      8954      8043      9492      8107
 -1     23165    3    0    1
 -2      7697      7133      7132      6130
 -1     23166    3    0    1
 -2      3208      3229      1309      3162
 -1     23167    3    0    1
 -2      8583      8124      9573      8990
 -1     23168    3    0    1
 -2      2894      1024       155      2910
 -1     23169    3    0    1
 -2        85       487       446      1508
 -1     23170    3    0    1
 -2      8792      6658      6618      9414
 -1     23171    3    0    1
 -2      5909      6625      6605      9086
 -1     23172    3    0    1
 -2      2154      3209      2591      2614
 -1     23173    3    0    1
 -2      9318      9020      7732      9035
 -1     23174    3    0    1
 -2      5908      6566      7913      6499
 -1     23175    3    0    1
 -2      1461       826      3862      2738
 -1     23176    3    0    1
 -2      3013      1205       665      1920
 -1     23177    3    0    1
 -2      9553      8572      9351      9576
 -1     23178    3    0    1
 -2      6262      7175      8163      7718
 -1     23179    3    0    1
 -2       328       377       389      2155
 -1     23180    3    0    1
 -2      7243      6246      7812      9672
 -1     23181    3    0    1
 -2      7104      7639      5755      7640
 -1     23182    3    0    1
 -2      6561      6497      9360      7857
 -1     23183    3    0    1
 -2      5467      6134      7188      7702
 -1     23184    3    0    1
 -2      9345      7168      9575      9357
 -1     23185    3    0    1
 -2      9171      8772      7911      9447
 -1     23186    3    0    1
 -2      7057      8053      7110      7018
 -1     23187    3    0    1
 -2      8939      7682      9481      9280
 -1     23188    3    0    1
 -2      7689      7098      7066      7004
 -1     23189    3    0    1
 -2      3222      3223      3831      3187
 -1     23190    3    0    1
 -2      3809      3245      3180      3246
 -1     23191    3    0    1
 -2      3529      1714      2899      3508
 -1     23192    3    0    1
 -2       789       734       307      1433
 -1     23193    3    0    1
 -2      5395      6257      9042      6150
 -1     23194    3    0    1
 -2      6435      8699      8261      7838
 -1     23195    3    0    1
 -2      2141      1309       309      2674
 -1     23196    3    0    1
 -2      6128      9062      9317      6129
 -1     23197    3    0    1
 -2       863       451      1476      2239
 -1     23198    3    0    1
 -2      2664      2665      2595      1440
 -1     23199    3    0    1
 -2      7123      6175      5403      6160
 -1     23200    3    0    1
 -2      7864      9111      9112      7360
 -1     23201    3    0    1
 -2      9326      9301      8587      9357
 -1     23202    3    0    1
 -2      2155       327       328      2614
 -1     23203    3    0    1
 -2       350       794       348       755
 -1     23204    3    0    1
 -2       355       725       724      1335
 -1     23205    3    0    1
 -2      2040       282       280      2150
 -1     23206    3    0    1
 -2      2376       987      1712      2322
 -1     23207    3    0    1
 -2      7089      6988      8881      9243
 -1     23208    3    0    1
 -2      1784      1833       205      2399
 -1     23209    3    0    1
 -2      6216      8152      5831      5829
 -1     23210    3    0    1
 -2      2585      3125      3760      3165
 -1     23211    3    0    1
 -2       938        65       811      1466
 -1     23212    3    0    1
 -2      6997      9244      8011      8884
 -1     23213    3    0    1
 -2       700      1338      2148      1445
 -1     23214    3    0    1
 -2      9658      9492      8551      8107
 -1     23215    3    0    1
 -2      8373      7421      7525      8344
 -1     23216    3    0    1
 -2      1118       591       590      1119
 -1     23217    3    0    1
 -2      9153      9418      7897      8807
 -1     23218    3    0    1
 -2       935      2767       472       966
 -1     23219    3    0    1
 -2      4808      4484      5491      5275
 -1     23220    3    0    1
 -2      7912      7858      5908      9122
 -1     23221    3    0    1
 -2      9362      8751      9384      8310
 -1     23222    3    0    1
 -2      2756      2807      3942      1604
 -1     23223    3    0    1
 -2      8106      8952      9535      9490
 -1     23224    3    0    1
 -2      6589      6537      9371      9594
 -1     23225    3    0    1
 -2      8571      7115      8570      9308
 -1     23226    3    0    1
 -2      2650      2672       784      1349
 -1     23227    3    0    1
 -2      6222      6153      6154      7168
 -1     23228    3    0    1
 -2       224       249       183      2460
 -1     23229    3    0    1
 -2       101       806       824      2237
 -1     23230    3    0    1
 -2       147       605       225      2975
 -1     23231    3    0    1
 -2      7588      6109      7635      9255
 -1     23232    3    0    1
 -2      9151      9665      9389      7390
 -1     23233    3    0    1
 -2      7390      7375      9390      9372
 -1     23234    3    0    1
 -2      9227      9523      8936      8541
 -1     23235    3    0    1
 -2      2996       267       673      1233
 -1     23236    3    0    1
 -2      9074      8596      9000      7724
 -1     23237    3    0    1
 -2      2246      2796       442      2190
 -1     23238    3    0    1
 -2       258       257       191      3526
 -1     23239    3    0    1
 -2      8091      7088      7605      9241
 -1     23240    3    0    1
 -2      7175      8643      7800      9346
 -1     23241    3    0    1
 -2      3526       258       257      2465
 -1     23242    3    0    1
 -2       582       263       165      2949
 -1     23243    3    0    1
 -2      6592      6427      9111      6543
 -1     23244    3    0    1
 -2      6157      5802      5460      7175
 -1     23245    3    0    1
 -2        46        47        48      1458
 -1     23246    3    0    1
 -2      7313      9091      8710      6512
 -1     23247    3    0    1
 -2      1507      3309       924      1522
 -1     23248    3    0    1
 -2      8122      9008      7741      7192
 -1     23249    3    0    1
 -2      9056      7785      7786      6257
 -1     23250    3    0    1
 -2      7849      5893      6542      5895
 -1     23251    3    0    1
 -2      2920       147       186      2976
 -1     23252    3    0    1
 -2      1821       635      1177      1212
 -1     23253    3    0    1
 -2       780       793       341      3242
 -1     23254    3    0    1
 -2      1213       636       637      1806
 -1     23255    3    0    1
 -2       599      2962      2905      2965
 -1     23256    3    0    1
 -2       365       303       276      2140
 -1     23257    3    0    1
 -2      9335      7696      7112      6128
 -1     23258    3    0    1
 -2      8872      7562      5694      8024
 -1     23259    3    0    1
 -2      7548      6911      8011      8455
 -1     23260    3    0    1
 -2        91       111      1453      2733
 -1     23261    3    0    1
 -2      9344      9325      9574      8128
 -1     23262    3    0    1
 -2       900       462      2735      1584
 -1     23263    3    0    1
 -2      2480      1243       647      3025
 -1     23264    3    0    1
 -2       741       759      2028      3758
 -1     23265    3    0    1
 -2       590       525       143      2938
 -1     23266    3    0    1
 -2      2325      3950      2833      2292
 -1     23267    3    0    1
 -2      8876      9235      9246      7616
 -1     23268    3    0    1
 -2      6858      8437      7567      7583
 -1     23269    3    0    1
 -2       911       828       475      2709
 -1     23270    3    0    1
 -2       810        61        38      1464
 -1     23271    3    0    1
 -2      8861      8013      7631      7614
 -1     23272    3    0    1
 -2       905       962       961      1606
 -1     23273    3    0    1
 -2       670      2989       669      1130
 -1     23274    3    0    1
 -2      3491      4014      4423      4491
 -1     23275    3    0    1
 -2      8392      9182      5666      6015
 -1     23276    3    0    1
 -2      9390      9137      6605      9610
 -1     23277    3    0    1
 -2      9218      7593      8025      9219
 -1     23278    3    0    1
 -2      5440      5460      6223      5854
 -1     23279    3    0    1
 -2       786         8       275      1444
 -1     23280    3    0    1
 -2      9057      7777      5799      6173
 -1     23281    3    0    1
 -2      2085      2638      3177      2086
 -1     23282    3    0    1
 -2      9014      8594      7721      9044
 -1     23283    3    0    1
 -2      2982      3037      3636      4507
 -1     23284    3    0    1
 -2      8707      6463      7833      9109
 -1     23285    3    0    1
 -2      7202      7816      8168      6292
 -1     23286    3    0    1
 -2      9213      7683      8034      9500
 -1     23287    3    0    1
 -2      4960      5222      5463      5409
 -1     23288    3    0    1
 -2      8689      7832      8307      8729
 -1     23289    3    0    1
 -2      8833      8842      7998      7514
 -1     23290    3    0    1
 -2      9116      5512      7837      7872
 -1     23291    3    0    1
 -2      9606      7907      7882      5955
 -1     23292    3    0    1
 -2       784      2672      1449      1349
 -1     23293    3    0    1
 -2       578       531      1127      1030
 -1     23294    3    0    1
 -2      6442      7305      8681      7273
 -1     23295    3    0    1
 -2      8537      9250      6120      7106
 -1     23296    3    0    1
 -2      7408      9611      5951      6614
 -1     23297    3    0    1
 -2      3018      2450       620      2959
 -1     23298    3    0    1
 -2      9243      7685      7636      9485
 -1     23299    3    0    1
 -2      6146      7221      8637      5393
 -1     23300    3    0    1
 -2      5275      5491      4808      5022
 -1     23301    3    0    1
 -2      7965      8368      6745      8794
 -1     23302    3    0    1
 -2      4249      4688      4667      4640
 -1     23303    3    0    1
 -2       139       141       140      2908
 -1     23304    3    0    1
 -2      9254      6986      7025      8466
 -1     23305    3    0    1
 -2       836       420      2750      2169
 -1     23306    3    0    1
 -2      9176      6624      6589      7948
 -1     23307    3    0    1
 -2       168       196       167      2387
 -1     23308    3    0    1
 -2      9650      9649      9539      8979
 -1     23309    3    0    1
 -2      2746       895      1583      2748
 -1     23310    3    0    1
 -2      5201      5164      5165      4633
 -1     23311    3    0    1
 -2       562       560       561      2939
 -1     23312    3    0    1
 -2      8400      6021      6780      7967
 -1     23313    3    0    1
 -2       330       333       332      2156
 -1     23314    3    0    1
 -2      4739      3303      4718      3360
 -1     23315    3    0    1
 -2      5835      6224      7155      7801
 -1     23316    3    0    1
 -2      7701      8576      7704      9555
 -1     23317    3    0    1
 -2      7934      8805      9439      5956
 -1     23318    3    0    1
 -2      6599      9586      9397      9365
 -1     23319    3    0    1
 -2       809       117        34      1463
 -1     23320    3    0    1
 -2      6610      7353      9115      5950
 -1     23321    3    0    1
 -2      9386      6620      9398      9118
 -1     23322    3    0    1
 -2      9411      7402      9393      5952
 -1     23323    3    0    1
 -2      3926      5243      5004      4401
 -1     23324    3    0    1
 -2       609      1178       637      1822
 -1     23325    3    0    1
 -2      2491      1935      1964      2540
 -1     23326    3    0    1
 -2       158       259       258      3526
 -1     23327    3    0    1
 -2       395       417       418      1450
 -1     23328    3    0    1
 -2      9498      8050      8557      8111
 -1     23329    3    0    1
 -2       462       504       955      2750
 -1     23330    3    0    1
 -2      6702      9179      7461      5950
 -1     23331    3    0    1
 -2      3036      2497      2943      1883
 -1     23332    3    0    1
 -2      9224      9237      9249      8047
 -1     23333    3    0    1
 -2      3205       295      2670      1349
 -1     23334    3    0    1
 -2      6620      9386      9398      9671
 -1     23335    3    0    1
 -2      9097      7375      7334      9389
 -1     23336    3    0    1
 -2      6100      5356      5748      5348
 -1     23337    3    0    1
 -2      3858       824      2177      3269
 -1     23338    3    0    1
 -2      3805      3148      3147      2082
 -1     23339    3    0    1
 -2      9105      9367      8277      7358
 -1     23340    3    0    1
 -2       892       489       926      2732
 -1     23341    3    0    1
 -2       560       526      3452      2939
 -1     23342    3    0    1
 -2      1343      2591      2662      2031
 -1     23343    3    0    1
 -2      6257      7777      9042      6173
 -1     23344    3    0    1
 -2      2452      3042      1206      3041
 -1     23345    3    0    1
 -2      7111      6235      7772      6163
 -1     23346    3    0    1
 -2      1466      2731       938      1465
 -1     23347    3    0    1
 -2      8890      7110      7018      7017
 -1     23348    3    0    1
 -2      6373      8243      7279      7294
 -1     23349    3    0    1
 -2      7170      9046      8210      6269
 -1     23350    3    0    1
 -2      5904      7838      6598      6526
 -1     23351    3    0    1
 -2      3473      3495      2938      3553
 -1     23352    3    0    1
 -2      9666      9288      8969      9484
 -1     23353    3    0    1
 -2      1314      2591       710      1343
 -1     23354    3    0    1
 -2      2989       216      2453      2387
 -1     23355    3    0    1
 -2      3317      2768      2709      2683
 -1     23356    3    0    1
 -2      6630      6008      5634      5317
 -1     23357    3    0    1
 -2      5918      5560      7911      7359
 -1     23358    3    0    1
 -2      7909      5962      5940      6488
 -1     23359    3    0    1
 -2      8089      7087      7646      7635
 -1     23360    3    0    1
 -2      2161        79      2170      2229
 -1     23361    3    0    1
 -2      2945      1202      1124      2984
 -1     23362    3    0    1
 -2      3531       126       125       207
 -1     23363    3    0    1
 -2      6312      5850      7212      8216
 -1     23364    3    0    1
 -2      7397      7355      9393      7316
 -1     23365    3    0    1
 -2      9337      8649      7163      9034
 -1     23366    3    0    1
 -2       366       365       276      2140
 -1     23367    3    0    1
 -2      3443      3487      1796      2956
 -1     23368    3    0    1
 -2      8640      8621      6221      7748
 -1     23369    3    0    1
 -2      2738      2788      3862      3900
 -1     23370    3    0    1
 -2      9253      8087      9211      9505
 -1     23371    3    0    1
 -2      6387      7305      7273      7827
 -1     23372    3    0    1
 -2      1051       159       157      3526
 -1     23373    3    0    1
 -2      5694      8442      8872      7574
 -1     23374    3    0    1
 -2      3026      3535      1116      3028
 -1     23375    3    0    1
 -2      3204      3176      1290      1289
 -1     23376    3    0    1
 -2       284       706      3195      1341
 -1     23377    3    0    1
 -2      2905       129       514      2961
 -1     23378    3    0    1
 -2      2437      2466      1846      2420
 -1     23379    3    0    1
 -2      3199       779       716      3241
 -1     23380    3    0    1
 -2      9545      9492      9491      8551
 -1     23381    3    0    1
 -2      3180      3212      2672      1349
 -1     23382    3    0    1
 -2       211      3535       648      9675
 -1     23383    3    0    1
 -2      7764      6219      6259      7223
 -1     23384    3    0    1
 -2      7765      8623      7200      8153
 -1     23385    3    0    1
 -2      8043      7097      7079      7614
 -1     23386    3    0    1
 -2       111        16      1453      2733
 -1     23387    3    0    1
 -2      9054      7118      7743      8123
 -1     23388    3    0    1
 -2      7181      6236      8658      7204
 -1     23389    3    0    1
 -2      8700      7321      7350      5939
 -1     23390    3    0    1
 -2       541       609       203      2388
 -1     23391    3    0    1
 -2       930        94        45       464
 -1     23392    3    0    1
 -2      5705      5756      7008      6072
 -1     23393    3    0    1
 -2      8990      9355      9573      9560
 -1     23394    3    0    1
 -2      9118      7840      6620      5933
 -1     23395    3    0    1
 -2      5400      5437      5244      5458
 -1     23396    3    0    1
 -2       220       514       129      2961
 -1     23397    3    0    1
 -2      6537      7861      9371      9583
 -1     23398    3    0    1
 -2      2996      1762      2924      2902
 -1     23399    3    0    1
 -2      7673      6995      7630      8883
 -1     23400    3    0    1
 -2      6618      6658      6598      9414
 -1     23401    3    0    1
 -2      3867      2771      2741      2181
 -1     23402    3    0    1
 -2      5241      4966      5217      4716
 -1     23403    3    0    1
 -2      7115      8571      8572      9351
 -1     23404    3    0    1
 -2        89       489       892      2732
 -1     23405    3    0    1
 -2      7870      5915      9129      7939
 -1     23406    3    0    1
 -2      2894       569      1022      1680
 -1     23407    3    0    1
 -2      1142      1154       673       674
 -1     23408    3    0    1
 -2        21       113       112       802
 -1     23409    3    0    1
 -2       392         2         1       415
 -1     23410    3    0    1
 -2      8972      9657      9502      9534
 -1     23411    3    0    1
 -2      5075      4496      4809      4789
 -1     23412    3    0    1
 -2      7682      7601      7073      8034
 -1     23413    3    0    1
 -2      5994      6761      5992      8332
 -1     23414    3    0    1
 -2      1774      1795      1085      3546
 -1     23415    3    0    1
 -2      6128      9045      6238      8625
 -1     23416    3    0    1
 -2      7111      9030      6235      5783
 -1     23417    3    0    1
 -2      9040      6212      7171      6147
 -1     23418    3    0    1
 -2       963      2266       496       497
 -1     23419    3    0    1
 -2      1226      2464       684      2465
 -1     23420    3    0    1
 -2      6554      5953      5931      5514
 -1     23421    3    0    1
 -2       274       275         9      1336
 -1     23422    3    0    1
 -2      2502      2467      4200      1848
 -1     23423    3    0    1
 -2      2949      1034       537      2898
 -1     23424    3    0    1
 -2      2079      3240      2123      2078
 -1     23425    3    0    1
 -2      7841      9105      8277      7358
 -1     23426    3    0    1
 -2       237       597      1796      2956
 -1     23427    3    0    1
 -2      3386      3953      2846      2302
 -1     23428    3    0    1
 -2      9080      8721      9365      6490
 -1     23429    3    0    1
 -2      5789      7114      6193      6308
 -1     23430    3    0    1
 -2      3198      3836      3837      1441
 -1     23431    3    0    1
 -2      9071      9057      7777      8195
 -1     23432    3    0    1
 -2      8856      8018      8878      6922
 -1     23433    3    0    1
 -2       474       809       828      2241
 -1     23434    3    0    1
 -2      2734       927       457      2733
 -1     23435    3    0    1
 -2      1431      3180       723      2138
 -1     23436    3    0    1
 -2      3308      2222      3907      1578
 -1     23437    3    0    1
 -2       684      1202      2464      1919
 -1     23438    3    0    1
 -2      8106      8952      8973      9535
 -1     23439    3    0    1
 -2      5533      6522      5515      7349
 -1     23440    3    0    1
 -2      9137      9438      6605      9610
 -1     23441    3    0    1
 -2      2403      1068      1730      2936
 -1     23442    3    0    1
 -2      9042      7785      6257      5395
 -1     23443    3    0    1
 -2      2905       514      2884      2961
 -1     23444    3    0    1
 -2       200       608       199      2954
 -1     23445    3    0    1
 -2      9363      6581      9607      6582
 -1     23446    3    0    1
 -2      7112      8625      9335      6128
 -1     23447    3    0    1
 -2      7709      9354      9067      8988
 -1     23448    3    0    1
 -2      9163      9425      6718      6620
 -1     23449    3    0    1
 -2      8128      9344      9071      8127
 -1     23450    3    0    1
 -2      3501      2416      1071      1801
 -1     23451    3    0    1
 -2      1462      2681      2179      2739
 -1     23452    3    0    1
 -2      6542      5893      7849      6469
 -1     23453    3    0    1
 -2      9377      9378      7877      6573
 -1     23454    3    0    1
 -2      8257      9085      8680      7845
 -1     23455    3    0    1
 -2      3531      2918       173      3532
 -1     23456    3    0    1
 -2       281       305       280       368
 -1     23457    3    0    1
 -2      4657      4917      4895      5193
 -1     23458    3    0    1
 -2      2094      3799      3141      3816
 -1     23459    3    0    1
 -2      5679      5979      7991      9173
 -1     23460    3    0    1
 -2      1448       297      1449      1349
 -1     23461    3    0    1
 -2      9470      9181      7463      9432
 -1     23462    3    0    1
 -2        31       103       435      2163
 -1     23463    3    0    1
 -2      2729      2680      2736      2174
 -1     23464    3    0    1
 -2       290       746      1441       747
 -1     23465    3    0    1
 -2      2480      2933      3006      3627
 -1     23466    3    0    1
 -2      9087      7880      7863      7338
 -1     23467    3    0    1
 -2      7100      8097      7099      6067
 -1     23468    3    0    1
 -2       100        99        55       805
 -1     23469    3    0    1
 -2       736       692      1428      3192
 -1     23470    3    0    1
 -2      2676        12       283       371
 -1     23471    3    0    1
 -2      7118      9054      6146      6145
 -1     23472    3    0    1
 -2       529      1139       569      2943
 -1     23473    3    0    1
 -2      7878      5932      7349      8758
 -1     23474    3    0    1
 -2      2920       186       253      2976
 -1     23475    3    0    1
 -2      9324      9042      9344      6173
 -1     23476    3    0    1
 -2      7788      7177      9348      8669
 -1     23477    3    0    1
 -2      4535      4880      5095      4520
 -1     23478    3    0    1
 -2      2673      3183      3182      1350
 -1     23479    3    0    1
 -2      8273      9366      9386      9671
 -1     23480    3    0    1
 -2      9334      8563      7695      8115
 -1     23481    3    0    1
 -2      7635      8021      7588      9255
 -1     23482    3    0    1
 -2       164       535       534      1034
 -1     23483    3    0    1
 -2      7788      7177      9329      9348
 -1     23484    3    0    1
 -2      8701      7270      6497      9083
 -1     23485    3    0    1
 -2      3594      1800       654      3554
 -1     23486    3    0    1
 -2      5955      6742      7963      6657
 -1     23487    3    0    1
 -2      9111      6592      7897      6606
 -1     23488    3    0    1
 -2      7631      8013      6053      7614
 -1     23489    3    0    1
 -2       728       727      2127      3186
 -1     23490    3    0    1
 -2      9407      9440      5950      9670
 -1     23491    3    0    1
 -2      3275      2166      2732      3265
 -1     23492    3    0    1
 -2       283       313      3195      2151
 -1     23493    3    0    1
 -2      1115       519       222      2933
 -1     23494    3    0    1
 -2      7646      8090      8102      7635
 -1     23495    3    0    1
 -2       139       521      2908       182
 -1     23496    3    0    1
 -2       935        82        58       471
 -1     23497    3    0    1
 -2      2046      3242       750      1284
 -1     23498    3    0    1
 -2      4496      4036      4477      4789
 -1     23499    3    0    1
 -2      2097      3805      2624      2082
 -1     23500    3    0    1
 -2       111        18        17      1453
 -1     23501    3    0    1
 -2      9414      7908      6598      9384
 -1     23502    3    0    1
 -2      1133       547       514      2961
 -1     23503    3    0    1
 -2      2155       376       327      2614
 -1     23504    3    0    1
 -2      1227      1257      1204      1920
 -1     23505    3    0    1
 -2      8206      8168      7816      6292
 -1     23506    3    0    1
 -2      7133      9033      9306      6131
 -1     23507    3    0    1
 -2      3013      1205      2451       665
 -1     23508    3    0    1
 -2       336       381       335      2157
 -1     23509    3    0    1
 -2       519       555      1006      1115
 -1     23510    3    0    1
 -2       161       163      2947      2922
 -1     23511    3    0    1
 -2      7168      6153      6154      7716
 -1     23512    3    0    1
 -2      1309       705       790      2579
 -1     23513    3    0    1
 -2      9495      8864      8492      7639
 -1     23514    3    0    1
 -2      6490      6531      7323      6583
 -1     23515    3    0    1
 -2      1016      1071       565      1801
 -1     23516    3    0    1
 -2      4325      3310      4968      4407
 -1     23517    3    0    1
 -2      7243      7812      9051      9672
 -1     23518    3    0    1
 -2      1376      2632      3821      2082
 -1     23519    3    0    1
 -2      1260      3637       666      1896
 -1     23520    3    0    1
 -2      2996      1055       205      1762
 -1     23521    3    0    1
 -2       196       197       167      2387
 -1     23522    3    0    1
 -2      2716      3364      2742      2717
 -1     23523    3    0    1
 -2      1043       128       126       173
 -1     23524    3    0    1
 -2      7159      8155      8174      7130
 -1     23525    3    0    1
 -2      7918      9129      5915      7939
 -1     23526    3    0    1
 -2      8426      7993      7529      7502
 -1     23527    3    0    1
 -2      6133      8629      8119      8120
 -1     23528    3    0    1
 -2       179       519       136      2386
 -1     23529    3    0    1
 -2      8583      8142      9311      6147
 -1     23530    3    0    1
 -2      7870      9129      9102      7939
 -1     23531    3    0    1
 -2      7556      5688      6810      6884
 -1     23532    3    0    1
 -2      7817      8675      8245      6419
 -1     23533    3    0    1
 -2       504       955      1584      1602
 -1     23534    3    0    1
 -2      8307      9361      6499      8727
 -1     23535    3    0    1
 -2      6117      9246      7100      7616
 -1     23536    3    0    1
 -2      6073      7105      9239      6973
 -1     23537    3    0    1
 -2       602       521       182      2908
 -1     23538    3    0    1
 -2      2216      1556      2265      2786
 -1     23539    3    0    1
 -2      3458      2376      2897      1712
 -1     23540    3    0    1
 -2      8741      5936      7393      7901
 -1     23541    3    0    1
 -2      3223      3831      2653      3222
 -1     23542    3    0    1
 -2       781       342      2158      3201
 -1     23543    3    0    1
 -2      7688      7096      7095      8106
 -1     23544    3    0    1
 -2       284        11       283      3195
 -1     23545    3    0    1
 -2      7310      5863      5496      7828
 -1     23546    3    0    1
 -2      8970      9532      9293      8549
 -1     23547    3    0    1
 -2      9298      8572      9351      9553
 -1     23548    3    0    1
 -2      1990       743      2012      2557
 -1     23549    3    0    1
 -2       126       127       128      1043
 -1     23550    3    0    1
 -2      5810      6205      6204      5235
 -1     23551    3    0    1
 -2      2158       342       291      3201
 -1     23552    3    0    1
 -2      5442      7202      7816      6291
 -1     23553    3    0    1
 -2      5978      8823      8798      6021
 -1     23554    3    0    1
 -2       758       739      2131      3232
 -1     23555    3    0    1
 -2      1453       815      2733      2167
 -1     23556    3    0    1
 -2      4918      5355      5341      5695
 -1     23557    3    0    1
 -2       802       819       113      1539
 -1     23558    3    0    1
 -2      2916      2991      1131      2379
 -1     23559    3    0    1
 -2      9060      9030      6235      7111
 -1     23560    3    0    1
 -2      1433       735       771      3228
 -1     23561    3    0    1
 -2      9238      9648      9478      8049
 -1     23562    3    0    1
 -2       490       950      2734      3323
 -1     23563    3    0    1
 -2        65       104        64      1466
 -1     23564    3    0    1
 -2      9382      7875      9395      9613
 -1     23565    3    0    1
 -2      7143      7775      7707      7708
 -1     23566    3    0    1
 -2      2141       692      1309      3229
 -1     23567    3    0    1
 -2      9317      9580      8597      9569
 -1     23568    3    0    1
 -2      8885      9515      7097      7676
 -1     23569    3    0    1
 -2      5116      4523      4571      5139
 -1     23570    3    0    1
 -2      6172      6253      8636      6144
 -1     23571    3    0    1
 -2       839       841       840      2700
 -1     23572    3    0    1
 -2      7681      8497      8496      6975
 -1     23573    3    0    1
 -2      6442      6387      5492      7305
 -1     23574    3    0    1
 -2       175       132       549      2905
 -1     23575    3    0    1
 -2      2905      3468       550      2965
 -1     23576    3    0    1
 -2      6975      8497      8496      6976
 -1     23577    3    0    1
 -2      9089      9101      9115      7867
 -1     23578    3    0    1
 -2      3771      3229      4305      3192
 -1     23579    3    0    1
 -2      7318      7349      7295      8684
 -1     23580    3    0    1
 -2       144       562       250      2939
 -1     23581    3    0    1
 -2      8967      8926      9252      7110
 -1     23582    3    0    1
 -2      9312      8126      8125      6149
 -1     23583    3    0    1
 -2      7897      8807      6606      6647
 -1     23584    3    0    1
 -2      7441      7464      8361      6654
 -1     23585    3    0    1
 -2      8290      7898      6543      7340
 -1     23586    3    0    1
 -2      3976      3424      3423      3441
 -1     23587    3    0    1
 -2      7354      9377      7877      6573
 -1     23588    3    0    1
 -2      9462      7909      9424      9413
 -1     23589    3    0    1
 -2      9180      7974      6734      6008
 -1     23590    3    0    1
 -2      7644      8519      8061      8035
 -1     23591    3    0    1
 -2      7111      8114      7694      6163
 -1     23592    3    0    1
 -2      9042      9324      8143      6150
 -1     23593    3    0    1
 -2      7406      6508      7360      6607
 -1     23594    3    0    1
 -2      3317      2768      3299      2709
 -1     23595    3    0    1
 -2      1639       909      2766      3354
 -1     23596    3    0    1
 -2      7918      7939      9156      9432
 -1     23597    3    0    1
 -2       488        87        13      1451
 -1     23598    3    0    1
 -2      1509      1538      2256      2223
 -1     23599    3    0    1
 -2      6060      6076      7087      7635
 -1     23600    3    0    1
 -2      5361      5171      5337      4933
 -1     23601    3    0    1
 -2      3776      3778      4293      3777
 -1     23602    3    0    1
 -2       484       109       921      2775
 -1     23603    3    0    1
 -2      1055      2955      2855      2902
 -1     23604    3    0    1
 -2       202       266       200      2454
 -1     23605    3    0    1
 -2      8560      8612      9330      7725
 -1     23606    3    0    1
 -2      7673      6995      7075      5769
 -1     23607    3    0    1
 -2      5442      5367      5221      5838
 -1     23608    3    0    1
 -2      8578      7705      7706      9672
 -1     23609    3    0    1
 -2      9228      8943      8091      9241
 -1     23610    3    0    1
 -2      6908      5689      7557      8441
 -1     23611    3    0    1
 -2      9268      9519      8959      9648
 -1     23612    3    0    1
 -2      9567      9334      8563      9579
 -1     23613    3    0    1
 -2      5749      5714      7611      7038
 -1     23614    3    0    1
 -2      8820      9142      5955      9459
 -1     23615    3    0    1
 -2      8265      8256      6502      8679
 -1     23616    3    0    1
 -2       210       645       601      2967
 -1     23617    3    0    1
 -2       391        94        45      1457
 -1     23618    3    0    1
 -2      3531       207       125      2929
 -1     23619    3    0    1
 -2       373       314       797      2152
 -1     23620    3    0    1
 -2      2672      3246      3180      2650
 -1     23621    3    0    1
 -2      6223      5460      5802      7175
 -1     23622    3    0    1
 -2       582       166       537      2949
 -1     23623    3    0    1
 -2      4200      3087      3611      2467
 -1     23624    3    0    1
 -2       288       335       381      2157
 -1     23625    3    0    1
 -2      2244       107       105      2245
 -1     23626    3    0    1
 -2      8874      8854      6913      8027
 -1     23627    3    0    1
 -2      9494      8554      8957      9538
 -1     23628    3    0    1
 -2      9627      6602      6638      9170
 -1     23629    3    0    1
 -2      6130      7170      7133      5786
 -1     23630    3    0    1
 -2      2860      3447      2931      2353
 -1     23631    3    0    1
 -2       553       517      1112       554
 -1     23632    3    0    1
 -2      3048      1907      1240      3021
 -1     23633    3    0    1
 -2      7033      6995      7630      7673
 -1     23634    3    0    1
 -2      7923      9163      6718      6620
 -1     23635    3    0    1
 -2      9503      9233      7611      8042
 -1     23636    3    0    1
 -2      7968      5995      7451      9172
 -1     23637    3    0    1
 -2      7221      9054      7784      6145
 -1     23638    3    0    1
 -2      8823      9186      6021      8400
 -1     23639    3    0    1
 -2        36        61       119      1464
 -1     23640    3    0    1
 -2       242       223       179      9675
 -1     23641    3    0    1
 -2      7004      7689      9234      6065
 -1     23642    3    0    1
 -2        28        58       411       799
 -1     23643    3    0    1
 -2       434      2788      2738      3377
 -1     23644    3    0    1
 -2      8585      9324      9344      7714
 -1     23645    3    0    1
 -2      3203       753       721      1288
 -1     23646    3    0    1
 -2      1888      1887      1171      3063
 -1     23647    3    0    1
 -2      8551      9492      8043      8107
 -1     23648    3    0    1
 -2      8820      6656      6742      5955
 -1     23649    3    0    1
 -2      3018      2450      2959      3004
 -1     23650    3    0    1
 -2      4031      1100      2368      3541
 -1     23651    3    0    1
 -2      5377      7114      6193      5789
 -1     23652    3    0    1
 -2      2662      3843      2591      2154
 -1     23653    3    0    1
 -2      1446       374       323      2143
 -1     23654    3    0    1
 -2      2945       530      1051      2913
 -1     23655    3    0    1
 -2       530       190      1124      2945
 -1     23656    3    0    1
 -2      6587      6640      5589      6749
 -1     23657    3    0    1
 -2      3212      3180      1332      1349
 -1     23658    3    0    1
 -2      3510      2388      3462      2345
 -1     23659    3    0    1
 -2      6435      8699      7838      7831
 -1     23660    3    0    1
 -2      5998      7495      6022      8375
 -1     23661    3    0    1
 -2       291       383       342      2158
 -1     23662    3    0    1
 -2      3266      1539      1454      2168
 -1     23663    3    0    1
 -2      6792      7565      8829      7505
 -1     23664    3    0    1
 -2       499       847       846      1491
 -1     23665    3    0    1
 -2      3556      1081      2896      2895
 -1     23666    3    0    1
 -2      4791      5253      5914      5261
 -1     23667    3    0    1
 -2       478        63       414       440
 -1     23668    3    0    1
 -2      8676      7824      6422      5869
 -1     23669    3    0    1
 -2       920       454      2714      2713
 -1     23670    3    0    1
 -2      9492      9545      9658      8551
 -1     23671    3    0    1
 -2      8068      8469      8470      8900
 -1     23672    3    0    1
 -2      7133      7132      6130      5786
 -1     23673    3    0    1
 -2      6238      8625      7112      6128
 -1     23674    3    0    1
 -2      9223      9236      8014      7638
 -1     23675    3    0    1
 -2      9221      7000      6114      8874
 -1     23676    3    0    1
 -2       418       417       889      2743
 -1     23677    3    0    1
 -2       354       356       388       390
 -1     23678    3    0    1
 -2      6275      5422      6142      5795
 -1     23679    3    0    1
 -2      9479      8052      8922      8058
 -1     23680    3    0    1
 -2      9172      7953      6585      9200
 -1     23681    3    0    1
 -2      8052      8922      8058      6075
 -1     23682    3    0    1
 -2      5746      7032      7075      7064
 -1     23683    3    0    1
 -2      7156      8593      9564      9347
 -1     23684    3    0    1
 -2        48       822       930      1458
 -1     23685    3    0    1
 -2      7774      9339      9352      9555
 -1     23686    3    0    1
 -2      7464      8361      8789      7441
 -1     23687    3    0    1
 -2      7358      9105      6601      5905
 -1     23688    3    0    1
 -2      9481      8034      8545      9482
 -1     23689    3    0    1
 -2      7864      9375      9099      7360
 -1     23690    3    0    1
 -2      3022      1850      3660      3586
 -1     23691    3    0    1
 -2      4201      1922      2522      3683
 -1     23692    3    0    1
 -2      2961       621       642      3000
 -1     23693    3    0    1
 -2      9260      9501      7671      9217
 -1     23694    3    0    1
 -2      7929      5968      7969      8328
 -1     23695    3    0    1
 -2      1615      2326      1651      2837
 -1     23696    3    0    1
 -2      6755      5611      5612      6614
 -1     23697    3    0    1
 -2      9223      8046      9247      7638
 -1     23698    3    0    1
 -2      7927      8356      6640      9174
 -1     23699    3    0    1
 -2      1446       320       285      3776
 -1     23700    3    0    1
 -2      3483      4068      3484      2951
 -1     23701    3    0    1
 -2      3003      3558      3638      3043
 -1     23702    3    0    1
 -2      8403      7537      6044      7997
 -1     23703    3    0    1
 -2      3241       779       716      1442
 -1     23704    3    0    1
 -2      4392      4366      3895      4700
 -1     23705    3    0    1
 -2      3018      1237      2450      3004
 -1     23706    3    0    1
 -2      7181      6125      5784      5370
 -1     23707    3    0    1
 -2       850      1480      2688      2689
 -1     23708    3    0    1
 -2       292      2158       291       798
 -1     23709    3    0    1
 -2      8049      9495      9238      7640
 -1     23710    3    0    1
 -2       564       147       146      2920
 -1     23711    3    0    1
 -2       367       280       305       368
 -1     23712    3    0    1
 -2       436       435       473      1488
 -1     23713    3    0    1
 -2      2734       457       490      3323
 -1     23714    3    0    1
 -2      6719      6601      6747      9169
 -1     23715    3    0    1
 -2      6128      9580      8565      7113
 -1     23716    3    0    1
 -2      5764      4671      5151      5187
 -1     23717    3    0    1
 -2      1974      2000      2550      2543
 -1     23718    3    0    1
 -2      1136       558       523      2935
 -1     23719    3    0    1
 -2      4670      4595      4596      4651
 -1     23720    3    0    1
 -2       481       831       105      2244
 -1     23721    3    0    1
 -2       401      2164      1469      2717
 -1     23722    3    0    1
 -2      1116       508      2888      3535
 -1     23723    3    0    1
 -2      9252      9541      9273      8967
 -1     23724    3    0    1
 -2      6204      6275      6142      5795
 -1     23725    3    0    1
 -2      7773      5478      5809      9036
 -1     23726    3    0    1
 -2      7913      5908      6499      8727
 -1     23727    3    0    1
 -2      8872      9209      6994      9231
 -1     23728    3    0    1
 -2      6634      5616      6617      7410
 -1     23729    3    0    1
 -2      8043      8551      8107      7079
 -1     23730    3    0    1
 -2       105       106       107       832
 -1     23731    3    0    1
 -2       200       266       273      2454
 -1     23732    3    0    1
 -2      7011      6120      5729      5202
 -1     23733    3    0    1
 -2      5937      8712      8756      7941
 -1     23734    3    0    1
 -2      2666      2035      2018      2045
 -1     23735    3    0    1
 -2       344       720      2667      1447
 -1     23736    3    0    1
 -2      8137      8628      5376      9019
 -1     23737    3    0    1
 -2      9251      9498      9285      8964
 -1     23738    3    0    1
 -2      7054      8058      7693      7053
 -1     23739    3    0    1
 -2      6718      8777      9163      7923
 -1     23740    3    0    1
 -2      9107      9368      7358      7300
 -1     23741    3    0    1
 -2       784       387       353      1449
 -1     23742    3    0    1
 -2      8070      8473      7648      9261
 -1     23743    3    0    1
 -2      9228      8023      7605      9242
 -1     23744    3    0    1
 -2      3037      3012      2517      1918
 -1     23745    3    0    1
 -2      7947      9464      9173      9674
 -1     23746    3    0    1
 -2      1340       306       770      1427
 -1     23747    3    0    1
 -2       429       880       905      1475
 -1     23748    3    0    1
 -2      3765      2636      1382      3219
 -1     23749    3    0    1
 -2      1447      3258      3215      3201
 -1     23750    3    0    1
 -2      7424      7460      8376      8783
 -1     23751    3    0    1
 -2      3737      3162      3229      3772
 -1     23752    3    0    1
 -2      6141      6170      6247      7708
 -1     23753    3    0    1
 -2       821       423       422       857
 -1     23754    3    0    1
 -2      2033       713      2595      2077
 -1     23755    3    0    1
 -2      8731      8755      6503      9123
 -1     23756    3    0    1
 -2      3175      3215      3258      3201
 -1     23757    3    0    1
 -2      3721      2574      2613      4598
 -1     23758    3    0    1
 -2      9542      9211      9480      8938
 -1     23759    3    0    1
 -2      6008      6612      7457      5975
 -1     23760    3    0    1
 -2      8293      9101      7867      7353
 -1     23761    3    0    1
 -2       789       368       281      2150
 -1     23762    3    0    1
 -2      8969      9666      9484      9289
 -1     23763    3    0    1
 -2      5955      8329      7907      6657
 -1     23764    3    0    1
 -2      9416      9401      7913      9674
 -1     23765    3    0    1
 -2      9462      9614      6635      9413
 -1     23766    3    0    1
 -2      6585      6561      9360      9591
 -1     23767    3    0    1
 -2      8715      7384      8268      7319
 -1     23768    3    0    1
 -2      7914      9175      5658      8800
 -1     23769    3    0    1
 -2      1861      2457      1860      3047
 -1     23770    3    0    1
 -2      3201       718       291      1327
 -1     23771    3    0    1
 -2      5799      7173      9057      7119
 -1     23772    3    0    1
 -2      9351      8571      9298      9308
 -1     23773    3    0    1
 -2      9244      6997      8011      8040
 -1     23774    3    0    1
 -2      1410      1354      2128      3222
 -1     23775    3    0    1
 -2      1753      1773      2378      2396
 -1     23776    3    0    1
 -2       628      1801      1816      2977
 -1     23777    3    0    1
 -2      7673      7033      6995      5769
 -1     23778    3    0    1
 -2       652      1192      1222      1247
 -1     23779    3    0    1
 -2      2674      1309      2675      3208
 -1     23780    3    0    1
 -2      9044      8646      7771      9059
 -1     23781    3    0    1
 -2      5551      6506      6507      7916
 -1     23782    3    0    1
 -2       901       956       463      2230
 -1     23783    3    0    1
 -2      7950      9472      9471      9638
 -1     23784    3    0    1
 -2       790       705       737      3230
 -1     23785    3    0    1
 -2      4633      5165      5201      5189
 -1     23786    3    0    1
 -2      1475       880       905      1553
 -1     23787    3    0    1
 -2      7170      5787      7133      5786
 -1     23788    3    0    1
 -2      3535      3006      3026      9675
 -1     23789    3    0    1
 -2      8171      7784      9054      6145
 -1     23790    3    0    1
 -2      7389      9450      7914      9437
 -1     23791    3    0    1
 -2      7628      8867      8019      7018
 -1     23792    3    0    1
 -2      6504      8731      8732      7373
 -1     23793    3    0    1
 -2      9419      9600      6608      9670
 -1     23794    3    0    1
 -2      1127      3576      3040      3606
 -1     23795    3    0    1
 -2      7682      8869      9481      9280
 -1     23796    3    0    1
 -2      6861      7568      7542      6860
 -1     23797    3    0    1
 -2      8707      6503      7930      9123
 -1     23798    3    0    1
 -2      9051      9038      8634      9672
 -1     23799    3    0    1
 -2      8256      5506      6502      8679
 -1     23800    3    0    1
 -2      2906      1045      1000      1673
 -1     23801    3    0    1
 -2      5717      5752      5188      4625
 -1     23802    3    0    1
 -2      3028      1871      1851      1812
 -1     23803    3    0    1
 -2      5921      7374      6440      7846
 -1     23804    3    0    1
 -2      2948      1032      1713      3482
 -1     23805    3    0    1
 -2      4730      2759      3910      4322
 -1     23806    3    0    1
 -2      6635      6743      7951      7909
 -1     23807    3    0    1
 -2      1055      1040       544      1762
 -1     23808    3    0    1
 -2      6127      6238      6126      5785
 -1     23809    3    0    1
 -2      5979      7913      5967      9674
 -1     23810    3    0    1
 -2       682      1199      1251      1224
 -1     23811    3    0    1
 -2      9176      6589      6642      7930
 -1     23812    3    0    1
 -2      6236      8658      9031      7181
 -1     23813    3    0    1
 -2      7875      7400      9613      9624
 -1     23814    3    0    1
 -2      6372      8645      5803      7771
 -1     23815    3    0    1
 -2       475       912       911      2709
 -1     23816    3    0    1
 -2      8139      7761      9006      9023
 -1     23817    3    0    1
 -2      8713      6525      6557      5955
 -1     23818    3    0    1
 -2      3487      3443      3530      2956
 -1     23819    3    0    1
 -2      1250       655      1197      1249
 -1     23820    3    0    1
 -2      2926       563      1069      2941
 -1     23821    3    0    1
 -2      3335      2244       481      2243
 -1     23822    3    0    1
 -2      5361      5345      5171      4933
 -1     23823    3    0    1
 -2       806       101       100      2237
 -1     23824    3    0    1
 -2      8672      7775      8170      9341
 -1     23825    3    0    1
 -2      1554      2265      3316      2216
 -1     23826    3    0    1
 -2      2899      1088      1758      1087
 -1     23827    3    0    1
 -2      3862      2739      1461      2738
 -1     23828    3    0    1
 -2      4068      4094      3424      3484
 -1     23829    3    0    1
 -2      1458      2727       930      1457
 -1     23830    3    0    1
 -2      1129      1084      1083      1794
 -1     23831    3    0    1
 -2       260      1206      1128       632
 -1     23832    3    0    1
 -2      7352      5912      6609      5896
 -1     23833    3    0    1
 -2      1441       380       746      1430
 -1     23834    3    0    1
 -2      1548      2260      3941      1513
 -1     23835    3    0    1
 -2      9282      7096      6114      9221
 -1     23836    3    0    1
 -2      9526      9513      8949      9488
 -1     23837    3    0    1
 -2       241       178       554      9669
 -1     23838    3    0    1
 -2      6601      6719      9426      9169
 -1     23839    3    0    1
 -2      6327      6394      6367      7836
 -1     23840    3    0    1
 -2      8496      6974      6975      6976
 -1     23841    3    0    1
 -2      7305      6387      6408      7827
 -1     23842    3    0    1
 -2      7708      8579      9320      9341
 -1     23843    3    0    1
 -2      3800      3195      3233      3754
 -1     23844    3    0    1
 -2      1821      2992       635      1212
 -1     23845    3    0    1
 -2      1051       192       159      3526
 -1     23846    3    0    1
 -2      2869      1019       566      1703
 -1     23847    3    0    1
 -2      3456      3966      1642      2320
 -1     23848    3    0    1
 -2      6269      7170      6164      6130
 -1     23849    3    0    1
 -2       239       645      1867      1218
 -1     23850    3    0    1
 -2      6913      6999      8874      8027
 -1     23851    3    0    1
 -2      7461      7456      9179      6702
 -1     23852    3    0    1
 -2      8596      7125      7724      9349
 -1     23853    3    0    1
 -2      2667      3175      4311      3258
 -1     23854    3    0    1
 -2      8442      7562      5694      8872
 -1     23855    3    0    1
 -2      9515      8885      8528      7676
 -1     23856    3    0    1
 -2      8116      8568      7698      9337
 -1     23857    3    0    1
 -2      2915      3484      4094      2951
 -1     23858    3    0    1
 -2      9108      9120      6561      7857
 -1     23859    3    0    1
 -2      3040      3013      3576      3557
 -1     23860    3    0    1
 -2      2768      3381      3317      3299
 -1     23861    3    0    1
 -2      7911      5559      5560      5918
 -1     23862    3    0    1
 -2      7906      9412      8713      5955
 -1     23863    3    0    1
 -2       452       909       453      2767
 -1     23864    3    0    1
 -2       704      1340      2555      3160
 -1     23865    3    0    1
 -2       292      2158       383       291
 -1     23866    3    0    1
 -2      1464       810        61      2182
 -1     23867    3    0    1
 -2      2039      2023      1334      2024
 -1     23868    3    0    1
 -2       287      2153       285      9668
 -1     23869    3    0    1
 -2      5116      5620      4818      5139
 -1     23870    3    0    1
 -2      6994      9209      8872      8024
 -1     23871    3    0    1
 -2      1593       965      2738      3377
 -1     23872    3    0    1
 -2      8021      7557      7588      8022
 -1     23873    3    0    1
 -2      7457      6629      6733      5985
 -1     23874    3    0    1
 -2      1796      1183       237      2957
 -1     23875    3    0    1
 -2       901       956      2230      3347
 -1     23876    3    0    1
 -2      5397      6257      5814      5456
 -1     23877    3    0    1
 -2       390       388       354      2147
 -1     23878    3    0    1
 -2      8496      7621      7681      6975
 -1     23879    3    0    1
 -2       705      1271      2009      2579
 -1     23880    3    0    1
 -2      9338      8629      6197      9065
 -1     23881    3    0    1
 -2      6904      7568      7542      6861
 -1     23882    3    0    1
 -2       985       557       508      1116
 -1     23883    3    0    1
 -2      1449       353       784      1349
 -1     23884    3    0    1
 -2      7223      6259      7764      8197
 -1     23885    3    0    1
 -2      9605      9393      7402      7872
 -1     23886    3    0    1
 -2      1461      1462       799      2739
 -1     23887    3    0    1
 -2      1011      1013      1701      3497
 -1     23888    3    0    1
 -2       307       281       282       789
 -1     23889    3    0    1
 -2      7840      7824      8676      5869
 -1     23890    3    0    1
 -2      7121      5802      6156      7175
 -1     23891    3    0    1
 -2      7628      8019      8006      7584
 -1     23892    3    0    1
 -2      3556       614       664      1887
 -1     23893    3    0    1
 -2      9057      8195      6277      5799
 -1     23894    3    0    1
 -2      3550      2967      1867      9669
 -1     23895    3    0    1
 -2      8800      8328      7969      5968
 -1     23896    3    0    1
 -2      2232      1464      2182      2684
 -1     23897    3    0    1
 -2      6587      6586      6535      9674
 -1     23898    3    0    1
 -2      3776      3236      1312      3777
 -1     23899    3    0    1
 -2      2678      3323       815      2167
 -1     23900    3    0    1
 -2       919       107      3339      2245
 -1     23901    3    0    1
 -2      7421      7470      7493      6682
 -1     23902    3    0    1
 -2       668       230       263      1228
 -1     23903    3    0    1
 -2      6070      8046      8014      7638
 -1     23904    3    0    1
 -2      1859      1143       639      2958
 -1     23905    3    0    1
 -2      9424      7964      7466      9462
 -1     23906    3    0    1
 -2      3271      2183      3334      2772
 -1     23907    3    0    1
 -2      7913      9361      9401      8727
 -1     23908    3    0    1
 -2      7173      5799      6152      7119
 -1     23909    3    0    1
 -2       830       916       439       438
 -1     23910    3    0    1
 -2      3055      2539      1246      3687
 -1     23911    3    0    1
 -2      8926      9252      9273      8967
 -1     23912    3    0    1
 -2      7422      7470      8333      7421
 -1     23913    3    0    1
 -2      9113      7352      6609      6608
 -1     23914    3    0    1
 -2      7593      9218      8025      8039
 -1     23915    3    0    1
 -2      7321      7350      5876      7297
 -1     23916    3    0    1
 -2      6062      7629      7637      8092
 -1     23917    3    0    1
 -2      2000      2001      3129      2543
 -1     23918    3    0    1
 -2      1472       818       894      2693
 -1     23919    3    0    1
 -2      7917      7848      9125      9110
 -1     23920    3    0    1
 -2      7124      5805      5405      6266
 -1     23921    3    0    1
 -2      9641      9629      9429      9674
 -1     23922    3    0    1
 -2      1131       265       595      2991
 -1     23923    3    0    1
 -2      6904      7568      6861      6860
 -1     23924    3    0    1
 -2      7360      9099      7864      6508
 -1     23925    3    0    1
 -2      7123      5403      5404      6160
 -1     23926    3    0    1
 -2      4523      4849      4572      5139
 -1     23927    3    0    1
 -2      7075      7032      6995      8093
 -1     23928    3    0    1
 -2      1192      3007      3631      2972
 -1     23929    3    0    1
 -2      6611      6649      7407      6733
 -1     23930    3    0    1
 -2      1219       688       647      2480
 -1     23931    3    0    1
 -2      5766      5353      5204      5339
 -1     23932    3    0    1
 -2      6100      5356      5348      5770
 -1     23933    3    0    1
 -2      6282      7185      6194      8180
 -1     23934    3    0    1
 -2      8709      5936      7901      7407
 -1     23935    3    0    1
 -2      5393      6146      7221      5780
 -1     23936    3    0    1
 -2      7464      8789      7440      7441
 -1     23937    3    0    1
 -2      7113      6128      9317      6129
 -1     23938    3    0    1
 -2      7714      9324      9344      6173
 -1     23939    3    0    1
 -2      1071      1016      1738      1801
 -1     23940    3    0    1
 -2       100        55        81       805
 -1     23941    3    0    1
 -2      5689      6908      8022      8441
 -1     23942    3    0    1
 -2      2964      3625      4098      3021
 -1     23943    3    0    1
 -2      5442      5221      4944      5838
 -1     23944    3    0    1
 -2      7913      5679      7954      9173
 -1     23945    3    0    1
 -2        94        45        46       391
 -1     23946    3    0    1
 -2      6223      5441      5440      5854
 -1     23947    3    0    1
 -2      3299      2768       912      2709
 -1     23948    3    0    1
 -2      6542      5893      5894      5895
 -1     23949    3    0    1
 -2      9558      9557      9354      8581
 -1     23950    3    0    1
 -2       236       237       618      1807
 -1     23951    3    0    1
 -2      2778       921       109      2775
 -1     23952    3    0    1
 -2      6587      7927      9135      8729
 -1     23953    3    0    1
 -2       355       388      2160      2114
 -1     23954    3    0    1
 -2      8379      9203      8805      6729
 -1     23955    3    0    1
 -2      1450       488      2250      2725
 -1     23956    3    0    1
 -2      8086      8540      8935      6947
 -1     23957    3    0    1
 -2      7641      9239      7105      6973
 -1     23958    3    0    1
 -2      2035      2018      2045      1323
 -1     23959    3    0    1
 -2       197       216      2989      2387
 -1     23960    3    0    1
 -2      7121      8643      8144      9027
 -1     23961    3    0    1
 -2       762       344      2667      1447
 -1     23962    3    0    1
 -2      7631      8885      8861      7614
 -1     23963    3    0    1
 -2      8625      7205      6238      6127
 -1     23964    3    0    1
 -2       166       582       165      2949
 -1     23965    3    0    1
 -2       876       839      3284      2211
 -1     23966    3    0    1
 -2      7223      7196      6259      8197
 -1     23967    3    0    1
 -2      7939      7314      6577      6613
 -1     23968    3    0    1
 -2      8245      8675      7876      6419
 -1     23969    3    0    1
 -2      3089      3119      1993      4228
 -1     23970    3    0    1
 -2       799        30        82      1462
 -1     23971    3    0    1
 -2      1072      1071      2416      1801
 -1     23972    3    0    1
 -2      5690      5722      5742      5689
 -1     23973    3    0    1
 -2      9159      8816      7942      6653
 -1     23974    3    0    1
 -2      1981      2036      3152      1980
 -1     23975    3    0    1
 -2       105       121       831       481
 -1     23976    3    0    1
 -2      2918      4049      2928      2347
 -1     23977    3    0    1
 -2      1989      3686      3048      3049
 -1     23978    3    0    1
 -2      1251      1199      3033      1224
 -1     23979    3    0    1
 -2      9301      7715      8587      9357
 -1     23980    3    0    1
 -2      5909      6605      6625      5935
 -1     23981    3    0    1
 -2      8638      9010      7763      8194
 -1     23982    3    0    1
 -2        29        58        28       799
 -1     23983    3    0    1
 -2      9140      9433      8325      6614
 -1     23984    3    0    1
 -2       989       533       987      1712
 -1     23985    3    0    1
 -2      5799      9057      6173      7119
 -1     23986    3    0    1
 -2       809       118       474       828
 -1     23987    3    0    1
 -2      2290      4410      2843      3382
 -1     23988    3    0    1
 -2      1220       247       651      2485
 -1     23989    3    0    1
 -2      8180      7185      6194      8181
 -1     23990    3    0    1
 -2      2591      3782      4294      2662
 -1     23991    3    0    1
 -2       971       911       912      2768
 -1     23992    3    0    1
 -2      1496       800       813      2677
 -1     23993    3    0    1
 -2      3238      1282      2133      3781
 -1     23994    3    0    1
 -2      6605      9438      9137      6625
 -1     23995    3    0    1
 -2      7232      7803      7177      8669
 -1     23996    3    0    1
 -2      7121      8643      7718      8144
 -1     23997    3    0    1
 -2      2152       372       315      1435
 -1     23998    3    0    1
 -2      9588      6602      9133      9107
 -1     23999    3    0    1
 -2      2011      1957      2539      3695
 -1     24000    3    0    1
 -2      1919      2464       684      1226
 -1     24001    3    0    1
 -2      7792      8671      7209      7254
 -1     24002    3    0    1
 -2      9491      8861      8885      7614
 -1     24003    3    0    1
 -2      2199       907      2200      3328
 -1     24004    3    0    1
 -2       927       457       490      2734
 -1     24005    3    0    1
 -2      1519      2218      2201      1571
 -1     24006    3    0    1
 -2      7886      6489      8761      7885
 -1     24007    3    0    1
 -2      8333      7421      8373      8344
 -1     24008    3    0    1
 -2      6441      7334      7915      8733
 -1     24009    3    0    1
 -2      3597      1199      1138      2978
 -1     24010    3    0    1
 -2       813       888      1508      3318
 -1     24011    3    0    1
 -2      2036      2047      3152      1286
 -1     24012    3    0    1
 -2      9103      7355      8698      7316
 -1     24013    3    0    1
 -2      2983      3037      3636      2982
 -1     24014    3    0    1
 -2      2916       585       992      2379
 -1     24015    3    0    1
 -2        56        26       102        25
 -1     24016    3    0    1
 -2      2996       205      1833      2399
 -1     24017    3    0    1
 -2      2244       831      2187      2186
 -1     24018    3    0    1
 -2      3324      3854      3268      4331
 -1     24019    3    0    1
 -2      2676      3195      3233      3800
 -1     24020    3    0    1
 -2      7626      6981      6097      8059
 -1     24021    3    0    1
 -2      6115      7097      7676      7614
 -1     24022    3    0    1
 -2      2122       777      3239      1344
 -1     24023    3    0    1
 -2      3250      3229      3162      3772
 -1     24024    3    0    1
 -2        83       108        73      1468
 -1     24025    3    0    1
 -2      5769      5341      5342      5355
 -1     24026    3    0    1
 -2      1016       565       564      1801
 -1     24027    3    0    1
 -2      4104      2973      2939      3001
 -1     24028    3    0    1
 -2       460       459        92       818
 -1     24029    3    0    1
 -2      3545      1127      3557      2914
 -1     24030    3    0    1
 -2      3401      1689      3422      2876
 -1     24031    3    0    1
 -2      7424      7460      8783      8357
 -1     24032    3    0    1
 -2      3175       293       720      1328
 -1     24033    3    0    1
 -2      6511      5553      5936      6611
 -1     24034    3    0    1
 -2       243       211       648      9675
 -1     24035    3    0    1
 -2      9388      7914      7861      9084
 -1     24036    3    0    1
 -2      5473      7778      7120      9058
 -1     24037    3    0    1
 -2      2468       264       265      2453
 -1     24038    3    0    1
 -2      9651      9527      8981      8557
 -1     24039    3    0    1
 -2      8652      7218      7823      7219
 -1     24040    3    0    1
 -2      1456      2161      2171      2229
 -1     24041    3    0    1
 -2      3786      3742      2665      4319
 -1     24042    3    0    1
 -2      1219       648      3006      9675
 -1     24043    3    0    1
 -2      3661      3694      2535      4190
 -1     24044    3    0    1
 -2      2648       754       782      1443
 -1     24045    3    0    1
 -2      5953      6449      6554      7921
 -1     24046    3    0    1
 -2      4356      5421      4705      5226
 -1     24047    3    0    1
 -2       832       833       107      2189
 -1     24048    3    0    1
 -2      6490      8721      6599      6583
 -1     24049    3    0    1
 -2      6719      8398      7966      5671
 -1     24050    3    0    1
 -2      3083      3604      4126      4183
 -1     24051    3    0    1
 -2      3556      1081       614      2896
 -1     24052    3    0    1
 -2      9351      5791      7768      9576
 -1     24053    3    0    1
 -2      6733      6611      6649      5985
 -1     24054    3    0    1
 -2      9455      8846      8359      6755
 -1     24055    3    0    1
 -2      5055      5538      5077      5043
 -1     24056    3    0    1
 -2      7195      8638      7167      6149
 -1     24057    3    0    1
 -2      9097      7334      8733      9389
 -1     24058    3    0    1
 -2       108        83       442      2246
 -1     24059    3    0    1
 -2      7027      7028      7026      8036
 -1     24060    3    0    1
 -2      7052      6075      6948      5777
 -1     24061    3    0    1
 -2      3482      3558      4093      3507
 -1     24062    3    0    1
 -2      4200      2467      2438      1848
 -1     24063    3    0    1
 -2       663      1124       190      2945
 -1     24064    3    0    1
 -2      5785      6127      5839      5371
 -1     24065    3    0    1
 -2      3356       972      1611      2771
 -1     24066    3    0    1
 -2      2521      3043      3637      1896
 -1     24067    3    0    1
 -2       103      2241      2240      2163
 -1     24068    3    0    1
 -2      9180      9155      9139      7902
 -1     24069    3    0    1
 -2      7730      8597      9317      7113
 -1     24070    3    0    1
 -2      1115      3024      2933      3025
 -1     24071    3    0    1
 -2      5804      7723      6175      7122
 -1     24072    3    0    1
 -2      7771      7156      8646      9044
 -1     24073    3    0    1
 -2      5666      9182      8392      5986
 -1     24074    3    0    1
 -2      6052      6050      7607      6083
 -1     24075    3    0    1
 -2      6152      5799      5426      5217
 -1     24076    3    0    1
 -2       623       646      1867      3023
 -1     24077    3    0    1
 -2       488       395      1451      1450
 -1     24078    3    0    1
 -2      9267      8917      8886      7008
 -1     24079    3    0    1
 -2        65       479       501      2185
 -1     24080    3    0    1
 -2      8275      7325      7324      6457
 -1     24081    3    0    1
 -2      4145      2463      3596      3059
 -1     24082    3    0    1
 -2      7692      8555      8958      9518
 -1     24083    3    0    1
 -2       249       224       250      2460
 -1     24084    3    0    1
 -2      1032       534       535      1713
 -1     24085    3    0    1
 -2      6913      6999      8854      8874
 -1     24086    3    0    1
 -2       974       477       916      2233
 -1     24087    3    0    1
 -2      7174      6155      6262      7717
 -1     24088    3    0    1
 -2      2658      3800      3834      3773
 -1     24089    3    0    1
 -2       605      1165       628      1816
 -1     24090    3    0    1
 -2      6115      5698      6053      7003
 -1     24091    3    0    1
 -2      6513      7313      8710      6512
 -1     24092    3    0    1
 -2      2353      3447      2931      2930
 -1     24093    3    0    1
 -2      6653      6711      8816      7438
 -1     24094    3    0    1
 -2       759       741      1435      2641
 -1     24095    3    0    1
 -2      7390      9636      9665      9610
 -1     24096    3    0    1
 -2      7460      7495      6727      8376
 -1     24097    3    0    1
 -2      2667       720       752      1347
 -1     24098    3    0    1
 -2      8731      8283      6464      8732
 -1     24099    3    0    1
 -2      3251      3230      4306      2579
 -1     24100    3    0    1
 -2      2004      1353      2005      3134
 -1     24101    3    0    1
 -2      2655      3207      1432      3190
 -1     24102    3    0    1
 -2      4073      2918      2928      2929
 -1     24103    3    0    1
 -2      4904      5180      5343      4930
 -1     24104    3    0    1
 -2      1449       297       353      1349
 -1     24105    3    0    1
 -2      2651      3221      3247      2610
 -1     24106    3    0    1
 -2      8578      5793      8139      9672
 -1     24107    3    0    1
 -2      3192      3162      3229      3737
 -1     24108    3    0    1
 -2      1206       685      2452      1258
 -1     24109    3    0    1
 -2      5877      5878      6530      5879
 -1     24110    3    0    1
 -2      1277      1276      2565      3758
 -1     24111    3    0    1
 -2       579      1128       532      2946
 -1     24112    3    0    1
 -2       103        31       808      2163
 -1     24113    3    0    1
 -2      8104      7035      7076      8073
 -1     24114    3    0    1
 -2       242       179       137      9675
 -1     24115    3    0    1
 -2      1055      1040      1762      2902
 -1     24116    3    0    1
 -2      1034       537       166      2949
 -1     24117    3    0    1
 -2      6106      9227      7693      6097
 -1     24118    3    0    1
 -2       848       869       918       482
 -1     24119    3    0    1
 -2      8951      9490      8105      9663
 -1     24120    3    0    1
 -2       529       153       227      2943
 -1     24121    3    0    1
 -2      6137      7736      7737      9022
 -1     24122    3    0    1
 -2      3601      2432      1181      3674
 -1     24123    3    0    1
 -2      8772      7450      8780      8798
 -1     24124    3    0    1
 -2       332       331       330      2156
 -1     24125    3    0    1
 -2       137       243       242      9675
 -1     24126    3    0    1
 -2      7768      5791      7700      9576
 -1     24127    3    0    1
 -2       225       254       186      2976
 -1     24128    3    0    1
 -2      3330      2681      2739      2740
 -1     24129    3    0    1
 -2       279       366       277       768
 -1     24130    3    0    1
 -2      9051      9052      9038      9672
 -1     24131    3    0    1
 -2      4916      4895      4917      5193
 -1     24132    3    0    1
 -2      6005      6768      8348      6007
 -1     24133    3    0    1
 -2      1043       125       127       512
 -1     24134    3    0    1
 -2      2984      2464      1202      1886
 -1     24135    3    0    1
 -2      9185      9170      6638      8353
 -1     24136    3    0    1
 -2      2595      2665      2664      3786
 -1     24137    3    0    1
 -2      2732      3875      3275      3265
 -1     24138    3    0    1
 -2      1801      3501      3539      2975
 -1     24139    3    0    1
 -2      8868      8087      6107      9211
 -1     24140    3    0    1
 -2       537       166       536      1034
 -1     24141    3    0    1
 -2      2353      3517      3550      9669
 -1     24142    3    0    1
 -2       122      1807       236       172
 -1     24143    3    0    1
 -2      7242      6348      6346      8661
 -1     24144    3    0    1
 -2      4641      4910      4922      4640
 -1     24145    3    0    1
 -2      5217      5426      4966      5241
 -1     24146    3    0    1
 -2       751       719      2646      1324
 -1     24147    3    0    1
 -2      9499      9546      8982      9667
 -1     24148    3    0    1
 -2      8049      9478      8865      8029
 -1     24149    3    0    1
 -2      5766      5353      5339      6098
 -1     24150    3    0    1
 -2      2954       199       200      2388
 -1     24151    3    0    1
 -2      6111      7637      7687      8103
 -1     24152    3    0    1
 -2      4088      2917      4055      4794
 -1     24153    3    0    1
 -2       928       460        93      1539
 -1     24154    3    0    1
 -2      7892      9120      8725      8705
 -1     24155    3    0    1
 -2      2788       826      3862      3270
 -1     24156    3    0    1
 -2      6431      7293      6395      8299
 -1     24157    3    0    1
 -2      3130      4214      3703      2562
 -1     24158    3    0    1
 -2       461       953      1583       954
 -1     24159    3    0    1
 -2      8545      9481      9482      9543
 -1     24160    3    0    1
 -2      1453       815        90      2733
 -1     24161    3    0    1
 -2      5725      5750      7039      6114
 -1     24162    3    0    1
 -2      8803      9452      8845      8345
 -1     24163    3    0    1
 -2      6731      6607      7406      7453
 -1     24164    3    0    1
 -2      9428      9135      6587      9174
 -1     24165    3    0    1
 -2      7688      6101      7611      7094
 -1     24166    3    0    1
 -2      1188      3030      2485      2970
 -1     24167    3    0    1
 -2      9035      8569      9318      9063
 -1     24168    3    0    1
 -2      8583      8124      7713      9573
 -1     24169    3    0    1
 -2      3454      2896      1081      2895
 -1     24170    3    0    1
 -2      4163      3633      4580      4828
 -1     24171    3    0    1
 -2      2455      3643      1213      1264
 -1     24172    3    0    1
 -2      3526       259       258      2465
 -1     24173    3    0    1
 -2      3822      3148      3806      2098
 -1     24174    3    0    1
 -2      7099      6084      7100      6067
 -1     24175    3    0    1
 -2      9395      8748      6554      9104
 -1     24176    3    0    1
 -2      8710      8742      6513      6574
 -1     24177    3    0    1
 -2      9033      8166      5815      7133
 -1     24178    3    0    1
 -2      5817      6281      5819      5818
 -1     24179    3    0    1
 -2       408        25        56      1460
 -1     24180    3    0    1
 -2      6491      7357      6620      7364
 -1     24181    3    0    1
 -2      3346      3909      4340      4339
 -1     24182    3    0    1
 -2      7088      6061      7605      9241
 -1     24183    3    0    1
 -2      7539      8410      6875      6843
 -1     24184    3    0    1
 -2      9264      7005      8485      8076
 -1     24185    3    0    1
 -2      5538      5263      5077      5043
 -1     24186    3    0    1
 -2      8470      7062      6989      8068
 -1     24187    3    0    1
 -2       338       339       340       362
 -1     24188    3    0    1
 -2      4688      4922      4667      4640
 -1     24189    3    0    1
 -2       162       161       160      2922
 -1     24190    3    0    1
 -2      5601      5097      5981      4830
 -1     24191    3    0    1
 -2      7768      9351      9576      9338
 -1     24192    3    0    1
 -2      1116       508      3535      9675
 -1     24193    3    0    1
 -2      1379      1284      2046       750
 -1     24194    3    0    1
 -2      7181      8658      7790      7204
 -1     24195    3    0    1
 -2      4497      5068      4448      4790
 -1     24196    3    0    1
 -2      3214      4277      2634      2099
 -1     24197    3    0    1
 -2      9128      9392      9139      7902
 -1     24198    3    0    1
 -2      8573      8605      9352      9037
 -1     24199    3    0    1
 -2      6043      7954      7491      8401
 -1     24200    3    0    1
 -2       389       327       328      2155
 -1     24201    3    0    1
 -2      1742      2408      2407      1076
 -1     24202    3    0    1
 -2      8270      6528      6486      7362
 -1     24203    3    0    1
 -2       566       152      1020      1703
 -1     24204    3    0    1
 -2      1418       776      2662      1343
 -1     24205    3    0    1
 -2       125       996      2347      1042
 -1     24206    3    0    1
 -2      9074      8596      7724      9349
 -1     24207    3    0    1
 -2      9318      8118      8569      9035
 -1     24208    3    0    1
 -2      1067       985       557       508
 -1     24209    3    0    1
 -2      3356      1611      1594      2771
 -1     24210    3    0    1
 -2      1277      2565      2611      3758
 -1     24211    3    0    1
 -2      2152       314       797      2611
 -1     24212    3    0    1
 -2      9249      9224      8047      7006
 -1     24213    3    0    1
 -2      4815      4489      4006      4456
 -1     24214    3    0    1
 -2      2774      2273       886      1574
 -1     24215    3    0    1
 -2      6589      9176      9136      7930
 -1     24216    3    0    1
 -2      1068       559      1730      2936
 -1     24217    3    0    1
 -2      3248      1338      2653      3187
 -1     24218    3    0    1
 -2      7359      6561      9120      7857
 -1     24219    3    0    1
 -2      9180      9196      8385      7974
 -1     24220    3    0    1
 -2      9368      9107      8263      7300
 -1     24221    3    0    1
 -2      8547      9530      9645      8548
 -1     24222    3    0    1
 -2       169       170       168       167
 -1     24223    3    0    1
 -2      2575      2613      2574      4598
 -1     24224    3    0    1
 -2      2386       518       509      2357
 -1     24225    3    0    1
 -2       277       276       366       304
 -1     24226    3    0    1
 -2      2345       542       541      1039
 -1     24227    3    0    1
 -2      1132       639      1143      2958
 -1     24228    3    0    1
 -2      6691      5596      5595      5956
 -1     24229    3    0    1
 -2      8108      9245      8097      7100
 -1     24230    3    0    1
 -2       352       296       387      1448
 -1     24231    3    0    1
 -2       349       345       346       385
 -1     24232    3    0    1
 -2       103       117       498      2241
 -1     24233    3    0    1
 -2      9227      9499      9523      8058
 -1     24234    3    0    1
 -2       101       824       429       905
 -1     24235    3    0    1
 -2       445       401       444       849
 -1     24236    3    0    1
 -2      1302      1301       704      1340
 -1     24237    3    0    1
 -2      1338       300       700      2148
 -1     24238    3    0    1
 -2      5376      6242      7792      9034
 -1     24239    3    0    1
 -2      8168      9332      8656      7178
 -1     24240    3    0    1
 -2      6259      6258      7764      7196
 -1     24241    3    0    1
 -2      9186      7967      8824      9171
 -1     24242    3    0    1
 -2      2568      3763      3783      2032
 -1     24243    3    0    1
 -2      3006       648      1219      3026
 -1     24244    3    0    1
 -2       397      2176       805       427
 -1     24245    3    0    1
 -2      1712       987       989      2322
 -1     24246    3    0    1
 -2      5253      6574      6595      6512
 -1     24247    3    0    1
 -2      8270      6486      6454      6438
 -1     24248    3    0    1
 -2      5748      5332      5348      4900
 -1     24249    3    0    1
 -2      3012      3037       660      1918
 -1     24250    3    0    1
 -2      9484      9255      7635      8942
 -1     24251    3    0    1
 -2      5345      5337      5706      5361
 -1     24252    3    0    1
 -2      5749      7611      5714      6101
 -1     24253    3    0    1
 -2       311       790       705       312
 -1     24254    3    0    1
 -2      7453      6731      6607      5983
 -1     24255    3    0    1
 -2      1178      3067      1902      1901
 -1     24256    3    0    1
 -2      8282      7351      8281      8730
 -1     24257    3    0    1
 -2      2133       709      1282      3238
 -1     24258    3    0    1
 -2      6901      6920      8436      6851
 -1     24259    3    0    1
 -2      5838      4944      4347      5002
 -1     24260    3    0    1
 -2      5158      5713      5179      5696
 -1     24261    3    0    1
 -2      8524      8901      8882      9259
 -1     24262    3    0    1
 -2      6021      5978      6722      8798
 -1     24263    3    0    1
 -2      6766      8347      6699      6013
 -1     24264    3    0    1
 -2      7992      7496      7949      7526
 -1     24265    3    0    1
 -2      1790      1119      1137      2937
 -1     24266    3    0    1
 -2      5426      5799      5852      5472
 -1     24267    3    0    1
 -2       751       719      2647      2646
 -1     24268    3    0    1
 -2      9643      5951      9604      7408
 -1     24269    3    0    1
 -2      6707      7940      9157      6652
 -1     24270    3    0    1
 -2      2638      3825      3177      2086
 -1     24271    3    0    1
 -2      4696      4329      4742      3908
 -1     24272    3    0    1
 -2      9407      9115      9601      9670
 -1     24273    3    0    1
 -2        85       394       813      1496
 -1     24274    3    0    1
 -2       179      2919      2386      9675
 -1     24275    3    0    1
 -2      2179        59       827       807
 -1     24276    3    0    1
 -2      9490      9503      8105      8042
 -1     24277    3    0    1
 -2      8954      9492      9536      8107
 -1     24278    3    0    1
 -2      7415      6668      8777      7416
 -1     24279    3    0    1
 -2      7732      8118      9318      9035
 -1     24280    3    0    1
 -2      1539       819      2746      2695
 -1     24281    3    0    1
 -2        23         6         4        22
 -1     24282    3    0    1
 -2      7069      5756      5335      5776
 -1     24283    3    0    1
 -2      7023      7683      8034      9213
 -1     24284    3    0    1
 -2       290       746       745      1441
 -1     24285    3    0    1
 -2      3042      1206      1128      2946
 -1     24286    3    0    1
 -2      7093      7092      7035      8550
 -1     24287    3    0    1
 -2      1104      1082      1750      1793
 -1     24288    3    0    1
 -2      6620      7364      7357      9671
 -1     24289    3    0    1
 -2      8793      9144      7884      5961
 -1     24290    3    0    1
 -2        22        23         6      1456
 -1     24291    3    0    1
 -2      3948      3401      2300      2323
 -1     24292    3    0    1
 -2      3450      1661      1697      2863
 -1     24293    3    0    1
 -2      1831      1849      2510      1832
 -1     24294    3    0    1
 -2      7422      7470      7421      6681
 -1     24295    3    0    1
 -2      3994      3515      2350      4422
 -1     24296    3    0    1
 -2      2908      3471      3415      2935
 -1     24297    3    0    1
 -2      7895      7858      5908      7912
 -1     24298    3    0    1
 -2      1034       166       165      2949
 -1     24299    3    0    1
 -2      6597      5903      7349      5515
 -1     24300    3    0    1
 -2      1796      3487      3530      2956
 -1     24301    3    0    1
 -2      7278      7871      6516      8696
 -1     24302    3    0    1
 -2       509      2357       508      9675
 -1     24303    3    0    1
 -2      8694      9089      7311      7287
 -1     24304    3    0    1
 -2      9183      9626      6637      9671
 -1     24305    3    0    1
 -2      8257      7833      9085      7845
 -1     24306    3    0    1
 -2      1805       635      2992      1212
 -1     24307    3    0    1
 -2      7785      9056      9042      6257
 -1     24308    3    0    1
 -2      5072      5903      5576      4816
 -1     24309    3    0    1
 -2      6629      6611      6733      5985
 -1     24310    3    0    1
 -2      8138      7773      9021      9036
 -1     24311    3    0    1
 -2      9144      6581      9607      9363
 -1     24312    3    0    1
 -2      9305      9032      7697      6130
 -1     24313    3    0    1
 -2      9494      8554      9249      7102
 -1     24314    3    0    1
 -2      2408      2367      1741      1742
 -1     24315    3    0    1
 -2      2389      2857      4050      2348
 -1     24316    3    0    1
 -2      5984      6004      7461      6702
 -1     24317    3    0    1
 -2      6239      9317      7207      9062
 -1     24318    3    0    1
 -2      2931      1002      2860      2353
 -1     24319    3    0    1
 -2      8129      9057      6152      7119
 -1     24320    3    0    1
 -2      8957      9295      8553      9494
 -1     24321    3    0    1
 -2      7334      7915      5945      6441
 -1     24322    3    0    1
 -2      9215      8881      6988      9243
 -1     24323    3    0    1
 -2      9115      7342      6610      7429
 -1     24324    3    0    1
 -2      1428      3229      3771      3192
 -1     24325    3    0    1
 -2       199      2954      1805      2953
 -1     24326    3    0    1
 -2      2478      1186      1868      3626
 -1     24327    3    0    1
 -2        91       457       927      2733
 -1     24328    3    0    1
 -2      6281      6241      5817      7136
 -1     24329    3    0    1
 -2      8958      8555      9238      9518
 -1     24330    3    0    1
 -2      9619      7956      9468      9453
 -1     24331    3    0    1
 -2       105       481      2244      2243
 -1     24332    3    0    1
 -2       474       117       118      2241
 -1     24333    3    0    1
 -2      3150      3764       719      1324
 -1     24334    3    0    1
 -2      9236      8956      8553      8098
 -1     24335    3    0    1
 -2      4467      3413      4421      2858
 -1     24336    3    0    1
 -2      8015      9225      8887      6919
 -1     24337    3    0    1
 -2      4922      5758      5207      5729
 -1     24338    3    0    1
 -2      9282      9490      8952      9221
 -1     24339    3    0    1
 -2      7321      8700      6581      5939
 -1     24340    3    0    1
 -2      3243      2669      3176      3808
 -1     24341    3    0    1
 -2      2501       668       263      1228
 -1     24342    3    0    1
 -2      2624      2632      1422      2082
 -1     24343    3    0    1
 -2      8881      6988      7572      8858
 -1     24344    3    0    1
 -2      5992      6761      5994      5993
 -1     24345    3    0    1
 -2       497        57       102       470
 -1     24346    3    0    1
 -2      6490      7323      8721      6583
 -1     24347    3    0    1
 -2      1339      1298       701      3159
 -1     24348    3    0    1
 -2      8718      7876      9079      6488
 -1     24349    3    0    1
 -2      8080      7619      8914      7067
 -1     24350    3    0    1
 -2      7332      6588      6502      5522
 -1     24351    3    0    1
 -2      7316      9393      9103      7355
 -1     24352    3    0    1
 -2       464       930        94       493
 -1     24353    3    0    1
 -2      9315      8992      8559      7726
 -1     24354    3    0    1
 -2      5915      7314      6577      7939
 -1     24355    3    0    1
 -2      2884       999       513      2905
 -1     24356    3    0    1
 -2      7718      8163      6262      9578
 -1     24357    3    0    1
 -2      9167      7502      8358      6700
 -1     24358    3    0    1
 -2      9072      5473      6260      9058
 -1     24359    3    0    1
 -2      3251      4306      3208      2579
 -1     24360    3    0    1
 -2      7906      9142      9412      5955
 -1     24361    3    0    1
 -2      1362      2026       694      3164
 -1     24362    3    0    1
 -2      3479      4029      4485      3523
 -1     24363    3    0    1
 -2      8088      7586      6984      8892
 -1     24364    3    0    1
 -2      1604      2756       959      1605
 -1     24365    3    0    1
 -2      8207      7790      6297      6298
 -1     24366    3    0    1
 -2      7879      9607      9363      9364
 -1     24367    3    0    1
 -2      8016      8050      9251      6096
 -1     24368    3    0    1
 -2      6606      7360      5911      6593
 -1     24369    3    0    1
 -2       509       983       985      2357
 -1     24370    3    0    1
 -2      1123       661       660      3037
 -1     24371    3    0    1
 -2      6728      8802      7949      7526
 -1     24372    3    0    1
 -2      8851      6909      5693      7546
 -1     24373    3    0    1
 -2      7357      8273      9386      9671
 -1     24374    3    0    1
 -2      1835      1865      4136      2966
 -1     24375    3    0    1
 -2      8676      6422      7840      5869
 -1     24376    3    0    1
 -2      5353      5766      6110      6098
 -1     24377    3    0    1
 -2      1277       315       740      2611
 -1     24378    3    0    1
 -2      8511      8512      6091      7620
 -1     24379    3    0    1
 -2      6658      5960      8792      6618
 -1     24380    3    0    1
 -2      7629      8882      9216      9259
 -1     24381    3    0    1
 -2      3210      2666      2146      2045
 -1     24382    3    0    1
 -2      4572      4571      4523      5139
 -1     24383    3    0    1
 -2      1240      1907       643      3021
 -1     24384    3    0    1
 -2       123      1807       122      1785
 -1     24385    3    0    1
 -2      5386      5385      6141      6247
 -1     24386    3    0    1
 -2      6643      6728      5631      5646
 -1     24387    3    0    1
 -2      1701      1700      1632      3419
 -1     24388    3    0    1
 -2       550       549      3468      2905
 -1     24389    3    0    1
 -2      6620      6600      6491      7364
 -1     24390    3    0    1
 -2      7787      8609      8642      8610
 -1     24391    3    0    1
 -2      5953      5931      5514      5284
 -1     24392    3    0    1
 -2       103       808      2682      2163
 -1     24393    3    0    1
 -2      2199      1557       907      3328
 -1     24394    3    0    1
 -2      1034       536       537      2898
 -1     24395    3    0    1
 -2      3601      1181      2432      1818
 -1     24396    3    0    1
 -2       294       343       798      1447
 -1     24397    3    0    1
 -2      7006      6103      7103      7618
 -1     24398    3    0    1
 -2      7350      7321      8700      7297
 -1     24399    3    0    1
 -2      7772      9579      7694      6163
 -1     24400    3    0    1
 -2      2158      2647       781      3201
 -1     24401    3    0    1
 -2      6537      7332      6502      7861
 -1     24402    3    0    1
 -2      9521      9527      9250      8558
 -1     24403    3    0    1
 -2      8572      7700      5791      9576
 -1     24404    3    0    1
 -2      2658      3195      2151      3800
 -1     24405    3    0    1
 -2      2852      2366      1049      2942
 -1     24406    3    0    1
 -2      7167      7195      6149      6213
 -1     24407    3    0    1
 -2      7188      6167      6134      5450
 -1     24408    3    0    1
 -2      7088      7605      6081      8091
 -1     24409    3    0    1
 -2      5378      7210      6196      7781
 -1     24410    3    0    1
 -2      3016      3657       673      2996
 -1     24411    3    0    1
 -2      7196      7764      6259      8197
 -1     24412    3    0    1
 -2       819       449       113      1539
 -1     24413    3    0    1
 -2      7771      6372      8645      9059
 -1     24414    3    0    1
 -2      7338      5550      5946      6590
 -1     24415    3    0    1
 -2      3041      1206      2452      1258
 -1     24416    3    0    1
 -2       780       750      2645      3242
 -1     24417    3    0    1
 -2      1791       562       563      1149
 -1     24418    3    0    1
 -2      4878      4852      5645      4877
 -1     24419    3    0    1
 -2      1303       282       280      2040
 -1     24420    3    0    1
 -2      1453        90        91      2733
 -1     24421    3    0    1
 -2      3453      3501      1801      2975
 -1     24422    3    0    1
 -2      2011      1957      3695      3193
 -1     24423    3    0    1
 -2      2690       456      1471      2745
 -1     24424    3    0    1
 -2      9351      7115      5791      9576
 -1     24425    3    0    1
 -2      5945      9151      7915      9389
 -1     24426    3    0    1
 -2      4931      5188      5772      5752
 -1     24427    3    0    1
 -2      2520      1978      1895      1977
 -1     24428    3    0    1
 -2      1149       563      2926      2941
 -1     24429    3    0    1
 -2      8599      9307      8116      9034
 -1     24430    3    0    1
 -2       727       699      1338      3156
 -1     24431    3    0    1
 -2      1338      2148      1445      3248
 -1     24432    3    0    1
 -2      2443      3618      4133      2472
 -1     24433    3    0    1
 -2       719      3764      3150      2647
 -1     24434    3    0    1
 -2      6822      6046      7537      7997
 -1     24435    3    0    1
 -2      6626      8354      9192      7453
 -1     24436    3    0    1
 -2      3509      2917      4088      4794
 -1     24437    3    0    1
 -2       508       509       985      2357
 -1     24438    3    0    1
 -2      2591      3782      3127      4294
 -1     24439    3    0    1
 -2      5887      7369      5885      8313
 -1     24440    3    0    1
 -2       608       199      2954      1805
 -1     24441    3    0    1
 -2       401       392        76      1469
 -1     24442    3    0    1
 -2      2999      3603      3063      1819
 -1     24443    3    0    1
 -2      8441      7557      6908      7534
 -1     24444    3    0    1
 -2      6116      7066      7098      7004
 -1     24445    3    0    1
 -2      5918      7892      8705      7911
 -1     24446    3    0    1
 -2      6709      8389      6708      7436
 -1     24447    3    0    1
 -2      2142       706       758      3232
 -1     24448    3    0    1
 -2      1433      2040       734      3139
 -1     24449    3    0    1
 -2      2667       752       762      2135
 -1     24450    3    0    1
 -2      1116       508       985      2888
 -1     24451    3    0    1
 -2      6126      7112      6238      6127
 -1     24452    3    0    1
 -2       863       451       432      1476
 -1     24453    3    0    1
 -2      8027      8854      6913      8012
 -1     24454    3    0    1
 -2      8956      8532      9247      9516
 -1     24455    3    0    1
 -2      9135      7927      6587      9174
 -1     24456    3    0    1
 -2      7027      7026      7589      8036
 -1     24457    3    0    1
 -2      2929      4504      3017      2958
 -1     24458    3    0    1
 -2       934      1607      1557      3373
 -1     24459    3    0    1
 -2       199      2388      2917       201
 -1     24460    3    0    1
 -2      2040       789       282      2150
 -1     24461    3    0    1
 -2      5976      7448      6718      5625
 -1     24462    3    0    1
 -2      2467      3611      4200      2438
 -1     24463    3    0    1
 -2       414        62        63      1465
 -1     24464    3    0    1
 -2      9625      8776      7907      8329
 -1     24465    3    0    1
 -2        78        14        77      1451
 -1     24466    3    0    1
 -2       912      3381      2768      3299
 -1     24467    3    0    1
 -2      7728      9333      7111      5783
 -1     24468    3    0    1
 -2      7864      9112      9375      7360
 -1     24469    3    0    1
 -2      7172      7167      9041      6149
 -1     24470    3    0    1
 -2      5643      5584      5964      6623
 -1     24471    3    0    1
 -2      6365      7262      8196      6366
 -1     24472    3    0    1
 -2      6947      7084      8922      6075
 -1     24473    3    0    1
 -2      7579      8458      8001      5705
 -1     24474    3    0    1
 -2      8879      8021      7635      9255
 -1     24475    3    0    1
 -2      5747      6100      5348      5770
 -1     24476    3    0    1
 -2      8628      8137      8599      9019
 -1     24477    3    0    1
 -2      3737      3229      4305      3772
 -1     24478    3    0    1
 -2      5642      6622      5991      5289
 -1     24479    3    0    1
 -2      2948      3558      4093      3482
 -1     24480    3    0    1
 -2      8071      6113      7092      9232
 -1     24481    3    0    1
 -2      6195      7185      6308      8614
 -1     24482    3    0    1
 -2      7035      7092      5713      8040
 -1     24483    3    0    1
 -2      8917      9267      7069      7008
 -1     24484    3    0    1
 -2      3508      2991      2916      3559
 -1     24485    3    0    1
 -2      8555      8978      8958      9647
 -1     24486    3    0    1
 -2      1610      3381      3380      3390
 -1     24487    3    0    1
 -2      5985      5608      5648      5633
 -1     24488    3    0    1
 -2      7798      6329      6328      7250
 -1     24489    3    0    1
 -2       985      1067       557      1116
 -1     24490    3    0    1
 -2      9252      9286      9541      8967
 -1     24491    3    0    1
 -2      3202       754       782      2648
 -1     24492    3    0    1
 -2      8354      9469      9190      6626
 -1     24493    3    0    1
 -2      8033      7542      8856      6922
 -1     24494    3    0    1
 -2      4030      4031      2368      3541
 -1     24495    3    0    1
 -2      5034      5068      5033      4448
 -1     24496    3    0    1
 -2      6561      7911      5560      7359
 -1     24497    3    0    1
 -2      5467      7188      6134      5450
 -1     24498    3    0    1
 -2      3760      4266      3234      3165
 -1     24499    3    0    1
 -2      2146      2666      1424      2045
 -1     24500    3    0    1
 -2      2145       380       747      1441
 -1     24501    3    0    1
 -2      8971      8949      8550      9526
 -1     24502    3    0    1
 -2      8885      7631      8932      7003
 -1     24503    3    0    1
 -2      2270       866       882      3296
 -1     24504    3    0    1
 -2      2199      3291      1557      3328
 -1     24505    3    0    1
 -2      6921      8498      8051      7582
 -1     24506    3    0    1
 -2      8170      7708      9320      9341
 -1     24507    3    0    1
 -2       353       723       784      2650
 -1     24508    3    0    1
 -2      1234       676      1183      1215
 -1     24509    3    0    1
 -2      6574      9128      8742      7903
 -1     24510    3    0    1
 -2      7321      7350      5939      5876
 -1     24511    3    0    1
 -2      2649      3177      2048      2085
 -1     24512    3    0    1
 -2      9408      8709      8741      7901
 -1     24513    3    0    1
 -2      7892      7911      8798      8772
 -1     24514    3    0    1
 -2      3201       294       293      1327
 -1     24515    3    0    1
 -2      2658      3773      3194      3164
 -1     24516    3    0    1
 -2      1261      1978      1895      2521
 -1     24517    3    0    1
 -2      5385      5386      5420      6247
 -1     24518    3    0    1
 -2      9032      6164      7170      6130
 -1     24519    3    0    1
 -2      8290      7898      8767      6543
 -1     24520    3    0    1
 -2      9419      9113      6608      9600
 -1     24521    3    0    1
 -2      3691      3677      4590      1975
 -1     24522    3    0    1
 -2      3930      2813      3297      2217
 -1     24523    3    0    1
 -2      8203      7201      6264      7157
 -1     24524    3    0    1
 -2      1736      1768      2406      3997
 -1     24525    3    0    1
 -2      2615      1400      2594      2076
 -1     24526    3    0    1
 -2      5900      5902      5930      8297
 -1     24527    3    0    1
 -2       301       300       299       364
 -1     24528    3    0    1
 -2      5811      5236      5392      4710
 -1     24529    3    0    1
 -2      9267      8535      8917      7069
 -1     24530    3    0    1
 -2       739      1342      2131      3232
 -1     24531    3    0    1
 -2      5040      5903      5534      4781
 -1     24532    3    0    1
 -2      7430      8786      6769      8348
 -1     24533    3    0    1
 -2      7810      5478      5809      7773
 -1     24534    3    0    1
 -2      3210       793      3257      2045
 -1     24535    3    0    1
 -2      4815      4006      4502      4456
 -1     24536    3    0    1
 -2       164       166       165      1034
 -1     24537    3    0    1
 -2      3434      3406      2334      2342
 -1     24538    3    0    1
 -2      7629      6062      6049      8092
 -1     24539    3    0    1
 -2      4310      4684      4268      3781
 -1     24540    3    0    1
 -2      7582      6921      8498      6881
 -1     24541    3    0    1
 -2      7902      8813      9155      6650
 -1     24542    3    0    1
 -2      9542      8101      8544      9287
 -1     24543    3    0    1
 -2      7103      7045      7102      6103
 -1     24544    3    0    1
 -2      1806      2994      3462      3511
 -1     24545    3    0    1
 -2      2676        12       371        11
 -1     24546    3    0    1
 -2      6022      5996      5998      8375
 -1     24547    3    0    1
 -2      2162        57       102      2266
 -1     24548    3    0    1
 -2      7032      8093      8549      9487
 -1     24549    3    0    1
 -2      2151       772      3195      2658
 -1     24550    3    0    1
 -2      7663      7106      7107      7012
 -1     24551    3    0    1
 -2      2041      3235      3760      3775
 -1     24552    3    0    1
 -2      1488       473       910      2708
 -1     24553    3    0    1
 -2      6221      6220      7815      8640
 -1     24554    3    0    1
 -2      6908      5689      6865      7557
 -1     24555    3    0    1
 -2      2147      2160       388      2114
 -1     24556    3    0    1
 -2      7865      7308      8693      7274
 -1     24557    3    0    1
 -2      7914      5658      5968      8800
 -1     24558    3    0    1
 -2      7357      9096      7854      6491
 -1     24559    3    0    1
 -2      4345      4403      4749      4750
 -1     24560    3    0    1
 -2      2752       901      2230      3347
 -1     24561    3    0    1
 -2      7153      5853      8162      8201
 -1     24562    3    0    1
 -2      6177      7124      6266      6231
 -1     24563    3    0    1
 -2      9353      7705      8577      9299
 -1     24564    3    0    1
 -2      3403      3983      2839      1672
 -1     24565    3    0    1
 -2      5213      4743      5448      5212
 -1     24566    3    0    1
 -2       326       376       776      2154
 -1     24567    3    0    1
 -2      2978      1199      1198      1880
 -1     24568    3    0    1
 -2      2598      3199      3172      2034
 -1     24569    3    0    1
 -2      2000      3129      3149      2543
 -1     24570    3    0    1
 -2      7273      7305      8681      7827
 -1     24571    3    0    1
 -2      9317      9580      9061      8597
 -1     24572    3    0    1
 -2      1257      3040      1204      1920
 -1     24573    3    0    1
 -2      2172       464       837      1484
 -1     24574    3    0    1
 -2      8572      8119      7700      9576
 -1     24575    3    0    1
 -2      6210      6287      8161      6256
 -1     24576    3    0    1
 -2      6566      6604      7913      6499
 -1     24577    3    0    1
 -2        13        78       488      1451
 -1     24578    3    0    1
 -2      2304      2839      3983      1672
 -1     24579    3    0    1
 -2      3201       293      3175      1327
 -1     24580    3    0    1
 -2      2986      1207       263      2501
 -1     24581    3    0    1
 -2      2992      3613      3641      1821
 -1     24582    3    0    1
 -2      3549      3510      2994      3462
 -1     24583    3    0    1
 -2      8517      7058      8516      9275
 -1     24584    3    0    1
 -2      1539       461      1583      2746
 -1     24585    3    0    1
 -2      6126      6238      6128      5785
 -1     24586    3    0    1
 -2       908      1557      3291      2763
 -1     24587    3    0    1
 -2      6755      5612      5665      6652
 -1     24588    3    0    1
 -2      8100      8058      7108      7053
 -1     24589    3    0    1
 -2      5228      5440      5460      5802
 -1     24590    3    0    1
 -2      8789      7943      7440      7441
 -1     24591    3    0    1
 -2      1454      1455      1539      3266
 -1     24592    3    0    1
 -2      7737      6198      6137      9022
 -1     24593    3    0    1
 -2      3907      2820      1579      1578
 -1     24594    3    0    1
 -2      6566      5934      6604      6499
 -1     24595    3    0    1
 -2      8816      9159      8360      6653
 -1     24596    3    0    1
 -2       526       143       525      2938
 -1     24597    3    0    1
 -2       697       698      1294      2610
 -1     24598    3    0    1
 -2      2896      3542      3556      2895
 -1     24599    3    0    1
 -2      4041      1753      2378      2396
 -1     24600    3    0    1
 -2       249       250       653      2460
 -1     24601    3    0    1
 -2      8053      8019      8867      7018
 -1     24602    3    0    1
 -2      7470      7421      6681      6682
 -1     24603    3    0    1
 -2      1151      1181       661      1818
 -1     24604    3    0    1
 -2      7884      6581      5961      9144
 -1     24605    3    0    1
 -2       440       846       414      2183
 -1     24606    3    0    1
 -2      9538      8957      9494      9660
 -1     24607    3    0    1
 -2      3637      1260      2521      1896
 -1     24608    3    0    1
 -2      6488      7876      9079      6487
 -1     24609    3    0    1
 -2      8820      9142      7906      5955
 -1     24610    3    0    1
 -2      9151      5945      7390      9389
 -1     24611    3    0    1
 -2       849      3310      2716      2717
 -1     24612    3    0    1
 -2      3701      1274      2549      3123
 -1     24613    3    0    1
 -2      6053      8013      7631      6915
 -1     24614    3    0    1
 -2       916       830       439      2791
 -1     24615    3    0    1
 -2      8731      6464      6504      8732
 -1     24616    3    0    1
 -2      2788      2738      3377      3900
 -1     24617    3    0    1
 -2      2556      3125      1280      4230
 -1     24618    3    0    1
 -2      7534      6776      6035      7545
 -1     24619    3    0    1
 -2      9419      9670      6608      9673
 -1     24620    3    0    1
 -2      7125      6232      7724      9349
 -1     24621    3    0    1
 -2      6637      5313      5581      6717
 -1     24622    3    0    1
 -2      6197      5843      6270      7186
 -1     24623    3    0    1
 -2       186       254       253      2976
 -1     24624    3    0    1
 -2      2136       755       783      1386
 -1     24625    3    0    1
 -2      3912      3930      2270      3297
 -1     24626    3    0    1
 -2      6711      6737      5614      6653
 -1     24627    3    0    1
 -2      3174      3716      3242      2046
 -1     24628    3    0    1
 -2      7504      6751      9193      9673
 -1     24629    3    0    1
 -2      2552      3154      3132      1986
 -1     24630    3    0    1
 -2      9250      9521      8558      7106
 -1     24631    3    0    1
 -2      1450      3263      3264      3321
 -1     24632    3    0    1
 -2      7849      8316      6542      6469
 -1     24633    3    0    1
 -2      5632      6731      7453      5983
 -1     24634    3    0    1
 -2      9503      9281      7077      8907
 -1     24635    3    0    1
 -2      2671      3212      3205      1349
 -1     24636    3    0    1
 -2      9057      6277      7173      5799
 -1     24637    3    0    1
 -2      1514      2211       876      2261
 -1     24638    3    0    1
 -2      2539      3695      3112      4208
 -1     24639    3    0    1
 -2       326       327       376      2614
 -1     24640    3    0    1
 -2      6090      5776      7069      5335
 -1     24641    3    0    1
 -2      9613      9382      7875      9624
 -1     24642    3    0    1
 -2      3103      3088      1946      1988
 -1     24643    3    0    1
 -2      3900      2788      3862      3270
 -1     24644    3    0    1
 -2      8611      5803      8645      8145
 -1     24645    3    0    1
 -2      7886      6489      6531      8761
 -1     24646    3    0    1
 -2      8316      7849      8289      6469
 -1     24647    3    0    1
 -2      6156      6157      6262      7175
 -1     24648    3    0    1
 -2      5666      5085      6023      4568
 -1     24649    3    0    1
 -2      6098      5766      6110      7089
 -1     24650    3    0    1
 -2      9206      9643      9470      7463
 -1     24651    3    0    1
 -2      5403      6175      7123      6176
 -1     24652    3    0    1
 -2      5122      4172      4861      5121
 -1     24653    3    0    1
 -2      8460      6909      5693      8851
 -1     24654    3    0    1
 -2      7518      8362      6712      6655
 -1     24655    3    0    1
 -2      2539      3695      4208      3687
 -1     24656    3    0    1
 -2       264       216       168      2453
 -1     24657    3    0    1
 -2      3716      3174      3242      4298
 -1     24658    3    0    1
 -2      3630      3568      4515      4162
 -1     24659    3    0    1
 -2      4869      4870      5668      5325
 -1     24660    3    0    1
 -2      2472      3644      2443      2473
 -1     24661    3    0    1
 -2      2613      2575      2576      4598
 -1     24662    3    0    1
 -2      5700      4676      6065      5350
 -1     24663    3    0    1
 -2      7033      5695      6995      5769
 -1     24664    3    0    1
 -2      6671      6670      5977      7924
 -1     24665    3    0    1
 -2        31       103       473       435
 -1     24666    3    0    1
 -2      6022      7494      5996      8375
 -1     24667    3    0    1
 -2      9651      9498      8050      8557
 -1     24668    3    0    1
 -2      6494      6601      9105      5905
 -1     24669    3    0    1
 -2      4147      2495      4148      2447
 -1     24670    3    0    1
 -2      5946      5259      5550      7338
 -1     24671    3    0    1
 -2       426       903      2757      2175
 -1     24672    3    0    1
 -2      8303      7295      7349      8684
 -1     24673    3    0    1
 -2      1059      3464      3513      2400
 -1     24674    3    0    1
 -2      2326      2837      3978      3977
 -1     24675    3    0    1
 -2      3250      3229      3208      3162
 -1     24676    3    0    1
 -2        99        98        55       397
 -1     24677    3    0    1
 -2      1813      1837      1851      2427
 -1     24678    3    0    1
 -2      7790      5463      7181      7204
 -1     24679    3    0    1
 -2      6123      7725      7726      7126
 -1     24680    3    0    1
 -2      6829      6826      7496      7992
 -1     24681    3    0    1
 -2      7032      7091      6994      9231
 -1     24682    3    0    1
 -2      6449      5953      8326      7920
 -1     24683    3    0    1
 -2      7101      8098      9247      7638
 -1     24684    3    0    1
 -2      5887      7302      7369      8313
 -1     24685    3    0    1
 -2      1751      1753      1773      2378
 -1     24686    3    0    1
 -2      3188      2653      1338      3187
 -1     24687    3    0    1
 -2      2399      2996      1762      2924
 -1     24688    3    0    1
 -2      7369      5919      6565      7302
 -1     24689    3    0    1
 -2      3274      2742      2228      2716
 -1     24690    3    0    1
 -2      9249      8554      8533      7103
 -1     24691    3    0    1
 -2      5515      7349      6597      5533
 -1     24692    3    0    1
 -2      6843      7539      8410      7530
 -1     24693    3    0    1
 -2      9088      9113      8266      7352
 -1     24694    3    0    1
 -2      8995      7736      7703      9331
 -1     24695    3    0    1
 -2      2176       805       427       806
 -1     24696    3    0    1
 -2      9467      9451      7390      9665
 -1     24697    3    0    1
 -2      1428       309       358      2141
 -1     24698    3    0    1
 -2      2204      2687      2248      2193
 -1     24699    3    0    1
 -2      9255      9484      9528      8942
 -1     24700    3    0    1
 -2       247       558      2970      2935
 -1     24701    3    0    1
 -2      8699      8261      7838      9077
 -1     24702    3    0    1
 -2      4095      4088      4055      4794
 -1     24703    3    0    1
 -2      9606      9132      7907      8776
 -1     24704    3    0    1
 -2      2444      2479      3662      3646
 -1     24705    3    0    1
 -2      2944      1124      1026      1683
 -1     24706    3    0    1
 -2      9536      9504      9492      8954
 -1     24707    3    0    1
 -2      9461      9445      7951      9607
 -1     24708    3    0    1
 -2      8108      9245      9294      8955
 -1     24709    3    0    1
 -2       694      2026      1362      1310
 -1     24710    3    0    1
 -2      8505      8854      6999      8874
 -1     24711    3    0    1
 -2      1032      3422      1713      3482
 -1     24712    3    0    1
 -2      7723      8999      9015      9329
 -1     24713    3    0    1
 -2       840       841        95       902
 -1     24714    3    0    1
 -2      8783      7460      8376      8357
 -1     24715    3    0    1
 -2      1061      3446      2882      1695
 -1     24716    3    0    1
 -2       912      2769      3299      1489
 -1     24717    3    0    1
 -2      6905      7569      7586      8439
 -1     24718    3    0    1
 -2      8108      9294      9245      8976
 -1     24719    3    0    1
 -2      8941      9483      9484      9506
 -1     24720    3    0    1
 -2      6265      6264      7201      7157
 -1     24721    3    0    1
 -2       951       952       893       894
 -1     24722    3    0    1
 -2       384      2158       292       798
 -1     24723    3    0    1
 -2      6272      6198      5850      7794
 -1     24724    3    0    1
 -2      9300      8143      9011      9324
 -1     24725    3    0    1
 -2      8773      8805      7934      5956
 -1     24726    3    0    1
 -2      9525      8883      9487      8948
 -1     24727    3    0    1
 -2      3552       245       244      3569
 -1     24728    3    0    1
 -2      6175      5403      7177      6176
 -1     24729    3    0    1
 -2      8767      9111      6543      7897
 -1     24730    3    0    1
 -2      7038      7611      5749      7077
 -1     24731    3    0    1
 -2      5995      7417      5966      6585
 -1     24732    3    0    1
 -2      1833       205       217      1784
 -1     24733    3    0    1
 -2      1650      1615       941      1651
 -1     24734    3    0    1
 -2      8257      8680      6384      7845
 -1     24735    3    0    1
 -2      2732        89       927      2733
 -1     24736    3    0    1
 -2      3756      4674      4611      4317
 -1     24737    3    0    1
 -2      3160      2656      3814      4257
 -1     24738    3    0    1
 -2      6798      6797      7530      6843
 -1     24739    3    0    1
 -2      7303      6500      5889      8729
 -1     24740    3    0    1
 -2      4671      5151      5187      4888
 -1     24741    3    0    1
 -2      8721      6599      9397      9365
 -1     24742    3    0    1
 -2      7623      8877      8866      7622
 -1     24743    3    0    1
 -2      1444      2115       786      2651
 -1     24744    3    0    1
 -2         3         2         1       392
 -1     24745    3    0    1
 -2      7160      6239      5779      5433
 -1     24746    3    0    1
 -2      4926      4892      5722      5690
 -1     24747    3    0    1
 -2      5246      4806      4424      5047
 -1     24748    3    0    1
 -2      6288      5831      5829      5830
 -1     24749    3    0    1
 -2      1834      2424      3618      4132
 -1     24750    3    0    1
 -2      5475      5402      5461      4722
 -1     24751    3    0    1
 -2       489        89       111       927
 -1     24752    3    0    1
 -2      6974      8496      8497      6976
 -1     24753    3    0    1
 -2      3281      2172       464      3324
 -1     24754    3    0    1
 -2      3237      1369       761      3777
 -1     24755    3    0    1
 -2      2183      3869      3271      3334
 -1     24756    3    0    1
 -2      3744      3240      2079      2078
 -1     24757    3    0    1
 -2      8696      7871      6516      8711
 -1     24758    3    0    1
 -2      9298      8572      8571      9351
 -1     24759    3    0    1
 -2       637      2993      1213      1806
 -1     24760    3    0    1
 -2      6525      5954      6557      5955
 -1     24761    3    0    1
 -2      2807      1604      2285      1629
 -1     24762    3    0    1
 -2      3199       779      3787      2632
 -1     24763    3    0    1
 -2      3844      3319      3917      4944
 -1     24764    3    0    1
 -2      7585      7586      8868      8848
 -1     24765    3    0    1
 -2      1061      1043       545      1695
 -1     24766    3    0    1
 -2       958       464       493      3324
 -1     24767    3    0    1
 -2      6986      9254      7025      8063
 -1     24768    3    0    1
 -2      6085      9246      6117      7616
 -1     24769    3    0    1
 -2      6146      8637      7743      5393
 -1     24770    3    0    1
 -2      6420      7817      8245      6419
 -1     24771    3    0    1
 -2      7880      6591      7338      6590
 -1     24772    3    0    1
 -2      6149      7150      7172      5813
 -1     24773    3    0    1
 -2      9174      9187      6749      9449
 -1     24774    3    0    1
 -2       295       297      1448      1349
 -1     24775    3    0    1
 -2      3052      1909       646      3023
 -1     24776    3    0    1
 -2      6971      6972      6091      7620
 -1     24777    3    0    1
 -2      3598      3010      3540      3009
 -1     24778    3    0    1
 -2      1342       739       706      3232
 -1     24779    3    0    1
 -2      7149      7150      8124      6148
 -1     24780    3    0    1
 -2      9361      9401      9416      9674
 -1     24781    3    0    1
 -2      6083      6050      7607      8507
 -1     24782    3    0    1
 -2      1657      1692      1691      2846
 -1     24783    3    0    1
 -2      7177      7123      6175      6176
 -1     24784    3    0    1
 -2      6899      8492      7599      5704
 -1     24785    3    0    1
 -2      7332      6502      6588      6537
 -1     24786    3    0    1
 -2      2978      3597      1199      1880
 -1     24787    3    0    1
 -2      6082      8523      8881      9258
 -1     24788    3    0    1
 -2       664       631       614       259
 -1     24789    3    0    1
 -2      3292       864      1558      3375
 -1     24790    3    0    1
 -2      6585      7893      9415      9387
 -1     24791    3    0    1
 -2      8523      7685      9243      8944
 -1     24792    3    0    1
 -2      8170      6247      6170      7708
 -1     24793    3    0    1
 -2      8505      9221      6999      8042
 -1     24794    3    0    1
 -2      3243      3176      4281      3808
 -1     24795    3    0    1
 -2      7359      9082      9120      8705
 -1     24796    3    0    1
 -2      6642      6726      9176      8801
 -1     24797    3    0    1
 -2      5386      5226      4705      5452
 -1     24798    3    0    1
 -2      8631      7188      7774      9037
 -1     24799    3    0    1
 -2      7313      7877      9091      6512
 -1     24800    3    0    1
 -2      9450      7404      9465      9609
 -1     24801    3    0    1
 -2      8237      6385      6384      7845
 -1     24802    3    0    1
 -2      8036      7026      8022      8896
 -1     24803    3    0    1
 -2      7174      8163      8668      9043
 -1     24804    3    0    1
 -2      4933      4687      4639      3841
 -1     24805    3    0    1
 -2      4659      3758      3759      3757
 -1     24806    3    0    1
 -2      7960      9195      9454      7457
 -1     24807    3    0    1
 -2      9494      9249      8554      9538
 -1     24808    3    0    1
 -2      9511      9510      8547      8092
 -1     24809    3    0    1
 -2      3075      1912      2513      3688
 -1     24810    3    0    1
 -2      7357      9365      8273      9671
 -1     24811    3    0    1
 -2      7951      7466      6743      8367
 -1     24812    3    0    1
 -2      2038      3154      3132      2552
 -1     24813    3    0    1
 -2      4077      3493      2932      2933
 -1     24814    3    0    1
 -2      7951      7964      7466      8367
 -1     24815    3    0    1
 -2       672      1213      1265      1264
 -1     24816    3    0    1
 -2      8080      8490      7619      6969
 -1     24817    3    0    1
 -2      7086      7669      5739      8054
 -1     24818    3    0    1
 -2       845       398       437      2180
 -1     24819    3    0    1
 -2      2033      2595      3743      2077
 -1     24820    3    0    1
 -2      6637      9626      6599      9671
 -1     24821    3    0    1
 -2         2       392       393       415
 -1     24822    3    0    1
 -2      6240      6241      7183      7136
 -1     24823    3    0    1
 -2      7568      8452      7542      7543
 -1     24824    3    0    1
 -2      3370       955      2283      1623
 -1     24825    3    0    1
 -2      4807      4806      5246      5047
 -1     24826    3    0    1
 -2      7680      8084      7633      6074
 -1     24827    3    0    1
 -2      3229      1309      2141      3208
 -1     24828    3    0    1
 -2      9217      6909      7559      8871
 -1     24829    3    0    1
 -2       165      1034      2949      2923
 -1     24830    3    0    1
 -2      7039      6999      7000      6114
 -1     24831    3    0    1
 -2      6242      5376      6132      9034
 -1     24832    3    0    1
 -2      5934      6566      5908      6499
 -1     24833    3    0    1
 -2      5333      5343      5698      4619
 -1     24834    3    0    1
 -2      3788      3840      3215      2647
 -1     24835    3    0    1
 -2      8143      9324      8585      6150
 -1     24836    3    0    1
 -2      5376      7792      8628      9034
 -1     24837    3    0    1
 -2       809       474       118      2241
 -1     24838    3    0    1
 -2      3399      3376      2288      3377
 -1     24839    3    0    1
 -2      2805       957      1627      1626
 -1     24840    3    0    1
 -2      2750      2697       836      2169
 -1     24841    3    0    1
 -2      2772       938       500      1572
 -1     24842    3    0    1
 -2      4826      4532      4852      4878
 -1     24843    3    0    1
 -2      6239      9317      9018      7207
 -1     24844    3    0    1
 -2      2715       925       924      2247
 -1     24845    3    0    1
 -2      7006      9249      6917      7618
 -1     24846    3    0    1
 -2      7880      9391      9374      8691
 -1     24847    3    0    1
 -2      8105      8106      9535      9490
 -1     24848    3    0    1
 -2      1566      1504      2771      2770
 -1     24849    3    0    1
 -2      9228      8546      8943      9291
 -1     24850    3    0    1
 -2      2077       713      2595      1345
 -1     24851    3    0    1
 -2      3747      2666      3210      2035
 -1     24852    3    0    1
 -2      7959      9642      9475      9670
 -1     24853    3    0    1
 -2      7122      7720      7722      8593
 -1     24854    3    0    1
 -2      3243      3790      4301      4312
 -1     24855    3    0    1
 -2      2598       715      3199      2034
 -1     24856    3    0    1
 -2      9607      6581      6635      6582
 -1     24857    3    0    1
 -2      7332      5506      6502      8256
 -1     24858    3    0    1
 -2      6163      7111      6235      6124
 -1     24859    3    0    1
 -2      1656      2302      2821      2247
 -1     24860    3    0    1
 -2      3065      2954      2992      1805
 -1     24861    3    0    1
 -2       431       908       906      2199
 -1     24862    3    0    1
 -2      6561      6497      6585      9360
 -1     24863    3    0    1
 -2       812        74        73      1468
 -1     24864    3    0    1
 -2        16       111        89      1452
 -1     24865    3    0    1
 -2      1350      3830       785      1389
 -1     24866    3    0    1
 -2      2601      4277      3214      2099
 -1     24867    3    0    1
 -2      4842      5672      5140      4823
 -1     24868    3    0    1
 -2       809      2241      2683       828
 -1     24869    3    0    1
 -2      2684      1464      2182      2685
 -1     24870    3    0    1
 -2      6253      8636      7218      6172
 -1     24871    3    0    1
 -2      2246       400      2775      2191
 -1     24872    3    0    1
 -2       643       622      1134       599
 -1     24873    3    0    1
 -2      3327      3859      4356      4705
 -1     24874    3    0    1
 -2      9310      6145      9582      7117
 -1     24875    3    0    1
 -2       477       119        61       915
 -1     24876    3    0    1
 -2       692       309      1428      2141
 -1     24877    3    0    1
 -2      8872      9209      8442      8024
 -1     24878    3    0    1
 -2       697      2126      3221      3768
 -1     24879    3    0    1
 -2        71        74        73       812
 -1     24880    3    0    1
 -2      1897      3679      2466      1846
 -1     24881    3    0    1
 -2      3357       974       916      2233
 -1     24882    3    0    1
 -2      8939      7073      7682      8545
 -1     24883    3    0    1
 -2      1996      2540      2029      3711
 -1     24884    3    0    1
 -2       512       995      1043      2347
 -1     24885    3    0    1
 -2      3381      1610      1686      3390
 -1     24886    3    0    1
 -2      3254      2157      1442      2598
 -1     24887    3    0    1
 -2      2795      1615      1650      2293
 -1     24888    3    0    1
 -2      5853      7153      5832      5834
 -1     24889    3    0    1
 -2      3259      3205      2670      2671
 -1     24890    3    0    1
 -2      1350      3183      3182      1335
 -1     24891    3    0    1
 -2      6236      6125      6163      5784
 -1     24892    3    0    1
 -2      1127      1052      3557      2914
 -1     24893    3    0    1
 -2      7233      6335      5476      7232
 -1     24894    3    0    1
 -2      4944      4347      5442      5838
 -1     24895    3    0    1
 -2      5179      4610      4609      5194
 -1     24896    3    0    1
 -2       146       184       185      2920
 -1     24897    3    0    1
 -2      6624      6642      6589      5592
 -1     24898    3    0    1
 -2      9445      6581      6635      9607
 -1     24899    3    0    1
 -2       352       387       386      1448
 -1     24900    3    0    1
 -2      6653      8816      7942      7438
 -1     24901    3    0    1
 -2      7049      7662      7048      6978
 -1     24902    3    0    1
 -2      1942      3040      1257      1920
 -1     24903    3    0    1
 -2      7972      8411      8812      9204
 -1     24904    3    0    1
 -2      6400      6380      7825      7299
 -1     24905    3    0    1
 -2      5721      7533      5687      7023
 -1     24906    3    0    1
 -2      6528      7320      8270      6454
 -1     24907    3    0    1
 -2      8523      7685      7089      9243
 -1     24908    3    0    1
 -2      2291      2310      3948      3391
 -1     24909    3    0    1
 -2       384      2158       383       292
 -1     24910    3    0    1
 -2       580      1128       260      2946
 -1     24911    3    0    1
 -2      6144      6253      7712      6143
 -1     24912    3    0    1
 -2      7568      7542      8452      6904
 -1     24913    3    0    1
 -2      5018      4787      5888      5017
 -1     24914    3    0    1
 -2      9154      8775      7972      7432
 -1     24915    3    0    1
 -2      6263      5803      5229      7765
 -1     24916    3    0    1
 -2      5596      5661      5310      5081
 -1     24917    3    0    1
 -2      2045       748      2035      1323
 -1     24918    3    0    1
 -2      6231      6177      7124      8647
 -1     24919    3    0    1
 -2      5377      5788      7114      5789
 -1     24920    3    0    1
 -2      7639      7599      8492      5704
 -1     24921    3    0    1
 -2      5636      5986      5952      6015
 -1     24922    3    0    1
 -2      6137      6272      6198      5850
 -1     24923    3    0    1
 -2      9494      8957      8554      7102
 -1     24924    3    0    1
 -2      8168      7202      6292      5442
 -1     24925    3    0    1
 -2      1449      2672      3212      1349
 -1     24926    3    0    1
 -2      8654      7290      7814      7288
 -1     24927    3    0    1
 -2      6994      6870      7562      5694
 -1     24928    3    0    1
 -2      1379      2645       750      2046
 -1     24929    3    0    1
 -2      1022      3436      2894      1680
 -1     24930    3    0    1
 -2      2949      2986       263      2501
 -1     24931    3    0    1
 -2      8122      9008      7192      9322
 -1     24932    3    0    1
 -2      2241       498       103      2240
 -1     24933    3    0    1
 -2       430       431       408       842
 -1     24934    3    0    1
 -2      8122      8582      9342      7711
 -1     24935    3    0    1
 -2      2365      1739      2868      1740
 -1     24936    3    0    1
 -2      6691      8804      8805      7475
 -1     24937    3    0    1
 -2      2897      2946      1128      1712
 -1     24938    3    0    1
 -2       289       715      1442      2598
 -1     24939    3    0    1
 -2      7390      5945      7334      7375
 -1     24940    3    0    1
 -2      6489      8761      8272      6531
 -1     24941    3    0    1
 -2      1639       967       909      1638
 -1     24942    3    0    1
 -2      8881      8523      7089      9243
 -1     24943    3    0    1
 -2      2130      1414      1428      3192
 -1     24944    3    0    1
 -2      7825      7856      6400      7299
 -1     24945    3    0    1
 -2      2904      4419      3489      4797
 -1     24946    3    0    1
 -2      6364      7262      6365      6366
 -1     24947    3    0    1
 -2      9495      7692      7639      6071
 -1     24948    3    0    1
 -2      3780      2661      3238      9668
 -1     24949    3    0    1
 -2      5729      5707      7011      5202
 -1     24950    3    0    1
 -2      7460      7424      6643      8357
 -1     24951    3    0    1
 -2      4724      5230      5403      5404
 -1     24952    3    0    1
 -2      6517      7835      9092      6547
 -1     24953    3    0    1
 -2      2738       965       434      3377
 -1     24954    3    0    1
 -2      8944      8546      9485      9290
 -1     24955    3    0    1
 -2      9238      8958      9518      9647
 -1     24956    3    0    1
 -2      6799      6800      6878      7509
 -1     24957    3    0    1
 -2      5705      8001      7579      6877
 -1     24958    3    0    1
 -2      7954      7991      9201      9173
 -1     24959    3    0    1
 -2      8096      7096      6114      9282
 -1     24960    3    0    1
 -2      7077      8095      8094      9281
 -1     24961    3    0    1
 -2      2123      2623      3240      2079
 -1     24962    3    0    1
 -2      1049      1138      3478      2942
 -1     24963    3    0    1
 -2      6609      5928      5896      5568
 -1     24964    3    0    1
 -2      7874      5953      7905      8326
 -1     24965    3    0    1
 -2      8949      7035      7092      8550
 -1     24966    3    0    1
 -2      3195      2142      2676      3233
 -1     24967    3    0    1
 -2      8392      9182      9158      5986
 -1     24968    3    0    1
 -2      5447      5377      6193      5789
 -1     24969    3    0    1
 -2      5742      5690      5689      5711
 -1     24970    3    0    1
 -2      5164      5183      5201      5165
 -1     24971    3    0    1
 -2      7847      8308      8681      8309
 -1     24972    3    0    1
 -2      7619      8914      8490      8080
 -1     24973    3    0    1
 -2      3497      3538      1013      3498
 -1     24974    3    0    1
 -2      3618      2443      1834      2472
 -1     24975    3    0    1
 -2      3031      1249      1197      2462
 -1     24976    3    0    1
 -2      8054      8506      8927      7669
 -1     24977    3    0    1
 -2      9484      7635      8090      8942
 -1     24978    3    0    1
 -2      2398      1106      3547      1759
 -1     24979    3    0    1
 -2      7854      7840      9096      8686
 -1     24980    3    0    1
 -2       314       315       740      1277
 -1     24981    3    0    1
 -2      7353      9115      5950      9670
 -1     24982    3    0    1
 -2        34       118       117       809
 -1     24983    3    0    1
 -2       289       716       336      1442
 -1     24984    3    0    1
 -2      1763      4057      3991      1764
 -1     24985    3    0    1
 -2       622       643       221       599
 -1     24986    3    0    1
 -2      4109      3576      4174      3013
 -1     24987    3    0    1
 -2      5587      6604      5979      7913
 -1     24988    3    0    1
 -2      7186      8629      6133      8120
 -1     24989    3    0    1
 -2      7354      6611      7407      6573
 -1     24990    3    0    1
 -2       971       970       936      2768
 -1     24991    3    0    1
 -2      2138      3180       723      1293
 -1     24992    3    0    1
 -2      9246      7596      8876      7616
 -1     24993    3    0    1
 -2      7680      8084      9270      7633
 -1     24994    3    0    1
 -2      8907      9233      8873      7611
 -1     24995    3    0    1
 -2      4718      4971      3360      4717
 -1     24996    3    0    1
 -2      6246      5435      5419      5468
 -1     24997    3    0    1
 -2      3664      1911      1188      2485
 -1     24998    3    0    1
 -2      3215      2647      2158      3201
 -1     24999    3    0    1
 -2      1700      1632      1012      1701
 -1     25000    3    0    1
 -2      7137      6132      5376      8137
 -1     25001    3    0    1
 -2       914       845       437      2180
 -1     25002    3    0    1
 -2      3867      3866      2180      2181
 -1     25003    3    0    1
 -2      8344      7421      6750      8334
 -1     25004    3    0    1
 -2       355       388      2673      2160
 -1     25005    3    0    1
 -2      6035      6865      7534      7545
 -1     25006    3    0    1
 -2       805        99        55       397
 -1     25007    3    0    1
 -2      6008      6630      5609      5317
 -1     25008    3    0    1
 -2      4613      5195      5348      4900
 -1     25009    3    0    1
 -2      8554      9249      7102      7103
 -1     25010    3    0    1
 -2       512      2347       996       995
 -1     25011    3    0    1
 -2      4651      4595      4596      5150
 -1     25012    3    0    1
 -2       309       692       308      1309
 -1     25013    3    0    1
 -2      6708      8389      7513      6736
 -1     25014    3    0    1
 -2      9183      6717      6599      8795
 -1     25015    3    0    1
 -2      9486      9525      9487      8970
 -1     25016    3    0    1
 -2      8438      7584      8006      6882
 -1     25017    3    0    1
 -2      6492      6491      5942      5519
 -1     25018    3    0    1
 -2      7100      9246      8057      7616
 -1     25019    3    0    1
 -2      3249      4253      2654      3159
 -1     25020    3    0    1
 -2      5916      6559      8275      6457
 -1     25021    3    0    1
 -2      6630      5634      5100      5317
 -1     25022    3    0    1
 -2       541       201       542      2388
 -1     25023    3    0    1
 -2      7682      6059      7601      8869
 -1     25024    3    0    1
 -2      6121      7018      5731      6122
 -1     25025    3    0    1
 -2      9218      7593      9219      8853
 -1     25026    3    0    1
 -2      2223      2256      3892      2692
 -1     25027    3    0    1
 -2      9057      9029      8129      6152
 -1     25028    3    0    1
 -2      3401      3948      2310      3391
 -1     25029    3    0    1
 -2      7606      8469      8067      8899
 -1     25030    3    0    1
 -2      9032      9305      8136      6130
 -1     25031    3    0    1
 -2       111        16      2733      1452
 -1     25032    3    0    1
 -2      5792      6134      5467      7702
 -1     25033    3    0    1
 -2      6942      7615      7005      8485
 -1     25034    3    0    1
 -2      8713      7265      8260      7356
 -1     25035    3    0    1
 -2      7736      8632      7703      9331
 -1     25036    3    0    1
 -2      2472      3644      4133      2443
 -1     25037    3    0    1
 -2      5940      5962      5941      6488
 -1     25038    3    0    1
 -2      2290       972      1643      3382
 -1     25039    3    0    1
 -2      5772      5752      5188      5717
 -1     25040    3    0    1
 -2      8944      7685      9243      9485
 -1     25041    3    0    1
 -2      2051      2049      3155      1351
 -1     25042    3    0    1
 -2        55        54        81       805
 -1     25043    3    0    1
 -2      2934      3450      1135      3551
 -1     25044    3    0    1
 -2       577       614       576       575
 -1     25045    3    0    1
 -2      7940      8325      9157      6652
 -1     25046    3    0    1
 -2      5924      6508      7406      6607
 -1     25047    3    0    1
 -2      8748      8703      6554      9104
 -1     25048    3    0    1
 -2      6587      5589      5588      6749
 -1     25049    3    0    1
 -2      9348      7156      9564      9347
 -1     25050    3    0    1
 -2      3162       692      1306      3192
 -1     25051    3    0    1
 -2      1694      3412      3428      1693
 -1     25052    3    0    1
 -2      1139       569      2943      2893
 -1     25053    3    0    1
 -2      6904      7542      8033      6922
 -1     25054    3    0    1
 -2      7557      6865      6908      7534
 -1     25055    3    0    1
 -2      7893      6639      6585      9172
 -1     25056    3    0    1
 -2      8930      7644      8035      8519
 -1     25057    3    0    1
 -2      8426      7993      7502      9191
 -1     25058    3    0    1
 -2      3238      1282      3724      9668
 -1     25059    3    0    1
 -2       172       236       618      1807
 -1     25060    3    0    1
 -2      7067      8080      7619      6969
 -1     25061    3    0    1
 -2      2959      2450      3532      3004
 -1     25062    3    0    1
 -2      8983      9523      9499      8112
 -1     25063    3    0    1
 -2      2021      3730      3748      1324
 -1     25064    3    0    1
 -2      1007       519      1005      2862
 -1     25065    3    0    1
 -2      8067      7061      7606      8899
 -1     25066    3    0    1
 -2      4177      4855      4112      4113
 -1     25067    3    0    1
 -2      9363      9144      6581      8700
 -1     25068    3    0    1
 -2      3509      2917      2952      4088
 -1     25069    3    0    1
 -2      8658      7790      9031      7181
 -1     25070    3    0    1
 -2      7585      8054      8007      9211
 -1     25071    3    0    1
 -2      6581      9607      9444      9144
 -1     25072    3    0    1
 -2       163       580       260      2946
 -1     25073    3    0    1
 -2      5024      4799      4800      4027
 -1     25074    3    0    1
 -2       506       476       915      1594
 -1     25075    3    0    1
 -2      6984      7642      8088      8892
 -1     25076    3    0    1
 -2       925       849      3310      2715
 -1     25077    3    0    1
 -2      7830      8682      8266      9088
 -1     25078    3    0    1
 -2      2725      2165       488      2724
 -1     25079    3    0    1
 -2      5421      4705      5226      5452
 -1     25080    3    0    1
 -2       217       267       673      2996
 -1     25081    3    0    1
 -2      6242      7163      8649      9034
 -1     25082    3    0    1
 -2      8590      7717      9314      9043
 -1     25083    3    0    1
 -2      6843      8410      6875      6876
 -1     25084    3    0    1
 -2      5116      4818      4523      5139
 -1     25085    3    0    1
 -2       524       143       525       526
 -1     25086    3    0    1
 -2      9163      6718      9425      7487
 -1     25087    3    0    1
 -2      6021      9186      8823      8798
 -1     25088    3    0    1
 -2      5780      7221      5393      5436
 -1     25089    3    0    1
 -2       278       702       703      1300
 -1     25090    3    0    1
 -2      5479      4762      5006      5480
 -1     25091    3    0    1
 -2      3674      1181      3601      3062
 -1     25092    3    0    1
 -2      6153      7168      7715      7716
 -1     25093    3    0    1
 -2      7110      6121      7018      7017
 -1     25094    3    0    1
 -2      1338       699      1296      3156
 -1     25095    3    0    1
 -2      9244      8073      8527      8884
 -1     25096    3    0    1
 -2      3635      2497      3036      1883
 -1     25097    3    0    1
 -2      2119      2028       759      3758
 -1     25098    3    0    1
 -2       551       550      1065      1134
 -1     25099    3    0    1
 -2      5150      5763      5686      6047
 -1     25100    3    0    1
 -2       809       118       117      2241
 -1     25101    3    0    1
 -2       864       863       432      1486
 -1     25102    3    0    1
 -2       233       267       217      1833
 -1     25103    3    0    1
 -2      1017       528      1049      2366
 -1     25104    3    0    1
 -2      7097      6115      5751      7614
 -1     25105    3    0    1
 -2      7390      7375      9372      9665
 -1     25106    3    0    1
 -2      7242      8213      8661      7773
 -1     25107    3    0    1
 -2      8707      6503      8731      7845
 -1     25108    3    0    1
 -2      5725      6999      7000      7039
 -1     25109    3    0    1
 -2       107       106       105       483
 -1     25110    3    0    1
 -2      9144      7884      6581      8700
 -1     25111    3    0    1
 -2      4777      5071      4776      4489
 -1     25112    3    0    1
 -2      2122      1401       777      1374
 -1     25113    3    0    1
 -2      4003      2378      1773      2396
 -1     25114    3    0    1
 -2      5361      5337      5344      4933
 -1     25115    3    0    1
 -2       454       920       870      2713
 -1     25116    3    0    1
 -2      2670       295      3205      1348
 -1     25117    3    0    1
 -2      1376      1422      2632      2082
 -1     25118    3    0    1
 -2      5452      5420      5386      6247
 -1     25119    3    0    1
 -2      5280      5266      5510      5573
 -1     25120    3    0    1
 -2      1165      1197       628      1816
 -1     25121    3    0    1
 -2      4535      4880      4520      4561
 -1     25122    3    0    1
 -2      5345      5706      5337      5171
 -1     25123    3    0    1
 -2      3789       754       782      3202
 -1     25124    3    0    1
 -2      6687      8404      6785      5660
 -1     25125    3    0    1
 -2      2403      1730      1731      3451
 -1     25126    3    0    1
 -2       614       631       664      1887
 -1     25127    3    0    1
 -2      5115      5146      4588      4587
 -1     25128    3    0    1
 -2      3474       526      2850      3473
 -1     25129    3    0    1
 -2      1556      2216      3290      2786
 -1     25130    3    0    1
 -2      3209      2591      3843      2154
 -1     25131    3    0    1
 -2      2928       125       207      2929
 -1     25132    3    0    1
 -2      7671      8945      7687      9501
 -1     25133    3    0    1
 -2      9386      8273      7357      9096
 -1     25134    3    0    1
 -2      9088      8266      7310      7352
 -1     25135    3    0    1
 -2       205      2996      1762      2399
 -1     25136    3    0    1
 -2      8854      6999      6913      8012
 -1     25137    3    0    1
 -2      9212      7601      8869      9481
 -1     25138    3    0    1
 -2      2389      1719      2857      2348
 -1     25139    3    0    1
 -2      2791      3357       916      2233
 -1     25140    3    0    1
 -2      7639      8492      9495      6071
 -1     25141    3    0    1
 -2      3906      3907      2222      1578
 -1     25142    3    0    1
 -2      4527      4172      4861      5122
 -1     25143    3    0    1
 -2      6107      7586      6984      8088
 -1     25144    3    0    1
 -2      3993      2390      3515      2859
 -1     25145    3    0    1
 -2      7724      6232      9074      9349
 -1     25146    3    0    1
 -2      8829      8408      6792      5676
 -1     25147    3    0    1
 -2      7135      8567      9306      6131
 -1     25148    3    0    1
 -2      8203      6264      6225      7157
 -1     25149    3    0    1
 -2      7314      5532      6577      6613
 -1     25150    3    0    1
 -2      2394      3480      2409      1745
 -1     25151    3    0    1
 -2      6262      7719      8592      9578
 -1     25152    3    0    1
 -2      2795      1615       941      1650
 -1     25153    3    0    1
 -2      1271       737       705      2009
 -1     25154    3    0    1
 -2      8612      9330      9547      8560
 -1     25155    3    0    1
 -2       902      2756      2701      2174
 -1     25156    3    0    1
 -2      8267      7315      7822      8251
 -1     25157    3    0    1
 -2      8255      7359      5486      8705
 -1     25158    3    0    1
 -2      3622      1215      1183      2442
 -1     25159    3    0    1
 -2      7356      6525      6557      8713
 -1     25160    3    0    1
 -2       909      1639      2765      3354
 -1     25161    3    0    1
 -2      1460        25        56      2266
 -1     25162    3    0    1
 -2      8128      8586      9344      8127
 -1     25163    3    0    1
 -2       100       469       961      2237
 -1     25164    3    0    1
 -2      5974      5295      5294      5099
 -1     25165    3    0    1
 -2      7353      6594      5928      6608
 -1     25166    3    0    1
 -2      4676      4285      4666      4318
 -1     25167    3    0    1
 -2      5936      8741      8709      7901
 -1     25168    3    0    1
 -2      2165       488       402      2725
 -1     25169    3    0    1
 -2      3101      3692      4213      3086
 -1     25170    3    0    1
 -2      2539      1932      1246      3687
 -1     25171    3    0    1
 -2      8917      8535      7679      7069
 -1     25172    3    0    1
 -2      6104      6074      7633      6919
 -1     25173    3    0    1
 -2       217       673      1142      2996
 -1     25174    3    0    1
 -2      1861      4179      1834      2471
 -1     25175    3    0    1
 -2      8574      9352      9309      9554
 -1     25176    3    0    1
 -2       480       479        65      2185
 -1     25177    3    0    1
 -2      2679      2727      2726      1473
 -1     25178    3    0    1
 -2      1814      1190      1191      2971
 -1     25179    3    0    1
 -2      9042      9011      9026      8143
 -1     25180    3    0    1
 -2      9347      8646      7156      9044
 -1     25181    3    0    1
 -2      6637      6717      9183      7952
 -1     25182    3    0    1
 -2      9517      8554      9249      9538
 -1     25183    3    0    1
 -2      8475      7065      8904      8476
 -1     25184    3    0    1
 -2      3248      2653      3831      3187
 -1     25185    3    0    1
 -2      7349      8303      8684      9094
 -1     25186    3    0    1
 -2      1965      4196      3079      1880
 -1     25187    3    0    1
 -2      2922       531       162      2875
 -1     25188    3    0    1
 -2      3436      3421      2853      1680
 -1     25189    3    0    1
 -2        25        26       102        27
 -1     25190    3    0    1
 -2      5689      7588      7557      8022
 -1     25191    3    0    1
 -2       547      1133      2885      2961
 -1     25192    3    0    1
 -2      8777      6718      9163      7487
 -1     25193    3    0    1
 -2      7349      7295      5903      7318
 -1     25194    3    0    1
 -2      1965      3079      1939      1880
 -1     25195    3    0    1
 -2      5241      5217      4958      4716
 -1     25196    3    0    1
 -2      7181      6236      5463      5409
 -1     25197    3    0    1
 -2      3983      2839      3387      4408
 -1     25198    3    0    1
 -2       675       267      1833      1233
 -1     25199    3    0    1
 -2       254       225       655       627
 -1     25200    3    0    1
 -2      6115      5343      5698      7003
 -1     25201    3    0    1
 -2      5931      5953      6554      6596
 -1     25202    3    0    1
 -2      1758      2381      2398      4070
 -1     25203    3    0    1
 -2      9245      8108      8976      7100
 -1     25204    3    0    1
 -2      3924      3330      2767      3863
 -1     25205    3    0    1
 -2      5040      5534      5072      4781
 -1     25206    3    0    1
 -2      1219       647       242      3006
 -1     25207    3    0    1
 -2      7311      8695      8694      7287
 -1     25208    3    0    1
 -2      2501       263      2949      1228
 -1     25209    3    0    1
 -2       654       604       612       251
 -1     25210    3    0    1
 -2       764       295       351      1448
 -1     25211    3    0    1
 -2      3260      2698      3852      3853
 -1     25212    3    0    1
 -2      8376      7495      6727      8335
 -1     25213    3    0    1
 -2      8142      9009      9040      6147
 -1     25214    3    0    1
 -2      8370      7968      9172      9200
 -1     25215    3    0    1
 -2      4885      5684      5685      5346
 -1     25216    3    0    1
 -2      8073      9263      8527      8884
 -1     25217    3    0    1
 -2      1459      2729       804      1549
 -1     25218    3    0    1
 -2       317      1277      2585      2611
 -1     25219    3    0    1
 -2      5951      9643      9611      7408
 -1     25220    3    0    1
 -2       571      1024       156      1050
 -1     25221    3    0    1
 -2      1919      1267      1202      1886
 -1     25222    3    0    1
 -2      6048      4940      5723      5153
 -1     25223    3    0    1
 -2      9140      9410      9611      6614
 -1     25224    3    0    1
 -2      9414      6598      6618      9384
 -1     25225    3    0    1
 -2      1337       699       727      3186
 -1     25226    3    0    1
 -2      7854      6422      7840      8686
 -1     25227    3    0    1
 -2      5627      5291      5585      5995
 -1     25228    3    0    1
 -2      6394      6367      6393      6327
 -1     25229    3    0    1
 -2      1538       855       854      2692
 -1     25230    3    0    1
 -2      7175      6223      5460      5854
 -1     25231    3    0    1
 -2      8456      7631      8013      6915
 -1     25232    3    0    1
 -2      5572      5265      5951      5532
 -1     25233    3    0    1
 -2      6915      8456      7631      6914
 -1     25234    3    0    1
 -2      4762      4763      5006      5480
 -1     25235    3    0    1
 -2      5750      5715      5725      5196
 -1     25236    3    0    1
 -2      7786      7785      9056      8222
 -1     25237    3    0    1
 -2      7078      7079      7097      7614
 -1     25238    3    0    1
 -2       914       973       972      2771
 -1     25239    3    0    1
 -2      3124      2611      2565      3758
 -1     25240    3    0    1
 -2      6647      5982      6003      6606
 -1     25241    3    0    1
 -2      7221      6146      6145      5780
 -1     25242    3    0    1
 -2      2733      3846      2732      1452
 -1     25243    3    0    1
 -2      7384      8269      8715      8268
 -1     25244    3    0    1
 -2      5664      5296      5102      4538
 -1     25245    3    0    1
 -2      7018      6121      7110      6122
 -1     25246    3    0    1
 -2       793      3210      2146      2045
 -1     25247    3    0    1
 -2      5974      5294      5681      5099
 -1     25248    3    0    1
 -2      5850      6198      7212      8216
 -1     25249    3    0    1
 -2      6164      7239      8210      6269
 -1     25250    3    0    1
 -2      6986      9254      8063      8062
 -1     25251    3    0    1
 -2      8858      8881      6988      9215
 -1     25252    3    0    1
 -2      3692      4213      4227      2560
 -1     25253    3    0    1
 -2      4679      4919      5201      5189
 -1     25254    3    0    1
 -2      7787      8609      8610      7154
 -1     25255    3    0    1
 -2      7440      8393      8789      7464
 -1     25256    3    0    1
 -2      5061      5006      5480      5504
 -1     25257    3    0    1
 -2      7599      8492      8864      7639
 -1     25258    3    0    1
 -2      8640      6221      7778      7748
 -1     25259    3    0    1
 -2      3941      2260      3283      1513
 -1     25260    3    0    1
 -2      2241       103      2682      2163
 -1     25261    3    0    1
 -2       118       117        32        34
 -1     25262    3    0    1
 -2      9665      7375      9372      9389
 -1     25263    3    0    1
 -2      2551      4203      3102      2531
 -1     25264    3    0    1
 -2      6997      6100      5348      5747
 -1     25265    3    0    1
 -2      8747      8746      8756      7398
 -1     25266    3    0    1
 -2      2733        89       111      1452
 -1     25267    3    0    1
 -2       283       693       694      3195
 -1     25268    3    0    1
 -2      4875      4578      4162      4514
 -1     25269    3    0    1
 -2      2452      3042      4152      2946
 -1     25270    3    0    1
 -2        20        21       113       112
 -1     25271    3    0    1
 -2      8973      8105      8106      9535
 -1     25272    3    0    1
 -2      3210      2666      3747      4287
 -1     25273    3    0    1
 -2      5567      6609      5896      5568
 -1     25274    3    0    1
 -2      3585      1157      1860      3047
 -1     25275    3    0    1
 -2        29        30        82       799
 -1     25276    3    0    1
 -2       794       755       783      2136
 -1     25277    3    0    1
 -2      1689      1032      3422      2876
 -1     25278    3    0    1
 -2      2376      2897      2946      3458
 -1     25279    3    0    1
 -2      2262       959      2756      1605
 -1     25280    3    0    1
 -2      4249      4641      4688      4640
 -1     25281    3    0    1
 -2      2889       146      1701      3497
 -1     25282    3    0    1
 -2      1554      3922      3316      2265
 -1     25283    3    0    1
 -2      9586      9366      9365      9671
 -1     25284    3    0    1
 -2      5996      7494      7423      8375
 -1     25285    3    0    1
 -2       327       389       376      2155
 -1     25286    3    0    1
 -2      8075      8529      7689      6065
 -1     25287    3    0    1
 -2      6724      6748      7990      8799
 -1     25288    3    0    1
 -2      2954      2953      2917      4055
 -1     25289    3    0    1
 -2      2757      2236       426      2175
 -1     25290    3    0    1
 -2      8636      7712      8997      6144
 -1     25291    3    0    1
 -2      5477      6177      5405      6266
 -1     25292    3    0    1
 -2      1833       217       233      1784
 -1     25293    3    0    1
 -2       556       508       557      1116
 -1     25294    3    0    1
 -2      4728      4392      3895      4700
 -1     25295    3    0    1
 -2      5426      5852      5799      6152
 -1     25296    3    0    1
 -2      8564      7112      8993      9304
 -1     25297    3    0    1
 -2      3758      2641      2119      3756
 -1     25298    3    0    1
 -2       394       800       813      1496
 -1     25299    3    0    1
 -2       160       193       531       162
 -1     25300    3    0    1
 -2      7077      6998      7611      8907
 -1     25301    3    0    1
 -2      4631      4662      4271      4678
 -1     25302    3    0    1
 -2      6640      5589      6749      5657
 -1     25303    3    0    1
 -2      2184      3869      3271      2183
 -1     25304    3    0    1
 -2      3196      3240      2123      2643
 -1     25305    3    0    1
 -2      8888      9250      8877      7622
 -1     25306    3    0    1
 -2      8041      6100      7650      8905
 -1     25307    3    0    1
 -2      1317      3171       711      1344
 -1     25308    3    0    1
 -2      2806      3324      3268      4331
 -1     25309    3    0    1
 -2      5722      5742      5689      6987
 -1     25310    3    0    1
 -2      4340      3909      3346      4391
 -1     25311    3    0    1
 -2      2579      3230      4306      3753
 -1     25312    3    0    1
 -2       867       914      1566      1504
 -1     25313    3    0    1
 -2      4775      5069      5035      4792
 -1     25314    3    0    1
 -2      7682      8939      8516      9280
 -1     25315    3    0    1
 -2      1638       909      1639      2765
 -1     25316    3    0    1
 -2       927        89       111      2733
 -1     25317    3    0    1
 -2      8999      7755      7723      9015
 -1     25318    3    0    1
 -2      8731      6503      8755      7373
 -1     25319    3    0    1
 -2      6329      6413      6369      8234
 -1     25320    3    0    1
 -2      3335      2244      2187      2186
 -1     25321    3    0    1
 -2      4179      4132      1834      3618
 -1     25322    3    0    1
 -2      9447      8772      7911      9400
 -1     25323    3    0    1
 -2      6609      7352      5928      6608
 -1     25324    3    0    1
 -2       365       366       276       304
 -1     25325    3    0    1
 -2      1282      3238      3724      3781
 -1     25326    3    0    1
 -2      6106      8878      9227      6097
 -1     25327    3    0    1
 -2      5936      5553      6511      5252
 -1     25328    3    0    1
 -2      6043      7491      6042      8401
 -1     25329    3    0    1
 -2      6939      6940      8484      6941
 -1     25330    3    0    1
 -2      5335      6090      5776      4932
 -1     25331    3    0    1
 -2      6337      5477      6336      7235
 -1     25332    3    0    1
 -2      1410       731      1354      3222
 -1     25333    3    0    1
 -2      8360      7999      8414      6801
 -1     25334    3    0    1
 -2      2236       804       426      2175
 -1     25335    3    0    1
 -2       269       687       621      3000
 -1     25336    3    0    1
 -2      2772       500      3334      1572
 -1     25337    3    0    1
 -2      3188      3222      2653      3187
 -1     25338    3    0    1
 -2      1844      3039      3605      1829
 -1     25339    3    0    1
 -2      7476      6730      5598      5947
 -1     25340    3    0    1
 -2      1083      1084      3481      1794
 -1     25341    3    0    1
 -2      4800      4799      4028      4027
 -1     25342    3    0    1
 -2      1202      1267      1253      1886
 -1     25343    3    0    1
 -2      8438      7628      8006      7584
 -1     25344    3    0    1
 -2      6656      8820      7906      5955
 -1     25345    3    0    1
 -2      1188       247       558      2970
 -1     25346    3    0    1
 -2      2089      2639      3826      2088
 -1     25347    3    0    1
 -2      4590      3677      3114      1975
 -1     25348    3    0    1
 -2      7135      9306      9033      6131
 -1     25349    3    0    1
 -2      1697       520      1008      3450
 -1     25350    3    0    1
 -2      4152      3042      2452      3041
 -1     25351    3    0    1
 -2      2268      1503       843      3353
 -1     25352    3    0    1
 -2       132       999       549      2905
 -1     25353    3    0    1
 -2       556       181       508      9675
 -1     25354    3    0    1
 -2      5970      6728      6644      5631
 -1     25355    3    0    1
 -2      1582       488       455      2745
 -1     25356    3    0    1
 -2      1763      3991      2856      1764
 -1     25357    3    0    1
 -2      1504       845       914      2180
 -1     25358    3    0    1
 -2      7285      6499      5488      7859
 -1     25359    3    0    1
 -2      9102      9604      6547      7939
 -1     25360    3    0    1
 -2      8572      5791      7115      9576
 -1     25361    3    0    1
 -2       662      1124      1202      1886
 -1     25362    3    0    1
 -2      7650      8041      8905      8884
 -1     25363    3    0    1
 -2      4500      5072      4816      4781
 -1     25364    3    0    1
 -2      2280      3368      2281      2304
 -1     25365    3    0    1
 -2       184       146       186      2920
 -1     25366    3    0    1
 -2      4820      5299      5086      5623
 -1     25367    3    0    1
 -2      6742      6656      8820      7482
 -1     25368    3    0    1
 -2      4140      4576      4577      4555
 -1     25369    3    0    1
 -2      4148      2981      2447      2495
 -1     25370    3    0    1
 -2       826       434      1477      2707
 -1     25371    3    0    1
 -2      9006      8634      9038      9672
 -1     25372    3    0    1
 -2       462       900       504      1584
 -1     25373    3    0    1
 -2      2766      2765      1639      3354
 -1     25374    3    0    1
 -2      8497      7681      7071      6975
 -1     25375    3    0    1
 -2      7133      5806      5815      6131
 -1     25376    3    0    1
 -2      8033      8878      6097      6922
 -1     25377    3    0    1
 -2      5202      4910      5708      4911
 -1     25378    3    0    1
 -2      9175      9437      9149      7389
 -1     25379    3    0    1
 -2      1309       692      3162      3192
 -1     25380    3    0    1
 -2      2973       626      1193      3592
 -1     25381    3    0    1
 -2      2859      2886      2390      1722
 -1     25382    3    0    1
 -2      3491      2906      1673      2967
 -1     25383    3    0    1
 -2      5774      7691      7101      7638
 -1     25384    3    0    1
 -2      3810      2160      2147      2114
 -1     25385    3    0    1
 -2      9407      5950      9115      9670
 -1     25386    3    0    1
 -2      1538      1509       855      2223
 -1     25387    3    0    1
 -2      4308      4659      3758      3759
 -1     25388    3    0    1
 -2      1889      4126      3604      1844
 -1     25389    3    0    1
 -2      5890      5892      5920      8282
 -1     25390    3    0    1
 -2      8812      8410      7539      7530
 -1     25391    3    0    1
 -2      5801      6155      5474      7174
 -1     25392    3    0    1
 -2      6522      7349      5903      5515
 -1     25393    3    0    1
 -2      2447      4147      3061      1882
 -1     25394    3    0    1
 -2      7097      9515      8528      7676
 -1     25395    3    0    1
 -2      8203      6225      6227      7157
 -1     25396    3    0    1
 -2      3825      3732      3177      2086
 -1     25397    3    0    1
 -2      2266       963       496      2787
 -1     25398    3    0    1
 -2      7104      7639      6071      5755
 -1     25399    3    0    1
 -2      8859      8881      7572      8858
 -1     25400    3    0    1
 -2      3356      1566       972      2771
 -1     25401    3    0    1
 -2      2402      2390      2886      1720
 -1     25402    3    0    1
 -2      3589      1838      1874      2428
 -1     25403    3    0    1
 -2      1720      2390      2886      1722
 -1     25404    3    0    1
 -2      5386      4705      5420      5452
 -1     25405    3    0    1
 -2      8851      7559      6909      7546
 -1     25406    3    0    1
 -2      3372      1548      1513      1547
 -1     25407    3    0    1
 -2      6170      8217      6314      5452
 -1     25408    3    0    1
 -2      3468       549       999      2905
 -1     25409    3    0    1
 -2      6110      6098      7089      7636
 -1     25410    3    0    1
 -2      6499      5908      5488      7859
 -1     25411    3    0    1
 -2      1280      1961      2556      4230
 -1     25412    3    0    1
 -2      8086      7052      8540      6947
 -1     25413    3    0    1
 -2      5815      7240      5445      6303
 -1     25414    3    0    1
 -2      2386       509       518      9675
 -1     25415    3    0    1
 -2      3513      1059      2400      1763
 -1     25416    3    0    1
 -2      2087      2089      3826      2088
 -1     25417    3    0    1
 -2      2520      1978      3086      1895
 -1     25418    3    0    1
 -2      3192      3229      4305      3737
 -1     25419    3    0    1
 -2      5592      5303      5591      5659
 -1     25420    3    0    1
 -2      2956      1807      3561      2442
 -1     25421    3    0    1
 -2      7460      6727      7424      8376
 -1     25422    3    0    1
 -2      7240      8627      5445      7808
 -1     25423    3    0    1
 -2       201       202       198      2388
 -1     25424    3    0    1
 -2      8168      8656      7816      7202
 -1     25425    3    0    1
 -2      1604      2807      3942      1629
 -1     25426    3    0    1
 -2      7369      5919      7302      5887
 -1     25427    3    0    1
 -2      7182      8624      7759      6127
 -1     25428    3    0    1
 -2      1012      1011      1013      1701
 -1     25429    3    0    1
 -2      7726      7178      6161      6123
 -1     25430    3    0    1
 -2      1156      1184      1823      1808
 -1     25431    3    0    1
 -2      6156      5802      6157      7175
 -1     25432    3    0    1
 -2       694       693      1362      3164
 -1     25433    3    0    1
 -2      6950      6924      7020      7019
 -1     25434    3    0    1
 -2      1440      3196      2665      2077
 -1     25435    3    0    1
 -2      6455      8717      7363      6488
 -1     25436    3    0    1
 -2      9449      9464      7947      9674
 -1     25437    3    0    1
 -2      6516      7835      8696      8711
 -1     25438    3    0    1
 -2      6257      7785      7786      5471
 -1     25439    3    0    1
 -2      9247      9236      9223      7638
 -1     25440    3    0    1
 -2      7397      9411      9393      5952
 -1     25441    3    0    1
 -2      2955      1142      1055      3486
 -1     25442    3    0    1
 -2       991      1706      3484      3483
 -1     25443    3    0    1
 -2      7017      6121      7018      5731
 -1     25444    3    0    1
 -2      7717      8590      6262      9043
 -1     25445    3    0    1
 -2      3501      3453      3539      2975
 -1     25446    3    0    1
 -2      2994      1806      3549      3511
 -1     25447    3    0    1
 -2      9243      8881      8523      9258
 -1     25448    3    0    1
 -2       983       509       518      2357
 -1     25449    3    0    1
 -2      3443      3487      1056      1796
 -1     25450    3    0    1
 -2      6617      6712      7410      5615
 -1     25451    3    0    1
 -2      1082      1104      1103      1793
 -1     25452    3    0    1
 -2       220      1133       514      2961
 -1     25453    3    0    1
 -2      2249      3312      3918      2780
 -1     25454    3    0    1
 -2      2019      3106      3728      2020
 -1     25455    3    0    1
 -2      4124      2497      3036      3635
 -1     25456    3    0    1
 -2      2854      2949       537      2898
 -1     25457    3    0    1
 -2      1022       569      1023      1680
 -1     25458    3    0    1
 -2      2289       968       910      3379
 -1     25459    3    0    1
 -2      9338      6197      7768      9065
 -1     25460    3    0    1
 -2      3073      3055      1246      3687
 -1     25461    3    0    1
 -2      7743      9323      8123      8601
 -1     25462    3    0    1
 -2      2309      4410      2843      2290
 -1     25463    3    0    1
 -2      2459      1191      1190      2971
 -1     25464    3    0    1
 -2      8039      6996      9262      9232
 -1     25465    3    0    1
 -2      6044      6045      7575      8443
 -1     25466    3    0    1
 -2      3048      1240      1989      3049
 -1     25467    3    0    1
 -2      6723      6679      7419      8343
 -1     25468    3    0    1
 -2      9437      9175      7914      7389
 -1     25469    3    0    1
 -2      2889      2920      3497      4053
 -1     25470    3    0    1
 -2      2379      2916      2991      3528
 -1     25471    3    0    1
 -2      7530      6843      7539      6798
 -1     25472    3    0    1
 -2      3212      2671      1448      1349
 -1     25473    3    0    1
 -2      6951      6929      8465      8020
 -1     25474    3    0    1
 -2       706      1341      1273      3708
 -1     25475    3    0    1
 -2      9555      8575      8576      9554
 -1     25476    3    0    1
 -2      5969      6725      6641      5302
 -1     25477    3    0    1
 -2      3033      2463      1880      3634
 -1     25478    3    0    1
 -2       143       183       249      2460
 -1     25479    3    0    1
 -2      3638      3655      3637      4510
 -1     25480    3    0    1
 -2       668       263      1207      2501
 -1     25481    3    0    1
 -2      2249      2205      1497      2206
 -1     25482    3    0    1
 -2       665       686      1205      2451
 -1     25483    3    0    1
 -2      3475      3452       526      2939
 -1     25484    3    0    1
 -2      1879      3059      3078      2446
 -1     25485    3    0    1
 -2      6999      6913      5715      8027
 -1     25486    3    0    1
 -2      8220      9343      9040      7171
 -1     25487    3    0    1
 -2      1218      2512      1241      3661
 -1     25488    3    0    1
 -2      4766      4493      3493      3448
 -1     25489    3    0    1
 -2      7559      9217      8871      8851
 -1     25490    3    0    1
 -2       904      2759      2785      1589
 -1     25491    3    0    1
 -2      9286      8890      8542      7110
 -1     25492    3    0    1
 -2      1340      1302      2555      3160
 -1     25493    3    0    1
 -2      6912      6911      6872      8461
 -1     25494    3    0    1
 -2      7052      8539      8540      6947
 -1     25495    3    0    1
 -2      2991      1131       265      2990
 -1     25496    3    0    1
 -2      3232      1342      2131      3216
 -1     25497    3    0    1
 -2      3913      4336      4358      3299
 -1     25498    3    0    1
 -2      5929      7353      6610      5950
 -1     25499    3    0    1
 -2      8022      7557      5689      8441
 -1     25500    3    0    1
 -2      5492      6442      7305      5909
 -1     25501    3    0    1
 -2       551       550      1134       599
 -1     25502    3    0    1
 -2      3479      4485      4486      3523
 -1     25503    3    0    1
 -2      6516      6517      6518      5899
 -1     25504    3    0    1
 -2      8097      7615      9284      8077
 -1     25505    3    0    1
 -2      5113      5295      5974      5099
 -1     25506    3    0    1
 -2      7921      6554      5953      6596
 -1     25507    3    0    1
 -2      2760      2286      2830      3972
 -1     25508    3    0    1
 -2       413       810       830       438
 -1     25509    3    0    1
 -2      7680      9270      8887      7633
 -1     25510    3    0    1
 -2      5367      5442      5221      4944
 -1     25511    3    0    1
 -2      4828      4163      3633      3032
 -1     25512    3    0    1
 -2      8985      8562      8561      9350
 -1     25513    3    0    1
 -2      7243      9051      8634      9672
 -1     25514    3    0    1
 -2      1287       753      3202      1288
 -1     25515    3    0    1
 -2      3934      1527      1666      2798
 -1     25516    3    0    1
 -2      1961      1280      3125      4230
 -1     25517    3    0    1
 -2      4063      4442      2871      1770
 -1     25518    3    0    1
 -2      7477      6695      6694      6693
 -1     25519    3    0    1
 -2      6197      5791      7700      7768
 -1     25520    3    0    1
 -2      3857      4703      3921      4946
 -1     25521    3    0    1
 -2      2345       542       201      2388
 -1     25522    3    0    1
 -2      2412      1758      2398      4070
 -1     25523    3    0    1
 -2      6504      6503      8731      7373
 -1     25524    3    0    1
 -2      9665      9372      7390      9610
 -1     25525    3    0    1
 -2      1519      2817      2218      1571
 -1     25526    3    0    1
 -2      6082      5766      5339      6098
 -1     25527    3    0    1
 -2      8256      8247      7286      8679
 -1     25528    3    0    1
 -2      3309       924      2715      1495
 -1     25529    3    0    1
 -2      6767      6768      6005      6006
 -1     25530    3    0    1
 -2      9158      9182      7397      5986
 -1     25531    3    0    1
 -2      2041      2069      1367      3740
 -1     25532    3    0    1
 -2       536      1035       537      2898
 -1     25533    3    0    1
 -2      5995      7417      6585      7953
 -1     25534    3    0    1
 -2      2794      2793      3384      1613
 -1     25535    3    0    1
 -2      6776      5654      8419      7522
 -1     25536    3    0    1
 -2      4073      2918      4049      2928
 -1     25537    3    0    1
 -2      9522      8539      8100      7084
 -1     25538    3    0    1
 -2      8757      6449      8326      7920
 -1     25539    3    0    1
 -2      2336      2836      3439      1688
 -1     25540    3    0    1
 -2      2812      3965      1658      3946
 -1     25541    3    0    1
 -2      3439      3458      2336      2322
 -1     25542    3    0    1
 -2      6280      6186      6187      7208
 -1     25543    3    0    1
 -2       286       287       324       360
 -1     25544    3    0    1
 -2      7543      7542      7568      6860
 -1     25545    3    0    1
 -2      2750       955       899      3346
 -1     25546    3    0    1
 -2      3152      2563      2036      1981
 -1     25547    3    0    1
 -2      7945      8336      8808      7971
 -1     25548    3    0    1
 -2      7178      8168      7726      6161
 -1     25549    3    0    1
 -2      5162      5752      5717      4625
 -1     25550    3    0    1
 -2      3451      1730      2341      2936
 -1     25551    3    0    1
 -2      6625      9137      9390      9086
 -1     25552    3    0    1
 -2      2170      2697      2750      2169
 -1     25553    3    0    1
 -2       480        65       811      2185
 -1     25554    3    0    1
 -2      6379      7267      6380      7299
 -1     25555    3    0    1
 -2       263       582      2986      2949
 -1     25556    3    0    1
 -2      4826      5592      5303      5591
 -1     25557    3    0    1
 -2      2611      2152       315      1435
 -1     25558    3    0    1
 -2      7308      9099      9126      5924
 -1     25559    3    0    1
 -2      5426      5217      4958      5241
 -1     25560    3    0    1
 -2      8058      9227      8018      7014
 -1     25561    3    0    1
 -2      7479      7429      7937      8785
 -1     25562    3    0    1
 -2      8922      9278      9522      8539
 -1     25563    3    0    1
 -2      7810      8213      7773      9050
 -1     25564    3    0    1
 -2      9118      7887      7840      5933
 -1     25565    3    0    1
 -2      6737      5614      5324      6711
 -1     25566    3    0    1
 -2      6073      9210      7632      6973
 -1     25567    3    0    1
 -2      2285      1629      2828      3943
 -1     25568    3    0    1
 -2      7202      8168      7178      5442
 -1     25569    3    0    1
 -2       192       159       575      1051
 -1     25570    3    0    1
 -2      8220      8664      6321      7171
 -1     25571    3    0    1
 -2      3228      1433       735      3139
 -1     25572    3    0    1
 -2      3176      3204      2022      1289
 -1     25573    3    0    1
 -2      4238      3148      3147      3805
 -1     25574    3    0    1
 -2       841        95       902      2174
 -1     25575    3    0    1
 -2      3417      1629      1698       986
 -1     25576    3    0    1
 -2      3149      2550      2000      2543
 -1     25577    3    0    1
 -2      1495      3309       924      1507
 -1     25578    3    0    1
 -2      5602      5632      5305      5983
 -1     25579    3    0    1
 -2      3538       185      1013      1800
 -1     25580    3    0    1
 -2      1503      2268      3293      3353
 -1     25581    3    0    1
 -2       538       539       991      3484
 -1     25582    3    0    1
 -2      8033      8452      7542      6904
 -1     25583    3    0    1
 -2      1309       309       692      2141
 -1     25584    3    0    1
 -2        59        30       807      1462
 -1     25585    3    0    1
 -2      3040      1257      1256      1942
 -1     25586    3    0    1
 -2      5155      5192      5204      5339
 -1     25587    3    0    1
 -2      4223      3108      2504      1982
 -1     25588    3    0    1
 -2       248       143       249      2460
 -1     25589    3    0    1
 -2      2390      3993      2886      2859
 -1     25590    3    0    1
 -2      5473      4758      4748      5457
 -1     25591    3    0    1
 -2       541       201      2388       203
 -1     25592    3    0    1
 -2      8776      7907      9606      9625
 -1     25593    3    0    1
 -2      5807      6132      6165      6242
 -1     25594    3    0    1
 -2      8733      8702      7334      9097
 -1     25595    3    0    1
 -2      4633      5201      4919      5189
 -1     25596    3    0    1
 -2      8642      5801      5474      9043
 -1     25597    3    0    1
 -2      9090      8709      9377      7354
 -1     25598    3    0    1
 -2      7089      6988      6082      8881
 -1     25599    3    0    1
 -2      6951      6927      6928      8465
 -1     25600    3    0    1
 -2      8077      7005      9264      8076
 -1     25601    3    0    1
 -2      3219      2135      2124      1382
 -1     25602    3    0    1
 -2      2552      2002      3154      1986
 -1     25603    3    0    1
 -2      2673       388       355      1426
 -1     25604    3    0    1
 -2      8452      7542      8856      8033
 -1     25605    3    0    1
 -2       333       379       332      2156
 -1     25606    3    0    1
 -2      8686      6422      7840      8676
 -1     25607    3    0    1
 -2       532      1128       580      2946
 -1     25608    3    0    1
 -2      5770      5747      6100      7650
 -1     25609    3    0    1
 -2      1791       563      1069      2926
 -1     25610    3    0    1
 -2      5045      4492      5256      5063
 -1     25611    3    0    1
 -2      3805      2624      2098      2097
 -1     25612    3    0    1
 -2      8007      7585      8868      8848
 -1     25613    3    0    1
 -2      3604      3083      3082      4183
 -1     25614    3    0    1
 -2       775       776      1418      1343
 -1     25615    3    0    1
 -2      3347       901       956      1543
 -1     25616    3    0    1
 -2      6085      8552      9246      8531
 -1     25617    3    0    1
 -2      1519      2201       868      1571
 -1     25618    3    0    1
 -2      3029      1135       244      3552
 -1     25619    3    0    1
 -2      9528      9484      9666      9289
 -1     25620    3    0    1
 -2      6678      6679      6677      7469
 -1     25621    3    0    1
 -2      1502       906       907      2200
 -1     25622    3    0    1
 -2      8363      7922      7411      9143
 -1     25623    3    0    1
 -2      4878      4558      4852      4877
 -1     25624    3    0    1
 -2      8870      8021      8879      9255
 -1     25625    3    0    1
 -2      7232      7177      7788      8669
 -1     25626    3    0    1
 -2       587      3508      1714      3529
 -1     25627    3    0    1
 -2         6         5         4        22
 -1     25628    3    0    1
 -2      2180      2771      1504      2770
 -1     25629    3    0    1
 -2      2970      1164      2418      1136
 -1     25630    3    0    1
 -2      2769       912       913      1489
 -1     25631    3    0    1
 -2      2943      2497      3036      4124
 -1     25632    3    0    1
 -2      2981      2447      2495      1828
 -1     25633    3    0    1
 -2      1293      2138      3180      2038
 -1     25634    3    0    1
 -2      2351      3515      1765      1721
 -1     25635    3    0    1
 -2      7058      6059      7601      7682
 -1     25636    3    0    1
 -2      4094      3424      3484      2915
 -1     25637    3    0    1
 -2      2351      3515      3994      1765
 -1     25638    3    0    1
 -2      7175      6262      6156      7718
 -1     25639    3    0    1
 -2      5508      5929      7342      5569
 -1     25640    3    0    1
 -2      6574      9128      7903      7902
 -1     25641    3    0    1
 -2      6794      7994      6796      6795
 -1     25642    3    0    1
 -2      8144      8643      7718      9328
 -1     25643    3    0    1
 -2      5165      5735      5201      5189
 -1     25644    3    0    1
 -2      7947      5979      5967      9674
 -1     25645    3    0    1
 -2      4125      5083      4548      4564
 -1     25646    3    0    1
 -2      7856      7825      6380      7299
 -1     25647    3    0    1
 -2      3298      3331      3864      2708
 -1     25648    3    0    1
 -2      2909      1014      1016      3453
 -1     25649    3    0    1
 -2      4622      4285      4666      4676
 -1     25650    3    0    1
 -2      5582      5976      6620      6718
 -1     25651    3    0    1
 -2      5334      5735      5165      5189
 -1     25652    3    0    1
 -2      7286      5506      7332      8256
 -1     25653    3    0    1
 -2      5962      5963      6743      7466
 -1     25654    3    0    1
 -2      9170      6720      6638      8353
 -1     25655    3    0    1
 -2      8007      8868      7585      9211
 -1     25656    3    0    1
 -2      4662      5205      4908      4631
 -1     25657    3    0    1
 -2      6622      6673      6672      7925
 -1     25658    3    0    1
 -2      2568      1966      3145      2557
 -1     25659    3    0    1
 -2       909       452       827      2767
 -1     25660    3    0    1
 -2      3176      2669      3211      3808
 -1     25661    3    0    1
 -2       395        15        13      1451
 -1     25662    3    0    1
 -2      1032      3422      2876      1713
 -1     25663    3    0    1
 -2      2928       207      1132      2929
 -1     25664    3    0    1
 -2      6800      6879      6799      6878
 -1     25665    3    0    1
 -2      5583      5643      5964      5965
 -1     25666    3    0    1
 -2      4497      4448      5068      5059
 -1     25667    3    0    1
 -2      1340      1302      1301      2555
 -1     25668    3    0    1
 -2      3202      3789       754      2047
 -1     25669    3    0    1
 -2      1279      2585      1278      3760
 -1     25670    3    0    1
 -2      5932      7878      7401      8758
 -1     25671    3    0    1
 -2      6951      6929      6927      8465
 -1     25672    3    0    1
 -2      8138      7699      5378      9036
 -1     25673    3    0    1
 -2      3530      3443      2385      2956
 -1     25674    3    0    1
 -2       712      1420      1440      1345
 -1     25675    3    0    1
 -2       453       909       967      2767
 -1     25676    3    0    1
 -2      2047      2125       754      1384
 -1     25677    3    0    1
 -2      3435      4442      2871      4063
 -1     25678    3    0    1
 -2      2458      2968      2967      3563
 -1     25679    3    0    1
 -2       315       373       314       316
 -1     25680    3    0    1
 -2      7209      6242      8211      7792
 -1     25681    3    0    1
 -2      3484      1707       538      2915
 -1     25682    3    0    1
 -2       806       100       805       427
 -1     25683    3    0    1
 -2      8034      7601      9212      9481
 -1     25684    3    0    1
 -2      8093      8549      7064      7032
 -1     25685    3    0    1
 -2      8907      9233      7611      9503
 -1     25686    3    0    1
 -2      3366      3875      3275      2732
 -1     25687    3    0    1
 -2      3074      2486      2445      3666
 -1     25688    3    0    1
 -2      6483      8746      8747      7398
 -1     25689    3    0    1
 -2      3466      4783      4482      4089
 -1     25690    3    0    1
 -2       950       949       490      2734
 -1     25691    3    0    1
 -2      1252      3037      2517      1918
 -1     25692    3    0    1
 -2      6562      9121      9083      6498
 -1     25693    3    0    1
 -2      2286      2760      3388      3972
 -1     25694    3    0    1
 -2      7233      7232      7280      6335
 -1     25695    3    0    1
 -2      2212      3283      2260      1513
 -1     25696    3    0    1
 -2      9641      9429      9592      9674
 -1     25697    3    0    1
 -2      3451      2403      1730      2936
 -1     25698    3    0    1
 -2      2556      4230      3689      4209
 -1     25699    3    0    1
 -2      7112      6238      6128      6126
 -1     25700    3    0    1
 -2      1427       770      1340      3160
 -1     25701    3    0    1
 -2      2694       896      2748      3277
 -1     25702    3    0    1
 -2      9446      6718      9425      6620
 -1     25703    3    0    1
 -2      5932      6597      7349      8758
 -1     25704    3    0    1
 -2      9130      8756      8712      7941
 -1     25705    3    0    1
 -2      8704      7878      7349      8758
 -1     25706    3    0    1
 -2       829       118       828       475
 -1     25707    3    0    1
 -2      5942      6491      6492      5933
 -1     25708    3    0    1
 -2      8804      8784      7426      8773
 -1     25709    3    0    1
 -2      5908      7370      6565      7858
 -1     25710    3    0    1
 -2      1353      1354       731      3222
 -1     25711    3    0    1
 -2      5177      5326      4936      5208
 -1     25712    3    0    1
 -2      7647      7028      7027      8036
 -1     25713    3    0    1
 -2      2135      2667       752      1347
 -1     25714    3    0    1
 -2      2701       840       841      2700
 -1     25715    3    0    1
 -2      5154      5192      4604      5155
 -1     25716    3    0    1
 -2      6899      7539      6875      6843
 -1     25717    3    0    1
 -2      2350      2859      3515      1721
 -1     25718    3    0    1
 -2      3108      4223      2544      1982
 -1     25719    3    0    1
 -2      8845      6687      5980      7497
 -1     25720    3    0    1
 -2      1169      2447      1882      1842
 -1     25721    3    0    1
 -2      5135      3610      4867      4847
 -1     25722    3    0    1
 -2      2544      2504      3108      1982
 -1     25723    3    0    1
 -2      5551      5524      6506      5947
 -1     25724    3    0    1
 -2      7049      8513      7662      6978
 -1     25725    3    0    1
 -2      6766      8382      8347      6011
 -1     25726    3    0    1
 -2      1814      1191      1840      3591
 -1     25727    3    0    1
 -2      7691      8098      7101      7638
 -1     25728    3    0    1
 -2      4942      4317      4659      4611
 -1     25729    3    0    1
 -2      3762      3782      4904      4294
 -1     25730    3    0    1
 -2      4852      4532      4558      4878
 -1     25731    3    0    1
 -2      4052      4493      4766      3448
 -1     25732    3    0    1
 -2      5831      7222      8152      6216
 -1     25733    3    0    1
 -2      7901      8811      9420      7407
 -1     25734    3    0    1
 -2      7962      6633      6596      6739
 -1     25735    3    0    1
 -2      9182      8815      8833      9456
 -1     25736    3    0    1
 -2      9446      6637      7448      6620
 -1     25737    3    0    1
 -2      6085      8552      6117      9246
 -1     25738    3    0    1
 -2      1265      1213      3643      1264
 -1     25739    3    0    1
 -2       111        91       927      2733
 -1     25740    3    0    1
 -2      6999      9221      8505      8874
 -1     25741    3    0    1
 -2      3919      4727      4365      4978
 -1     25742    3    0    1
 -2      8916      7068      7677      7007
 -1     25743    3    0    1
 -2      1513      1548      2260      1514
 -1     25744    3    0    1
 -2      4799      5074      5024      4800
 -1     25745    3    0    1
 -2       443       454      2713      2714
 -1     25746    3    0    1
 -2      8976      9493      7100      7690
 -1     25747    3    0    1
 -2      2786      2265      3316      3922
 -1     25748    3    0    1
 -2      8543      9273      8984      8113
 -1     25749    3    0    1
 -2      2350      3515      3993      4422
 -1     25750    3    0    1
 -2      7733      8614      6308      9020
 -1     25751    3    0    1
 -2      3264      2725      1450      3321
 -1     25752    3    0    1
 -2      2367      2408      1741      2892
 -1     25753    3    0    1
 -2      8573      7701      6167      9352
 -1     25754    3    0    1
 -2      1286      3131      3152      1980
 -1     25755    3    0    1
 -2      7909      7951      6635      9462
 -1     25756    3    0    1
 -2      6899      8448      8492      5704
 -1     25757    3    0    1
 -2      6911      6997      8011      8041
 -1     25758    3    0    1
 -2      7693      7109      6106      6097
 -1     25759    3    0    1
 -2      8143      9026      9042      5395
 -1     25760    3    0    1
 -2      4537      3651      4508      4582
 -1     25761    3    0    1
 -2      6794      5681      7456      7461
 -1     25762    3    0    1
 -2      7764      6219      7223      7152
 -1     25763    3    0    1
 -2      7089      8066      6082      7061
 -1     25764    3    0    1
 -2      3896      2809      2214      2231
 -1     25765    3    0    1
 -2       625      1189      1188      2970
 -1     25766    3    0    1
 -2      2134      2666      3200      2018
 -1     25767    3    0    1
 -2      7640      8555      8109      7104
 -1     25768    3    0    1
 -2      1806       637      2993      1822
 -1     25769    3    0    1
 -2      7250      7798      6329      8234
 -1     25770    3    0    1
 -2       869       848       918      1596
 -1     25771    3    0    1
 -2      6264      6265      6225      7157
 -1     25772    3    0    1
 -2      7897      9404      9111      6606
 -1     25773    3    0    1
 -2      8596      7757      7125      9349
 -1     25774    3    0    1
 -2      5658      6823      6046      6822
 -1     25775    3    0    1
 -2       146       184       527       185
 -1     25776    3    0    1
 -2      4892      4926      4891      5690
 -1     25777    3    0    1
 -2       652       248       249      2460
 -1     25778    3    0    1
 -2      3335      2187      2244      3362
 -1     25779    3    0    1
 -2      2023      2039      3118      2024
 -1     25780    3    0    1
 -2      1809      1860      1158      2457
 -1     25781    3    0    1
 -2      3516      3994      3515      1765
 -1     25782    3    0    1
 -2      2495      1169      2447      1882
 -1     25783    3    0    1
 -2      4322      3326      2759      2702
 -1     25784    3    0    1
 -2      6220      6221      7778      8640
 -1     25785    3    0    1
 -2      1527       872       871      2193
 -1     25786    3    0    1
 -2      2617      3224      2102      3157
 -1     25787    3    0    1
 -2      5911      5058      5525      5494
 -1     25788    3    0    1
 -2      5359      5775      6103      5334
 -1     25789    3    0    1
 -2      1833       267       217      2996
 -1     25790    3    0    1
 -2       962       961       469       905
 -1     25791    3    0    1
 -2       431       430       908       842
 -1     25792    3    0    1
 -2      5779      5373      6239      6129
 -1     25793    3    0    1
 -2      1459       406      2729      1549
 -1     25794    3    0    1
 -2      7209      8211      8671      7792
 -1     25795    3    0    1
 -2      6569      6543      7898      7340
 -1     25796    3    0    1
 -2      3980      1660      2297      2849
 -1     25797    3    0    1
 -2       297       298       353      1349
 -1     25798    3    0    1
 -2      5601      5662      5981      6010
 -1     25799    3    0    1
 -2       832       107       105      2244
 -1     25800    3    0    1
 -2      8680      8237      6384      7845
 -1     25801    3    0    1
 -2      9140      8711      7395      8325
 -1     25802    3    0    1
 -2      7180      6162      6235      5783
 -1     25803    3    0    1
 -2      7683      5740      8061      8518
 -1     25804    3    0    1
 -2      7912      7858      9122      8280
 -1     25805    3    0    1
 -2      4575      4526      4118      3645
 -1     25806    3    0    1
 -2      8664      9055      6212      7171
 -1     25807    3    0    1
 -2      6733      7972      7973      5607
 -1     25808    3    0    1
 -2      8628      8179      7137      9019
 -1     25809    3    0    1
 -2      7330      8281      7351      8730
 -1     25810    3    0    1
 -2      7588      6987      5711      6077
 -1     25811    3    0    1
 -2      2535      3661      4190      3050
 -1     25812    3    0    1
 -2      1242      1909       646      3052
 -1     25813    3    0    1
 -2      2726      2699       465      2754
 -1     25814    3    0    1
 -2      3130      3175       720      1328
 -1     25815    3    0    1
 -2      7913      7912      6566      5908
 -1     25816    3    0    1
 -2      7201      6176      6265      7756
 -1     25817    3    0    1
 -2       537      1141       582      2949
 -1     25818    3    0    1
 -2      7295      6396      5903      7318
 -1     25819    3    0    1
 -2      1759      2398      1106      2382
 -1     25820    3    0    1
 -2      4895      4261      4916      4917
 -1     25821    3    0    1
 -2      6272      6137      5224      5850
 -1     25822    3    0    1
 -2      6394      6327      7226      7836
 -1     25823    3    0    1
 -2      9504      7594      9234      7689
 -1     25824    3    0    1
 -2      4919      4273      4633      4679
 -1     25825    3    0    1
 -2      6449      5953      7874      8326
 -1     25826    3    0    1
 -2      1523      1524      2253      3889
 -1     25827    3    0    1
 -2      9124      6625      8309      9086
 -1     25828    3    0    1
 -2      2982      3636      2983      4507
 -1     25829    3    0    1
 -2      2378      1752      1753      4041
 -1     25830    3    0    1
 -2      7537      6046      6044      7997
 -1     25831    3    0    1
 -2      9331      7703      8576      9339
 -1     25832    3    0    1
 -2      5467      6352      5872      6351
 -1     25833    3    0    1
 -2      7906      8713      6557      5955
 -1     25834    3    0    1
 -2      7525      7493      6763      8373
 -1     25835    3    0    1
 -2      7055      7056      8503      6980
 -1     25836    3    0    1
 -2      7689      8107      7098      7079
 -1     25837    3    0    1
 -2      6235      7111      5783      6124
 -1     25838    3    0    1
 -2      6341      7239      6164      6269
 -1     25839    3    0    1
 -2      7310      9113      9088      7352
 -1     25840    3    0    1
 -2      7582      8016      8051      6096
 -1     25841    3    0    1
 -2      7871      7278      8697      8696
 -1     25842    3    0    1
 -2      8809      8774      8808      7427
 -1     25843    3    0    1
 -2      2697      2750      3346      3909
 -1     25844    3    0    1
 -2      7841      7856      9105      6494
 -1     25845    3    0    1
 -2      9151      5945      9451      7390
 -1     25846    3    0    1
 -2      3655      3638      4521      4510
 -1     25847    3    0    1
 -2      9045      6128      6238      7805
 -1     25848    3    0    1
 -2      5164      5201      4919      4633
 -1     25849    3    0    1
 -2      3791      3178      3244      2137
 -1     25850    3    0    1
 -2      7012      7622      6120      5729
 -1     25851    3    0    1
 -2      1140      3609      3558      3637
 -1     25852    3    0    1
 -2      4169      4168      4840      4587
 -1     25853    3    0    1
 -2      3788      3150      3764      2647
 -1     25854    3    0    1
 -2      2670       764       763      2137
 -1     25855    3    0    1
 -2      7478      6766      8347      6699
 -1     25856    3    0    1
 -2       903       932       467      2236
 -1     25857    3    0    1
 -2      1046      1789      2934      1117
 -1     25858    3    0    1
 -2      6038      6988      7572      5691
 -1     25859    3    0    1
 -2      7986      7963      8820      6742
 -1     25860    3    0    1
 -2      4448      4037      4497      4790
 -1     25861    3    0    1
 -2      7357      6619      6599      9671
 -1     25862    3    0    1
 -2      4358      4712      4336      3913
 -1     25863    3    0    1
 -2      6999      8854      8505      8012
 -1     25864    3    0    1
 -2      7687      6063      7637      6111
 -1     25865    3    0    1
 -2       686       665       229      2451
 -1     25866    3    0    1
 -2      5247      5075      5076      4809
 -1     25867    3    0    1
 -2      8762      7862      7896      8323
 -1     25868    3    0    1
 -2      5463      5849      5222      5410
 -1     25869    3    0    1
 -2      6034      6035      6865      6036
 -1     25870    3    0    1
 -2      1434      1415       737       757
 -1     25871    3    0    1
 -2       822        48        47      1458
 -1     25872    3    0    1
 -2      9213      5740      8518      8930
 -1     25873    3    0    1
 -2      5271      5918      5884      5521
 -1     25874    3    0    1
 -2      6450      6524      6451      8305
 -1     25875    3    0    1
 -2      5960      6658      6598      6618
 -1     25876    3    0    1
 -2       806       100        81       805
 -1     25877    3    0    1
 -2      8553      8956      9236      9296
 -1     25878    3    0    1
 -2      5202      5207      4911      4667
 -1     25879    3    0    1
 -2      4587      4169      4168      3643
 -1     25880    3    0    1
 -2      2917      2388      2954      4055
 -1     25881    3    0    1
 -2      3385       919      3339      2795
 -1     25882    3    0    1
 -2      3462      2994      3549      3511
 -1     25883    3    0    1
 -2      2503      2467      1854      2438
 -1     25884    3    0    1
 -2      7865      7864      9099      6508
 -1     25885    3    0    1
 -2      7599      8448      8492      6899
 -1     25886    3    0    1
 -2      9663      8105      8973      9490
 -1     25887    3    0    1
 -2      6150      6257      5814      5397
 -1     25888    3    0    1
 -2      2912      2369      2983      2910
 -1     25889    3    0    1
 -2      9219      8040      9218      9488
 -1     25890    3    0    1
 -2      5511      7316      7292      6414
 -1     25891    3    0    1
 -2      6074      6104      5706      6919
 -1     25892    3    0    1
 -2       662      1202      1124       663
 -1     25893    3    0    1
 -2       167       992       169      2379
 -1     25894    3    0    1
 -2      2415      3467      1062      1779
 -1     25895    3    0    1
 -2      9211      8868      8087      9253
 -1     25896    3    0    1
 -2      1046      1789      1117      1047
 -1     25897    3    0    1
 -2      5080      4119      4554      3661
 -1     25898    3    0    1
 -2      6776      6034      6035      7545
 -1     25899    3    0    1
 -2      3402      3462      1655      3427
 -1     25900    3    0    1
 -2      8215      6351      6405      7304
 -1     25901    3    0    1
 -2      8090      7646      6109      7635
 -1     25902    3    0    1
 -2      2098      3148      3805      2097
 -1     25903    3    0    1
 -2       122      1807       172      1785
 -1     25904    3    0    1
 -2      9183      6637      7952      9671
 -1     25905    3    0    1
 -2      1977      3086      3101      2520
 -1     25906    3    0    1
 -2      4724      5230      5431      5476
 -1     25907    3    0    1
 -2      1135       245       244      3552
 -1     25908    3    0    1
 -2      8760      7363      8717      6488
 -1     25909    3    0    1
 -2      1175      1140       666      3637
 -1     25910    3    0    1
 -2      5252      5498      5279      5248
 -1     25911    3    0    1
 -2      9427      9416      7913      9674
 -1     25912    3    0    1
 -2      6761      5992      6674      5993
 -1     25913    3    0    1
 -2      3803      2644      3197      2631
 -1     25914    3    0    1
 -2      6993      6051      7063      6992
 -1     25915    3    0    1
 -2      2863      3450      4474      3494
 -1     25916    3    0    1
 -2      7087      6076      7646      7635
 -1     25917    3    0    1
 -2      9081      9107      7842      7300
 -1     25918    3    0    1
 -2      1343      1314      2591      2031
 -1     25919    3    0    1
 -2      8944      8546      7685      9485
 -1     25920    3    0    1
 -2      2968       601       644      2967
 -1     25921    3    0    1
 -2      8830      6794      7456      7461
 -1     25922    3    0    1
 -2      8287      6444      7376      6505
 -1     25923    3    0    1
 -2      2560      3730      4227      1978
 -1     25924    3    0    1
 -2      1054       199       607      1805
 -1     25925    3    0    1
 -2       164       535      1034       195
 -1     25926    3    0    1
 -2      6726      6642      7471      8801
 -1     25927    3    0    1
 -2       876      3284      2235      2261
 -1     25928    3    0    1
 -2      9157      8359      8325      9433
 -1     25929    3    0    1
 -2       847       499       868      1491
 -1     25930    3    0    1
 -2      9544      8545      9482      9543
 -1     25931    3    0    1
 -2      8064      7059      6987      8896
 -1     25932    3    0    1
 -2      5903      5515      5576      4816
 -1     25933    3    0    1
 -2      1793      1128       581      1712
 -1     25934    3    0    1
 -2      5162      5717      5752      6068
 -1     25935    3    0    1
 -2      2735      2750      3851      3314
 -1     25936    3    0    1
 -2      8489      8014      9236      7638
 -1     25937    3    0    1
 -2      8131      7749      8641      9013
 -1     25938    3    0    1
 -2      6724      6748      8799      7954
 -1     25939    3    0    1
 -2      7390      7375      9665      9389
 -1     25940    3    0    1
 -2      6259      6219      5847      7223
 -1     25941    3    0    1
 -2      4270      3744      3240      2079
 -1     25942    3    0    1
 -2      6070      5774      7101      7638
 -1     25943    3    0    1
 -2      8419      5654      6776      7545
 -1     25944    3    0    1
 -2      3309      2276       924      1522
 -1     25945    3    0    1
 -2      2040      1433      3228      3139
 -1     25946    3    0    1
 -2      5665      6707      6755      6652
 -1     25947    3    0    1
 -2       544       543       205      1762
 -1     25948    3    0    1
 -2      7224      5473      6260      9072
 -1     25949    3    0    1
 -2      8704      7349      8684      9094
 -1     25950    3    0    1
 -2      6014      7939      6613      6754
 -1     25951    3    0    1
 -2      4358      4399      4712      3913
 -1     25952    3    0    1
 -2      9484      8090      8969      8942
 -1     25953    3    0    1
 -2      7039      7000      5725      6114
 -1     25954    3    0    1
 -2      7908      8340      8759      9435
 -1     25955    3    0    1
 -2      7539      8410      6898      6875
 -1     25956    3    0    1
 -2      8760      8717      7876      6488
 -1     25957    3    0    1
 -2       508       136       509      9675
 -1     25958    3    0    1
 -2      8864      9495      8049      7639
 -1     25959    3    0    1
 -2      6755      5611      6614      6651
 -1     25960    3    0    1
 -2      8905      8072      7650      8884
 -1     25961    3    0    1
 -2      7055      7056      6980      6982
 -1     25962    3    0    1
 -2      5713      6996      7092      5724
 -1     25963    3    0    1
 -2      5236      5392      5845      5811
 -1     25964    3    0    1
 -2      1727      1096      3536      2925
 -1     25965    3    0    1
 -2      5885      7302      5887      8313
 -1     25966    3    0    1
 -2      7997      6044      8403      8443
 -1     25967    3    0    1
 -2      9358      9053      6145      8171
 -1     25968    3    0    1
 -2      4423      5073      4075      4491
 -1     25969    3    0    1
 -2      8039      7593      9218      8853
 -1     25970    3    0    1
 -2      4277      2634      2099      1380
 -1     25971    3    0    1
 -2      3789       782       754      2125
 -1     25972    3    0    1
 -2      8708      9373      9087      7338
 -1     25973    3    0    1
 -2      9446      6637      6620      9671
 -1     25974    3    0    1
 -2      3924      2767      3294      3863
 -1     25975    3    0    1
 -2      5802      5460      5228      6157
 -1     25976    3    0    1
 -2      3521      1790      1782      2405
 -1     25977    3    0    1
 -2      9421      9102      7939      9604
 -1     25978    3    0    1
 -2      8234      7317      6414      7316
 -1     25979    3    0    1
 -2      1741      1742      1075      2408
 -1     25980    3    0    1
 -2      3210      3257       793      2146
 -1     25981    3    0    1
 -2       289       715       716      1442
 -1     25982    3    0    1
 -2      8599      8116      6132      9034
 -1     25983    3    0    1
 -2      3233      3232      4307      3754
 -1     25984    3    0    1
 -2      2117      2628      2095      2582
 -1     25985    3    0    1
 -2      1088      2899      3529      1714
 -1     25986    3    0    1
 -2      5928      7352      7353      6608
 -1     25987    3    0    1
 -2      9083      7270      6497      6498
 -1     25988    3    0    1
 -2      7844      5920      5892      8282
 -1     25989    3    0    1
 -2      6488      6455      8717      7322
 -1     25990    3    0    1
 -2      6204      6142      7711      5795
 -1     25991    3    0    1
 -2      2650      3246      3180      2138
 -1     25992    3    0    1
 -2      8507      7063      6992      8902
 -1     25993    3    0    1
 -2      9522      8965      9479      8100
 -1     25994    3    0    1
 -2      1805      1054       199      2953
 -1     25995    3    0    1
 -2       326       327      2614      1316
 -1     25996    3    0    1
 -2       854       855      1472      2692
 -1     25997    3    0    1
 -2      8732      8731      8755      7373
 -1     25998    3    0    1
 -2      9180      8813      6650      6734
 -1     25999    3    0    1
 -2      5695      6995      7630      7033
 -1     26000    3    0    1
 -2      8543      8926      9273      8113
 -1     26001    3    0    1
 -2      5817      7162      6281      7136
 -1     26002    3    0    1
 -2      2896      3438      1747      4038
 -1     26003    3    0    1
 -2      4842      5092      5672      4823
 -1     26004    3    0    1
 -2      3376      2288      1637      3399
 -1     26005    3    0    1
 -2      7375      7334      8702      9097
 -1     26006    3    0    1
 -2      8636      8997      8140      6144
 -1     26007    3    0    1
 -2      2859      2390      3515      1721
 -1     26008    3    0    1
 -2      2688       418       889      2743
 -1     26009    3    0    1
 -2      7861      7833      6463      9109
 -1     26010    3    0    1
 -2      3407      3437      1682      1684
 -1     26011    3    0    1
 -2      3332      1490       917      1568
 -1     26012    3    0    1
 -2      6437      6486      7361      6438
 -1     26013    3    0    1
 -2      8152      6288      5831      5829
 -1     26014    3    0    1
 -2      9274      9652      8927      9287
 -1     26015    3    0    1
 -2      2726       465       494      2753
 -1     26016    3    0    1
 -2      2706       863      1476      2239
 -1     26017    3    0    1
 -2      5906      7842      9107      7300
 -1     26018    3    0    1
 -2      1483      1541      1540      2718
 -1     26019    3    0    1
 -2       854       459       893      1472
 -1     26020    3    0    1
 -2      2415      2401      3467      1779
 -1     26021    3    0    1
 -2      1260       666       667      1896
 -1     26022    3    0    1
 -2      6978      6974      7048      6977
 -1     26023    3    0    1
 -2       961       905      2761      2237
 -1     26024    3    0    1
 -2      3737      4305      4673      3772
 -1     26025    3    0    1
 -2       455       456       890      2745
 -1     26026    3    0    1
 -2      8220      8167      9343      7171
 -1     26027    3    0    1
 -2      5953      6554      6449      5514
 -1     26028    3    0    1
 -2       523       522      1048      3415
 -1     26029    3    0    1
 -2      2876      1704      1033      1713
 -1     26030    3    0    1
 -2      6174      6154      7749      8641
 -1     26031    3    0    1
 -2      4032      4445      4801      4444
 -1     26032    3    0    1
 -2      5839      6238      6127      5785
 -1     26033    3    0    1
 -2      4750      4719      4959      4720
 -1     26034    3    0    1
 -2      7318      7349      8684      8704
 -1     26035    3    0    1
 -2      8980      9650      9539      8979
 -1     26036    3    0    1
 -2      2937      1790      1119      3472
 -1     26037    3    0    1
 -2      8602      7120      7748      9012
 -1     26038    3    0    1
 -2      7911      7892      9120      9400
 -1     26039    3    0    1
 -2       315       314      2152      2611
 -1     26040    3    0    1
 -2       105       831       399      1467
 -1     26041    3    0    1
 -2      3154      2038      2002      2552
 -1     26042    3    0    1
 -2      4543      5079      4873      5087
 -1     26043    3    0    1
 -2      3827      2639      2089      2088
 -1     26044    3    0    1
 -2      4077      3493      3448      2932
 -1     26045    3    0    1
 -2      7785      9042      9026      5395
 -1     26046    3    0    1
 -2      2707       843      1503      3353
 -1     26047    3    0    1
 -2      4415      4783      4482      3466
 -1     26048    3    0    1
 -2      2423      1823      1858      4130
 -1     26049    3    0    1
 -2      3745      4631      4271      4678
 -1     26050    3    0    1
 -2      7984      6726      8826      7948
 -1     26051    3    0    1
 -2      3038      3603      3556      1887
 -1     26052    3    0    1
 -2      3839      3242      3174      4298
 -1     26053    3    0    1
 -2      1442      3255      3254      2598
 -1     26054    3    0    1
 -2       790       737       705       312
 -1     26055    3    0    1
 -2      1828      2981      1139      1883
 -1     26056    3    0    1
 -2      7534      8419      6776      7545
 -1     26057    3    0    1
 -2      3980      3414      1660      2849
 -1     26058    3    0    1
 -2      4168      4840      3578      4169
 -1     26059    3    0    1
 -2      6011      8382      8347      6701
 -1     26060    3    0    1
 -2      1438      1437       709      2642
 -1     26061    3    0    1
 -2      1024       571      2369      1681
 -1     26062    3    0    1
 -2       779      3199      3787      3241
 -1     26063    3    0    1
 -2      6145      9310      9582      9053
 -1     26064    3    0    1
 -2      1088       587      1087      1714
 -1     26065    3    0    1
 -2      3464      1059      1058      2400
 -1     26066    3    0    1
 -2      2574      3721      2575      4598
 -1     26067    3    0    1
 -2      1485       431       906      2199
 -1     26068    3    0    1
 -2      7798      7228      6329      8234
 -1     26069    3    0    1
 -2      7326      7890      7327      6458
 -1     26070    3    0    1
 -2      8789      8361      9160      7943
 -1     26071    3    0    1
 -2      1328      3175       293      1327
 -1     26072    3    0    1
 -2       285       708       320       323
 -1     26073    3    0    1
 -2       788       364       302      2148
 -1     26074    3    0    1
 -2       736      1428      1414      3192
 -1     26075    3    0    1
 -2      2752       857       901      1543
 -1     26076    3    0    1
 -2      8083      9239      8919      6073
 -1     26077    3    0    1
 -2       713      1999      2077      2033
 -1     26078    3    0    1
 -2      8955      9294      8108      8976
 -1     26079    3    0    1
 -2      1032      1646      2310      3440
 -1     26080    3    0    1
 -2      5157      6064      6099      6112
 -1     26081    3    0    1
 -2       295       352      1448       296
 -1     26082    3    0    1
 -2      5544      5522      5506      5049
 -1     26083    3    0    1
 -2      2614      2591       710      1316
 -1     26084    3    0    1
 -2      9022      7736      8995      9331
 -1     26085    3    0    1
 -2      8030      7632      9210      6973
 -1     26086    3    0    1
 -2      8435      8001      8458      5705
 -1     26087    3    0    1
 -2       870       443      2713      1494
 -1     26088    3    0    1
 -2      5687      7587      8055      8849
 -1     26089    3    0    1
 -2      7361      6486      8270      6438
 -1     26090    3    0    1
 -2      1752      1753      4041      2396
 -1     26091    3    0    1
 -2      5274      5546      5563      5021
 -1     26092    3    0    1
 -2       227       658       657      1139
 -1     26093    3    0    1
 -2      4322      4321      3326      2702
 -1     26094    3    0    1
 -2      1682      1025      3407      1684
 -1     26095    3    0    1
 -2      4716      4715      3868      4401
 -1     26096    3    0    1
 -2      3162      3208      3250      3772
 -1     26097    3    0    1
 -2       274       726       275       786
 -1     26098    3    0    1
 -2      4859      5080      4119      4554
 -1     26099    3    0    1
 -2      1530       850      2688      2689
 -1     26100    3    0    1
 -2      4367      4392      4728      4969
 -1     26101    3    0    1
 -2      1386       755      1385      1290
 -1     26102    3    0    1
 -2      8469      8067      6953      7606
 -1     26103    3    0    1
 -2      8030      9210      7641      6973
 -1     26104    3    0    1
 -2      2736      3856      4333      2756
 -1     26105    3    0    1
 -2      7111      9333      9030      5783
 -1     26106    3    0    1
 -2      4832      5663      5632      5305
 -1     26107    3    0    1
 -2      3746      3172      3199      2034
 -1     26108    3    0    1
 -2      8058      9479      8965      8100
 -1     26109    3    0    1
 -2       269       643      1907      3005
 -1     26110    3    0    1
 -2       477       937       974       916
 -1     26111    3    0    1
 -2      9490      8952      9535      9282
 -1     26112    3    0    1
 -2       848       869      2711      2712
 -1     26113    3    0    1
 -2      8255      5486      6402      8705
 -1     26114    3    0    1
 -2      4294      3843      2591      2662
 -1     26115    3    0    1
 -2      8264      8687      7842      7268
 -1     26116    3    0    1
 -2      9446      7448      6637      7952
 -1     26117    3    0    1
 -2      4857      5651      5078      5117
 -1     26118    3    0    1
 -2      1450      1451      2725      3264
 -1     26119    3    0    1
 -2      2260      3283      2212      1514
 -1     26120    3    0    1
 -2       487        84        85       446
 -1     26121    3    0    1
 -2       391        45        44       396
 -1     26122    3    0    1
 -2      3137      2535      1951      3735
 -1     26123    3    0    1
 -2      6865      6035      6034      7545
 -1     26124    3    0    1
 -2      8628      6132      5376      9034
 -1     26125    3    0    1
 -2      3481      1032      1083      1794
 -1     26126    3    0    1
 -2       699      1337      1296      3186
 -1     26127    3    0    1
 -2      7342      5497      7867      5508
 -1     26128    3    0    1
 -2      1821       635      2992      1805
 -1     26129    3    0    1
 -2      7441      7943      5957      6654
 -1     26130    3    0    1
 -2        17        16        18       111
 -1     26131    3    0    1
 -2      8300      6483      8746      8747
 -1     26132    3    0    1
 -2      7793      8662      6353      7304
 -1     26133    3    0    1
 -2      4682      5685      4886      5351
 -1     26134    3    0    1
 -2      8072      7650      6100      8905
 -1     26135    3    0    1
 -2      7654      7676      8528      7003
 -1     26136    3    0    1
 -2      3708      3701      2549      3123
 -1     26137    3    0    1
 -2      9099      9098      7864      7865
 -1     26138    3    0    1
 -2      7921      6596      5957      6739
 -1     26139    3    0    1
 -2      4213      3692      3101      2560
 -1     26140    3    0    1
 -2      9239      8083      7105      6073
 -1     26141    3    0    1
 -2      5962      5963      7466      7909
 -1     26142    3    0    1
 -2      3008      3033      3597      4121
 -1     26143    3    0    1
 -2      9224      9249      6917      7006
 -1     26144    3    0    1
 -2      4723      4724      3273      3916
 -1     26145    3    0    1
 -2      5636      5952      7409      6015
 -1     26146    3    0    1
 -2      1805      1105       607      2952
 -1     26147    3    0    1
 -2       801        17        18      1453
 -1     26148    3    0    1
 -2      7650      5747      6997      7076
 -1     26149    3    0    1
 -2      4603      4605      3138      4672
 -1     26150    3    0    1
 -2      6537      6502      6588      5522
 -1     26151    3    0    1
 -2      5078      5580      5651      4857
 -1     26152    3    0    1
 -2      3983      3403      2304      1672
 -1     26153    3    0    1
 -2      8034      7601      8009      9212
 -1     26154    3    0    1
 -2      5267      5038      5039      4802
 -1     26155    3    0    1
 -2      7815      6221      8621      7152
 -1     26156    3    0    1
 -2      4191      3051      2536      2537
 -1     26157    3    0    1
 -2      6949      6984      7586      8892
 -1     26158    3    0    1
 -2      1486       863       432      1476
 -1     26159    3    0    1
 -2      1989      2546      1269      4217
 -1     26160    3    0    1
 -2      9419      9475      9670      9673
 -1     26161    3    0    1
 -2      3838      3172      4297      3241
 -1     26162    3    0    1
 -2      8890      8542      7110      7017
 -1     26163    3    0    1
 -2      3541      1100      2368      1743
 -1     26164    3    0    1
 -2        44        47        46       391
 -1     26165    3    0    1
 -2      7320      8270      8716      7362
 -1     26166    3    0    1
 -2      7163      8649      9337      9063
 -1     26167    3    0    1
 -2      4823      5092      5672      5140
 -1     26168    3    0    1
 -2      7902      9155      7938      6650
 -1     26169    3    0    1
 -2      9026      8608      8639      5395
 -1     26170    3    0    1
 -2      3907      3906      1577      1578
 -1     26171    3    0    1
 -2      1368      2629      3235      3775
 -1     26172    3    0    1
 -2      9280      9481      8939      9543
 -1     26173    3    0    1
 -2      3236      3237       761      3777
 -1     26174    3    0    1
 -2      5845      6253      5392      5236
 -1     26175    3    0    1
 -2      5476      7177      6176      7232
 -1     26176    3    0    1
 -2      5387      6171      5794      5235
 -1     26177    3    0    1
 -2       497       102        57      2266
 -1     26178    3    0    1
 -2      2234      3369       893      2693
 -1     26179    3    0    1
 -2      6901      8436      6850      6851
 -1     26180    3    0    1
 -2      8960      9267      9519      9268
 -1     26181    3    0    1
 -2      3607      1892      1893      1820
 -1     26182    3    0    1
 -2      2126       726       697      3221
 -1     26183    3    0    1
 -2      3189      2654      4253      3159
 -1     26184    3    0    1
 -2       950       490       457      3323
 -1     26185    3    0    1
 -2      8723      7889      7368      9119
 -1     26186    3    0    1
 -2      5035      5914      5069      4791
 -1     26187    3    0    1
 -2      4379      4401      3868      2791
 -1     26188    3    0    1
 -2      2615      2594      2593      2076
 -1     26189    3    0    1
 -2      1865      2968      4136      2966
 -1     26190    3    0    1
 -2      7448      6718      7522      7487
 -1     26191    3    0    1
 -2      8046      8014      6897      6070
 -1     26192    3    0    1
 -2      7584      7628      7018      5710
 -1     26193    3    0    1
 -2      4030      2871      4442      1770
 -1     26194    3    0    1
 -2      3493      4493      4077      3448
 -1     26195    3    0    1
 -2      6080      7026      7589      7027
 -1     26196    3    0    1
 -2      5324      5308      5614      6737
 -1     26197    3    0    1
 -2      6679      6723      6762      8343
 -1     26198    3    0    1
 -2       828       118       474       475
 -1     26199    3    0    1
 -2      7951      7964      9462      7466
 -1     26200    3    0    1
 -2      7170      8210      7239      6269
 -1     26201    3    0    1
 -2      5839      5785      5371      5232
 -1     26202    3    0    1
 -2      4628      3743      4907      4677
 -1     26203    3    0    1
 -2      7580      7540      6879      6880
 -1     26204    3    0    1
 -2      5326      4894      4936      5208
 -1     26205    3    0    1
 -2      7101      8956      8532      9247
 -1     26206    3    0    1
 -2      8976      9493      9245      7100
 -1     26207    3    0    1
 -2      6955      6956      6954      8068
 -1     26208    3    0    1
 -2      8222      7786      7785      5471
 -1     26209    3    0    1
 -2       385       346       349      2159
 -1     26210    3    0    1
 -2      6678      7419      6679      8343
 -1     26211    3    0    1
 -2      3370       899       955      3346
 -1     26212    3    0    1
 -2      5455      6145      5436      7221
 -1     26213    3    0    1
 -2       383       291       342       292
 -1     26214    3    0    1
 -2      3566      2919      2933      9675
 -1     26215    3    0    1
 -2       831       121       105       399
 -1     26216    3    0    1
 -2      5000      6176      5476      5431
 -1     26217    3    0    1
 -2      8838      7988      8796      8353
 -1     26218    3    0    1
 -2      6992      6051      7063      8472
 -1     26219    3    0    1
 -2      7496      5646      6728      7526
 -1     26220    3    0    1
 -2       950      2782      2734      3323
 -1     26221    3    0    1
 -2      5775      7103      6103      7618
 -1     26222    3    0    1
 -2       674       673      1142       217
 -1     26223    3    0    1
 -2       495        95        96      1549
 -1     26224    3    0    1
 -2      1833       217       205      2996
 -1     26225    3    0    1
 -2      5780      6145      7221      5436
 -1     26226    3    0    1
 -2      1132       207       639       638
 -1     26227    3    0    1
 -2       980       968       910      2289
 -1     26228    3    0    1
 -2      6728      6643      5970      7526
 -1     26229    3    0    1
 -2      7895      7858      7370      5908
 -1     26230    3    0    1
 -2      5109      4124      4830      4563
 -1     26231    3    0    1
 -2      7913      6604      6535      6499
 -1     26232    3    0    1
 -2      7590      6866      6815      7558
 -1     26233    3    0    1
 -2      6414      7292      8234      7316
 -1     26234    3    0    1
 -2      3597      2979      3008      4121
 -1     26235    3    0    1
 -2      2280      2281       951      2304
 -1     26236    3    0    1
 -2      5331      6063      5744      5340
 -1     26237    3    0    1
 -2      6104      7082      6119      5360
 -1     26238    3    0    1
 -2      4401      4716      4958      4379
 -1     26239    3    0    1
 -2      4619      4620      4284      4930
 -1     26240    3    0    1
 -2      3333       868      2201      1571
 -1     26241    3    0    1
 -2      3414      1660      2297      3980
 -1     26242    3    0    1
 -2      9213      8518      7683      9500
 -1     26243    3    0    1
 -2      6385      5489      6384      7845
 -1     26244    3    0    1
 -2      8700      7884      6581      5939
 -1     26245    3    0    1
 -2      9157      8325      8359      6652
 -1     26246    3    0    1
 -2      9239      9210      6073      6973
 -1     26247    3    0    1
 -2      5744      5733      5331      5340
 -1     26248    3    0    1
 -2      1308       692      3162       691
 -1     26249    3    0    1
 -2      1516      1562      1561      2217
 -1     26250    3    0    1
 -2      9241      8943      8091      9508
 -1     26251    3    0    1
 -2       888       944       943      1599
 -1     26252    3    0    1
 -2      8365      6661      5961      7412
 -1     26253    3    0    1
 -2      6372      7771      7802      9059
 -1     26254    3    0    1
 -2       457       490        91       927
 -1     26255    3    0    1
 -2      7796      7216      7192      6275
 -1     26256    3    0    1
 -2      3469      2888      2357      3535
 -1     26257    3    0    1
 -2      3662      3587      2444      3646
 -1     26258    3    0    1
 -2       741       759      1366      2028
 -1     26259    3    0    1
 -2      8973      9535      9663      9490
 -1     26260    3    0    1
 -2      3051      2536      1953      3071
 -1     26261    3    0    1
 -2      8136      9003      9032      6130
 -1     26262    3    0    1
 -2       838      2210      3325      1545
 -1     26263    3    0    1
 -2      8137      5376      7137      9019
 -1     26264    3    0    1
 -2       422       821      2698      2171
 -1     26265    3    0    1
 -2      3920      2736      4333      2756
 -1     26266    3    0    1
 -2      4586      4155      4838      4837
 -1     26267    3    0    1
 -2      2611      2152      1435      2659
 -1     26268    3    0    1
 -2      9034      6242      7792      9048
 -1     26269    3    0    1
 -2      8484      7595      6939      6941
 -1     26270    3    0    1
 -2      6775      7951      6743      8367
 -1     26271    3    0    1
 -2      6492      5942      5933      5519
 -1     26272    3    0    1
 -2      7968      8370      7953      9200
 -1     26273    3    0    1
 -2      7314      9102      6547      7939
 -1     26274    3    0    1
 -2      5075      5567      5496      5076
 -1     26275    3    0    1
 -2      9294      9245      9284      8955
 -1     26276    3    0    1
 -2      6729      8805      8379      7475
 -1     26277    3    0    1
 -2      6711      8816      8360      6653
 -1     26278    3    0    1
 -2      7354      6611      6573      5553
 -1     26279    3    0    1
 -2      7630      6995      6958      8883
 -1     26280    3    0    1
 -2      4997      5456      4965      4344
 -1     26281    3    0    1
 -2      6453      8269      8268      6436
 -1     26282    3    0    1
 -2      2647       781       751      2646
 -1     26283    3    0    1
 -2      2820      3907      1577      1578
 -1     26284    3    0    1
 -2      5180      5698      5343      4619
 -1     26285    3    0    1
 -2      6394      6430      6367      7836
 -1     26286    3    0    1
 -2      8957      9295      9494      9660
 -1     26287    3    0    1
 -2      7451      7523      7968      8370
 -1     26288    3    0    1
 -2      4676      5700      5161      4622
 -1     26289    3    0    1
 -2      9486      7032      8549      9487
 -1     26290    3    0    1
 -2      2216      2200      1502      3290
 -1     26291    3    0    1
 -2      3835      4307      3232      3754
 -1     26292    3    0    1
 -2      8186      8187      8620      7191
 -1     26293    3    0    1
 -2      6655      4839      5669      5641
 -1     26294    3    0    1
 -2      3501      1071      1738      1801
 -1     26295    3    0    1
 -2      1604      2756      2807      2235
 -1     26296    3    0    1
 -2       365       303      2140      2139
 -1     26297    3    0    1
 -2      5395      6257      5397      5456
 -1     26298    3    0    1
 -2      9531      9645      9292      8548
 -1     26299    3    0    1
 -2      8701      8678      7270      9083
 -1     26300    3    0    1
 -2      6108      7073      7023      7683
 -1     26301    3    0    1
 -2      6922      6904      7542      6861
 -1     26302    3    0    1
 -2      2293      3978      2837      3977
 -1     26303    3    0    1
 -2      6512      6595      5253      5913
 -1     26304    3    0    1
 -2      6856      8017      6921      6802
 -1     26305    3    0    1
 -2      6466      6443      6539      8287
 -1     26306    3    0    1
 -2      7971      8808      7945      7427
 -1     26307    3    0    1
 -2        17        89        16       111
 -1     26308    3    0    1
 -2      4939      4313      4650      4649
 -1     26309    3    0    1
 -2      2771      3866      3925      2770
 -1     26310    3    0    1
 -2      2748      3908      4329      3277
 -1     26311    3    0    1
 -2      2682      2240      2241      2163
 -1     26312    3    0    1
 -2      7943      8361      9160      5957
 -1     26313    3    0    1
 -2      4903      4684      4618      4617
 -1     26314    3    0    1
 -2      2281       951      3369      2280
 -1     26315    3    0    1
 -2      5608      6649      5985      5648
 -1     26316    3    0    1
 -2      3070      4189      1949      3049
 -1     26317    3    0    1
 -2      3477      2416      1071      3501
 -1     26318    3    0    1
 -2       210       644       610       601
 -1     26319    3    0    1
 -2      7223      6219      5848      7152
 -1     26320    3    0    1
 -2      6418      7350      8253      6399
 -1     26321    3    0    1
 -2      7317      6414      7251      8234
 -1     26322    3    0    1
 -2      5323      5673      5141      5126
 -1     26323    3    0    1
 -2      2733        16      1453      1452
 -1     26324    3    0    1
 -2      6246      5419      5793      5468
 -1     26325    3    0    1
 -2      2130      1428      3771      3192
 -1     26326    3    0    1
 -2      9529      8944      9243      9485
 -1     26327    3    0    1
 -2      5426      5217      5472      4958
 -1     26328    3    0    1
 -2       885       918       869       482
 -1     26329    3    0    1
 -2      4415      4482      4417      3466
 -1     26330    3    0    1
 -2      9291      9241      9508      8943
 -1     26331    3    0    1
 -2      4586      4838      5136      4837
 -1     26332    3    0    1
 -2      9115      9127      7311      7342
 -1     26333    3    0    1
 -2       742       774      2132      1368
 -1     26334    3    0    1
 -2      2152       373       372      1435
 -1     26335    3    0    1
 -2      9176      8826      6726      7948
 -1     26336    3    0    1
 -2      4013      3994      3516      1765
 -1     26337    3    0    1
 -2      7955      9188      9175      7948
 -1     26338    3    0    1
 -2      9323      9582      9053      8601
 -1     26339    3    0    1
 -2      7621      8920      8496      7681
 -1     26340    3    0    1
 -2      5853      7153      8162      5832
 -1     26341    3    0    1
 -2      6915      6053      8013      7614
 -1     26342    3    0    1
 -2      2378      1773      1751      4003
 -1     26343    3    0    1
 -2      5750      5725      4902      5196
 -1     26344    3    0    1
 -2      8771      8778      6719      7924
 -1     26345    3    0    1
 -2      5262      5502      5283      5054
 -1     26346    3    0    1
 -2       196       197       539       167
 -1     26347    3    0    1
 -2      8393      8361      8789      7464
 -1     26348    3    0    1
 -2      8273      9365      9366      9671
 -1     26349    3    0    1
 -2      1360      2627      3161      3815
 -1     26350    3    0    1
 -2      6996      9262      8508      8039
 -1     26351    3    0    1
 -2      6588      5968      6641      5969
 -1     26352    3    0    1
 -2      6363      6277      5852      6365
 -1     26353    3    0    1
 -2      9263      8072      8905      8884
 -1     26354    3    0    1
 -2      3223      3222      3188      3187
 -1     26355    3    0    1
 -2      7797      5799      8195      7777
 -1     26356    3    0    1
 -2      6843      8410      6797      7530
 -1     26357    3    0    1
 -2      4293      4683      4937      4660
 -1     26358    3    0    1
 -2      8798      7982      8780      8797
 -1     26359    3    0    1
 -2      7016      7628      7668      7627
 -1     26360    3    0    1
 -2      8089      5765      7025      8063
 -1     26361    3    0    1
 -2      7406      7360      7392      6607
 -1     26362    3    0    1
 -2      8215      7793      6351      7304
 -1     26363    3    0    1
 -2      8598      6130      8136      9305
 -1     26364    3    0    1
 -2      5395      9042      8143      6150
 -1     26365    3    0    1
 -2      4762      4763      4412      5006
 -1     26366    3    0    1
 -2      6817      5693      6909      7546
 -1     26367    3    0    1
 -2      1257      1204      3040      1256
 -1     26368    3    0    1
 -2      8268      7384      8269      6453
 -1     26369    3    0    1
 -2      2260      3283      1514      2261
 -1     26370    3    0    1
 -2       415       486       110      1469
 -1     26371    3    0    1
 -2      6254      7813      8161      6287
 -1     26372    3    0    1
 -2      6750      8374      8344      8334
 -1     26373    3    0    1
 -2      3229      3250      4305      3772
 -1     26374    3    0    1
 -2      1493       886       887      1574
 -1     26375    3    0    1
 -2      8481      6965      6964      8482
 -1     26376    3    0    1
 -2      5739      7585      5684      6107
 -1     26377    3    0    1
 -2      2310      1646      1032      1689
 -1     26378    3    0    1
 -2      8437      7625      6903      6948
 -1     26379    3    0    1
 -2      3908      4742      4390      2748
 -1     26380    3    0    1
 -2      8398      7535      8000      8837
 -1     26381    3    0    1
 -2      7588      5689      6987      8022
 -1     26382    3    0    1
 -2      7477      6696      6694      6695
 -1     26383    3    0    1
 -2      2740      3330      2767      3924
 -1     26384    3    0    1
 -2      6574      5253      6513      6512
 -1     26385    3    0    1
 -2      3182      1350      1335      1333
 -1     26386    3    0    1
 -2      7002      8509      7653      6938
 -1     26387    3    0    1
 -2      7469      6678      6679      8343
 -1     26388    3    0    1
 -2      1603      3347      2751      1624
 -1     26389    3    0    1
 -2      6540      6505      8315      6568
 -1     26390    3    0    1
 -2      8802      6728      5970      7526
 -1     26391    3    0    1
 -2      7048      7662      8513      6978
 -1     26392    3    0    1
 -2      7628      8438      6882      7584
 -1     26393    3    0    1
 -2      2931      4076      4058      3447
 -1     26394    3    0    1
 -2      8800      5968      7914      7389
 -1     26395    3    0    1
 -2      5675      6787      8405      7476
 -1     26396    3    0    1
 -2      3301      3302      2201      3333
 -1     26397    3    0    1
 -2      3368      2281      3369      2280
 -1     26398    3    0    1
 -2      6600      6620      6491      5933
 -1     26399    3    0    1
 -2       100       101        81       469
 -1     26400    3    0    1
 -2      8953      9515      8528      7097
 -1     26401    3    0    1
 -2      1791      1149       563      2926
 -1     26402    3    0    1
 -2      7034      6961      7649      8477
 -1     26403    3    0    1
 -2      4679      4633      4919      5189
 -1     26404    3    0    1
 -2      3638      3655      3043      3637
 -1     26405    3    0    1
 -2      3745      2558      3198      4272
 -1     26406    3    0    1
 -2      3832      4290      3228      3736
 -1     26407    3    0    1
 -2      2704      3860      1460      2787
 -1     26408    3    0    1
 -2      7387      7351      8282      8730
 -1     26409    3    0    1
 -2      7915      6441      8762      8323
 -1     26410    3    0    1
 -2      1911       651      1188      2485
 -1     26411    3    0    1
 -2      7824      6422      7245      8676
 -1     26412    3    0    1
 -2        83        75       400      1468
 -1     26413    3    0    1
 -2      1709      1055      1092      3486
 -1     26414    3    0    1
 -2      4585      4175      5143      4865
 -1     26415    3    0    1
 -2      6652      6707      7940      7434
 -1     26416    3    0    1
 -2      6400      6379      6380      7299
 -1     26417    3    0    1
 -2      7786      8222      6323      5471
 -1     26418    3    0    1
 -2      8590      6262      8163      9359
 -1     26419    3    0    1
 -2      8360      7919      7941      9441
 -1     26420    3    0    1
 -2      8942      8969      9484      9289
 -1     26421    3    0    1
 -2      8796      9170      8838      8353
 -1     26422    3    0    1
 -2      8466      7602      7025      9254
 -1     26423    3    0    1
 -2      7539      8812      7530      6798
 -1     26424    3    0    1
 -2       929       956       901      1543
 -1     26425    3    0    1
 -2      6441      7915      5945      5944
 -1     26426    3    0    1
 -2      7941      7919      8360      6653
 -1     26427    3    0    1
 -2      2058      4224      4217      2546
 -1     26428    3    0    1
 -2      6600      6491      5942      5933
 -1     26429    3    0    1
 -2      8895      7602      6060      8454
 -1     26430    3    0    1
 -2      6647      5982      6010      6003
 -1     26431    3    0    1
 -2      1044       132       999       549
 -1     26432    3    0    1
 -2      6984      5738      5351      5684
 -1     26433    3    0    1
 -2       580       163       532      2946
 -1     26434    3    0    1
 -2       605       565       147       225
 -1     26435    3    0    1
 -2       921       978       484      2775
 -1     26436    3    0    1
 -2      6701      6011      7503      6012
 -1     26437    3    0    1
 -2      5990      6601      6747      6719
 -1     26438    3    0    1
 -2      4631      4630      4662      3745
 -1     26439    3    0    1
 -2      1782      1733      3521      2405
 -1     26440    3    0    1
 -2      3747      3200      2666      2018
 -1     26441    3    0    1
 -2      4038      3543      2395      1747
 -1     26442    3    0    1
 -2      3961      2760      2830      3972
 -1     26443    3    0    1
 -2      1632      2286      3388      3972
 -1     26444    3    0    1
 -2      5088      5080      5314      5287
 -1     26445    3    0    1
 -2       914       867       845      1504
 -1     26446    3    0    1
 -2      9455      9206      8846      6755
 -1     26447    3    0    1
 -2      2386       518       136      9675
 -1     26448    3    0    1
 -2      3466      4010      4783      4089
 -1     26449    3    0    1
 -2      1733      1782      1734      2405
 -1     26450    3    0    1
 -2      6536      7844      5920      6462
 -1     26451    3    0    1
 -2      7266      7357      6490      8254
 -1     26452    3    0    1
 -2      9246      7100      7690      6117
 -1     26453    3    0    1
 -2      3787      3199      3838      3241
 -1     26454    3    0    1
 -2      2237       806       824      2177
 -1     26455    3    0    1
 -2      3484      3424      4068      3483
 -1     26456    3    0    1
 -2      3006      3535      3566      9675
 -1     26457    3    0    1
 -2      2647       719      3764      2646
 -1     26458    3    0    1
 -2      6241      6281      8177      7136
 -1     26459    3    0    1
 -2      2017      3682      4212      3727
 -1     26460    3    0    1
 -2       907      1502      2200      2238
 -1     26461    3    0    1
 -2      1393      2129      2091      3752
 -1     26462    3    0    1
 -2      6069      7101      9247      7638
 -1     26463    3    0    1
 -2      6139      7706      7705      9672
 -1     26464    3    0    1
 -2      2579      4306      3208      3753
 -1     26465    3    0    1
 -2      4662      3745      2644      4678
 -1     26466    3    0    1
 -2      4774      5498      5248      5509
 -1     26467    3    0    1
 -2       912       970       971      2768
 -1     26468    3    0    1
 -2      3446      3467      1716      3488
 -1     26469    3    0    1
 -2      7844      5892      5890      8282
 -1     26470    3    0    1
 -2      8073      7650      9263      8884
 -1     26471    3    0    1
 -2      4444      4032      4445      3436
 -1     26472    3    0    1
 -2      4240      2577      3136      2091
 -1     26473    3    0    1
 -2      5183      5735      5201      5165
 -1     26474    3    0    1
 -2       109       400      2775      2246
 -1     26475    3    0    1
 -2      3605      4126      1889      1844
 -1     26476    3    0    1
 -2      4418      2857      2883      4050
 -1     26477    3    0    1
 -2      3138      4656      4603      4672
 -1     26478    3    0    1
 -2      1953      2536      3051      2537
 -1     26479    3    0    1
 -2      7222      8639      8616      6217
 -1     26480    3    0    1
 -2      6513      5570      5914      5253
 -1     26481    3    0    1
 -2      5779      7160      6128      6129
 -1     26482    3    0    1
 -2      6931      6952      6079      6078
 -1     26483    3    0    1
 -2      3421      2853      1680      1637
 -1     26484    3    0    1
 -2      7342      9115      9127      7429
 -1     26485    3    0    1
 -2      4078      4079      3469      3535
 -1     26486    3    0    1
 -2      5665      5611      5612      6755
 -1     26487    3    0    1
 -2      5705      8435      8001      6877
 -1     26488    3    0    1
 -2        66       105        68        67
 -1     26489    3    0    1
 -2      2910      2369      2983      3504
 -1     26490    3    0    1
 -2      1199      3597      3033      1880
 -1     26491    3    0    1
 -2      4984      4736      4341      4985
 -1     26492    3    0    1
 -2      7959      9179      9476      5950
 -1     26493    3    0    1
 -2      5062      5255      4811      4415
 -1     26494    3    0    1
 -2      2995      1849      1214      1832
 -1     26495    3    0    1
 -2      9030      8114      9060      8985
 -1     26496    3    0    1
 -2       917       916       439      2791
 -1     26497    3    0    1
 -2      2993      3615       637      1213
 -1     26498    3    0    1
 -2      9062      8165      7160      6128
 -1     26499    3    0    1
 -2      3150      3764      4663      3788
 -1     26500    3    0    1
 -2       227      1139       529      2943
 -1     26501    3    0    1
 -2      2881      1776      1775      4008
 -1     26502    3    0    1
 -2      8661      8212      6346      7773
 -1     26503    3    0    1
 -2      3450      1135       521      2934
 -1     26504    3    0    1
 -2      5596      5595      5674      6691
 -1     26505    3    0    1
 -2      5976      6620      6637      6600
 -1     26506    3    0    1
 -2      7540      7580      6879      7566
 -1     26507    3    0    1
 -2      2125       754      3789      2047
 -1     26508    3    0    1
 -2      9107      9081      8263      7300
 -1     26509    3    0    1
 -2      8526      7630      7033      8903
 -1     26510    3    0    1
 -2      7732      7733      6193      9020
 -1     26511    3    0    1
 -2       421       423       422       821
 -1     26512    3    0    1
 -2      8340      7908      9443      9435
 -1     26513    3    0    1
 -2      8805      9203      8379      8424
 -1     26514    3    0    1
 -2       132       131       999      2905
 -1     26515    3    0    1
 -2        39        41        40       800
 -1     26516    3    0    1
 -2      5742      6987      7059      6077
 -1     26517    3    0    1
 -2      1282      1370       709      2133
 -1     26518    3    0    1
 -2       411       433       412       826
 -1     26519    3    0    1
 -2      6194      6195      7185      6282
 -1     26520    3    0    1
 -2      9247      9296      8956      9516
 -1     26521    3    0    1
 -2      3514      2857      4418      2389
 -1     26522    3    0    1
 -2      6861      7542      6804      6860
 -1     26523    3    0    1
 -2       892       891       853      2691
 -1     26524    3    0    1
 -2      2764      2239      1592      3352
 -1     26525    3    0    1
 -2      1450      1451       488      2725
 -1     26526    3    0    1
 -2      4783      4415      4010      3466
 -1     26527    3    0    1
 -2        61       810       438      2182
 -1     26528    3    0    1
 -2      1357      2129      1393      3752
 -1     26529    3    0    1
 -2      5324      8360      8414      6801
 -1     26530    3    0    1
 -2      1479       922      3307      2203
 -1     26531    3    0    1
 -2      8219      7829      8663      6321
 -1     26532    3    0    1
 -2      5606      5648      5633      4835
 -1     26533    3    0    1
 -2      2047      3823      3824      1384
 -1     26534    3    0    1
 -2      3316      3290      2786      3922
 -1     26535    3    0    1
 -2       300       364      2148       302
 -1     26536    3    0    1
 -2      2752       901      3347      1543
 -1     26537    3    0    1
 -2      1065      1111       551      1134
 -1     26538    3    0    1
 -2      2416      1071      1072      3477
 -1     26539    3    0    1
 -2      6620      7923      9118      5933
 -1     26540    3    0    1
 -2      8813      7938      9155      6650
 -1     26541    3    0    1
 -2      3202       782      3789      2648
 -1     26542    3    0    1
 -2      6367      6393      6430      6394
 -1     26543    3    0    1
 -2      5527      6520      7355      5511
 -1     26544    3    0    1
 -2      1936      1964      1935      2540
 -1     26545    3    0    1
 -2      5372      5839      6127      5371
 -1     26546    3    0    1
 -2      5363      5760      5362      4642
 -1     26547    3    0    1
 -2      1979      3703      3044      3678
 -1     26548    3    0    1
 -2      3013      4109      3576      3557
 -1     26549    3    0    1
 -2       137       180       243      9675
 -1     26550    3    0    1
 -2       347       346       345       385
 -1     26551    3    0    1
 -2      6548      6578      8296      8745
 -1     26552    3    0    1
 -2      2680      2756      2736      2174
 -1     26553    3    0    1
 -2      6940      7042      8484      6941
 -1     26554    3    0    1
 -2      3391      2291      2310      1612
 -1     26555    3    0    1
 -2      6547      9604      5951      7939
 -1     26556    3    0    1
 -2      2638      2111      3825      2086
 -1     26557    3    0    1
 -2      3339      4731      3903      4323
 -1     26558    3    0    1
 -2      7025      5688      6060      7602
 -1     26559    3    0    1
 -2      8202      7200      8623      8153
 -1     26560    3    0    1
 -2      4973      4960      4961      5410
 -1     26561    3    0    1
 -2      5722      5742      4653      5690
 -1     26562    3    0    1
 -2      9596      9597      7880      6591
 -1     26563    3    0    1
 -2      2495      2447      1169      1828
 -1     26564    3    0    1
 -2      2353      1004      1002      1696
 -1     26565    3    0    1
 -2       814       853      1499      2691
 -1     26566    3    0    1
 -2      8965      8982      9667      7053
 -1     26567    3    0    1
 -2      5373      7730      6239      6129
 -1     26568    3    0    1
 -2      3506      4086      2946      4066
 -1     26569    3    0    1
 -2      7782      5792      8630      8606
 -1     26570    3    0    1
 -2      1612      1646      2291      2310
 -1     26571    3    0    1
 -2      9464      9628      9427      9674
 -1     26572    3    0    1
 -2      1656       982      2302      2247
 -1     26573    3    0    1
 -2      2666      3210      2035      2045
 -1     26574    3    0    1
 -2      2648      3202      3203      3842
 -1     26575    3    0    1
 -2      9053      9323      8601      8123
 -1     26576    3    0    1
 -2      1865      1835      1826      2966
 -1     26577    3    0    1
 -2      9078      7879      8700      9363
 -1     26578    3    0    1
 -2      4861      5091      5122      5121
 -1     26579    3    0    1
 -2       550      1064      1065      1134
 -1     26580    3    0    1
 -2      7476      5971      7916      5947
 -1     26581    3    0    1
 -2      2378      4003      4041      2396
 -1     26582    3    0    1
 -2      8985      8562      9350      9548
 -1     26583    3    0    1
 -2      8169      9049      7780      9035
 -1     26584    3    0    1
 -2      4336      3865      4358      3299
 -1     26585    3    0    1
 -2       866      2270      2225      3296
 -1     26586    3    0    1
 -2      5431      5000      4724      5476
 -1     26587    3    0    1
 -2      8067      7061      6953      7606
 -1     26588    3    0    1
 -2      7494      5996      5997      6022
 -1     26589    3    0    1
 -2      4937      4293      4660      3778
 -1     26590    3    0    1
 -2      6147      5469      7171      5797
 -1     26591    3    0    1
 -2      5294      6004      5681      5099
 -1     26592    3    0    1
 -2      7679      7009      8917      7069
 -1     26593    3    0    1
 -2      8507      6992      7063      8472
 -1     26594    3    0    1
 -2      5403      5230      4724      5476
 -1     26595    3    0    1
 -2      1187      2483      1873      1837
 -1     26596    3    0    1
 -2       992      1690      2916      2379
 -1     26597    3    0    1
 -2      1207      1141       633      1153
 -1     26598    3    0    1
 -2      6262      7719      7718      8592
 -1     26599    3    0    1
 -2      3096      1963      3058      4209
 -1     26600    3    0    1
 -2      7678      5776      7069      6090
 -1     26601    3    0    1
 -2      6675      6721      8332      7449
 -1     26602    3    0    1
 -2      8928      6059      8060      8517
 -1     26603    3    0    1
 -2      8536      8084      9270      7680
 -1     26604    3    0    1
 -2      9426      9146      6719      6584
 -1     26605    3    0    1
 -2      1033       534      1032      1713
 -1     26606    3    0    1
 -2      8974      9658      9545      8551
 -1     26607    3    0    1
 -2      2913      1026       530      1685
 -1     26608    3    0    1
 -2      2444      3072      4139      3662
 -1     26609    3    0    1
 -2      6910      7630      6958      8852
 -1     26610    3    0    1
 -2      1849      2510      2995      1214
 -1     26611    3    0    1
 -2      8081      8916      7068      7677
 -1     26612    3    0    1
 -2      1324      2021      3730      1977
 -1     26613    3    0    1
 -2      4589      3110      1950      3092
 -1     26614    3    0    1
 -2      6069      8046      6070      7638
 -1     26615    3    0    1
 -2      5294      5681      5605      5974
 -1     26616    3    0    1
 -2      4835      3084      4174      3040
 -1     26617    3    0    1
 -2      4549      5113      4833      4565
 -1     26618    3    0    1
 -2      6794      6796      7994      5681
 -1     26619    3    0    1
 -2      1206      3041      1259      1258
 -1     26620    3    0    1
 -2      7505      8829      6792      5676
 -1     26621    3    0    1
 -2       727       728      1337      3186
 -1     26622    3    0    1
 -2      2822      1580      2798      1616
 -1     26623    3    0    1
 -2      3890      3275       891      2253
 -1     26624    3    0    1
 -2      4179      1834      2472      3618
 -1     26625    3    0    1
 -2      6282      6194      5820      8180
 -1     26626    3    0    1
 -2       885       869       918      1596
 -1     26627    3    0    1
 -2      1996      2029      2540      1311
 -1     26628    3    0    1
 -2      1808      1132      1143      2958
 -1     26629    3    0    1
 -2      7186      6133      6166      8120
 -1     26630    3    0    1
 -2       531       228       193       578
 -1     26631    3    0    1
 -2      5548      5492      4771      5276
 -1     26632    3    0    1
 -2       206       588       235      1784
 -1     26633    3    0    1
 -2      4969      5465      5447      5416
 -1     26634    3    0    1
 -2      8357      8783      7424      7944
 -1     26635    3    0    1
 -2      7073      7683      8545      8940
 -1     26636    3    0    1
 -2       402      1451      2165      2725
 -1     26637    3    0    1
 -2      5591      5303      4852      5321
 -1     26638    3    0    1
 -2      8883      6995      6958      8010
 -1     26639    3    0    1
 -2       392         3         2       393
 -1     26640    3    0    1
 -2      8354      9192      9469      6626
 -1     26641    3    0    1
 -2      5660      4829      5315      5673
 -1     26642    3    0    1
 -2      3239      3170      3171      3785
 -1     26643    3    0    1
 -2      8456      8013      7631      8861
 -1     26644    3    0    1
 -2      4993      4994      4713      4399
 -1     26645    3    0    1
 -2      6711      7481      8816      7438
 -1     26646    3    0    1
 -2      3188      2025      2005      3121
 -1     26647    3    0    1
 -2      1939      3098      3079      1965
 -1     26648    3    0    1
 -2      8873      7611      9233      8042
 -1     26649    3    0    1
 -2      9164      7893      9436      9172
 -1     26650    3    0    1
 -2      3167      4285      3763      4622
 -1     26651    3    0    1
 -2      6574      8742      6514      7903
 -1     26652    3    0    1
 -2      6516      6518      7871      5899
 -1     26653    3    0    1
 -2      6488      8717      7876      7322
 -1     26654    3    0    1
 -2      1610      1686       970      3381
 -1     26655    3    0    1
 -2      1376       716       715      1377
 -1     26656    3    0    1
 -2      3453      2909      3539      2975
 -1     26657    3    0    1
 -2      3751      3117      2039      2023
 -1     26658    3    0    1
 -2      5417      6137      6198      5850
 -1     26659    3    0    1
 -2      5303      5592      6642      5659
 -1     26660    3    0    1
 -2      4742      4329      4328      3908
 -1     26661    3    0    1
 -2      4284      4620      4904      4930
 -1     26662    3    0    1
 -2       963       908       934       496
 -1     26663    3    0    1
 -2      1940      3034      3035      1941
 -1     26664    3    0    1
 -2      2591      3782      2662      2031
 -1     26665    3    0    1
 -2       988       989       987      2322
 -1     26666    3    0    1
 -2      7423      7494      7472      8375
 -1     26667    3    0    1
 -2      4633      4632      5165      5189
 -1     26668    3    0    1
 -2       342       383       781      2158
 -1     26669    3    0    1
 -2      9170      6622      6720      8796
 -1     26670    3    0    1
 -2      4708      5389      5390      4947
 -1     26671    3    0    1
 -2      8890      8053      8867      7018
 -1     26672    3    0    1
 -2      1209      2421      4154      1854
 -1     26673    3    0    1
 -2      8610      7154      8609      7752
 -1     26674    3    0    1
 -2      8043      8861      9491      7614
 -1     26675    3    0    1
 -2      7090      6062      7637      8092
 -1     26676    3    0    1
 -2       827       452       453      2767
 -1     26677    3    0    1
 -2      4502      4006      4068      3424
 -1     26678    3    0    1
 -2      5254      5536      5529      5876
 -1     26679    3    0    1
 -2      1049      1138      1098      3478
 -1     26680    3    0    1
 -2      8411      7973      7972      5607
 -1     26681    3    0    1
 -2      5507      4771      5492      5276
 -1     26682    3    0    1
 -2      1734      1732      2865      2391
 -1     26683    3    0    1
 -2      1490      3332      1569      1568
 -1     26684    3    0    1
 -2      1485       842       431      2199
 -1     26685    3    0    1
 -2      6881      6921      8017      6802
 -1     26686    3    0    1
 -2       815       816       457      3323
 -1     26687    3    0    1
 -2      5813      7172      6149      5424
 -1     26688    3    0    1
 -2      5529      5481      5254      5876
 -1     26689    3    0    1
 -2      4544      5655      5642      5089
 -1     26690    3    0    1
 -2      5029      4801      4444      4443
 -1     26691    3    0    1
 -2      2612      3793      2572      4594
 -1     26692    3    0    1
 -2      9418      9404      7897      6606
 -1     26693    3    0    1
 -2      7160      8648      9062      6239
 -1     26694    3    0    1
 -2      7265      7356      7296      8260
 -1     26695    3    0    1
 -2      7482      8430      8835      6806
 -1     26696    3    0    1
 -2      7494      5997      5996      7423
 -1     26697    3    0    1
 -2      6011      7503      8382      6701
 -1     26698    3    0    1
 -2      9294      9493      9245      8976
 -1     26699    3    0    1
 -2      8743      6514      8742      7903
 -1     26700    3    0    1
 -2      3226      2059      2626      4254
 -1     26701    3    0    1
 -2      1583       895       954      2748
 -1     26702    3    0    1
 -2      1953      3051      3071      3052
 -1     26703    3    0    1
 -2       846       847       499       440
 -1     26704    3    0    1
 -2      7812      6356      6246      7243
 -1     26705    3    0    1
 -2      3479      2891      4029      3523
 -1     26706    3    0    1
 -2      3062       661      1181      1818
 -1     26707    3    0    1
 -2      2742       979       942      3364
 -1     26708    3    0    1
 -2      2004      1353      3134      1947
 -1     26709    3    0    1
 -2      5035      4480      4775      4792
 -1     26710    3    0    1
 -2      1089       607      1105      2952
 -1     26711    3    0    1
 -2      1852      2483      2482      4141
 -1     26712    3    0    1
 -2      4324      5461      5402      4722
 -1     26713    3    0    1
 -2       786       697       726      3221
 -1     26714    3    0    1
 -2      1300       701      1298      3159
 -1     26715    3    0    1
 -2      9532      9646      8946      8549
 -1     26716    3    0    1
 -2      8269      6527      7361      6436
 -1     26717    3    0    1
 -2      5076      5247      4809      4447
 -1     26718    3    0    1
 -2      6984      6949      7642      8892
 -1     26719    3    0    1
 -2      9601      9630      9407      9670
 -1     26720    3    0    1
 -2      7195      6214      8194      6213
 -1     26721    3    0    1
 -2      6198      6313      5850      7212
 -1     26722    3    0    1
 -2      8051      8889      9272      6105
 -1     26723    3    0    1
 -2      1650       993      2326      1651
 -1     26724    3    0    1
 -2      7851      5930      5902      8297
 -1     26725    3    0    1
 -2      8539      9522      8922      7084
 -1     26726    3    0    1
 -2      4373      4988      4955      4710
 -1     26727    3    0    1
 -2      6748      7990      8799      7954
 -1     26728    3    0    1
 -2      9216      8038      7629      9259
 -1     26729    3    0    1
 -2      8257      6384      6463      7845
 -1     26730    3    0    1
 -2       660      1201      3012      1918
 -1     26731    3    0    1
 -2      9269      6073      8083      8919
 -1     26732    3    0    1
 -2      2376      2946      3506      3458
 -1     26733    3    0    1
 -2      7920      8748      6449      7921
 -1     26734    3    0    1
 -2      4418      4050      3514      2389
 -1     26735    3    0    1
 -2      2368      4030      3541      1743
 -1     26736    3    0    1
 -2      2136      3790      3243      1290
 -1     26737    3    0    1
 -2      2750      2735      3909      3314
 -1     26738    3    0    1
 -2      1901      3066      2532      1986
 -1     26739    3    0    1
 -2      7123      5404      5403      6176
 -1     26740    3    0    1
 -2      5087      5626      5625      5300
 -1     26741    3    0    1
 -2      7503      6701      6012      7455
 -1     26742    3    0    1
 -2      1378      2134      1424      1423
 -1     26743    3    0    1
 -2      1249      1197      1250      3031
 -1     26744    3    0    1
 -2      5348      6100      5332      5748
 -1     26745    3    0    1
 -2      7344      8295      8319      8318
 -1     26746    3    0    1
 -2      3523      4814      4485      4486
 -1     26747    3    0    1
 -2      6890      6935      8444      7612
 -1     26748    3    0    1
 -2      6212      9055      9040      7171
 -1     26749    3    0    1
 -2      8653      8637      9054      7221
 -1     26750    3    0    1
 -2       905      2703      1475      1553
 -1     26751    3    0    1
 -2      4807      4493      3493      4766
 -1     26752    3    0    1
 -2      3626      1186      1868      2426
 -1     26753    3    0    1
 -2      1874      1838      1839      2428
 -1     26754    3    0    1
 -2      1766      2355      4059      2354
 -1     26755    3    0    1
 -2      8636      8140      8141      6172
 -1     26756    3    0    1
 -2      9425      9163      7923      6620
 -1     26757    3    0    1
 -2      2701       841       902      2174
 -1     26758    3    0    1
 -2      6232      7804      6266      8647
 -1     26759    3    0    1
 -2       714       290      2558      2598
 -1     26760    3    0    1
 -2      8502      8059      8924      6981
 -1     26761    3    0    1
 -2      9446      6620      9425      9671
 -1     26762    3    0    1
 -2      5295      5294      5605      5974
 -1     26763    3    0    1
 -2      6197      6166      5233      5843
 -1     26764    3    0    1
 -2      1873      1852      2483      2482
 -1     26765    3    0    1
 -2      1684      1682      1641      1640
 -1     26766    3    0    1
 -2       418       850      2688       447
 -1     26767    3    0    1
 -2      3938      2826      2303      3955
 -1     26768    3    0    1
 -2      6083      7030      6050      8507
 -1     26769    3    0    1
 -2      8923      8878      8936      6106
 -1     26770    3    0    1
 -2      7683      7073      7023      8034
 -1     26771    3    0    1
 -2      3381      1686       970      3390
 -1     26772    3    0    1
 -2      7929      5968      6685      7969
 -1     26773    3    0    1
 -2      2756      2736      3856      2680
 -1     26774    3    0    1
 -2      8558      9521      8537      7106
 -1     26775    3    0    1
 -2      9342      9322      8582      8122
 -1     26776    3    0    1
 -2      5083      4548      4564      4864
 -1     26777    3    0    1
 -2      4698      2697      4339      3909
 -1     26778    3    0    1
 -2      1707      2387       167      2915
 -1     26779    3    0    1
 -2      2110      4300      2637      2084
 -1     26780    3    0    1
 -2      5441      5005      5460      5854
 -1     26781    3    0    1
 -2       887       833       441      1493
 -1     26782    3    0    1
 -2      5990      6601      6638      6747
 -1     26783    3    0    1
 -2      3354      2767      3294      3924
 -1     26784    3    0    1
 -2      1382      2636      2083      1383
 -1     26785    3    0    1
 -2      3297      3378      3930      2217
 -1     26786    3    0    1
 -2      6239      5373      5779      5433
 -1     26787    3    0    1
 -2      2669       794      3211      2159
 -1     26788    3    0    1
 -2      5582      5976      6718      5625
 -1     26789    3    0    1
 -2       201       198       199      2388
 -1     26790    3    0    1
 -2      1699      1069       563      2941
 -1     26791    3    0    1
 -2      9029      9057      7173      6152
 -1     26792    3    0    1
 -2      2777      2844      2835      2301
 -1     26793    3    0    1
 -2      7345      8296      8745      8744
 -1     26794    3    0    1
 -2      1840      1839      2445      3074
 -1     26795    3    0    1
 -2      3547      1105      1106      2398
 -1     26796    3    0    1
 -2      1913       653      1193      2488
 -1     26797    3    0    1
 -2        83        75       109       400
 -1     26798    3    0    1
 -2      5321      5591      5303      5659
 -1     26799    3    0    1
 -2      1026      2913      1683      1685
 -1     26800    3    0    1
 -2      2646       719      3764      1324
 -1     26801    3    0    1
 -2      5327      5718      5754      5701
 -1     26802    3    0    1
 -2      2817      1519      1570      1571
 -1     26803    3    0    1
 -2      5044      5484      5011      5883
 -1     26804    3    0    1
 -2      3603      3556      3621      3038
 -1     26805    3    0    1
 -2      6637      6599      6619      9671
 -1     26806    3    0    1
 -2      1835      1865      2477      4136
 -1     26807    3    0    1
 -2      1589      1588      3388      1632
 -1     26808    3    0    1
 -2      6522      7295      7349      8303
 -1     26809    3    0    1
 -2      2253      2208       891      3890
 -1     26810    3    0    1
 -2      2768      3317      2241      2683
 -1     26811    3    0    1
 -2      2034      1321      3746      2570
 -1     26812    3    0    1
 -2      8994      8570      7699      9036
 -1     26813    3    0    1
 -2      1148      1814      2971      1190
 -1     26814    3    0    1
 -2      6567      7375      6605      7390
 -1     26815    3    0    1
 -2      6256      8161      6210      7165
 -1     26816    3    0    1
 -2      8103      9531      8945      8548
 -1     26817    3    0    1
 -2      1904      2003      1297      3720
 -1     26818    3    0    1
 -2      8378      8804      8784      7474
 -1     26819    3    0    1
 -2      8065      7604      6061      8037
 -1     26820    3    0    1
 -2      8774      7945      8336      8808
 -1     26821    3    0    1
 -2      3164      3739      2026      3143
 -1     26822    3    0    1
 -2      4210      3034      2515      3099
 -1     26823    3    0    1
 -2       439       413       830       438
 -1     26824    3    0    1
 -2      5567      5896      5496      5076
 -1     26825    3    0    1
 -2       864       863      1486      2706
 -1     26826    3    0    1
 -2      6903      6948      6902      7583
 -1     26827    3    0    1
 -2      6372      8645      8644      8611
 -1     26828    3    0    1
 -2      8244      7831      8674      6435
 -1     26829    3    0    1
 -2       646       623      1185      3052
 -1     26830    3    0    1
 -2      2289       969       910       980
 -1     26831    3    0    1
 -2       371       370       313      2151
 -1     26832    3    0    1
 -2       309       736       692      1428
 -1     26833    3    0    1
 -2      7861      7332      6502      9084
 -1     26834    3    0    1
 -2      5915      6577      7918      7939
 -1     26835    3    0    1
 -2      1249       254       655      2462
 -1     26836    3    0    1
 -2      4877      4852      5645      5321
 -1     26837    3    0    1
 -2      7495      5998      6727      8335
 -1     26838    3    0    1
 -2      3448      4493      4077      3492
 -1     26839    3    0    1
 -2      1824      2443      3644      2473
 -1     26840    3    0    1
 -2      1447      2158      3215      3258
 -1     26841    3    0    1
 -2      9147      9170      6622      7889
 -1     26842    3    0    1
 -2      5384      5419      5435      5468
 -1     26843    3    0    1
 -2      1931      1244      1955      1245
 -1     26844    3    0    1
 -2      3194      1362       693      3164
 -1     26845    3    0    1
 -2      6565      5919      7369      7370
 -1     26846    3    0    1
 -2      2050      2612      3793      2572
 -1     26847    3    0    1
 -2      7788      6176      7177      7232
 -1     26848    3    0    1
 -2       400        75        74      1468
 -1     26849    3    0    1
 -2      6490      5245      6531      6583
 -1     26850    3    0    1
 -2      6626      7406      6607      7453
 -1     26851    3    0    1
 -2      1566       914       972      2771
 -1     26852    3    0    1
 -2      3087      3680      3611      2467
 -1     26853    3    0    1
 -2      1625       985       984      3432
 -1     26854    3    0    1
 -2       464      2172      3281      1484
 -1     26855    3    0    1
 -2      3000      2961      4097      3020
 -1     26856    3    0    1
 -2      1624      1625       984      3432
 -1     26857    3    0    1
 -2      8677      8255      6402      8705
 -1     26858    3    0    1
 -2      5497      7867      7311      7342
 -1     26859    3    0    1
 -2      1893      1892      1174      1820
 -1     26860    3    0    1
 -2      8628      7137      5376      9019
 -1     26861    3    0    1
 -2      5584      5583      5643      5964
 -1     26862    3    0    1
 -2      3139      3228      2040      3736
 -1     26863    3    0    1
 -2      9081      9368      9107      8263
 -1     26864    3    0    1
 -2      2227      3902      3933      1520
 -1     26865    3    0    1
 -2      8244      7281      6398      6397
 -1     26866    3    0    1
 -2      8297      6548      8296      8745
 -1     26867    3    0    1
 -2      8662      7793      8215      7304
 -1     26868    3    0    1
 -2      2233      2684      2685      3881
 -1     26869    3    0    1
 -2      7429      9407      9440      5950
 -1     26870    3    0    1
 -2      3339      4731      4323      3340
 -1     26871    3    0    1
 -2      8137      6132      8628      8599
 -1     26872    3    0    1
 -2       555       519       222      1115
 -1     26873    3    0    1
 -2      5363      4913      5760      4642
 -1     26874    3    0    1
 -2      6132      8628      8599      9034
 -1     26875    3    0    1
 -2      9594      9465      9176      7948
 -1     26876    3    0    1
 -2      8034      9482      9213      9500
 -1     26877    3    0    1
 -2      4019      2360      3989      2925
 -1     26878    3    0    1
 -2       103       910      2240       505
 -1     26879    3    0    1
 -2      3869      3271      3334      3914
 -1     26880    3    0    1
 -2       517      1004      1002      2353
 -1     26881    3    0    1
 -2      5683      8413      8832      6754
 -1     26882    3    0    1
 -2      9361      9416      9593      9674
 -1     26883    3    0    1
 -2      1128       579       581      1712
 -1     26884    3    0    1
 -2      5104      4176      4541      4868
 -1     26885    3    0    1
 -2      2102      2054      2055      3157
 -1     26886    3    0    1
 -2      6557      8327      8765      7906
 -1     26887    3    0    1
 -2      4305      3771      3192      3737
 -1     26888    3    0    1
 -2      8505      9221      8854      8874
 -1     26889    3    0    1
 -2      6132      5807      5376      6242
 -1     26890    3    0    1
 -2      2639      3827      3826      2088
 -1     26891    3    0    1
 -2      8470      6989      6956      8068
 -1     26892    3    0    1
 -2      4585      5101      4153      4865
 -1     26893    3    0    1
 -2        59        82        30      1462
 -1     26894    3    0    1
 -2      7321      6581      5536      5939
 -1     26895    3    0    1
 -2      6600      6491      7364      5942
 -1     26896    3    0    1
 -2      1940      1990      3034      1941
 -1     26897    3    0    1
 -2      8928      8060      7022      8464
 -1     26898    3    0    1
 -2      2957       619      1183      3581
 -1     26899    3    0    1
 -2      5789      6165      7114      7163
 -1     26900    3    0    1
 -2      8498      8451      8051      7582
 -1     26901    3    0    1
 -2      8332      6721      5992      5994
 -1     26902    3    0    1
 -2      3082      3083      3604      1889
 -1     26903    3    0    1
 -2      9269      6073      8919      8511
 -1     26904    3    0    1
 -2      6956      6955      8469      8068
 -1     26905    3    0    1
 -2      2995      2510      1849      1832
 -1     26906    3    0    1
 -2      6085      7596      9246      7616
 -1     26907    3    0    1
 -2      8832      7463      9181      6754
 -1     26908    3    0    1
 -2      2236       932       467      1549
 -1     26909    3    0    1
 -2       937       974       916      3357
 -1     26910    3    0    1
 -2      7450      8772      7892      8798
 -1     26911    3    0    1
 -2      2447      4147      1882      1842
 -1     26912    3    0    1
 -2      9210      9239      7641      6973
 -1     26913    3    0    1
 -2      7215      5856      6359      5855
 -1     26914    3    0    1
 -2       418       850      1480      2688
 -1     26915    3    0    1
 -2      5421      5003      4356      4705
 -1     26916    3    0    1
 -2       726       274       697       786
 -1     26917    3    0    1
 -2      6218      5395      8616      7151
 -1     26918    3    0    1
 -2       758       707       706      2142
 -1     26919    3    0    1
 -2      8039      7593      5713      8025
 -1     26920    3    0    1
 -2      4944      4383      4347      5002
 -1     26921    3    0    1
 -2      2984      4125      4548      4564
 -1     26922    3    0    1
 -2      3382       972      1643      2816
 -1     26923    3    0    1
 -2      9051      7769      9052      9672
 -1     26924    3    0    1
 -2      8982      8983      9546      9499
 -1     26925    3    0    1
 -2      4530      4557      5108      5125
 -1     26926    3    0    1
 -2       934       908       963      2763
 -1     26927    3    0    1
 -2      5745      7091      8070      8872
 -1     26928    3    0    1
 -2      2658       772       693      3194
 -1     26929    3    0    1
 -2      5558      5245      5538      5055
 -1     26930    3    0    1
 -2      5608      5606      5648      5633
 -1     26931    3    0    1
 -2      1866      1865      1160      2966
 -1     26932    3    0    1
 -2      1691      1657      2845      2312
 -1     26933    3    0    1
 -2      8892      8088      7586      9253
 -1     26934    3    0    1
 -2       148       146      1014      2909
 -1     26935    3    0    1
 -2      5747      6997      6100      7650
 -1     26936    3    0    1
 -2       834       921       109      2192
 -1     26937    3    0    1
 -2      4922      4688      4641      4640
 -1     26938    3    0    1
 -2       464      3281      3324      1546
 -1     26939    3    0    1
 -2      2778      3916      3915      3307
 -1     26940    3    0    1
 -2      5625      5626      5654      5300
 -1     26941    3    0    1
 -2       745       290      3198      1320
 -1     26942    3    0    1
 -2      7594      8529      8075      6065
 -1     26943    3    0    1
 -2      2684      2232      1464      2181
 -1     26944    3    0    1
 -2      7863      9087      7338      7306
 -1     26945    3    0    1
 -2      9090      9377      7877      7354
 -1     26946    3    0    1
 -2      7926      7982      7449      8797
 -1     26947    3    0    1
 -2      8507      7063      6051      8472
 -1     26948    3    0    1
 -2      7586      6905      7585      5684
 -1     26949    3    0    1
 -2      7004      7066      7689      6065
 -1     26950    3    0    1
 -2      4347      5442      5838      5002
 -1     26951    3    0    1
 -2      5626      5654      5087      5625
 -1     26952    3    0    1
 -2      2957      1155       619      3581
 -1     26953    3    0    1
 -2       436       473       910      1488
 -1     26954    3    0    1
 -2      2233      2791      3357      3881
 -1     26955    3    0    1
 -2      1960      2028      2027      3709
 -1     26956    3    0    1
 -2      5221      5367      6161      5838
 -1     26957    3    0    1
 -2      9649      9240      9239      7641
 -1     26958    3    0    1
 -2      1451       402       488      2725
 -1     26959    3    0    1
 -2      6368      6369      6413      8234
 -1     26960    3    0    1
 -2      8643      8144      9027      9328
 -1     26961    3    0    1
 -2      6130      6164      6269      5374
 -1     26962    3    0    1
 -2      4502      5060      4815      4456
 -1     26963    3    0    1
 -2      5978      8431      6021      7490
 -1     26964    3    0    1
 -2       163       161       162      2922
 -1     26965    3    0    1
 -2      8237      6386      6385      7845
 -1     26966    3    0    1
 -2      6398      6292      8206      6290
 -1     26967    3    0    1
 -2      1176      1207       633      1153
 -1     26968    3    0    1
 -2      6287      7813      8161      6256
 -1     26969    3    0    1
 -2      6399      5876      7350      7297
 -1     26970    3    0    1
 -2      5953      5931      5284      6596
 -1     26971    3    0    1
 -2      7654      8528      8932      7003
 -1     26972    3    0    1
 -2      8796      6720      9170      8353
 -1     26973    3    0    1
 -2      1426      3830       785      1350
 -1     26974    3    0    1
 -2      7348      6554      6449      8748
 -1     26975    3    0    1
 -2      7170      6164      9046      6269
 -1     26976    3    0    1
 -2      2750      2697      3851      3909
 -1     26977    3    0    1
 -2      7278      6430      7871      8697
 -1     26978    3    0    1
 -2      4791      5253      5035      5914
 -1     26979    3    0    1
 -2      6164      8210      9046      6269
 -1     26980    3    0    1
 -2      5984      7461      7428      5950
 -1     26981    3    0    1
 -2      6075      7052      7084      5777
 -1     26982    3    0    1
 -2      7572      6082      6988      8881
 -1     26983    3    0    1
 -2       706       707       758       739
 -1     26984    3    0    1
 -2      4617      4684      4618      3781
 -1     26985    3    0    1
 -2      3335       481       918      2243
 -1     26986    3    0    1
 -2      4329      4328      3908      2748
 -1     26987    3    0    1
 -2      8868      6107      8087      9253
 -1     26988    3    0    1
 -2      3949      2818      3950      2292
 -1     26989    3    0    1
 -2      3234      3235      4309      3760
 -1     26990    3    0    1
 -2      6145      9310      9053      9358
 -1     26991    3    0    1
 -2      7765      8644      8623      8611
 -1     26992    3    0    1
 -2      8398      5671      6812      7535
 -1     26993    3    0    1
 -2      2250       503       889      2743
 -1     26994    3    0    1
 -2      6583      5245      6531      5558
 -1     26995    3    0    1
 -2      5490      5275      5547      5022
 -1     26996    3    0    1
 -2      8356      9187      6749      9174
 -1     26997    3    0    1
 -2      6516      7871      7278      5899
 -1     26998    3    0    1
 -2      8043      8013      8861      7614
 -1     26999    3    0    1
 -2      8318      6575      8295      7394
 -1     27000    3    0    1
 -2      1338       730       731      3188
 -1     27001    3    0    1
 -2      3515      2351      2350      1721
 -1     27002    3    0    1
 -2      7832      7303      5889      8729
 -1     27003    3    0    1
 -2      2674      2141      1309      3208
 -1     27004    3    0    1
 -2      7737      7738      8184      9022
 -1     27005    3    0    1
 -2      2497      3635      1917      1883
 -1     27006    3    0    1
 -2      2285      1629      1630      2828
 -1     27007    3    0    1
 -2      9162      7442      6634      7410
 -1     27008    3    0    1
 -2      4547      4580      3633      4828
 -1     27009    3    0    1
 -2      2700      2701       840      2235
 -1     27010    3    0    1
 -2      7943      8361      5957      6654
 -1     27011    3    0    1
 -2      3235      2041      1368      3775
 -1     27012    3    0    1
 -2      2691      2166       892      3275
 -1     27013    3    0    1
 -2       815       816      3323      2678
 -1     27014    3    0    1
 -2      7661      8497      6975      6976
 -1     27015    3    0    1
 -2      3298       910      3355      2708
 -1     27016    3    0    1
 -2      1659      2861      3431      3448
 -1     27017    3    0    1
 -2       742       774       791      2132
 -1     27018    3    0    1
 -2      7893      7418      6639      9164
 -1     27019    3    0    1
 -2      2654      4253      3813      3189
 -1     27020    3    0    1
 -2      8809      9178      6627      9673
 -1     27021    3    0    1
 -2      2009      1272      1956      3700
 -1     27022    3    0    1
 -2      8956      9236      9247      8098
 -1     27023    3    0    1
 -2      5792      7782      7140      8606
 -1     27024    3    0    1
 -2      2180      3866      2771      2770
 -1     27025    3    0    1
 -2      6052      7607      7031      6083
 -1     27026    3    0    1
 -2      2081      1376      3821      2082
 -1     27027    3    0    1
 -2      7911      6603      7417      6561
 -1     27028    3    0    1
 -2      6273      7164      5851      5827
 -1     27029    3    0    1
 -2      7196      6258      7764      8197
 -1     27030    3    0    1
 -2      3149      3747      3129      2000
 -1     27031    3    0    1
 -2      7074      6108      7023      7683
 -1     27032    3    0    1
 -2      8134      8992      9315      7726
 -1     27033    3    0    1
 -2      5376      6305      7241      7792
 -1     27034    3    0    1
 -2      5769      5342      5341      5746
 -1     27035    3    0    1
 -2      8247      6405      5871      7304
 -1     27036    3    0    1
 -2      2540      3670      2527      2491
 -1     27037    3    0    1
 -2      7498      6001      6764      6002
 -1     27038    3    0    1
 -2      4350      4351      4386      4961
 -1     27039    3    0    1
 -2      2444      1162      1836      3587
 -1     27040    3    0    1
 -2      3497      1710      1701      3419
 -1     27041    3    0    1
 -2      6655      7410      6712      5669
 -1     27042    3    0    1
 -2      7428      7461      7959      5950
 -1     27043    3    0    1
 -2      3970      1678      3433      2840
 -1     27044    3    0    1
 -2      3031      1938      1249      2462
 -1     27045    3    0    1
 -2      2078      2643      2123      1375
 -1     27046    3    0    1
 -2      6197      6133      6166      7186
 -1     27047    3    0    1
 -2       890       456      2690      2745
 -1     27048    3    0    1
 -2      8620      8186      7191      6203
 -1     27049    3    0    1
 -2      8755      7930      6503      9123
 -1     27050    3    0    1
 -2      1502      1556      2216      3290
 -1     27051    3    0    1
 -2      1252       660      3037      1918
 -1     27052    3    0    1
 -2      2447      1169      1828      1842
 -1     27053    3    0    1
 -2      8029      8886      8458      6918
 -1     27054    3    0    1
 -2      1032       535      1083      1129
 -1     27055    3    0    1
 -2      8350      7435      7480      6736
 -1     27056    3    0    1
 -2      1032      1646      3440      2323
 -1     27057    3    0    1
 -2       632      1206      1128      3042
 -1     27058    3    0    1
 -2      3524      2371      2370      1744
 -1     27059    3    0    1
 -2      5641      5669      5677      4839
 -1     27060    3    0    1
 -2       911       971       474       936
 -1     27061    3    0    1
 -2      4595      4596      3769      4670
 -1     27062    3    0    1
 -2      5654      7448      6718      7522
 -1     27063    3    0    1
 -2      8984      9655      9273      9279
 -1     27064    3    0    1
 -2      4379      3868      4378      2791
 -1     27065    3    0    1
 -2      6737      5324      8360      6711
 -1     27066    3    0    1
 -2      1116       556       508      9675
 -1     27067    3    0    1
 -2      2028      1276      1960      2027
 -1     27068    3    0    1
 -2      8145      8645      8611      9014
 -1     27069    3    0    1
 -2      8299      8259      7293      7264
 -1     27070    3    0    1
 -2      8303      7349      6522      9094
 -1     27071    3    0    1
 -2      2829      2332      2307      3960
 -1     27072    3    0    1
 -2      6291      7202      7816      6376
 -1     27073    3    0    1
 -2      3424      4006      4068      3483
 -1     27074    3    0    1
 -2      2237      2761       961      1606
 -1     27075    3    0    1
 -2      1235       638       268      3046
 -1     27076    3    0    1
 -2      5156      4657      4895      5193
 -1     27077    3    0    1
 -2      4555      4140      4576      4823
 -1     27078    3    0    1
 -2      2898      2949      1034      2923
 -1     27079    3    0    1
 -2      4191      2536      3051      3071
 -1     27080    3    0    1
 -2      1753      1752      1084      2396
 -1     27081    3    0    1
 -2      4157      4156      2506      2440
 -1     27082    3    0    1
 -2       919       107      2189      3339
 -1     27083    3    0    1
 -2      4960      4973      5463      5410
 -1     27084    3    0    1
 -2      4068      4094      4502      3424
 -1     27085    3    0    1
 -2      1569      3932      2817      1570
 -1     27086    3    0    1
 -2      5921      6440      7333      7846
 -1     27087    3    0    1
 -2      6414      6413      6329      8234
 -1     27088    3    0    1
 -2      9009      8142      7745      6147
 -1     27089    3    0    1
 -2      7240      8627      9033      5445
 -1     27090    3    0    1
 -2      1298      1339      3189      3159
 -1     27091    3    0    1
 -2      9062      9061      8165      6128
 -1     27092    3    0    1
 -2      1240      3645      3048      3021
 -1     27093    3    0    1
 -2      3199      3172      3838      3241
 -1     27094    3    0    1
 -2      9535      8973      8105      9490
 -1     27095    3    0    1
 -2      1421      2631      3197      2044
 -1     27096    3    0    1
 -2      2993       637      3615      1822
 -1     27097    3    0    1
 -2      7142      8149      6201      8159
 -1     27098    3    0    1
 -2      3301      2201      2218      1571
 -1     27099    3    0    1
 -2      3450       521      1046      2934
 -1     27100    3    0    1
 -2      5066      4495      4772      5023
 -1     27101    3    0    1
 -2      2486      2445      1839      3074
 -1     27102    3    0    1
 -2       620      1158      3018      2959
 -1     27103    3    0    1
 -2      8855      8887      8495      8015
 -1     27104    3    0    1
 -2      8635      8988      7709      9067
 -1     27105    3    0    1
 -2      2415      1062      1110      1779
 -1     27106    3    0    1
 -2      8523      7089      6082      8881
 -1     27107    3    0    1
 -2      1071      1072       565      1801
 -1     27108    3    0    1
 -2      3283      2211      2212      1514
 -1     27109    3    0    1
 -2      5305      5680      5129      5082
 -1     27110    3    0    1
 -2       831       105      2244      1467
 -1     27111    3    0    1
 -2      8362      7518      8415      6805
 -1     27112    3    0    1
 -2       579       533       989      1712
 -1     27113    3    0    1
 -2      2208      3275      2691       891
 -1     27114    3    0    1
 -2      1108      1109      1092      3486
 -1     27115    3    0    1
 -2      1709      1092      1109      3486
 -1     27116    3    0    1
 -2      4192      1995      3663      2538
 -1     27117    3    0    1
 -2      2127      1409      1352      3185
 -1     27118    3    0    1
 -2      2710      3868      2791      3881
 -1     27119    3    0    1
 -2      1006      1005       519      2862
 -1     27120    3    0    1
 -2      9564      8593      9303      9347
 -1     27121    3    0    1
 -2      8906      8072      6963      8905
 -1     27122    3    0    1
 -2      1742      2408      1076      1075
 -1     27123    3    0    1
 -2      7581      8877      8005      7622
 -1     27124    3    0    1
 -2      4455      5038      5039      4005
 -1     27125    3    0    1
 -2      5071      5268      5574      5500
 -1     27126    3    0    1
 -2      3355      3331      3298      2708
 -1     27127    3    0    1
 -2      8266      9113      8293      7352
 -1     27128    3    0    1
 -2      1375      2643      1420      1345
 -1     27129    3    0    1
 -2      3469      4501      2888      4079
 -1     27130    3    0    1
 -2      6655      6712      7518      5669
 -1     27131    3    0    1
 -2      6995      7075      5769      5746
 -1     27132    3    0    1
 -2      9247      8046      6069      7638
 -1     27133    3    0    1
 -2      2945      2464      4108      2465
 -1     27134    3    0    1
 -2      8823      6021      6780      8400
 -1     27135    3    0    1
 -2       488      1582      2724      2745
 -1     27136    3    0    1
 -2      2872      1658      2335      1663
 -1     27137    3    0    1
 -2      4151      2999      3063      3676
 -1     27138    3    0    1
 -2      6540      8315      6505      6467
 -1     27139    3    0    1
 -2      9061      9062      9317      6128
 -1     27140    3    0    1
 -2      9357      8666      7168      9058
 -1     27141    3    0    1
 -2      4993      5425      4957      4712
 -1     27142    3    0    1
 -2      7601      7073      7072      7682
 -1     27143    3    0    1
 -2      8940      8545      9482      9544
 -1     27144    3    0    1
 -2      8068      8470      7062      8900
 -1     27145    3    0    1
 -2      9542      8938      8101      9287
 -1     27146    3    0    1
 -2      2708      3331      3864      2163
 -1     27147    3    0    1
 -2      5044      5073      5883      5011
 -1     27148    3    0    1
 -2      9430      7917      7916      9166
 -1     27149    3    0    1
 -2      6408      5492      6387      7305
 -1     27150    3    0    1
 -2      2201      3301      3333      1571
 -1     27151    3    0    1
 -2      1657       982      2302      1656
 -1     27152    3    0    1
 -2      3013      3576      4174      3040
 -1     27153    3    0    1
 -2      1476      1486       863      2706
 -1     27154    3    0    1
 -2      2956      2957      3561      3562
 -1     27155    3    0    1
 -2      8511      8512      7047      6091
 -1     27156    3    0    1
 -2      3591      1840      1814      3590
 -1     27157    3    0    1
 -2      8592      7718      6262      9578
 -1     27158    3    0    1
 -2      7916      9391      9110      7917
 -1     27159    3    0    1
 -2      1122      2394      2409      1745
 -1     27160    3    0    1
 -2      3564      2426      3626      4138
 -1     27161    3    0    1
 -2      5413      5464      5239      4978
 -1     27162    3    0    1
 -2       706      1342      3232      3708
 -1     27163    3    0    1
 -2      3765      4639      4687      3841
 -1     27164    3    0    1
 -2      1183       597       619      1796
 -1     27165    3    0    1
 -2       830      2791      2710      1490
 -1     27166    3    0    1
 -2      4698      4340      3909      4339
 -1     27167    3    0    1
 -2      8627      7135      9033      5816
 -1     27168    3    0    1
 -2      7481      8817      8816      7942
 -1     27169    3    0    1
 -2      9425      6620      9398      9671
 -1     27170    3    0    1
 -2      4743      4353      4702      5213
 -1     27171    3    0    1
 -2      1224      1965      1939      1880
 -1     27172    3    0    1
 -2      4917      4261      4916      5193
 -1     27173    3    0    1
 -2      1157      1861      1860      3047
 -1     27174    3    0    1
 -2      9666      8969      9288      9289
 -1     27175    3    0    1
 -2      4516      4579      4181      4556
 -1     27176    3    0    1
 -2      6120      7106      7622      7012
 -1     27177    3    0    1
 -2      6161      7178      8168      5442
 -1     27178    3    0    1
 -2      8197      7764      7223      7152
 -1     27179    3    0    1
 -2      2113      2639      3826      2089
 -1     27180    3    0    1
 -2      9445      6635      7951      9607
 -1     27181    3    0    1
 -2      1241      1217       678      1218
 -1     27182    3    0    1
 -2       955       899       462      2750
 -1     27183    3    0    1
 -2      3065      3642      2954      2469
 -1     27184    3    0    1
 -2      2103      2578      1361      3191
 -1     27185    3    0    1
 -2      6762      7469      6679      8343
 -1     27186    3    0    1
 -2      9667      8982      9499      7053
 -1     27187    3    0    1
 -2       963       496      2787      2763
 -1     27188    3    0    1
 -2      3838      3746      3199      3787
 -1     27189    3    0    1
 -2      5951      7314      7939      6613
 -1     27190    3    0    1
 -2      7321      7853      9078      7297
 -1     27191    3    0    1
 -2      2935      2970      2485      4120
 -1     27192    3    0    1
 -2      2373      4038      2395      1747
 -1     27193    3    0    1
 -2       148      1014      1015      1016
 -1     27194    3    0    1
 -2      9137      6625      9124      9086
 -1     27195    3    0    1
 -2      2563      4222      2522      1980
 -1     27196    3    0    1
 -2      5794      5810      5387      5235
 -1     27197    3    0    1
 -2      1491       499       868      2242
 -1     27198    3    0    1
 -2      6493      5881      6457      5916
 -1     27199    3    0    1
 -2      7893      9415      9387      9121
 -1     27200    3    0    1
 -2      1426      2673      3830      1350
 -1     27201    3    0    1
 -2      7479      7429      8785      9168
 -1     27202    3    0    1
 -2      6476      8294      7343      7850
 -1     27203    3    0    1
 -2      6083      7607      7031      8473
 -1     27204    3    0    1
 -2      7984      8826      6726      7471
 -1     27205    3    0    1
 -2      7450      8772      8780      7926
 -1     27206    3    0    1
 -2      3242      2645      3174      2046
 -1     27207    3    0    1
 -2      2809      4355      3896      2214
 -1     27208    3    0    1
 -2      4904      3782      3762      4675
 -1     27209    3    0    1
 -2      8348      7430      6005      6007
 -1     27210    3    0    1
 -2      5091      4527      4861      5122
 -1     27211    3    0    1
 -2      7979      9183      6717      7952
 -1     27212    3    0    1
 -2      6241      6281      5817      5818
 -1     27213    3    0    1
 -2      7976      8847      5324      6801
 -1     27214    3    0    1
 -2      4933      5345      5171      4921
 -1     27215    3    0    1
 -2       319       742       774       791
 -1     27216    3    0    1
 -2      6701      8382      8347      7455
 -1     27217    3    0    1
 -2      3226       733      1413      1392
 -1     27218    3    0    1
 -2      6060      6076      5765      7087
 -1     27219    3    0    1
 -2      7004      8875      8862      7576
 -1     27220    3    0    1
 -2      9234      8875      8862      7004
 -1     27221    3    0    1
 -2       806        81        54       805
 -1     27222    3    0    1
 -2      1204       665      1227      1920
 -1     27223    3    0    1
 -2      7778      7815      6220      8640
 -1     27224    3    0    1
 -2      8410      6898      6875      6876
 -1     27225    3    0    1
 -2      5766      5204      5192      5339
 -1     27226    3    0    1
 -2      4746      4373      4955      3879
 -1     27227    3    0    1
 -2      4969      4728      4367      4982
 -1     27228    3    0    1
 -2      5521      5271      4807      5884
 -1     27229    3    0    1
 -2      2769       913      1563      1489
 -1     27230    3    0    1
 -2      1700      1701      1710      3419
 -1     27231    3    0    1
 -2      5843      5233      6197      6270
 -1     27232    3    0    1
 -2      5681      5113      5974      5099
 -1     27233    3    0    1
 -2      5585      5092      5291      5627
 -1     27234    3    0    1
 -2      2408      2367      3435      2892
 -1     27235    3    0    1
 -2      5439      5474      6155      7174
 -1     27236    3    0    1
 -2      4705      5421      5003      5452
 -1     27237    3    0    1
 -2      2994      3578      2993      3643
 -1     27238    3    0    1
 -2      2617      2102      2055      3157
 -1     27239    3    0    1
 -2      5003      4356      4398      5421
 -1     27240    3    0    1
 -2      3500      3539      2909      2975
 -1     27241    3    0    1
 -2      1096      1727      1728      2925
 -1     27242    3    0    1
 -2      5683      8832      9205      9181
 -1     27243    3    0    1
 -2      7538      8407      8426      6789
 -1     27244    3    0    1
 -2      6827      7526      6826      8423
 -1     27245    3    0    1
 -2      9549      9568      9580      8565
 -1     27246    3    0    1
 -2      8569      9571      9318      9063
 -1     27247    3    0    1
 -2      7359      8255      9082      8705
 -1     27248    3    0    1
 -2      5218      5799      5798      5217
 -1     27249    3    0    1
 -2      1164      1838      1874      3589
 -1     27250    3    0    1
 -2      4367      4392      4969      4982
 -1     27251    3    0    1
 -2      1991      1969      2528      2518
 -1     27252    3    0    1
 -2      2548      1995      3722      4207
 -1     27253    3    0    1
 -2      6899      7539      6898      6875
 -1     27254    3    0    1
 -2      9281      8094      7077      8907
 -1     27255    3    0    1
 -2      5902      5900      7851      8297
 -1     27256    3    0    1
 -2      1083      1084      1752      3481
 -1     27257    3    0    1
 -2       902       840       841      2701
 -1     27258    3    0    1
 -2      2881      1775      4056      4008
 -1     27259    3    0    1
 -2      3782      3762      3127      4294
 -1     27260    3    0    1
 -2      1712      3458      2376      2322
 -1     27261    3    0    1
 -2      6051      7030      7063      8507
 -1     27262    3    0    1
 -2      6177      8154      7767      8132
 -1     27263    3    0    1
 -2      3007      1247      1192      3631
 -1     27264    3    0    1
 -2      2458      3661      1866      2968
 -1     27265    3    0    1
 -2       526       145       143      2938
 -1     27266    3    0    1
 -2      1324      3150      2021      1325
 -1     27267    3    0    1
 -2       675       267       233      1833
 -1     27268    3    0    1
 -2      5807      5415      6132      5376
 -1     27269    3    0    1
 -2      3168      3763      4285      4318
 -1     27270    3    0    1
 -2      1675      1006      1115      2932
 -1     27271    3    0    1
 -2       385       347       346      2159
 -1     27272    3    0    1
 -2      3061      2495      2447      1882
 -1     27273    3    0    1
 -2      5801      8642      7717      9043
 -1     27274    3    0    1
 -2      2454      2954      3642      2469
 -1     27275    3    0    1
 -2      4043      3461      2397      3527
 -1     27276    3    0    1
 -2      5447      4699      5377      5789
 -1     27277    3    0    1
 -2       817       818       459      1472
 -1     27278    3    0    1
 -2      1340      1301       704      2555
 -1     27279    3    0    1
 -2      6749      5589      5588      5657
 -1     27280    3    0    1
 -2      8746      8756      8712      9130
 -1     27281    3    0    1
 -2      3517      2353      3550      2930
 -1     27282    3    0    1
 -2      6622      9170      9147      8796
 -1     27283    3    0    1
 -2      2745      1668      3393      2744
 -1     27284    3    0    1
 -2      9613      7921      9395      9161
 -1     27285    3    0    1
 -2      1267      2519      3652      1919
 -1     27286    3    0    1
 -2      3513      3991      2856      1763
 -1     27287    3    0    1
 -2      1612      1646       975      2291
 -1     27288    3    0    1
 -2      7338      9087      7337      7306
 -1     27289    3    0    1
 -2      3878      3291      2704      4335
 -1     27290    3    0    1
 -2      6232      7125      7757      9349
 -1     27291    3    0    1
 -2      5820      6282      8180      8157
 -1     27292    3    0    1
 -2      3916      3273      3915      3307
 -1     27293    3    0    1
 -2      5242      4701      5234      5380
 -1     27294    3    0    1
 -2      6623      6603      6722      7911
 -1     27295    3    0    1
 -2      4284      4929      4619      4930
 -1     27296    3    0    1
 -2      2502      4200      3679      1848
 -1     27297    3    0    1
 -2      2790      1525      1564      2226
 -1     27298    3    0    1
 -2      7778      8640      7748      9012
 -1     27299    3    0    1
 -2      2750      2735      3346      3909
 -1     27300    3    0    1
 -2      3447      4058      2931      2930
 -1     27301    3    0    1
 -2      1155       597      1796       619
 -1     27302    3    0    1
 -2      2290      2309      4410      3382
 -1     27303    3    0    1
 -2      5250      5014      5257      5530
 -1     27304    3    0    1
 -2      2859      3515      3993      2350
 -1     27305    3    0    1
 -2      3180      3154      3132      2038
 -1     27306    3    0    1
 -2      4936      4259      4673      4894
 -1     27307    3    0    1
 -2      7862      5944      7896      8323
 -1     27308    3    0    1
 -2      1239      1863       642      3000
 -1     27309    3    0    1
 -2      2971      1191      1814      3591
 -1     27310    3    0    1
 -2      4903      4684      4617      5159
 -1     27311    3    0    1
 -2      8557      9527      8981      8558
 -1     27312    3    0    1
 -2      1332      3180      3132      1292
 -1     27313    3    0    1
 -2      2300      3401      1646      2323
 -1     27314    3    0    1
 -2      6865      6036      6908      7571
 -1     27315    3    0    1
 -2      2238      2200       907      3328
 -1     27316    3    0    1
 -2      1254      3038       664      1255
 -1     27317    3    0    1
 -2      4075      3491      4423      4491
 -1     27318    3    0    1
 -2      8783      8376      7424      8335
 -1     27319    3    0    1
 -2      1951      1302      2007      3735
 -1     27320    3    0    1
 -2      7622      7634      9271      7011
 -1     27321    3    0    1
 -2      4960      4691      4350      4961
 -1     27322    3    0    1
 -2      5785      6126      6127      5371
 -1     27323    3    0    1
 -2      9352      8605      8573      9309
 -1     27324    3    0    1
 -2      3241      3787       779      2632
 -1     27325    3    0    1
 -2      5498      8709      8250      7275
 -1     27326    3    0    1
 -2      6107      5738      5739      7086
 -1     27327    3    0    1
 -2      5076      5496      5075      5247
 -1     27328    3    0    1
 -2      6761      5994      8369      8332
 -1     27329    3    0    1
 -2      2527      2491      1964      2540
 -1     27330    3    0    1
 -2      7625      6947      6075      6948
 -1     27331    3    0    1
 -2      4049      2347      2903      2928
 -1     27332    3    0    1
 -2      8523      6082      8066      9258
 -1     27333    3    0    1
 -2      6737      5308      5614      6632
 -1     27334    3    0    1
 -2      2969      2484      1187      2427
 -1     27335    3    0    1
 -2       763       295       764      2670
 -1     27336    3    0    1
 -2      1242      1930      1909      3052
 -1     27337    3    0    1
 -2      7029      6955      6954      8068
 -1     27338    3    0    1
 -2      1981      1286      2036      1980
 -1     27339    3    0    1
 -2      3476      1736      2406      2363
 -1     27340    3    0    1
 -2      8055      7023      8849      8857
 -1     27341    3    0    1
 -2      5997      7494      7472      7423
 -1     27342    3    0    1
 -2      5852      7173      5799      6152
 -1     27343    3    0    1
 -2      4737      5418      5225      5451
 -1     27344    3    0    1
 -2      9596      7880      9373      9595
 -1     27345    3    0    1
 -2      8072      9263      7650      8884
 -1     27346    3    0    1
 -2      9601      9115      9376      9670
 -1     27347    3    0    1
 -2      5202      5708      4910      4922
 -1     27348    3    0    1
 -2      7463      9206      9455      6755
 -1     27349    3    0    1
 -2      1938      1249      1250      3031
 -1     27350    3    0    1
 -2      4109      3013      2451      3557
 -1     27351    3    0    1
 -2      5931      6554      7400      6596
 -1     27352    3    0    1
 -2      6100      6997      6911      8041
 -1     27353    3    0    1
 -2      2713      2714       920      1575
 -1     27354    3    0    1
 -2      6097      8878      8018      6922
 -1     27355    3    0    1
 -2      3915      4723      3273      3916
 -1     27356    3    0    1
 -2      7712      6253      6145      6143
 -1     27357    3    0    1
 -2      2086      1405      2111      2606
 -1     27358    3    0    1
 -2      1555       879      2215      1554
 -1     27359    3    0    1
 -2      7430      6732      8337      6752
 -1     27360    3    0    1
 -2      4064      4085      3407      4447
 -1     27361    3    0    1
 -2      7859      6499      5908      8727
 -1     27362    3    0    1
 -2      7421      6750      7525      8344
 -1     27363    3    0    1
 -2      5404      5230      5403      5476
 -1     27364    3    0    1
 -2      1562      1516      1517      2217
 -1     27365    3    0    1
 -2      7428      6751      5973      9673
 -1     27366    3    0    1
 -2      3606       615      1127      1890
 -1     27367    3    0    1
 -2      9273      9541      8984      8113
 -1     27368    3    0    1
 -2      3695      3193      3112      4208
 -1     27369    3    0    1
 -2      7407      7901      8811      6649
 -1     27370    3    0    1
 -2      6837      6838      6788      6836
 -1     27371    3    0    1
 -2      1639       909      2812      2766
 -1     27372    3    0    1
 -2       811       480      2185      1478
 -1     27373    3    0    1
 -2      1995      4192      4207      2538
 -1     27374    3    0    1
 -2       864      1559      1558      3375
 -1     27375    3    0    1
 -2      3436      2894      2893      3503
 -1     27376    3    0    1
 -2      5809      7699      5791      7768
 -1     27377    3    0    1
 -2      3243      2649      3790      2136
 -1     27378    3    0    1
 -2      3471      2908      3520      2935
 -1     27379    3    0    1
 -2      5703      5334      5735      5165
 -1     27380    3    0    1
 -2      5601      5311      5662      5600
 -1     27381    3    0    1
 -2      4665      5697      4937      5357
 -1     27382    3    0    1
 -2      8031      6974      8497      6978
 -1     27383    3    0    1
 -2      5916      8275      7324      6457
 -1     27384    3    0    1
 -2      3212      3205      4288      3259
 -1     27385    3    0    1
 -2      5675      8405      7500      7476
 -1     27386    3    0    1
 -2      6133      6166      5233      6197
 -1     27387    3    0    1
 -2      6322      5470      7814      5866
 -1     27388    3    0    1
 -2      3997      2406      1736      2363
 -1     27389    3    0    1
 -2      3198      3745      4272      3836
 -1     27390    3    0    1
 -2      3366      3275      1533      2732
 -1     27391    3    0    1
 -2      7361      6527      6437      6436
 -1     27392    3    0    1
 -2      5892      5920      7844      6462
 -1     27393    3    0    1
 -2      8636      7218      9069      6253
 -1     27394    3    0    1
 -2      7071      7681      7621      6975
 -1     27395    3    0    1
 -2      7132      7133      5787      5786
 -1     27396    3    0    1
 -2      7160      5444      7238      6239
 -1     27397    3    0    1
 -2      8733      7915      9151      9389
 -1     27398    3    0    1
 -2      3823      2637      3824      1404
 -1     27399    3    0    1
 -2      2950      1141       537      2854
 -1     27400    3    0    1
 -2      2118       739      3216      2131
 -1     27401    3    0    1
 -2      3798      3141      3816      4235
 -1     27402    3    0    1
 -2      5939      5529      5536      5876
 -1     27403    3    0    1
 -2       919       940       483      2245
 -1     27404    3    0    1
 -2      2682       809      2241      2683
 -1     27405    3    0    1
 -2      3098      3713      3079      1965
 -1     27406    3    0    1
 -2      1532      1523      1524      2253
 -1     27407    3    0    1
 -2      2359      3989      2358      2925
 -1     27408    3    0    1
 -2      1112       553      1002      2931
 -1     27409    3    0    1
 -2      5711      5689      5742      6987
 -1     27410    3    0    1
 -2      7817      7282      8675      6419
 -1     27411    3    0    1
 -2      8498      8451      7582      6881
 -1     27412    3    0    1
 -2      4808      4484      4434      5491
 -1     27413    3    0    1
 -2      6204      7710      7709      5810
 -1     27414    3    0    1
 -2      7060      7604      6061      8065
 -1     27415    3    0    1
 -2      1361      1307      2130      3191
 -1     27416    3    0    1
 -2      5167      5166      4276      4932
 -1     27417    3    0    1
 -2      5554      6547      6614      5951
 -1     27418    3    0    1
 -2      6063      7687      7671      6111
 -1     27419    3    0    1
 -2      5207      5729      6120      5202
 -1     27420    3    0    1
 -2      6104      5706      6919      5337
 -1     27421    3    0    1
 -2      7092      8949      8071      9513
 -1     27422    3    0    1
 -2      4973      5849      5463      5410
 -1     27423    3    0    1
 -2      7089      6098      6988      7636
 -1     27424    3    0    1
 -2      4625      5752      5188      4931
 -1     27425    3    0    1
 -2       929       956      1603      1624
 -1     27426    3    0    1
 -2      6862      6027      6806      7482
 -1     27427    3    0    1
 -2      3088      3103      4233      1988
 -1     27428    3    0    1
 -2      4170      3623      4819      4115
 -1     27429    3    0    1
 -2       948       489       926       892
 -1     27430    3    0    1
 -2      6592      5911      6427      5494
 -1     27431    3    0    1
 -2      2693      2234      3848      2168
 -1     27432    3    0    1
 -2      1270       705      1309      2579
 -1     27433    3    0    1
 -2       501      2730      2793      1595
 -1     27434    3    0    1
 -2      2984      1202      1124      1886
 -1     27435    3    0    1
 -2      7495      7494      6022      8375
 -1     27436    3    0    1
 -2      5684      5148      5149      5685
 -1     27437    3    0    1
 -2      8794      8770      6636      9145
 -1     27438    3    0    1
 -2      8951      9490      9503      8105
 -1     27439    3    0    1
 -2      3325      2210      3280      1545
 -1     27440    3    0    1
 -2       412       433       434       826
 -1     27441    3    0    1
 -2      7673      7630      7033      8526
 -1     27442    3    0    1
 -2       755       350       794       783
 -1     27443    3    0    1
 -2      6460      8278      7327      7843
 -1     27444    3    0    1
 -2      4166      4549      4833      4565
 -1     27445    3    0    1
 -2      6717      6599      6637      9183
 -1     27446    3    0    1
 -2      5370      7181      5849      5409
 -1     27447    3    0    1
 -2      5141      4547      5323      5126
 -1     27448    3    0    1
 -2      5683      8832      9181      6754
 -1     27449    3    0    1
 -2      6171      6251      5794      5235
 -1     27450    3    0    1
 -2      3329      2178      2737      2239
 -1     27451    3    0    1
 -2      5452      6314      6315      8217
 -1     27452    3    0    1
 -2      8230      8662      6353      7793
 -1     27453    3    0    1
 -2      8439      7569      6863      7996
 -1     27454    3    0    1
 -2      1246      3055      3073      3648
 -1     27455    3    0    1
 -2      6701      7503      8382      7455
 -1     27456    3    0    1
 -2       523       559      1136      2936
 -1     27457    3    0    1
 -2      4672      4603      4605      5204
 -1     27458    3    0    1
 -2      2342      3406      2334      1679
 -1     27459    3    0    1
 -2      8767      9111      6427      6543
 -1     27460    3    0    1
 -2      7778      5398      5473      7120
 -1     27461    3    0    1
 -2      3180      1332      1293      1292
 -1     27462    3    0    1
 -2      2099      2601      4277      1380
 -1     27463    3    0    1
 -2      6213      6214      8194      6215
 -1     27464    3    0    1
 -2      5889      5541      6587      6500
 -1     27465    3    0    1
 -2      3771      4305      4673      3737
 -1     27466    3    0    1
 -2      2208       891      1498      2253
 -1     27467    3    0    1
 -2      3090      2511      2523      4186
 -1     27468    3    0    1
 -2      5088      5314      5671      5287
 -1     27469    3    0    1
 -2      6502      7304      8265      8679
 -1     27470    3    0    1
 -2      2858       999      3468      1670
 -1     27471    3    0    1
 -2      5510      5280      5573      6518
 -1     27472    3    0    1
 -2      8436      6920      6901      6850
 -1     27473    3    0    1
 -2      9096      8273      7357      7854
 -1     27474    3    0    1
 -2      3933      2272      2227      1520
 -1     27475    3    0    1
 -2      8040      9219      9218      8025
 -1     27476    3    0    1
 -2      1303       704      1301      2555
 -1     27477    3    0    1
 -2      4266      3234      4309      3760
 -1     27478    3    0    1
 -2      3267      3260      2230      3852
 -1     27479    3    0    1
 -2      5591      5303      4826      4852
 -1     27480    3    0    1
 -2      6107      7586      8088      9253
 -1     27481    3    0    1
 -2      6172      8636      8140      6144
 -1     27482    3    0    1
 -2      5602      7502      9167      6700
 -1     27483    3    0    1
 -2      6905      7569      8439      7996
 -1     27484    3    0    1
 -2       371        11        12        10
 -1     27485    3    0    1
 -2      5476      7177      5403      6176
 -1     27486    3    0    1
 -2      3718      1331      2037      1985
 -1     27487    3    0    1
 -2      2650       723       784      1431
 -1     27488    3    0    1
 -2      8039      7575      5696      8853
 -1     27489    3    0    1
 -2      6768      8348      8384      6767
 -1     27490    3    0    1
 -2      9561      8128      8586      9344
 -1     27491    3    0    1
 -2      5810      6251      6205      5235
 -1     27492    3    0    1
 -2      7867      7311      9089      7287
 -1     27493    3    0    1
 -2      4447      4035      5032      4477
 -1     27494    3    0    1
 -2      5157      5712      6064      5354
 -1     27495    3    0    1
 -2      2545      1989      1269      4217
 -1     27496    3    0    1
 -2      8685      9079      7876      6487
 -1     27497    3    0    1
 -2      1377      3702      3746      2570
 -1     27498    3    0    1
 -2      7338      5259      5550      6590
 -1     27499    3    0    1
 -2      3813      4253      2654      3249
 -1     27500    3    0    1
 -2      2763       934      1557      3373
 -1     27501    3    0    1
 -2      9344      9042      7777      6173
 -1     27502    3    0    1
 -2      2480      3054      1910      3025
 -1     27503    3    0    1
 -2      1088      2899      1714      1087
 -1     27504    3    0    1
 -2      3083      4126      3604      1889
 -1     27505    3    0    1
 -2      2444      1869      3072      3662
 -1     27506    3    0    1
 -2      5660      8845      6786      7497
 -1     27507    3    0    1
 -2      4045      2398      2381      4070
 -1     27508    3    0    1
 -2      2208      3275       891      3890
 -1     27509    3    0    1
 -2      4366      4700      4969      4699
 -1     27510    3    0    1
 -2      5970      6643      6728      5631
 -1     27511    3    0    1
 -2      8601      9582      9053      8123
 -1     27512    3    0    1
 -2      7197      6222      5458      7225
 -1     27513    3    0    1
 -2      5596      4844      5661      5081
 -1     27514    3    0    1
 -2      2194       858       857      2752
 -1     27515    3    0    1
 -2      6656      6742      5955      5619
 -1     27516    3    0    1
 -2      7091      6994      7064      7032
 -1     27517    3    0    1
 -2      7499      8424      7549      6835
 -1     27518    3    0    1
 -2      1280      1279      1278      3760
 -1     27519    3    0    1
 -2      2406      3997      3476      2363
 -1     27520    3    0    1
 -2      4014      3403      3491      4423
 -1     27521    3    0    1
 -2      9626      9134      6599      9671
 -1     27522    3    0    1
 -2      7755      7788      7723      9015
 -1     27523    3    0    1
 -2      7643      7020      7021      8464
 -1     27524    3    0    1
 -2      4083      4445      4032      3436
 -1     27525    3    0    1
 -2       716       779      3199      1376
 -1     27526    3    0    1
 -2      6277      7262      8196      6365
 -1     27527    3    0    1
 -2      4207      2548      1995      2538
 -1     27528    3    0    1
 -2      1177       608       635      1821
 -1     27529    3    0    1
 -2      2098      3822      3148      2097
 -1     27530    3    0    1
 -2      6541      8316      8289      6469
 -1     27531    3    0    1
 -2      7875      6554      8703      9104
 -1     27532    3    0    1
 -2      1326      2021      3150      1325
 -1     27533    3    0    1
 -2      7664      8051      9272      6105
 -1     27534    3    0    1
 -2      9183      7952      9184      9671
 -1     27535    3    0    1
 -2      2103      1361      2130      3191
 -1     27536    3    0    1
 -2      4341      4369      4984      4985
 -1     27537    3    0    1
 -2      2910      2943      2894      3503
 -1     27538    3    0    1
 -2      2761       905       961      1606
 -1     27539    3    0    1
 -2      4830      4122      4123      4124
 -1     27540    3    0    1
 -2       464       859       837      1484
 -1     27541    3    0    1
 -2      7245      6422      7824      5869
 -1     27542    3    0    1
 -2      5245      6583      5518      5558
 -1     27543    3    0    1
 -2      5054      5283      4503      4490
 -1     27544    3    0    1
 -2      6894      7538      8446      6873
 -1     27545    3    0    1
 -2      5931      5514      5284      5262
 -1     27546    3    0    1
 -2      2048      3204      3790      1290
 -1     27547    3    0    1
 -2      8249      8693      7308      7274
 -1     27548    3    0    1
 -2      3920      4333      4702      2701
 -1     27549    3    0    1
 -2      8973      8951      8105      9663
 -1     27550    3    0    1
 -2      2110      3151      4300      2084
 -1     27551    3    0    1
 -2      5920      7372      7844      6536
 -1     27552    3    0    1
 -2       446       487       943      1508
 -1     27553    3    0    1
 -2      3153      2607      2111      2625
 -1     27554    3    0    1
 -2      7556      7635      6060      8454
 -1     27555    3    0    1
 -2      1293       723      2138      1388
 -1     27556    3    0    1
 -2      3336      1492      2227      1521
 -1     27557    3    0    1
 -2       894       491       952       928
 -1     27558    3    0    1
 -2      1302      1340      2007      3160
 -1     27559    3    0    1
 -2      4122      2943      3036      4124
 -1     27560    3    0    1
 -2      3240      3196      2123      2078
 -1     27561    3    0    1
 -2      9446      7952      6637      9671
 -1     27562    3    0    1
 -2      2756      3942      2784      1604
 -1     27563    3    0    1
 -2      7795      7770      9067      6251
 -1     27564    3    0    1
 -2      4446      4084      2912      3504
 -1     27565    3    0    1
 -2      9651      8981      9527      9661
 -1     27566    3    0    1
 -2      2293       919      2795      1615
 -1     27567    3    0    1
 -2      4437      4495      4772      5066
 -1     27568    3    0    1
 -2       872       871      2193      1470
 -1     27569    3    0    1
 -2       420       856       836      2750
 -1     27570    3    0    1
 -2      7549      8456      6915      6914
 -1     27571    3    0    1
 -2      7761      8139      5793      9023
 -1     27572    3    0    1
 -2      3387      2281      3368      2304
 -1     27573    3    0    1
 -2      5697      4937      5357      4660
 -1     27574    3    0    1
 -2      8682      7830      7310      9088
 -1     27575    3    0    1
 -2      7571      6908      6865      7534
 -1     27576    3    0    1
 -2      3826      2113      2089      2087
 -1     27577    3    0    1
 -2      6817      7523      5678      7546
 -1     27578    3    0    1
 -2      4915      4914      4669      4646
 -1     27579    3    0    1
 -2      1638       967       909      2765
 -1     27580    3    0    1
 -2      4813      5522      5544      5049
 -1     27581    3    0    1
 -2      8749      7878      8304      8704
 -1     27582    3    0    1
 -2       438       810       830      2182
 -1     27583    3    0    1
 -2      5515      6597      5903      5576
 -1     27584    3    0    1
 -2      1331      3205      3718      2037
 -1     27585    3    0    1
 -2      3381      3913      4358      3299
 -1     27586    3    0    1
 -2      3057      2973      1193      3592
 -1     27587    3    0    1
 -2      8092      9510      8524      9259
 -1     27588    3    0    1
 -2      4916      5331      5733      5340
 -1     27589    3    0    1
 -2      5326      4936      4893      5177
 -1     27590    3    0    1
 -2      6890      6935      6889      8444
 -1     27591    3    0    1
 -2       863       964       470      2239
 -1     27592    3    0    1
 -2      7088      8091      7670      9241
 -1     27593    3    0    1
 -2      5985      5607      6733      5648
 -1     27594    3    0    1
 -2      7794      8632      6198      8216
 -1     27595    3    0    1
 -2      4266      3760      3775      3125
 -1     27596    3    0    1
 -2      7361      8270      8269      6438
 -1     27597    3    0    1
 -2      3072      1868      1869      2444
 -1     27598    3    0    1
 -2      3733      2050      3793      2572
 -1     27599    3    0    1
 -2       842      2704      3291      2199
 -1     27600    3    0    1
 -2      3297      2813      1517      2217
 -1     27601    3    0    1
 -2      4645      3732      2111      2606
 -1     27602    3    0    1
 -2      3276      2209      1482      1536
 -1     27603    3    0    1
 -2      3071      1909      1930      3052
 -1     27604    3    0    1
 -2      7518      8362      6655      6805
 -1     27605    3    0    1
 -2      5272      5540      5908      5488
 -1     27606    3    0    1
 -2      8435      5705      6900      6877
 -1     27607    3    0    1
 -2      1139      1169      1828      1883
 -1     27608    3    0    1
 -2      5079      4575      4526      4118
 -1     27609    3    0    1
 -2      5663      8426      8407      6789
 -1     27610    3    0    1
 -2      9179      7959      7461      5950
 -1     27611    3    0    1
 -2      3909      3346      2697      4339
 -1     27612    3    0    1
 -2      7961      9205      9181      5683
 -1     27613    3    0    1
 -2      6707      9157      8359      6652
 -1     27614    3    0    1
 -2      8653      9054      7784      7221
 -1     27615    3    0    1
 -2      6423      7303      5889      7832
 -1     27616    3    0    1
 -2      2433      4150      3602      2498
 -1     27617    3    0    1
 -2      7930      6642      9176      8801
 -1     27618    3    0    1
 -2      1197      1816      3032      2977
 -1     27619    3    0    1
 -2      6036      6034      6037      7545
 -1     27620    3    0    1
 -2      1986      1901      3066      1265
 -1     27621    3    0    1
 -2      5481      5007      4796      5529
 -1     27622    3    0    1
 -2      7683      7023      5740      9213
 -1     27623    3    0    1
 -2        24         6         4        23
 -1     27624    3    0    1
 -2      3308      3907      2276      1579
 -1     27625    3    0    1
 -2      8518      7683      5740      9213
 -1     27626    3    0    1
 -2      2502      3679      1897      1847
 -1     27627    3    0    1
 -2      2294      2823      3988      1693
 -1     27628    3    0    1
 -2      7382      5930      7851      8297
 -1     27629    3    0    1
 -2      3701      1958      1274      3123
 -1     27630    3    0    1
 -2      3421      1023      1022      1637
 -1     27631    3    0    1
 -2      8247      8215      6405      7304
 -1     27632    3    0    1
 -2      9196      9195      7960      7457
 -1     27633    3    0    1
 -2      7856      7825      6400      7841
 -1     27634    3    0    1
 -2       313       283       371      2151
 -1     27635    3    0    1
 -2      5051      5531      5068      5034
 -1     27636    3    0    1
 -2      7954      5587      5679      7913
 -1     27637    3    0    1
 -2      8037      7605      6061      9241
 -1     27638    3    0    1
 -2      3096      2556      1963      4209
 -1     27639    3    0    1
 -2      5279      5498      5509      5248
 -1     27640    3    0    1
 -2      3623      4819      4571      4170
 -1     27641    3    0    1
 -2      4688      4641      4249      3789
 -1     27642    3    0    1
 -2      1796      1155       619      2957
 -1     27643    3    0    1
 -2       284       706      1341      1273
 -1     27644    3    0    1
 -2      4862      4546      4534      4517
 -1     27645    3    0    1
 -2      2341      3415      3451      2936
 -1     27646    3    0    1
 -2      7753      7754      8622      9027
 -1     27647    3    0    1
 -2      2837      2344      2326      3978
 -1     27648    3    0    1
 -2      5179      4942      5696      5724
 -1     27649    3    0    1
 -2      7596      8912      8045      7043
 -1     27650    3    0    1
 -2      2697      3851      2170      2750
 -1     27651    3    0    1
 -2      4391      4340      3909      4698
 -1     27652    3    0    1
 -2      5510      6517      6516      5899
 -1     27653    3    0    1
 -2      6805      6655      7518      5669
 -1     27654    3    0    1
 -2       426       804       823      2175
 -1     27655    3    0    1
 -2      6899      6898      8448      5704
 -1     27656    3    0    1
 -2      6751      6608      5973      9673
 -1     27657    3    0    1
 -2      2689      1530       850      3320
 -1     27658    3    0    1
 -2      3161      2062      1359      1360
 -1     27659    3    0    1
 -2      9422      7941      7919      9441
 -1     27660    3    0    1
 -2      2900      2388      2917      4055
 -1     27661    3    0    1
 -2      7207      8648      8228      7238
 -1     27662    3    0    1
 -2      7174      8642      5474      9043
 -1     27663    3    0    1
 -2      1440      2643      3196      2077
 -1     27664    3    0    1
 -2      5498      8258      8709      7275
 -1     27665    3    0    1
 -2      8518      9213      8930      9500
 -1     27666    3    0    1
 -2      1599       943       888      3318
 -1     27667    3    0    1
 -2      3152      4222      2563      1980
 -1     27668    3    0    1
 -2      2763      2704      2787      3878
 -1     27669    3    0    1
 -2      2830      2286      1633      3972
 -1     27670    3    0    1
 -2      2381      1106      2398      2382
 -1     27671    3    0    1
 -2      8895      8089      8063      9506
 -1     27672    3    0    1
 -2        66       105        67      1467
 -1     27673    3    0    1
 -2      7554      7512      6848      6851
 -1     27674    3    0    1
 -2      5751      7078      7097      7614
 -1     27675    3    0    1
 -2      3369       951       893      2280
 -1     27676    3    0    1
 -2      6451      6524      7383      8305
 -1     27677    3    0    1
 -2      9170      9185      8838      8353
 -1     27678    3    0    1
 -2      9258      8523      9243      9509
 -1     27679    3    0    1
 -2      1164      1189       625      1147
 -1     27680    3    0    1
 -2      3823      2047      2110      1384
 -1     27681    3    0    1
 -2      2090      2639      2089      3220
 -1     27682    3    0    1
 -2      7333      7374      5921      7846
 -1     27683    3    0    1
 -2      4322      4321      2702      2176
 -1     27684    3    0    1
 -2      7737      7189      6198      9022
 -1     27685    3    0    1
 -2      8570      8994      9308      9036
 -1     27686    3    0    1
 -2       844       909       452       827
 -1     27687    3    0    1
 -2      9096      8273      7854      8686
 -1     27688    3    0    1
 -2      2875      3557      3545      4054
 -1     27689    3    0    1
 -2      6974      7048      8497      6978
 -1     27690    3    0    1
 -2      2592      2073      2622      2074
 -1     27691    3    0    1
 -2      6756      7531      6709      7436
 -1     27692    3    0    1
 -2      1692      1691      1041      1657
 -1     27693    3    0    1
 -2      1117       521      1135      2934
 -1     27694    3    0    1
 -2      3540      3555      3598      3009
 -1     27695    3    0    1
 -2      3786      4685      3742      4319
 -1     27696    3    0    1
 -2      7193      7148      9025      8637
 -1     27697    3    0    1
 -2      2793      2730      2185      3882
 -1     27698    3    0    1
 -2      5054      5283      5262      4503
 -1     27699    3    0    1
 -2       974       937      1644      3357
 -1     27700    3    0    1
 -2      2211       876       839      1514
 -1     27701    3    0    1
 -2       770      1357      2129      1393
 -1     27702    3    0    1
 -2      7162      8177      6281      7136
 -1     27703    3    0    1
 -2      1865      1866      2968      2966
 -1     27704    3    0    1
 -2      6511      5498      5936      5252
 -1     27705    3    0    1
 -2      1135       602       245      3552
 -1     27706    3    0    1
 -2      2155      2663      3209      2614
 -1     27707    3    0    1
 -2       112       461       492      1539
 -1     27708    3    0    1
 -2      8509      8482      7653      6938
 -1     27709    3    0    1
 -2      6800      6879      7540      6880
 -1     27710    3    0    1
 -2      4579      4851      4516      4181
 -1     27711    3    0    1
 -2      3760      4309      4266      3775
 -1     27712    3    0    1
 -2      5464      6269      5374      5239
 -1     27713    3    0    1
 -2      6357      6408      6387      8239
 -1     27714    3    0    1
 -2      4490      5503      4460      5283
 -1     27715    3    0    1
 -2      2466      2437      3679      2420
 -1     27716    3    0    1
 -2      2097      2624      2098      2082
 -1     27717    3    0    1
 -2      7361      8270      6486      7362
 -1     27718    3    0    1
 -2      7470      6680      6681      8372
 -1     27719    3    0    1
 -2      8962      9269      8082      8083
 -1     27720    3    0    1
 -2      1480       850      1497      2206
 -1     27721    3    0    1
 -2      2003      1297      3720      3120
 -1     27722    3    0    1
 -2      2620      1417      2119      3801
 -1     27723    3    0    1
 -2       371        12       283       313
 -1     27724    3    0    1
 -2      6420      6338      7817      6419
 -1     27725    3    0    1
 -2      4712      4957      4399      4358
 -1     27726    3    0    1
 -2      6589      6503      6463      5545
 -1     27727    3    0    1
 -2      4839      3615      4169      4550
 -1     27728    3    0    1
 -2      1429       331       378      2144
 -1     27729    3    0    1
 -2      7947      6749      9187      9449
 -1     27730    3    0    1
 -2       888        85       416       813
 -1     27731    3    0    1
 -2      8357      7424      6643      7944
 -1     27732    3    0    1
 -2      2089      3220      3827      2088
 -1     27733    3    0    1
 -2      1803      1102       574      1683
 -1     27734    3    0    1
 -2      6004      5984      5605      6702
 -1     27735    3    0    1
 -2      2666      3210      3256      4287
 -1     27736    3    0    1
 -2      7035      5713      7092      5724
 -1     27737    3    0    1
 -2      7957      8405      6787      7476
 -1     27738    3    0    1
 -2      1401      1400      1399      1374
 -1     27739    3    0    1
 -2      3844      4348      3319      4944
 -1     27740    3    0    1
 -2      3108      4223      2571      2544
 -1     27741    3    0    1
 -2      2693       854      1472      2692
 -1     27742    3    0    1
 -2      5803      5462      6372      7771
 -1     27743    3    0    1
 -2      3597      4518      4519      4121
 -1     27744    3    0    1
 -2      6212      9040      9009      6147
 -1     27745    3    0    1
 -2      5674      5310      5595      5596
 -1     27746    3    0    1
 -2      1960      2513      1959      3095
 -1     27747    3    0    1
 -2      6618      9414      9384      9117
 -1     27748    3    0    1
 -2      8270      8753      8716      7362
 -1     27749    3    0    1
 -2      4281      3243      3808      4312
 -1     27750    3    0    1
 -2       824       905      2761      2703
 -1     27751    3    0    1
 -2      7723      5804      7722      7122
 -1     27752    3    0    1
 -2        96        51        97      1459
 -1     27753    3    0    1
 -2      3456      3966      3455      1642
 -1     27754    3    0    1
 -2      2396      3481      1084      1794
 -1     27755    3    0    1
 -2      5782      5367      5366      5407
 -1     27756    3    0    1
 -2      1101      1102      1803      1683
 -1     27757    3    0    1
 -2      2801      1542      2783      1500
 -1     27758    3    0    1
 -2      8896      8036      7026      8897
 -1     27759    3    0    1
 -2      1588      2760      3388      1632
 -1     27760    3    0    1
 -2       314       315      1277      2611
 -1     27761    3    0    1
 -2      2934      4020      3450      3551
 -1     27762    3    0    1
 -2      1149       562       250       626
 -1     27763    3    0    1
 -2      5229      5402      5461      5475
 -1     27764    3    0    1
 -2      7954      5679      7991      9173
 -1     27765    3    0    1
 -2      8853      7575      7997      8443
 -1     27766    3    0    1
 -2      6197      6270      7768      9065
 -1     27767    3    0    1
 -2      3324      3281      3854      4331
 -1     27768    3    0    1
 -2       692       691      1309      3162
 -1     27769    3    0    1
 -2      5745      6064      6994      7091
 -1     27770    3    0    1
 -2      7594      8875      9234      7004
 -1     27771    3    0    1
 -2      2124      2135       752      1382
 -1     27772    3    0    1
 -2      5349      5161      4622      4676
 -1     27773    3    0    1
 -2      3946      2812      3965      2766
 -1     27774    3    0    1
 -2      5545      6503      5489      5563
 -1     27775    3    0    1
 -2      5923      6464      6439      8284
 -1     27776    3    0    1
 -2      5696      7593      8039      8853
 -1     27777    3    0    1
 -2      2809      3896      2263      2231
 -1     27778    3    0    1
 -2      2807      2285      2828      3943
 -1     27779    3    0    1
 -2      6485      6523      7878      8749
 -1     27780    3    0    1
 -2      5355      4918      5341      4928
 -1     27781    3    0    1
 -2      1320      3198       745      2015
 -1     27782    3    0    1
 -2      7874      6449      8326      8757
 -1     27783    3    0    1
 -2      1805       607      1054      2952
 -1     27784    3    0    1
 -2      8127      7714      9344      6173
 -1     27785    3    0    1
 -2      2607      3153      2111      2606
 -1     27786    3    0    1
 -2      7038      5749      5357      7077
 -1     27787    3    0    1
 -2      3069      1858      3045      4130
 -1     27788    3    0    1
 -2      6010      5982      5662      6003
 -1     27789    3    0    1
 -2      9461      7951      6635      9607
 -1     27790    3    0    1
 -2      9652      9542      8927      9287
 -1     27791    3    0    1
 -2      9015      7788      7723      9329
 -1     27792    3    0    1
 -2      6994      6064      5694      8024
 -1     27793    3    0    1
 -2      3708      2549      1274      3123
 -1     27794    3    0    1
 -2      6789      5663      8426      7529
 -1     27795    3    0    1
 -2      5069      5249      5035      4792
 -1     27796    3    0    1
 -2      2919      2386      2862      2933
 -1     27797    3    0    1
 -2      1968      1999      1991      4225
 -1     27798    3    0    1
 -2      5308      5136      5298      4837
 -1     27799    3    0    1
 -2      1348      3718      3205      3717
 -1     27800    3    0    1
 -2      7498      6764      6000      6002
 -1     27801    3    0    1
 -2      4161      4172      4861      4527
 -1     27802    3    0    1
 -2      6527      8269      6453      6436
 -1     27803    3    0    1
 -2      3567      4140      4555      4823
 -1     27804    3    0    1
 -2      5100      5609      6630      5317
 -1     27805    3    0    1
 -2      2352      1673      1723      1724
 -1     27806    3    0    1
 -2      7945      8336      7971      6012
 -1     27807    3    0    1
 -2      2716      4732      4325      3884
 -1     27808    3    0    1
 -2      4858      5078      5651      5117
 -1     27809    3    0    1
 -2      1658      2319      3965      2812
 -1     27810    3    0    1
 -2      2515      4197      4210      1990
 -1     27811    3    0    1
 -2      1134       550      1064      3468
 -1     27812    3    0    1
 -2      1808      1184      1823      2456
 -1     27813    3    0    1
 -2      3543      2896      1804      1747
 -1     27814    3    0    1
 -2      3073      1246      1932      3687
 -1     27815    3    0    1
 -2      8297      7851      7382      8320
 -1     27816    3    0    1
 -2      6911      6912      8041      8461
 -1     27817    3    0    1
 -2      6908      7571      8441      7534
 -1     27818    3    0    1
 -2      4302      4647      3792      3205
 -1     27819    3    0    1
 -2      6675      5992      6761      8332
 -1     27820    3    0    1
 -2      9292      9645      9530      8548
 -1     27821    3    0    1
 -2       664      3038      1254      1226
 -1     27822    3    0    1
 -2      2548      1995      1994      3722
 -1     27823    3    0    1
 -2      5912      6609      5896      5567
 -1     27824    3    0    1
 -2      1634      3962      2761      3944
 -1     27825    3    0    1
 -2      8325      7395      9140      6614
 -1     27826    3    0    1
 -2       347       385      1443      2159
 -1     27827    3    0    1
 -2      7592      7629      5692      8882
 -1     27828    3    0    1
 -2      4414      4482      4415      4811
 -1     27829    3    0    1
 -2      5150      5763      5347      5686
 -1     27830    3    0    1
 -2       462       899       420      2750
 -1     27831    3    0    1
 -2      4554      4859      5080      4860
 -1     27832    3    0    1
 -2      6578      6548      7381      8745
 -1     27833    3    0    1
 -2      7239      8210      8659      6164
 -1     27834    3    0    1
 -2      5517      5537      4811      5940
 -1     27835    3    0    1
 -2      2767       967       966      2765
 -1     27836    3    0    1
 -2      2064      1415      2063      3817
 -1     27837    3    0    1
 -2      5882      7298      8274      5880
 -1     27838    3    0    1
 -2      4490      5503      4780      4460
 -1     27839    3    0    1
 -2       834       921      2192      1479
 -1     27840    3    0    1
 -2       858      1543       857      2752
 -1     27841    3    0    1
 -2      3295      1487       881      2217
 -1     27842    3    0    1
 -2       983       984       509       985
 -1     27843    3    0    1
 -2      8184      7189      7737      9022
 -1     27844    3    0    1
 -2      4712      4957      4993      4713
 -1     27845    3    0    1
 -2      3507      1713      3558      2923
 -1     27846    3    0    1
 -2      4507      3037      3636      4165
 -1     27847    3    0    1
 -2      7508      6014      7961      8814
 -1     27848    3    0    1
 -2      1390      2053      1391      2616
 -1     27849    3    0    1
 -2       317       314      1277      2611
 -1     27850    3    0    1
 -2      7314      6577      5532      5915
 -1     27851    3    0    1
 -2      1112       624       623      3564
 -1     27852    3    0    1
 -2      9510      8901      8524      9259
 -1     27853    3    0    1
 -2      2021      3748      3730      1978
 -1     27854    3    0    1
 -2      3071      1930      1185      3052
 -1     27855    3    0    1
 -2      5848      6219      5846      7152
 -1     27856    3    0    1
 -2      6139      6138      7706      9672
 -1     27857    3    0    1
 -2      3615      2993      3643      1213
 -1     27858    3    0    1
 -2      4742      4697      4696      3908
 -1     27859    3    0    1
 -2      2535      1950      3050      4190
 -1     27860    3    0    1
 -2      2963      3625      2965      3005
 -1     27861    3    0    1
 -2      5838      6161      5221      5408
 -1     27862    3    0    1
 -2      7848      8691      6506      7260
 -1     27863    3    0    1
 -2      2248      2687      1527      2193
 -1     27864    3    0    1
 -2      6449      5953      7920      7921
 -1     27865    3    0    1
 -2       301       300       364       700
 -1     27866    3    0    1
 -2      5890      7331      7844      8282
 -1     27867    3    0    1
 -2      8808      7971      6648      7427
 -1     27868    3    0    1
 -2      1683      3407      3437      1682
 -1     27869    3    0    1
 -2      1683      1025      3407      1682
 -1     27870    3    0    1
 -2      8998      8144      7718      9328
 -1     27871    3    0    1
 -2      8521      8064      8896      7059
 -1     27872    3    0    1
 -2      3059      4145      3078      2446
 -1     27873    3    0    1
 -2      5339      5155      5192      5691
 -1     27874    3    0    1
 -2      1491      3334       499      2242
 -1     27875    3    0    1
 -2      8077      8097      7615      6066
 -1     27876    3    0    1
 -2      8381      7936      9167      6700
 -1     27877    3    0    1
 -2       441       833       887      2189
 -1     27878    3    0    1
 -2      3449       985       983      2357
 -1     27879    3    0    1
 -2      6987      7588      6109      6077
 -1     27880    3    0    1
 -2      5722      4653      4926      5690
 -1     27881    3    0    1
 -2      7183      8177      7134      6240
 -1     27882    3    0    1
 -2      6918      6090      7069      5335
 -1     27883    3    0    1
 -2      1058      1057      1059      3464
 -1     27884    3    0    1
 -2      5473      9072      7778      9058
 -1     27885    3    0    1
 -2      7973      8411      6798      5607
 -1     27886    3    0    1
 -2      7370      6566      7912      5908
 -1     27887    3    0    1
 -2      1324      2646       751      1381
 -1     27888    3    0    1
 -2      1321      3746      3199      2034
 -1     27889    3    0    1
 -2      2494      3061      4147      1882
 -1     27890    3    0    1
 -2      5614      5324      6711      5298
 -1     27891    3    0    1
 -2       901       956       929       463
 -1     27892    3    0    1
 -2      7512      7554      8436      6851
 -1     27893    3    0    1
 -2      9504      8954      8529      7689
 -1     27894    3    0    1
 -2      7797      5799      6277      8195
 -1     27895    3    0    1
 -2      8257      6463      7833      7845
 -1     27896    3    0    1
 -2      1244      1219       648      3026
 -1     27897    3    0    1
 -2      4015      2906      3491      2967
 -1     27898    3    0    1
 -2      8177      7183      6241      7136
 -1     27899    3    0    1
 -2      2667      3130       720      1347
 -1     27900    3    0    1
 -2      6224      5835      5836      7801
 -1     27901    3    0    1
 -2      3475       526      2938      2939
 -1     27902    3    0    1
 -2      6640      7927      7928      8781
 -1     27903    3    0    1
 -2      5476      4724      5403      4723
 -1     27904    3    0    1
 -2      6896      6897      7565      6792
 -1     27905    3    0    1
 -2      2355      1766      1726      2354
 -1     27906    3    0    1
 -2      1429      3239       777      1344
 -1     27907    3    0    1
 -2      8833      8392      7514      6015
 -1     27908    3    0    1
 -2       392       401      2164      1469
 -1     27909    3    0    1
 -2      2616      1391      1409      3812
 -1     27910    3    0    1
 -2      7406      9099      5924      7936
 -1     27911    3    0    1
 -2       752      2135      1347      1382
 -1     27912    3    0    1
 -2      6152      5798      5799      5217
 -1     27913    3    0    1
 -2      4434      4808      5491      5022
 -1     27914    3    0    1
 -2      5710      7017      7018      5731
 -1     27915    3    0    1
 -2       496       963       908      2763
 -1     27916    3    0    1
 -2      3412      3988      3428      1693
 -1     27917    3    0    1
 -2      6950      6924      6925      7020
 -1     27918    3    0    1
 -2      5318      5634      5100      5101
 -1     27919    3    0    1
 -2      9184      7952      9446      9671
 -1     27920    3    0    1
 -2      5602      6731      5632      5983
 -1     27921    3    0    1
 -2      4769      5546      4494      5021
 -1     27922    3    0    1
 -2      5908      9122      7859      8727
 -1     27923    3    0    1
 -2      2613      3794      3721      4598
 -1     27924    3    0    1
 -2       912       971       970      1610
 -1     27925    3    0    1
 -2      5068      5033      4448      4790
 -1     27926    3    0    1
 -2      7362      8716      7320      5939
 -1     27927    3    0    1
 -2      3793      3811      2050      3733
 -1     27928    3    0    1
 -2      3919      4727      4978      4977
 -1     27929    3    0    1
 -2      6987      5742      5711      6077
 -1     27930    3    0    1
 -2      1479      3307       922      1576
 -1     27931    3    0    1
 -2      8198      7223      5848      7152
 -1     27932    3    0    1
 -2      8451      8016      8051      7582
 -1     27933    3    0    1
 -2      4484      4770      4434      5491
 -1     27934    3    0    1
 -2       668       262       230      1228
 -1     27935    3    0    1
 -2      3556      3542      4065      2895
 -1     27936    3    0    1
 -2      5242      4701      5380      5233
 -1     27937    3    0    1
 -2      4927      4601      4602      5153
 -1     27938    3    0    1
 -2       927       490       949      2734
 -1     27939    3    0    1
 -2      3199      3172      3746      3838
 -1     27940    3    0    1
 -2      9120      9082      7359      7857
 -1     27941    3    0    1
 -2      5170      5171      5345      4921
 -1     27942    3    0    1
 -2      3909      3851      2750      3314
 -1     27943    3    0    1
 -2      5986      5636      5666      6015
 -1     27944    3    0    1
 -2      3324      2806      3348      4331
 -1     27945    3    0    1
 -2      1680      1023      3421      1637
 -1     27946    3    0    1
 -2      6193      5447      5789      6308
 -1     27947    3    0    1
 -2      6955      7029      8469      8068
 -1     27948    3    0    1
 -2      2412      1758      1757      2899
 -1     27949    3    0    1
 -2      6772      8836      7483      5650
 -1     27950    3    0    1
 -2      7314      5898      7315      7870
 -1     27951    3    0    1
 -2      3547      1106      1105      1759
 -1     27952    3    0    1
 -2      6926      6059      7022      8464
 -1     27953    3    0    1
 -2      7804      6231      6266      8647
 -1     27954    3    0    1
 -2      6365      8196      6277      7173
 -1     27955    3    0    1
 -2      7242      6346      5478      8661
 -1     27956    3    0    1
 -2      5552      5029      5067      4801
 -1     27957    3    0    1
 -2      1860      1158      1157      1809
 -1     27958    3    0    1
 -2      5660      5980      6687      7497
 -1     27959    3    0    1
 -2      3384      2793      2792      1613
 -1     27960    3    0    1
 -2      4893      4894      4936      5326
 -1     27961    3    0    1
 -2      6583      6490      5245      5518
 -1     27962    3    0    1
 -2      4888      5174      5151      4889
 -1     27963    3    0    1
 -2      6928      6985      6951      8465
 -1     27964    3    0    1
 -2      1644      2336      3439      1688
 -1     27965    3    0    1
 -2      1992      4205      3622      4185
 -1     27966    3    0    1
 -2       471       935      1593      2738
 -1     27967    3    0    1
 -2      7705      8578      8577      9299
 -1     27968    3    0    1
 -2      1926      3088      2533      1946
 -1     27969    3    0    1
 -2       603       185       604      1800
 -1     27970    3    0    1
 -2      5280      5510      5267      6518
 -1     27971    3    0    1
 -2      6453      7384      8269      6527
 -1     27972    3    0    1
 -2      9170      9133      6602      7889
 -1     27973    3    0    1
 -2      6454      6486      6437      6438
 -1     27974    3    0    1
 -2      1645      1644       937      3357
 -1     27975    3    0    1
 -2      6648      5973      5972      5603
 -1     27976    3    0    1
 -2      1270      2009      1271      2579
 -1     27977    3    0    1
 -2       731      1353      3222      3188
 -1     27978    3    0    1
 -2      1002      2860      2353      1696
 -1     27979    3    0    1
 -2      9052      9340      9038      9672
 -1     27980    3    0    1
 -2      6648      8809      8808      7427
 -1     27981    3    0    1
 -2      8709      8258      5498      7354
 -1     27982    3    0    1
 -2      5935      7305      7336      8734
 -1     27983    3    0    1
 -2      7182      7759      8624      6185
 -1     27984    3    0    1
 -2      8171      9054      9053      6145
 -1     27985    3    0    1
 -2      3310      3364      2716      2717
 -1     27986    3    0    1
 -2       402       419       456      1471
 -1     27987    3    0    1
 -2      3023      3052      3619      2930
 -1     27988    3    0    1
 -2      3101      3692      3086      1978
 -1     27989    3    0    1
 -2      7602      7556      6060      8454
 -1     27990    3    0    1
 -2      8326      7905      7874      8757
 -1     27991    3    0    1
 -2      2111      4645      3153      2625
 -1     27992    3    0    1
 -2      4971      4381      3360      4717
 -1     27993    3    0    1
 -2      4893      5692      5326      5177
 -1     27994    3    0    1
 -2      7588      6109      7646      7635
 -1     27995    3    0    1
 -2      6402      6401      7254      7826
 -1     27996    3    0    1
 -2      4753      4386      4351      4961
 -1     27997    3    0    1
 -2      3666      2486      2445      2428
 -1     27998    3    0    1
 -2      2643      2123      3196      2078
 -1     27999    3    0    1
 -2      4655      4926      4892      5175
 -1     28000    3    0    1
 -2      3290      2200      1502      2238
 -1     28001    3    0    1
 -2      8084      8920      9270      7633
 -1     28002    3    0    1
 -2      4988      4373      4374      4710
 -1     28003    3    0    1
 -2      9507      9255      8521      9256
 -1     28004    3    0    1
 -2      8628      5376      6132      8137
 -1     28005    3    0    1
 -2      6269      5787      5374      5239
 -1     28006    3    0    1
 -2      7543      6804      7542      6860
 -1     28007    3    0    1
 -2      4733      4348      5408      5002
 -1     28008    3    0    1
 -2      1946      3117      1988      2023
 -1     28009    3    0    1
 -2      1432      3226      2655      3190
 -1     28010    3    0    1
 -2      8867      7628      8890      7018
 -1     28011    3    0    1
 -2      9291      9241      8943      9228
 -1     28012    3    0    1
 -2      8156      6188      6280      7807
 -1     28013    3    0    1
 -2      6964      7040      7652      8482
 -1     28014    3    0    1
 -2      4801      4032      4444      4443
 -1     28015    3    0    1
 -2       842       408       430      2705
 -1     28016    3    0    1
 -2      8718      8717      7876      8760
 -1     28017    3    0    1
 -2      7725      8612      9330      8146
 -1     28018    3    0    1
 -2       394        40        41       800
 -1     28019    3    0    1
 -2      7302      5885      8279      8313
 -1     28020    3    0    1
 -2      6751      6648      5973      6608
 -1     28021    3    0    1
 -2      3228       735       771      3139
 -1     28022    3    0    1
 -2      1095      1067      1096      3536
 -1     28023    3    0    1
 -2      9273      8984      9279      8543
 -1     28024    3    0    1
 -2      2123      2079      2078      1375
 -1     28025    3    0    1
 -2      1221       651      1188      1911
 -1     28026    3    0    1
 -2      9300      9324      9344      8585
 -1     28027    3    0    1
 -2      2932      3448      4077      3492
 -1     28028    3    0    1
 -2      1150      3596      3634      1841
 -1     28029    3    0    1
 -2      2767       909       967      2765
 -1     28030    3    0    1
 -2       728       727       766      2127
 -1     28031    3    0    1
 -2      4082      4053      3538      3554
 -1     28032    3    0    1
 -2      6506      5524      6591      5947
 -1     28033    3    0    1
 -2      1885      3062      1181      3674
 -1     28034    3    0    1
 -2      5380      4701      5379      5233
 -1     28035    3    0    1
 -2      5979      5679      5587      7913
 -1     28036    3    0    1
 -2      2464      2984      3652      1886
 -1     28037    3    0    1
 -2      4902      3724      4268      4684
 -1     28038    3    0    1
 -2      6861      6804      7542      6805
 -1     28039    3    0    1
 -2      6722      6780      6021      7967
 -1     28040    3    0    1
 -2      6751      6648      5676      5316
 -1     28041    3    0    1
 -2      7800      8643      7175      9073
 -1     28042    3    0    1
 -2      5327      5754      5718      4661
 -1     28043    3    0    1
 -2      1879      3596      3059      2446
 -1     28044    3    0    1
 -2      4155      4586      4177      4837
 -1     28045    3    0    1
 -2      7535      8399      8837      7966
 -1     28046    3    0    1
 -2      7723      8595      8999      9329
 -1     28047    3    0    1
 -2       720       762       752       344
 -1     28048    3    0    1
 -2      1951      2007      3137      3735
 -1     28049    3    0    1
 -2      3230      2579      3738      3753
 -1     28050    3    0    1
 -2      3169      2014      2075      1374
 -1     28051    3    0    1
 -2      7667      8502      8924      6981
 -1     28052    3    0    1
 -2      7955      5658      9175      8800
 -1     28053    3    0    1
 -2      1604      2784      2756      1605
 -1     28054    3    0    1
 -2      3779      2660      1446      3776
 -1     28055    3    0    1
 -2       465      2726      2754      2753
 -1     28056    3    0    1
 -2      1471      2165      2690      2745
 -1     28057    3    0    1
 -2      1569       917      1490      1568
 -1     28058    3    0    1
 -2      7774      8650      6272      7794
 -1     28059    3    0    1
 -2      7959      7428      9670      9673
 -1     28060    3    0    1
 -2      3844      3917      4347      4944
 -1     28061    3    0    1
 -2      2578      2103      3816      3191
 -1     28062    3    0    1
 -2      4675      4904      5343      4930
 -1     28063    3    0    1
 -2       521      1117      1046      2934
 -1     28064    3    0    1
 -2      2077      2033      1999      3743
 -1     28065    3    0    1
 -2      3630      3056      3029      4162
 -1     28066    3    0    1
 -2      5678      6818      6817      7546
 -1     28067    3    0    1
 -2      8894      8466      8062      9254
 -1     28068    3    0    1
 -2      6463      6537      6589      5545
 -1     28069    3    0    1
 -2      9262      8071      9277      9232
 -1     28070    3    0    1
 -2       671       231       265       264
 -1     28071    3    0    1
 -2      7765      7200      6263      8153
 -1     28072    3    0    1
 -2      5795      5422      6142      5390
 -1     28073    3    0    1
 -2      8513      7662      7048      7661
 -1     28074    3    0    1
 -2      5982      5662      5311      5600
 -1     28075    3    0    1
 -2      1593      2288       965      3377
 -1     28076    3    0    1
 -2       874       466       873      1474
 -1     28077    3    0    1
 -2      8019      8006      8867      7628
 -1     28078    3    0    1
 -2       294       344       343      1447
 -1     28079    3    0    1
 -2      3195      2026       694      1341
 -1     28080    3    0    1
 -2      7498      7425      6001      6002
 -1     28081    3    0    1
 -2      7518      8415      8843      8362
 -1     28082    3    0    1
 -2      5634      6008      5682      5317
 -1     28083    3    0    1
 -2      1226       664      3038      2465
 -1     28084    3    0    1
 -2      9244      9263      8527      9514
 -1     28085    3    0    1
 -2      6948      6903      8437      7583
 -1     28086    3    0    1
 -2      7610      6932      7651      8479
 -1     28087    3    0    1
 -2      5195      5348      5356      5770
 -1     28088    3    0    1
 -2      2968      2477      1865      4136
 -1     28089    3    0    1
 -2      1008      1661      1697      3450
 -1     28090    3    0    1
 -2      2009      1271      1272      1270
 -1     28091    3    0    1
 -2      6050      6052      6051      6083
 -1     28092    3    0    1
 -2      5324      5614      5308      5298
 -1     28093    3    0    1
 -2      6717      6009      6599      8795
 -1     28094    3    0    1
 -2      1425       785      3830      1389
 -1     28095    3    0    1
 -2      1305      1358       735      3139
 -1     28096    3    0    1
 -2      1564      1526      1518      1525
 -1     28097    3    0    1
 -2      3768      3221       697      3184
 -1     28098    3    0    1
 -2      5040      5515      5903      4781
 -1     28099    3    0    1
 -2      5703      7006      7618      5334
 -1     28100    3    0    1
 -2      6014      7961      7939      5683
 -1     28101    3    0    1
 -2      1610       970       912      3381
 -1     28102    3    0    1
 -2      2612      2050      2053      2572
 -1     28103    3    0    1
 -2       826       434      2707      2788
 -1     28104    3    0    1
 -2      1965      3672      4196      1880
 -1     28105    3    0    1
 -2       465       466       874      1474
 -1     28106    3    0    1
 -2       574      1124      1102      1803
 -1     28107    3    0    1
 -2      6214      6288      8194      6215
 -1     28108    3    0    1
 -2      4013      2351      3994      1765
 -1     28109    3    0    1
 -2      1796       619      1183      2957
 -1     28110    3    0    1
 -2      8796      7988      6720      8353
 -1     28111    3    0    1
 -2      4088      4095      4503      4794
 -1     28112    3    0    1
 -2      6036      6865      6034      7545
 -1     28113    3    0    1
 -2      1148      1192      1137       248
 -1     28114    3    0    1
 -2      4592      4251      4885      4593
 -1     28115    3    0    1
 -2      8328      7929      5968      7389
 -1     28116    3    0    1
 -2      1958      1911      1221      3664
 -1     28117    3    0    1
 -2      6949      6924      6950      7019
 -1     28118    3    0    1
 -2      3299      3865      3317      2709
 -1     28119    3    0    1
 -2      1230      3064      2468      1210
 -1     28120    3    0    1
 -2      1668       545      1667      1716
 -1     28121    3    0    1
 -2      3390      3380      1610      2815
 -1     28122    3    0    1
 -2      3975      3409      1644      3947
 -1     28123    3    0    1
 -2      1074      1098      1099      1702
 -1     28124    3    0    1
 -2      4661      5701      5327      5754
 -1     28125    3    0    1
 -2      8351      8393      6738      7516
 -1     28126    3    0    1
 -2      8578      8139      9006      9672
 -1     28127    3    0    1
 -2      6543      6592      6427      5494
 -1     28128    3    0    1
 -2      4156      4157      2439      2440
 -1     28129    3    0    1
 -2      8931      7038      8074      8094
 -1     28130    3    0    1
 -2      8376      6727      7424      8335
 -1     28131    3    0    1
 -2      2115      2651      3247      2610
 -1     28132    3    0    1
 -2      1981      3152      2563      1980
 -1     28133    3    0    1
 -2      5602      7502      6731      9167
 -1     28134    3    0    1
 -2      6004      5681      5605      5294
 -1     28135    3    0    1
 -2      6790      6873      7538      6791
 -1     28136    3    0    1
 -2      2179       827       453      2767
 -1     28137    3    0    1
 -2      6585      7451      5995      9172
 -1     28138    3    0    1
 -2      2038      3132      3180      1292
 -1     28139    3    0    1
 -2      6212      5469      7171      6147
 -1     28140    3    0    1
 -2      3403      1001      1000      1672
 -1     28141    3    0    1
 -2      2981      3036      1139      1883
 -1     28142    3    0    1
 -2       702      2545      1268      2057
 -1     28143    3    0    1
 -2      7714      9344      8585      8127
 -1     28144    3    0    1
 -2      3473      1735      2850      3417
 -1     28145    3    0    1
 -2      4177      4586      5136      4837
 -1     28146    3    0    1
 -2      2690      2207      1481       851
 -1     28147    3    0    1
 -2      6525      6557      5954      5528
 -1     28148    3    0    1
 -2      2947      2451      2452      2946
 -1     28149    3    0    1
 -2      2363      1736      3997      2866
 -1     28150    3    0    1
 -2      2138      1293      1388      2038
 -1     28151    3    0    1
 -2      3048      3686      3645      3049
 -1     28152    3    0    1
 -2      3739      3695      2011      3143
 -1     28153    3    0    1
 -2      7160      6301      7238      5444
 -1     28154    3    0    1
 -2      4493      3493      4077      4807
 -1     28155    3    0    1
 -2      7623      8005      8877      7622
 -1     28156    3    0    1
 -2      7305      8309      8734      9124
 -1     28157    3    0    1
 -2      2754      2679      2726      2699
 -1     28158    3    0    1
 -2      2949      3003      2501      1228
 -1     28159    3    0    1
 -2      5914      5069      5249      5035
 -1     28160    3    0    1
 -2      1224      3672      1965      1880
 -1     28161    3    0    1
 -2      5772      5717      6067      6068
 -1     28162    3    0    1
 -2      7465      6772      8836      7996
 -1     28163    3    0    1
 -2      2986       582      1141      2949
 -1     28164    3    0    1
 -2      8131      7750      7749      9013
 -1     28165    3    0    1
 -2      7814      5865      6322      5864
 -1     28166    3    0    1
 -2      6219      6221      5846      7152
 -1     28167    3    0    1
 -2       845       867       914       437
 -1     28168    3    0    1
 -2      5761      6075      7084      5777
 -1     28169    3    0    1
 -2      5537      4811      5255      5517
 -1     28170    3    0    1
 -2      3357      4379      4378      2791
 -1     28171    3    0    1
 -2      1875      3649      3592      2489
 -1     28172    3    0    1
 -2      8398      7535      6812      8000
 -1     28173    3    0    1
 -2      6235      9030      7180      5783
 -1     28174    3    0    1
 -2      5701      6894      8446      6873
 -1     28175    3    0    1
 -2      6812      7535      6815      8000
 -1     28176    3    0    1
 -2      1624      3432      3405      1676
 -1     28177    3    0    1
 -2      3179      3212      3205      4288
 -1     28178    3    0    1
 -2      2721      2224      1559      3899
 -1     28179    3    0    1
 -2      7569      6028      6863      7996
 -1     28180    3    0    1
 -2      5413      5239      4694      4978
 -1     28181    3    0    1
 -2      8216      6312      7794      7258
 -1     28182    3    0    1
 -2      2961      4117      4097      3020
 -1     28183    3    0    1
 -2      3350      3284      2211      2261
 -1     28184    3    0    1
 -2      7018      7110      7057      6122
 -1     28185    3    0    1
 -2      7469      6679      6677      6762
 -1     28186    3    0    1
 -2      6542      6541      5893      6469
 -1     28187    3    0    1
 -2      3908      4328      4742      2748
 -1     28188    3    0    1
 -2      4503      3509      4088      4794
 -1     28189    3    0    1
 -2      7125      6178      6232      7757
 -1     28190    3    0    1
 -2      4108      2984      2945      3574
 -1     28191    3    0    1
 -2      3366      2279      2295      3395
 -1     28192    3    0    1
 -2      2796      3272      2714      2190
 -1     28193    3    0    1
 -2      2572      3793      3733      4594
 -1     28194    3    0    1
 -2      5806      5815      5816      5375
 -1     28195    3    0    1
 -2      2384      2855      1709      3486
 -1     28196    3    0    1
 -2      2290      1643      2309      3382
 -1     28197    3    0    1
 -2      7630      6995      5695      6958
 -1     28198    3    0    1
 -2      3627      3025      2933      3565
 -1     28199    3    0    1
 -2      8588      7715      8587      9301
 -1     28200    3    0    1
 -2      3676      4151      2999      4183
 -1     28201    3    0    1
 -2      9352      8631      7774      9037
 -1     28202    3    0    1
 -2      2600       717      1284      1283
 -1     28203    3    0    1
 -2       315       759      1435       372
 -1     28204    3    0    1
 -2      6114      7652      8096      8929
 -1     28205    3    0    1
 -2      1012      1700      1701      1710
 -1     28206    3    0    1
 -2      6324      5473      6325      8223
 -1     28207    3    0    1
 -2      3724      4268      4684      3781
 -1     28208    3    0    1
 -2      8835      7986      7482      6806
 -1     28209    3    0    1
 -2       375      1446       374       323
 -1     28210    3    0    1
 -2      6453      8268      7384      7319
 -1     28211    3    0    1
 -2      4749      4403      4759      4750
 -1     28212    3    0    1
 -2      3432       984      1624      2316
 -1     28213    3    0    1
 -2      5671      6747      7535      8399
 -1     28214    3    0    1
 -2      7633      8920      7621      6074
 -1     28215    3    0    1
 -2      4803      5267      5280      4802
 -1     28216    3    0    1
 -2      2749       896       897      3277
 -1     28217    3    0    1
 -2      3983      3387      2839      2304
 -1     28218    3    0    1
 -2      7738      7189      7141      7737
 -1     28219    3    0    1
 -2      7838      6435      7831      5479
 -1     28220    3    0    1
 -2      4852      5303      5645      5321
 -1     28221    3    0    1
 -2      3193      3695      2011      3739
 -1     28222    3    0    1
 -2      3165      3760      4266      3125
 -1     28223    3    0    1
 -2      1391      2052      1409      3812
 -1     28224    3    0    1
 -2       190      1124       574      1026
 -1     28225    3    0    1
 -2      4725      3273      4724      3916
 -1     28226    3    0    1
 -2      2438      2467      1854      1848
 -1     28227    3    0    1
 -2      5346      5685      5351      5684
 -1     28228    3    0    1
 -2      4159      4553      3017      4116
 -1     28229    3    0    1
 -2      3424       990      2311      1706
 -1     28230    3    0    1
 -2      8112      8058      9499      7053
 -1     28231    3    0    1
 -2      7773      5378      8138      9021
 -1     28232    3    0    1
 -2      7634      7662      7011      7049
 -1     28233    3    0    1
 -2       925       979       507      3364
 -1     28234    3    0    1
 -2      6610      9115      7429      5950
 -1     28235    3    0    1
 -2      1850      3022      3660      2475
 -1     28236    3    0    1
 -2      3966      3455      1642      1686
 -1     28237    3    0    1
 -2      6535      6604      5934      6499
 -1     28238    3    0    1
 -2      9305      9570      8598      7697
 -1     28239    3    0    1
 -2      7778      5398      7120      9012
 -1     28240    3    0    1
 -2      5770      5747      7650      7076
 -1     28241    3    0    1
 -2      8161      6254      6210      6211
 -1     28242    3    0    1
 -2      1240      1949      1989      3049
 -1     28243    3    0    1
 -2      2893      2894      2943      3503
 -1     28244    3    0    1
 -2      5500      5071      4776      4777
 -1     28245    3    0    1
 -2      2616      2612      2053      2572
 -1     28246    3    0    1
 -2      4788      5493      5549      5910
 -1     28247    3    0    1
 -2      8491      8490      8080      6969
 -1     28248    3    0    1
 -2      8906      6963      8478      8905
 -1     28249    3    0    1
 -2      1854      2421      3611      2438
 -1     28250    3    0    1
 -2      9244      9263      8884      8527
 -1     28251    3    0    1
 -2      5717      5188      5772      6067
 -1     28252    3    0    1
 -2      5171      4639      4921      4247
 -1     28253    3    0    1
 -2      4809      4496      4085      4447
 -1     28254    3    0    1
 -2      5395      6257      6150      5397
 -1     28255    3    0    1
 -2      1373      2108      2121      2073
 -1     28256    3    0    1
 -2      2244       105       832      1467
 -1     28257    3    0    1
 -2      1822      1178       637      1901
 -1     28258    3    0    1
 -2      7236      6231      6266      7804
 -1     28259    3    0    1
 -2      5540      4812      5264      5272
 -1     28260    3    0    1
 -2      5159      4903      4684      5196
 -1     28261    3    0    1
 -2      4052      4493      4807      4766
 -1     28262    3    0    1
 -2      8152      6288      5829      6215
 -1     28263    3    0    1
 -2      1493      2774       886      1574
 -1     28264    3    0    1
 -2       910       865       436      1488
 -1     28265    3    0    1
 -2      7558      6815      7590      8000
 -1     28266    3    0    1
 -2      6554      7348      8703      8748
 -1     28267    3    0    1
 -2      4252      4652      3705      4888
 -1     28268    3    0    1
 -2      6357      6358      6408      8239
 -1     28269    3    0    1
 -2      2282      2747      3956      2305
 -1     28270    3    0    1
 -2      3030      3664      1188      2485
 -1     28271    3    0    1
 -2      8360      7999      6801      8847
 -1     28272    3    0    1
 -2      7644      8930      8035      8893
 -1     28273    3    0    1
 -2       763       295      2670      1348
 -1     28274    3    0    1
 -2      5324      8847      8360      6801
 -1     28275    3    0    1
 -2      5555      6551      5937      6615
 -1     28276    3    0    1
 -2       979       925       942      3364
 -1     28277    3    0    1
 -2      3182      2039      1334      2024
 -1     28278    3    0    1
 -2      9167      9192      7502      6731
 -1     28279    3    0    1
 -2      1758      1087      1757      2899
 -1     28280    3    0    1
 -2      4292      5195      4614      4900
 -1     28281    3    0    1
 -2      3127      3782      2591      2031
 -1     28282    3    0    1
 -2      8101      8544      7669      8506
 -1     28283    3    0    1
 -2      6012      7971      7945      7427
 -1     28284    3    0    1
 -2      8686      7245      6422      8676
 -1     28285    3    0    1
 -2      8358      8381      9167      6700
 -1     28286    3    0    1
 -2      2876      1033      1032      1713
 -1     28287    3    0    1
 -2      7689      7594      9234      6065
 -1     28288    3    0    1
 -2      5546      5489      5563      5021
 -1     28289    3    0    1
 -2      5690      5742      4653      5711
 -1     28290    3    0    1
 -2      8524      8901      6049      8882
 -1     28291    3    0    1
 -2      3994      3515      2351      2350
 -1     28292    3    0    1
 -2      7611      8873      8907      7612
 -1     28293    3    0    1
 -2      2201       847       868      1491
 -1     28294    3    0    1
 -2      4079      2888      3469      3535
 -1     28295    3    0    1
 -2      4484      4435      3499      4808
 -1     28296    3    0    1
 -2      2638      1386      2111      2086
 -1     28297    3    0    1
 -2      3212      3205      3259      2671
 -1     28298    3    0    1
 -2      5810      5794      6251      5235
 -1     28299    3    0    1
 -2      9484      9528      8942      9289
 -1     28300    3    0    1
 -2      6033      6032      7587      5687
 -1     28301    3    0    1
 -2      8734      7391      5935      8763
 -1     28302    3    0    1
 -2      5385      6169      6141      6247
 -1     28303    3    0    1
 -2      5296      5664      4866      4538
 -1     28304    3    0    1
 -2      2792      2793       939      1613
 -1     28305    3    0    1
 -2      6672      6720      6622      8796
 -1     28306    3    0    1
 -2      5558      5518      5245      5055
 -1     28307    3    0    1
 -2      8688      9361      8307      8727
 -1     28308    3    0    1
 -2      6856      6803      8017      6802
 -1     28309    3    0    1
 -2      8374      6685      7929      8334
 -1     28310    3    0    1
 -2      6128      8565      7696      7113
 -1     28311    3    0    1
 -2      3428      2328      3412      1694
 -1     28312    3    0    1
 -2      4739      4971      3360      4718
 -1     28313    3    0    1
 -2       210       644       601       645
 -1     28314    3    0    1
 -2      5444      7238      8228      6301
 -1     28315    3    0    1
 -2      2830      3961      3972      3418
 -1     28316    3    0    1
 -2      2697      2257      2696      3345
 -1     28317    3    0    1
 -2      8305      7401      6555      8749
 -1     28318    3    0    1
 -2      3572      3008      2979      4121
 -1     28319    3    0    1
 -2      1742      3435      4063      2407
 -1     28320    3    0    1
 -2      5701      8446      7538      6873
 -1     28321    3    0    1
 -2      4949      5440      5228      5802
 -1     28322    3    0    1
 -2      5254      4072      4764      5007
 -1     28323    3    0    1
 -2      7303      6423      5888      6350
 -1     28324    3    0    1
 -2      2236       903       932      2757
 -1     28325    3    0    1
 -2      6338      7817      6298      6420
 -1     28326    3    0    1
 -2      2528      4225      2077      1346
 -1     28327    3    0    1
 -2      8667      8642      7174      9043
 -1     28328    3    0    1
 -2      6719      6601      9426      6584
 -1     28329    3    0    1
 -2      6679      6723      6677      6762
 -1     28330    3    0    1
 -2      3038      3556      3621      2465
 -1     28331    3    0    1
 -2      1427      2656      3227      3160
 -1     28332    3    0    1
 -2      9420      9154      8811      7901
 -1     28333    3    0    1
 -2      1981      2563      2522      1980
 -1     28334    3    0    1
 -2      9193      8809      7504      9673
 -1     28335    3    0    1
 -2      6012      7945      8336      7455
 -1     28336    3    0    1
 -2      7912      7370      5908      7895
 -1     28337    3    0    1
 -2      9002      9031      7790      7181
 -1     28338    3    0    1
 -2      3456      3454      1081      1687
 -1     28339    3    0    1
 -2      3926      5243      4401      4715
 -1     28340    3    0    1
 -2      8682      7830      7829      6410
 -1     28341    3    0    1
 -2      3110      2535      1951      3137
 -1     28342    3    0    1
 -2      7009      7679      7010      7069
 -1     28343    3    0    1
 -2      7181      5463      5849      5409
 -1     28344    3    0    1
 -2      6267      8147      8173      6278
 -1     28345    3    0    1
 -2      1716      2883      2348      3467
 -1     28346    3    0    1
 -2      1542      1541      1510      1500
 -1     28347    3    0    1
 -2      6826      7496      7992      7526
 -1     28348    3    0    1
 -2      1185      1952      1242      1930
 -1     28349    3    0    1
 -2      5195      4613      4614      4900
 -1     28350    3    0    1
 -2      8411      8812      6798      5607
 -1     28351    3    0    1
 -2      5872      6405      5870      6351
 -1     28352    3    0    1
 -2      5033      5051      5068      5034
 -1     28353    3    0    1
 -2      4410      2843      2321      2309
 -1     28354    3    0    1
 -2      4597      4252      4888      4889
 -1     28355    3    0    1
 -2      6450      6452      6524      8305
 -1     28356    3    0    1
 -2      3020      4117      4160      4134
 -1     28357    3    0    1
 -2      6976      7048      6974      6977
 -1     28358    3    0    1
 -2      1056      1057       510      1786
 -1     28359    3    0    1
 -2      5408      4348      5221      5002
 -1     28360    3    0    1
 -2      1895      1845      3654      2500
 -1     28361    3    0    1
 -2      2726      2699      2679      1473
 -1     28362    3    0    1
 -2      6722      6603      7417      7911
 -1     28363    3    0    1
 -2      8362      9162      6634      7410
 -1     28364    3    0    1
 -2      7072      7058      7601      7682
 -1     28365    3    0    1
 -2      7633      6920      8495      6919
 -1     28366    3    0    1
 -2      5400      5237      4971      4717
 -1     28367    3    0    1
 -2      3007      1934      1247      3631
 -1     28368    3    0    1
 -2      5985      6611      6649      5608
 -1     28369    3    0    1
 -2      7461      5984      6702      5950
 -1     28370    3    0    1
 -2      8493      8512      8511      7620
 -1     28371    3    0    1
 -2      5944      7333      6538      6465
 -1     28372    3    0    1
 -2       908       934      1557      2763
 -1     28373    3    0    1
 -2      5346      5351      5738      5684
 -1     28374    3    0    1
 -2      2189       833       887      1493
 -1     28375    3    0    1
 -2      5763      5150      5338      6047
 -1     28376    3    0    1
 -2      1669      1063      2349      1787
 -1     28377    3    0    1
 -2      3823      2637      1404      2110
 -1     28378    3    0    1
 -2      7559      6817      6909      7546
 -1     28379    3    0    1
 -2      6441      5945      7334      5944
 -1     28380    3    0    1
 -2      5731      7018      7057      6122
 -1     28381    3    0    1
 -2      6595      6574      5253      5570
 -1     28382    3    0    1
 -2      1838      1164      2418      3589
 -1     28383    3    0    1
 -2      7633      8084      8920      6074
 -1     28384    3    0    1
 -2      2307      1631      2829      3960
 -1     28385    3    0    1
 -2      8604      7760      8613      7131
 -1     28386    3    0    1
 -2      2414      1806      1107      3511
 -1     28387    3    0    1
 -2      9649      9539      8979      8961
 -1     28388    3    0    1
 -2      6791      6790      6873      6841
 -1     28389    3    0    1
 -2      2979      3597      4519      4121
 -1     28390    3    0    1
 -2      1685      3407      1025      1684
 -1     28391    3    0    1
 -2      1639      1658      1638      2765
 -1     28392    3    0    1
 -2      6620      7923      9398      9118
 -1     28393    3    0    1
 -2      6989      6954      6956      8068
 -1     28394    3    0    1
 -2      2015      1320      3745      2542
 -1     28395    3    0    1
 -2       612      1815      2974      1195
 -1     28396    3    0    1
 -2      7088      7670      8065      9257
 -1     28397    3    0    1
 -2      4921      4639      4687      4247
 -1     28398    3    0    1
 -2      1990      3035      1915      1940
 -1     28399    3    0    1
 -2       535      1140      1129      2948
 -1     28400    3    0    1
 -2      9386      9366      9608      9671
 -1     28401    3    0    1
 -2      6587      5541      5889      6535
 -1     28402    3    0    1
 -2      2576      3794      2613      4598
 -1     28403    3    0    1
 -2      1815      1195      1196      2974
 -1     28404    3    0    1
 -2      5048      5013      5014      5064
 -1     28405    3    0    1
 -2      2466      1176      1897      1846
 -1     28406    3    0    1
 -2      3907      3906      2820      1577
 -1     28407    3    0    1
 -2      3204      3176      4281      3243
 -1     28408    3    0    1
 -2      9118      7923      7887      5933
 -1     28409    3    0    1
 -2      8412      6800      7510      7509
 -1     28410    3    0    1
 -2      8965      9499      9479      8058
 -1     28411    3    0    1
 -2      8769      8365      5961      7412
 -1     28412    3    0    1
 -2      1766      4059      4017      2354
 -1     28413    3    0    1
 -2      5253      5035      5914      5897
 -1     28414    3    0    1
 -2      7020      6926      7021      8464
 -1     28415    3    0    1
 -2      2257      2696      1501       898
 -1     28416    3    0    1
 -2      4606      4259      4936      4894
 -1     28417    3    0    1
 -2      2631      1421      1402      2044
 -1     28418    3    0    1
 -2      7890      7326      7368      6458
 -1     28419    3    0    1
 -2      5215      5813      6149      5424
 -1     28420    3    0    1
 -2      8881      8898      6082      9258
 -1     28421    3    0    1
 -2      8080      7067      7046      6969
 -1     28422    3    0    1
 -2      5144      5318      5634      5100
 -1     28423    3    0    1
 -2      6791      7538      6790      6789
 -1     28424    3    0    1
 -2      3404      2314      1674      2305
 -1     28425    3    0    1
 -2      5546      5489      6503      5563
 -1     28426    3    0    1
 -2      7329      5886      6563      8279
 -1     28427    3    0    1
 -2      7004      7594      8875      7576
 -1     28428    3    0    1
 -2      5750      5725      7000      6114
 -1     28429    3    0    1
 -2      5259      5549      5550      5074
 -1     28430    3    0    1
 -2      7837      7293      5512      7873
 -1     28431    3    0    1
 -2      8327      6580      6557      8765
 -1     28432    3    0    1
 -2      3401      3948      3440      2323
 -1     28433    3    0    1
 -2      8219      7829      6321      5862
 -1     28434    3    0    1
 -2      2545      1268      2057      3734
 -1     28435    3    0    1
 -2      2679       822      2727      1473
 -1     28436    3    0    1
 -2      7995      7438      7439      7942
 -1     28437    3    0    1
 -2      2550      2000      1974      1975
 -1     28438    3    0    1
 -2      8275      8276      7325      6493
 -1     28439    3    0    1
 -2      1946      3088      2533      1988
 -1     28440    3    0    1
 -2      5706      7633      6074      6919
 -1     28441    3    0    1
 -2      3634      2978      1198      1880
 -1     28442    3    0    1
 -2      3652      1267      1919      1886
 -1     28443    3    0    1
 -2      5523      5944      5945      5547
 -1     28444    3    0    1
 -2      1070      1736      1768      2406
 -1     28445    3    0    1
 -2      2911      4487      4446      4488
 -1     28446    3    0    1
 -2      4550      4839      5641      4588
 -1     28447    3    0    1
 -2      2782       949       950      2734
 -1     28448    3    0    1
 -2      6170      5386      6141      6247
 -1     28449    3    0    1
 -2      6607      6731      5602      5983
 -1     28450    3    0    1
 -2       580       260      1128       632
 -1     28451    3    0    1
 -2       612       604       654      1800
 -1     28452    3    0    1
 -2      8267      7314      7315      7870
 -1     28453    3    0    1
 -2      3661      4554      5080      4860
 -1     28454    3    0    1
 -2      4846      5083      4125      4564
 -1     28455    3    0    1
 -2      5171      5345      5706      5170
 -1     28456    3    0    1
 -2      9427      7913      7912      9148
 -1     28457    3    0    1
 -2      7868      8741      7393      6572
 -1     28458    3    0    1
 -2      4074      3468      3534      2965
 -1     28459    3    0    1
 -2      7658      8914      7619      7067
 -1     28460    3    0    1
 -2      7219      8652      7218      6360
 -1     28461    3    0    1
 -2      3954      3318      1666      3934
 -1     28462    3    0    1
 -2      2028      1276       741      3758
 -1     28463    3    0    1
 -2      6247      6170      5452      8170
 -1     28464    3    0    1
 -2       615      1173      1127      1890
 -1     28465    3    0    1
 -2      6454      7320      8270      6438
 -1     28466    3    0    1
 -2      5502      5503      5283      5054
 -1     28467    3    0    1
 -2      7728      9333      8114      7111
 -1     28468    3    0    1
 -2      8421      8851      5693      7546
 -1     28469    3    0    1
 -2      7690      8552      9246      6117
 -1     28470    3    0    1
 -2      3008       683       682      1251
 -1     28471    3    0    1
 -2      2948      1140      1129      1794
 -1     28472    3    0    1
 -2      3192      2130      1307      3191
 -1     28473    3    0    1
 -2      7045      7691      5774      7638
 -1     28474    3    0    1
 -2      6177      6231      8154      8647
 -1     28475    3    0    1
 -2      8164      5835      7155      7801
 -1     28476    3    0    1
 -2      2763      3291      2704      3878
 -1     28477    3    0    1
 -2        66        67       399      1467
 -1     28478    3    0    1
 -2      1341      3195      3754      3708
 -1     28479    3    0    1
 -2      1894      3085      3608      1845
 -1     28480    3    0    1
 -2      7631      7613      8932      7003
 -1     28481    3    0    1
 -2      5829      6288      6214      6215
 -1     28482    3    0    1
 -2      3303      3870      4718      4717
 -1     28483    3    0    1
 -2      2856      1763      1764      1715
 -1     28484    3    0    1
 -2      6100      6963      8072      8905
 -1     28485    3    0    1
 -2       294       798       343       292
 -1     28486    3    0    1
 -2      3727      3682      4212      3702
 -1     28487    3    0    1
 -2      5693      8460      8851      8421
 -1     28488    3    0    1
 -2       617       635       608      1805
 -1     28489    3    0    1
 -2      7790      8207      8208      6298
 -1     28490    3    0    1
 -2      4029      3434      2891      3479
 -1     28491    3    0    1
 -2      5131      5295      5113      4833
 -1     28492    3    0    1
 -2      7318      7295      7280      8684
 -1     28493    3    0    1
 -2      6643      6728      5646      7526
 -1     28494    3    0    1
 -2      6140      7143      7707      7708
 -1     28495    3    0    1
 -2      3665      1958      1221      3664
 -1     28496    3    0    1
 -2      3925      3356      2771      2770
 -1     28497    3    0    1
 -2       179       136       137      9675
 -1     28498    3    0    1
 -2      2119      2028      3758      3756
 -1     28499    3    0    1
 -2      4414      5255      5062      4415
 -1     28500    3    0    1
 -2      7736      6137      8632      9022
 -1     28501    3    0    1
 -2      4532      4826      5303      4878
 -1     28502    3    0    1
 -2      2637      2605      4300      2110
 -1     28503    3    0    1
 -2      4933      5171      4639      4921
 -1     28504    3    0    1
 -2      7303      6423      6350      7257
 -1     28505    3    0    1
 -2      1888      1887      3063      2499
 -1     28506    3    0    1
 -2      8266      7310      7830      9088
 -1     28507    3    0    1
 -2      3356       972      1566      3382
 -1     28508    3    0    1
 -2      6431      5501      7293      8299
 -1     28509    3    0    1
 -2      7046      6089      8491      6055
 -1     28510    3    0    1
 -2      6552      6448      7852      8301
 -1     28511    3    0    1
 -2      3689      3669      3058      4209
 -1     28512    3    0    1
 -2      5663      7502      8426      7529
 -1     28513    3    0    1
 -2      3713      4196      3079      1965
 -1     28514    3    0    1
 -2       954       461       895      1583
 -1     28515    3    0    1
 -2       872       888       416      2687
 -1     28516    3    0    1
 -2      3298      1488       910      2708
 -1     28517    3    0    1
 -2      4672      4656      4603      5204
 -1     28518    3    0    1
 -2      3055      3073      3648      3687
 -1     28519    3    0    1
 -2      8512      8918      7679      7070
 -1     28520    3    0    1
 -2      3528      2916      2991      3559
 -1     28521    3    0    1
 -2      4834      4833      5113      4565
 -1     28522    3    0    1
 -2      4280      3203      3202      3842
 -1     28523    3    0    1
 -2      9239      9210      7632      6073
 -1     28524    3    0    1
 -2      1448      1449      3212      1349
 -1     28525    3    0    1
 -2      6734      7974      5682      6008
 -1     28526    3    0    1
 -2      9131      8758      8704      6634
 -1     28527    3    0    1
 -2      3741      3169      2594      2075
 -1     28528    3    0    1
 -2      5223      4945      4693      5412
 -1     28529    3    0    1
 -2      5848      5847      6219      7223
 -1     28530    3    0    1
 -2      2409      3480      1079      1745
 -1     28531    3    0    1
 -2      1337      1904      3720      2553
 -1     28532    3    0    1
 -2      3956      3404      3429      2305
 -1     28533    3    0    1
 -2      6175      5804      5403      6160
 -1     28534    3    0    1
 -2      8658      8207      7790      7204
 -1     28535    3    0    1
 -2      5451      4756      4744      5225
 -1     28536    3    0    1
 -2      7302      6565      7369      8280
 -1     28537    3    0    1
 -2      3748      4909      4663      3764
 -1     28538    3    0    1
 -2      6865      7571      7534      7545
 -1     28539    3    0    1
 -2      7887      8722      7840      7365
 -1     28540    3    0    1
 -2       902       495       959      2756
 -1     28541    3    0    1
 -2      3186      2652      2127      3185
 -1     28542    3    0    1
 -2      4020      4474      3450      3551
 -1     28543    3    0    1
 -2      1069      1699      2926      2941
 -1     28544    3    0    1
 -2      2086      3732      3177      2606
 -1     28545    3    0    1
 -2      8011      9489      9244      8040
 -1     28546    3    0    1
 -2      2649      3177      3790      2048
 -1     28547    3    0    1
 -2      4674      4610      5179      5194
 -1     28548    3    0    1
 -2      7393      5936      7868      6572
 -1     28549    3    0    1
 -2       730      1338      2025      3188
 -1     28550    3    0    1
 -2      5456      4965      5471      4997
 -1     28551    3    0    1
 -2      5751      6115      5358      6053
 -1     28552    3    0    1
 -2      6075      7108      7085      5761
 -1     28553    3    0    1
 -2      3825      2111      3732      2086
 -1     28554    3    0    1
 -2      1307      1414      2130      3192
 -1     28555    3    0    1
 -2      3854      2172      3281      3324
 -1     28556    3    0    1
 -2      4771      4772      4436      4437
 -1     28557    3    0    1
 -2      7681      8497      7071      7661
 -1     28558    3    0    1
 -2      4359      4400      3925      3356
 -1     28559    3    0    1
 -2      2005      1353      3188      3121
 -1     28560    3    0    1
 -2      2370      2371      3524      4001
 -1     28561    3    0    1
 -2      6604      5967      5979      7913
 -1     28562    3    0    1
 -2      7285      6499      7859      8727
 -1     28563    3    0    1
 -2      5055      5077      4011      5043
 -1     28564    3    0    1
 -2      5547      5275      4808      5022
 -1     28565    3    0    1
 -2      7587      6033      7555      7533
 -1     28566    3    0    1
 -2       511       124       994      2385
 -1     28567    3    0    1
 -2      7887      7840      8722      9118
 -1     28568    3    0    1
 -2      5191      5153      5743      6048
 -1     28569    3    0    1
 -2      3316      2215      3898      1554
 -1     28570    3    0    1
 -2      2083      4300      3151      2084
 -1     28571    3    0    1
 -2       710       326      2614      1316
 -1     28572    3    0    1
 -2      5843      6197      6166      7186
 -1     28573    3    0    1
 -2      8377      7473      6001      7933
 -1     28574    3    0    1
 -2      8746      6483      6521      7398
 -1     28575    3    0    1
 -2      7631      6053      6915      6914
 -1     28576    3    0    1
 -2      3376      1560      2288      3377
 -1     28577    3    0    1
 -2      5486      6402      7359      8255
 -1     28578    3    0    1
 -2      1274      2549      1958      3701
 -1     28579    3    0    1
 -2       400       109        83      2246
 -1     28580    3    0    1
 -2      6176      7201      8204      7756
 -1     28581    3    0    1
 -2      5156      4895      4916      5193
 -1     28582    3    0    1
 -2      6182      6181      6179      7158
 -1     28583    3    0    1
 -2      1961      2556      4230      3689
 -1     28584    3    0    1
 -2      9213      8055      5740      8930
 -1     28585    3    0    1
 -2      3369       928       952      2281
 -1     28586    3    0    1
 -2      7354      5498      8709      7312
 -1     28587    3    0    1
 -2      5982      6606      6626      6003
 -1     28588    3    0    1
 -2      7042      8484      8911      7656
 -1     28589    3    0    1
 -2      4630      4662      4908      4631
 -1     28590    3    0    1
 -2      8514      7056      7015      6983
 -1     28591    3    0    1
 -2      5678      6816      6817      6818
 -1     28592    3    0    1
 -2      5379      5380      5233      5843
 -1     28593    3    0    1
 -2      8993      7112      8625      9304
 -1     28594    3    0    1
 -2      3024      2933      3025      3565
 -1     28595    3    0    1
 -2      2968      1929      3661      1866
 -1     28596    3    0    1
 -2      8198      5848      5846      7152
 -1     28597    3    0    1
 -2      3052       623      1185      3564
 -1     28598    3    0    1
 -2      3168      3763      3783      2568
 -1     28599    3    0    1
 -2      1607       934      1635      3373
 -1     28600    3    0    1
 -2      6199      6245      8183      8159
 -1     28601    3    0    1
 -2      6627      9406      9113      6608
 -1     28602    3    0    1
 -2      4294      2591      3843      3209
 -1     28603    3    0    1
 -2      4798      4080      4022      4427
 -1     28604    3    0    1
 -2      1615      2795       941       919
 -1     28605    3    0    1
 -2      4838      5298      5136      4837
 -1     28606    3    0    1
 -2      3800      2151      2658      3834
 -1     28607    3    0    1
 -2      1224      1199      3033      1880
 -1     28608    3    0    1
 -2      4835      5607      5648      5134
 -1     28609    3    0    1
 -2      8197      7173      6258      7747
 -1     28610    3    0    1
 -2      4366      3895      4700      3876
 -1     28611    3    0    1
 -2      9564      9329      8595      9348
 -1     28612    3    0    1
 -2      4276      4636      5167      4932
 -1     28613    3    0    1
 -2      5332      6997      6100      5348
 -1     28614    3    0    1
 -2      5092      5627      5672      5140
 -1     28615    3    0    1
 -2      7620      6091      8511      6972
 -1     28616    3    0    1
 -2      1183      1234      1215      3622
 -1     28617    3    0    1
 -2      1898      3612      2990      2422
 -1     28618    3    0    1
 -2      2945      2464      2984      4108
 -1     28619    3    0    1
 -2      1686      1642      3966      3390
 -1     28620    3    0    1
 -2      4067      4043      1756      2397
 -1     28621    3    0    1
 -2      9107      6602      7889      5906
 -1     28622    3    0    1
 -2      1871       649      1180      1812
 -1     28623    3    0    1
 -2      1929      1866      1217      1241
 -1     28624    3    0    1
 -2      2423      3582      1823      4130
 -1     28625    3    0    1
 -2      2253      1524      2208      3889
 -1     28626    3    0    1
 -2      4894      3737      4606      4258
 -1     28627    3    0    1
 -2      9162      7442      7410      6655
 -1     28628    3    0    1
 -2      2605      3151      4300      2110
 -1     28629    3    0    1
 -2      5710      4934      6058      5762
 -1     28630    3    0    1
 -2      6213      8194      7763      6215
 -1     28631    3    0    1
 -2      7522      6718      5654      7487
 -1     28632    3    0    1
 -2      4693      5444      5223      5412
 -1     28633    3    0    1
 -2      9003      8136      8604      7131
 -1     28634    3    0    1
 -2      4508      4165      4582      3651
 -1     28635    3    0    1
 -2      5201      5183      5164      4919
 -1     28636    3    0    1
 -2      2021      1324      1325      1977
 -1     28637    3    0    1
 -2      3746      1321      1377      2570
 -1     28638    3    0    1
 -2      6749      6680      6640      5657
 -1     28639    3    0    1
 -2       605       628       627      1801
 -1     28640    3    0    1
 -2      1089      1054       607      2952
 -1     28641    3    0    1
 -2      6574      8742      6513      6514
 -1     28642    3    0    1
 -2      5599      5647      5304      5095
 -1     28643    3    0    1
 -2      4957      3865      4358      4712
 -1     28644    3    0    1
 -2      4734      6162      5369      5443
 -1     28645    3    0    1
 -2      7173      6258      7196      8197
 -1     28646    3    0    1
 -2      2047      3131      3152      1286
 -1     28647    3    0    1
 -2      2137      2670      3791      1348
 -1     28648    3    0    1
 -2      5167      6072      5186      4932
 -1     28649    3    0    1
 -2      9178      8809      9193      9673
 -1     28650    3    0    1
 -2      9192      7936      7406      6731
 -1     28651    3    0    1
 -2      7090      6049      6062      8092
 -1     28652    3    0    1
 -2      1638       966       967      2765
 -1     28653    3    0    1
 -2      8422      9188      9175      7955
 -1     28654    3    0    1
 -2      5395      5397      5396      5456
 -1     28655    3    0    1
 -2      5367      5442      6161      5838
 -1     28656    3    0    1
 -2       739      1364      1365      3216
 -1     28657    3    0    1
 -2       353       296       387       352
 -1     28658    3    0    1
 -2      7350      6418      5876      6399
 -1     28659    3    0    1
 -2      7628      7584      6923      5710
 -1     28660    3    0    1
 -2       881       909       452       844
 -1     28661    3    0    1
 -2      3508      2991      1131      2916
 -1     28662    3    0    1
 -2      4657      4261      4260      4895
 -1     28663    3    0    1
 -2      5259      5024      5549      5074
 -1     28664    3    0    1
 -2      2135      3765      2667      1347
 -1     28665    3    0    1
 -2      7699      8138      8994      9036
 -1     28666    3    0    1
 -2      3946      1658      2812      2766
 -1     28667    3    0    1
 -2      6225      6227      6289      8203
 -1     28668    3    0    1
 -2      6993      7063      7672      6992
 -1     28669    3    0    1
 -2      3603       614      3556      1887
 -1     28670    3    0    1
 -2      8266      7830      7310      7352
 -1     28671    3    0    1
 -2      2331      3943      2828      1629
 -1     28672    3    0    1
 -2      8360      9159      7941      6653
 -1     28673    3    0    1
 -2      4802      4803      4793      4455
 -1     28674    3    0    1
 -2      1885      2432      1181      1843
 -1     28675    3    0    1
 -2       625       247       558      1188
 -1     28676    3    0    1
 -2      2131      1342       739      3216
 -1     28677    3    0    1
 -2      7875      8303      6522      9094
 -1     28678    3    0    1
 -2      1323       748      2035      1322
 -1     28679    3    0    1
 -2      7021      6925      6926      7020
 -1     28680    3    0    1
 -2      6543      6427      8290      7340
 -1     28681    3    0    1
 -2      4564      4846      5083      4864
 -1     28682    3    0    1
 -2      5668      8428      6859      6857
 -1     28683    3    0    1
 -2      7949      9202      7992      7526
 -1     28684    3    0    1
 -2      4639      4687      4933      4921
 -1     28685    3    0    1
 -2      3019      1905      2004      3091
 -1     28686    3    0    1
 -2      4803      4793      5267      4802
 -1     28687    3    0    1
 -2      2882      3446      2329      1695
 -1     28688    3    0    1
 -2      4329      4696      4742      4328
 -1     28689    3    0    1
 -2      2027      1959      1960      3709
 -1     28690    3    0    1
 -2      3605      4126      3083      1889
 -1     28691    3    0    1
 -2      7030      6050      6051      6083
 -1     28692    3    0    1
 -2      7918      9421      9409      7939
 -1     28693    3    0    1
 -2      5028      5029      5067      5552
 -1     28694    3    0    1
 -2      9626      6637      6599      9183
 -1     28695    3    0    1
 -2      3683      1943      1980      1923
 -1     28696    3    0    1
 -2      5220      5457      5219      4748
 -1     28697    3    0    1
 -2      8695      9089      7311      8694
 -1     28698    3    0    1
 -2      5368      6162      5783      5231
 -1     28699    3    0    1
 -2      2185       480       479      1478
 -1     28700    3    0    1
 -2      5639      5638      4870      5637
 -1     28701    3    0    1
 -2      4147      2495      2447      3061
 -1     28702    3    0    1
 -2      2381      1758      1757      4070
 -1     28703    3    0    1
 -2       498       505       103      2240
 -1     28704    3    0    1
 -2      7183      6281      8177      6241
 -1     28705    3    0    1
 -2      4575      4118      4543      3645
 -1     28706    3    0    1
 -2      7658      8533      7103      7618
 -1     28707    3    0    1
 -2      6600      7364      6620      9671
 -1     28708    3    0    1
 -2      7490      6021      6779      8431
 -1     28709    3    0    1
 -2      6942      8484      7042      6941
 -1     28710    3    0    1
 -2      8356      7927      8781      9174
 -1     28711    3    0    1
 -2      1409      1390      1391      2616
 -1     28712    3    0    1
 -2      5837      6263      7230      8164
 -1     28713    3    0    1
 -2      2895      3542      4065      4478
 -1     28714    3    0    1
 -2      2623      4270      3240      2079
 -1     28715    3    0    1
 -2      7888      8766      6494      7385
 -1     28716    3    0    1
 -2      7401      6597      5932      8758
 -1     28717    3    0    1
 -2      3339      3927      4731      3340
 -1     28718    3    0    1
 -2      3739      2026      1362      3164
 -1     28719    3    0    1
 -2      4894      3737      4673      3772
 -1     28720    3    0    1
 -2      5596      5310      5595      5081
 -1     28721    3    0    1
 -2      4455      4802      4803      2950
 -1     28722    3    0    1
 -2      3867      2232      2684      2181
 -1     28723    3    0    1
 -2      5272      5264      5540      5015
 -1     28724    3    0    1
 -2      5972      5973      6648      6608
 -1     28725    3    0    1
 -2      6599      9134      9183      8795
 -1     28726    3    0    1
 -2      7866      7379      8291      7309
 -1     28727    3    0    1
 -2       186       146       147      2920
 -1     28728    3    0    1
 -2      3389      1684      2289      3379
 -1     28729    3    0    1
 -2      4807      4806      5047      5271
 -1     28730    3    0    1
 -2       302       300      1338      2148
 -1     28731    3    0    1
 -2      7817      8208      6298      6420
 -1     28732    3    0    1
 -2      1909      1867       646      3023
 -1     28733    3    0    1
 -2      2314      1674      2305      1622
 -1     28734    3    0    1
 -2      5248      5279      5252      4479
 -1     28735    3    0    1
 -2       533       532       162      2376
 -1     28736    3    0    1
 -2      5321      4852      5591      5659
 -1     28737    3    0    1
 -2      8055      7023      5687      8849
 -1     28738    3    0    1
 -2      5951      9643      9604      6547
 -1     28739    3    0    1
 -2      1947      2564      3109      3091
 -1     28740    3    0    1
 -2      4494      5546      5274      5021
 -1     28741    3    0    1
 -2      2283       899       955      3370
 -1     28742    3    0    1
 -2      1046       520       521      3450
 -1     28743    3    0    1
 -2      7009      7679      7070      7010
 -1     28744    3    0    1
 -2      3551      3450      1135      3552
 -1     28745    3    0    1
 -2      6911      8461      8455      7548
 -1     28746    3    0    1
 -2      1353      2004      2005       730
 -1     28747    3    0    1
 -2      5935      5909      6605      5564
 -1     28748    3    0    1
 -2      6655      8362      8415      6805
 -1     28749    3    0    1
 -2      1070      1736      2406      3476
 -1     28750    3    0    1
 -2       399        67       105      1467
 -1     28751    3    0    1
 -2      5077      4011      4805      5055
 -1     28752    3    0    1
 -2      4823      4842      4576      5140
 -1     28753    3    0    1
 -2      6730      5598      5647      7476
 -1     28754    3    0    1
 -2      9176      6726      8826      8801
 -1     28755    3    0    1
 -2      8679      8265      8256      9084
 -1     28756    3    0    1
 -2      4737      4756      5451      5225
 -1     28757    3    0    1
 -2      2491      2461      1935      3594
 -1     28758    3    0    1
 -2      4387      4741      4692      4975
 -1     28759    3    0    1
 -2      2520      1978      1977      3086
 -1     28760    3    0    1
 -2      1583       954       953      2748
 -1     28761    3    0    1
 -2      6963      6932      6933      7651
 -1     28762    3    0    1
 -2      8184      7189      7738      7737
 -1     28763    3    0    1
 -2      1209      1208      2421      1854
 -1     28764    3    0    1
 -2      8918      8512      7009      7070
 -1     28765    3    0    1
 -2      2943      3011      2497      4124
 -1     28766    3    0    1
 -2      7005      7656      7042      8911
 -1     28767    3    0    1
 -2      5717      6066      5752      6068
 -1     28768    3    0    1
 -2      2252      1523      2253      3889
 -1     28769    3    0    1
 -2      2056      2006      3158      2576
 -1     28770    3    0    1
 -2      7345      8296      6578      8745
 -1     28771    3    0    1
 -2      7317      8698      7355      7316
 -1     28772    3    0    1
 -2      4829      5315      5673      5126
 -1     28773    3    0    1
 -2      4855      4177      5136      4837
 -1     28774    3    0    1
 -2      7635      8879      9255      9484
 -1     28775    3    0    1
 -2      3605      2434      1844      1829
 -1     28776    3    0    1
 -2      7326      7842      8723      7368
 -1     28777    3    0    1
 -2      2843      2321      2309      2290
 -1     28778    3    0    1
 -2      5298      5136      5667      4838
 -1     28779    3    0    1
 -2      2798      3934      2822      1616
 -1     28780    3    0    1
 -2      9641      9593      9628      9674
 -1     28781    3    0    1
 -2      4183      3082      3604      1888
 -1     28782    3    0    1
 -2      4978      4727      4950      4977
 -1     28783    3    0    1
 -2      3807      3747      2666      4287
 -1     28784    3    0    1
 -2      6642      6686      7472      7931
 -1     28785    3    0    1
 -2      2213       860      2263      2231
 -1     28786    3    0    1
 -2       948       926      2279      2732
 -1     28787    3    0    1
 -2      3497      3499      4475      4082
 -1     28788    3    0    1
 -2      4009      5007      4796      5008
 -1     28789    3    0    1
 -2      6212      9009      7745      6147
 -1     28790    3    0    1
 -2      8736      7848      7377      7339
 -1     28791    3    0    1
 -2       199       608       607      1805
 -1     28792    3    0    1
 -2       597       619       237      1183
 -1     28793    3    0    1
 -2      2479      1836      1163      3587
 -1     28794    3    0    1
 -2      7115      7700      5791      8572
 -1     28795    3    0    1
 -2      1833       234      1784       233
 -1     28796    3    0    1
 -2      1752      1032      1083      3481
 -1     28797    3    0    1
 -2      3949      3950      2311      2292
 -1     28798    3    0    1
 -2      1846      1847      2437      1848
 -1     28799    3    0    1
 -2      4193      1959      2513      3095
 -1     28800    3    0    1
 -2      6627      9419      9406      6608
 -1     28801    3    0    1
 -2      7507      6770      8388      6705
 -1     28802    3    0    1
 -2      6988      6082      5339      6098
 -1     28803    3    0    1
 -2      7578      5703      7553      6795
 -1     28804    3    0    1
 -2      5896      5567      5568      5076
 -1     28805    3    0    1
 -2      7063      7672      6992      8902
 -1     28806    3    0    1
 -2      8305      6555      8304      8749
 -1     28807    3    0    1
 -2       723       298       696      1293
 -1     28808    3    0    1
 -2      6540      8288      8315      6467
 -1     28809    3    0    1
 -2      8176      9032      9046      7170
 -1     28810    3    0    1
 -2      4423      3403      3491      4015
 -1     28811    3    0    1
 -2      2463      3634      3596      1841
 -1     28812    3    0    1
 -2      7629      6049      5692      8882
 -1     28813    3    0    1
 -2       770      1357      2007      3160
 -1     28814    3    0    1
 -2       575      1027      1051      1028
 -1     28815    3    0    1
 -2      8161      6254      6287      6210
 -1     28816    3    0    1
 -2      6660      6661      8365      7412
 -1     28817    3    0    1
 -2       975      2291      3383      1612
 -1     28818    3    0    1
 -2      4240      2060      2091      3135
 -1     28819    3    0    1
 -2      3899      2267      2721      3375
 -1     28820    3    0    1
 -2      1256      1257      1974      1942
 -1     28821    3    0    1
 -2      7174      8668      8667      9043
 -1     28822    3    0    1
 -2      3872      3337      4345      4720
 -1     28823    3    0    1
 -2      8809      6627      6648      9673
 -1     28824    3    0    1
 -2      1627      1626      1660      2849
 -1     28825    3    0    1
 -2      5752      5772      6066      5717
 -1     28826    3    0    1
 -2      8717      8719      7363      8760
 -1     28827    3    0    1
 -2      1055      1041      1040      1692
 -1     28828    3    0    1
 -2      6567      7375      5909      6605
 -1     28829    3    0    1
 -2      1606      1590       962      1634
 -1     28830    3    0    1
 -2      8608      9026      8143      5395
 -1     28831    3    0    1
 -2      1943      2522      3683      1980
 -1     28832    3    0    1
 -2      1513      2260      2212      1514
 -1     28833    3    0    1
 -2      5503      5283      5054      4460
 -1     28834    3    0    1
 -2      7465      7922      8363      9143
 -1     28835    3    0    1
 -2      6131      5806      5816      5375
 -1     28836    3    0    1
 -2      7927      6640      8356      8781
 -1     28837    3    0    1
 -2      8351      8393      7440      6738
 -1     28838    3    0    1
 -2      6720      6622      5991      5642
 -1     28839    3    0    1
 -2      8319      7344      6576      7869
 -1     28840    3    0    1
 -2      4373      4955      3879      4710
 -1     28841    3    0    1
 -2      9461      6635      7951      9614
 -1     28842    3    0    1
 -2       407        50       406      1459
 -1     28843    3    0    1
 -2      8533      7658      9266      7618
 -1     28844    3    0    1
 -2      6648      6751      7504      9673
 -1     28845    3    0    1
 -2      3281      3280      3325      1484
 -1     28846    3    0    1
 -2      4140      4577      4576      5123
 -1     28847    3    0    1
 -2      4266      4309      4292      3775
 -1     28848    3    0    1
 -2       638       639      1132      2958
 -1     28849    3    0    1
 -2      8965      8058      8100      7053
 -1     28850    3    0    1
 -2      6612      6629      7457      5975
 -1     28851    3    0    1
 -2      2715      3310       925      2247
 -1     28852    3    0    1
 -2      6580      6524      6556      8321
 -1     28853    3    0    1
 -2      7634      7662      9271      7011
 -1     28854    3    0    1
 -2      6958      6820      6910      8852
 -1     28855    3    0    1
 -2      5996      6727      5998      8335
 -1     28856    3    0    1
 -2      1193      1913      2488      3057
 -1     28857    3    0    1
 -2        37        35       398      1464
 -1     28858    3    0    1
 -2      1056      1057      1786      2339
 -1     28859    3    0    1
 -2      6080      7589      6931      8467
 -1     28860    3    0    1
 -2      4908      4271      4631      5205
 -1     28861    3    0    1
 -2      2486      1839      2445      2428
 -1     28862    3    0    1
 -2      1840      1190      1191      1814
 -1     28863    3    0    1
 -2      2094      2578      1361      2103
 -1     28864    3    0    1
 -2      1009      2908      3471      3415
 -1     28865    3    0    1
 -2      5305      6607      5602      5983
 -1     28866    3    0    1
 -2      7321      9078      8700      7297
 -1     28867    3    0    1
 -2      7346      7851      5900      8297
 -1     28868    3    0    1
 -2       863       864      1558      2706
 -1     28869    3    0    1
 -2       745      3198      1441      1430
 -1     28870    3    0    1
 -2      7652      8909      8481      8482
 -1     28871    3    0    1
 -2      7120      5398      7748      9012
 -1     28872    3    0    1
 -2      9152      6645      7932      6625
 -1     28873    3    0    1
 -2      4944      5221      4348      5002
 -1     28874    3    0    1
 -2      5327      5163      4907      5198
 -1     28875    3    0    1
 -2      9330      9332      9566      8146
 -1     28876    3    0    1
 -2      3409      3439      2836      1688
 -1     28877    3    0    1
 -2      8507      7607      6083      8473
 -1     28878    3    0    1
 -2      1750      1104      1793      2410
 -1     28879    3    0    1
 -2      2772      3334      3271      3914
 -1     28880    3    0    1
 -2      4894      4936      4606      4893
 -1     28881    3    0    1
 -2      9068      7770      9039      9342
 -1     28882    3    0    1
 -2      5061      5557      4804      5504
 -1     28883    3    0    1
 -2      2254      1537      1509      2209
 -1     28884    3    0    1
 -2      6984      5351      5685      5684
 -1     28885    3    0    1
 -2      9107      6602      5906      7300
 -1     28886    3    0    1
 -2      2118       739      1365      3216
 -1     28887    3    0    1
 -2      8030      8449      7632      6057
 -1     28888    3    0    1
 -2      5256      4492      5270      5063
 -1     28889    3    0    1
 -2      5461      5402      5229      4324
 -1     28890    3    0    1
 -2      3432      1625       985      1676
 -1     28891    3    0    1
 -2      3729      4277      3214      2601
 -1     28892    3    0    1
 -2       763      2670      2137      1348
 -1     28893    3    0    1
 -2       404        16        42        89
 -1     28894    3    0    1
 -2      4083      4445      3436      3503
 -1     28895    3    0    1
 -2      3498      3538      1013      1800
 -1     28896    3    0    1
 -2      1795      1141       583      2950
 -1     28897    3    0    1
 -2      7302      5919      6565      5887
 -1     28898    3    0    1
 -2      8161      6210      7165      6211
 -1     28899    3    0    1
 -2      2405      1782      1734      2391
 -1     28900    3    0    1
 -2      4290      3796      2040      3736
 -1     28901    3    0    1
 -2      4724      5431      5230      4725
 -1     28902    3    0    1
 -2      6507      7377      7848      7339
 -1     28903    3    0    1
 -2      4154      2503      1209      1854
 -1     28904    3    0    1
 -2      5482      7876      8675      6419
 -1     28905    3    0    1
 -2      7031      7648      6083      8473
 -1     28906    3    0    1
 -2      9099      9126      5924      7936
 -1     28907    3    0    1
 -2      8804      6691      7474      7475
 -1     28908    3    0    1
 -2      1986      2532      1901      1987
 -1     28909    3    0    1
 -2      1975      1256      3677      1890
 -1     28910    3    0    1
 -2      5719      5709      5365      4915
 -1     28911    3    0    1
 -2      2205      2249      1529      2780
 -1     28912    3    0    1
 -2      8432      7630      6910      8852
 -1     28913    3    0    1
 -2      1627      2297      2805      1626
 -1     28914    3    0    1
 -2      4072      5007      5529      4796
 -1     28915    3    0    1
 -2      4964      4353      4395      5213
 -1     28916    3    0    1
 -2      8318      6546      6575      7394
 -1     28917    3    0    1
 -2      7288      7814      5470      5866
 -1     28918    3    0    1
 -2      5166      5167      5186      4932
 -1     28919    3    0    1
 -2      5846      5847      6219      5848
 -1     28920    3    0    1
 -2      6322      5864      5865      5866
 -1     28921    3    0    1
 -2      1091      1107      1806      3511
 -1     28922    3    0    1
 -2      1012      1011       527      1013
 -1     28923    3    0    1
 -2      8386      8001      8435      6847
 -1     28924    3    0    1
 -2      6540      8315      8288      6568
 -1     28925    3    0    1
 -2      1683      1025      1026      1685
 -1     28926    3    0    1
 -2      3194      3773      3739      3164
 -1     28927    3    0    1
 -2      9322      9558      9342      8582
 -1     28928    3    0    1
 -2      6597      7349      5903      5932
 -1     28929    3    0    1
 -2      5542      5258      4798      5543
 -1     28930    3    0    1
 -2      6996      6113      9262      9232
 -1     28931    3    0    1
 -2      7982      7449      7450      7926
 -1     28932    3    0    1
 -2      5691      8859      8459      6082
 -1     28933    3    0    1
 -2      7955      9175      8422      8800
 -1     28934    3    0    1
 -2      5875      7249      8250      6411
 -1     28935    3    0    1
 -2      7317      6520      8698      7872
 -1     28936    3    0    1
 -2      2711       885       869      1492
 -1     28937    3    0    1
 -2      9121      6562      7893      7894
 -1     28938    3    0    1
 -2      3195      2676      2151      3800
 -1     28939    3    0    1
 -2      2205      2780      1528      3312
 -1     28940    3    0    1
 -2      4342      3351      4321      3326
 -1     28941    3    0    1
 -2      8529      7594      7689      6065
 -1     28942    3    0    1
 -2      5481      5529      5939      5876
 -1     28943    3    0    1
 -2      9040      9311      9009      8142
 -1     28944    3    0    1
 -2      3355      2289       910      3379
 -1     28945    3    0    1
 -2      8208      7817      8245      6420
 -1     28946    3    0    1
 -2      5607      6733      6649      5985
 -1     28947    3    0    1
 -2      1213      3615       637      1901
 -1     28948    3    0    1
 -2      9264      7005      6066      8485
 -1     28949    3    0    1
 -2      4792      4775      5069      4791
 -1     28950    3    0    1
 -2      4439      4486      4441      3479
 -1     28951    3    0    1
 -2      8831      8386      6844      6846
 -1     28952    3    0    1
 -2      5296      5664      5103      4866
 -1     28953    3    0    1
 -2      4527      3024      4161      4545
 -1     28954    3    0    1
 -2      5283      5054      4460      4490
 -1     28955    3    0    1
 -2      1579       924      2276      1522
 -1     28956    3    0    1
 -2      1640       910       968      3379
 -1     28957    3    0    1
 -2      5921      6538      7374      8285
 -1     28958    3    0    1
 -2      2371      4034      3524      4001
 -1     28959    3    0    1
 -2      8407      7538      6791      6789
 -1     28960    3    0    1
 -2      7868      8741      5936      7393
 -1     28961    3    0    1
 -2      7522      8822      7448      7487
 -1     28962    3    0    1
 -2      3732      4645      3153      2606
 -1     28963    3    0    1
 -2      1492      3304      3336      2227
 -1     28964    3    0    1
 -2       685      1206      1259      1258
 -1     28965    3    0    1
 -2      5472      5217      5218      4958
 -1     28966    3    0    1
 -2      1833       234       233       675
 -1     28967    3    0    1
 -2      2096      2631      3197      1421
 -1     28968    3    0    1
 -2      8775      9154      7901      7432
 -1     28969    3    0    1
 -2      1472       893       854      2693
 -1     28970    3    0    1
 -2      3329      2178      2239      3861
 -1     28971    3    0    1
 -2      5082      5305      5680      4832
 -1     28972    3    0    1
 -2      3791      3178      2137      1348
 -1     28973    3    0    1
 -2      1052       578      1127      1030
 -1     28974    3    0    1
 -2      7472      6686      5997      7423
 -1     28975    3    0    1
 -2      1056      3487      1786      1796
 -1     28976    3    0    1
 -2      3390      1642      3966      2815
 -1     28977    3    0    1
 -2      5807      5376      6242      5446
 -1     28978    3    0    1
 -2      3022      2964      4098      3021
 -1     28979    3    0    1
 -2      3422      1032      2948      3482
 -1     28980    3    0    1
 -2      6928      7644      6985      8465
 -1     28981    3    0    1
 -2      6927      6929      6928      8465
 -1     28982    3    0    1
 -2      1162      1163      1836      3587
 -1     28983    3    0    1
 -2      5757      7105      8083      6073
 -1     28984    3    0    1
 -2      7391      6625      5935      8763
 -1     28985    3    0    1
 -2       236       237       676       618
 -1     28986    3    0    1
 -2      6318      7776      7821      6317
 -1     28987    3    0    1
 -2      5556      6557      5954      5285
 -1     28988    3    0    1
 -2      4828      4547      4580      5126
 -1     28989    3    0    1
 -2      7318      7295      6396      7280
 -1     28990    3    0    1
 -2      5762      6121      5731      4935
 -1     28991    3    0    1
 -2      7176      5836      7229      6224
 -1     28992    3    0    1
 -2      4796      5007      5481      5008
 -1     28993    3    0    1
 -2      6885      6866      6815      7590
 -1     28994    3    0    1
 -2      7394      6515      8743      7903
 -1     28995    3    0    1
 -2      4251      4593      3768      4682
 -1     28996    3    0    1
 -2      5445      8627      9033      5816
 -1     28997    3    0    1
 -2      2884       547       997      2885
 -1     28998    3    0    1
 -2      7642      6107      6984      8088
 -1     28999    3    0    1
 -2      4478      4037      2896      4497
 -1     29000    3    0    1
 -2      1256      3040      3677      1890
 -1     29001    3    0    1
 -2      5163      5327      5718      5198
 -1     29002    3    0    1
 -2      1959      2513      1912      3688
 -1     29003    3    0    1
 -2      7451      6585      6639      9172
 -1     29004    3    0    1
 -2      3432       985       984      2316
 -1     29005    3    0    1
 -2      3168      3763      4318      3783
 -1     29006    3    0    1
 -2      4348      4733      4384      5002
 -1     29007    3    0    1
 -2      6719      9146      9169      7966
 -1     29008    3    0    1
 -2      1973      3675      3682      1254
 -1     29009    3    0    1
 -2      5762      4934      4924      4939
 -1     29010    3    0    1
 -2      6073      5757      7105      6973
 -1     29011    3    0    1
 -2      2985      1182      1152      2435
 -1     29012    3    0    1
 -2      7303      6423      8690      7832
 -1     29013    3    0    1
 -2      5611      5613      5612      4836
 -1     29014    3    0    1
 -2      2864      2865      1732      2391
 -1     29015    3    0    1
 -2       587      3508       585      1714
 -1     29016    3    0    1
 -2      3381       912      1610      3380
 -1     29017    3    0    1
 -2       100        53       806        81
 -1     29018    3    0    1
 -2      5535      5557      6598      5904
 -1     29019    3    0    1
 -2      5528      6557      5954      5556
 -1     29020    3    0    1
 -2      8013      7549      8456      6915
 -1     29021    3    0    1
 -2      5811      5392      4955      4710
 -1     29022    3    0    1
 -2      5308      5136      5324      5298
 -1     29023    3    0    1
 -2      5133      5134      5110      4584
 -1     29024    3    0    1
 -2      1375      2077      2643      1345
 -1     29025    3    0    1
 -2      6372      5803      8645      8611
 -1     29026    3    0    1
 -2      4227      3692      2560      1978
 -1     29027    3    0    1
 -2      4317      4659      4611      3756
 -1     29028    3    0    1
 -2      7889      9133      6602      9107
 -1     29029    3    0    1
 -2       216       669       594       670
 -1     29030    3    0    1
 -2      2958      1184      1808      2456
 -1     29031    3    0    1
 -2      5490      5491      5275      5022
 -1     29032    3    0    1
 -2      1419      1439       744      2568
 -1     29033    3    0    1
 -2      4814      5524      5027      5948
 -1     29034    3    0    1
 -2      1763      2856      3513      1715
 -1     29035    3    0    1
 -2      1537      1535      1509      2209
 -1     29036    3    0    1
 -2      7202      8168      8656      7178
 -1     29037    3    0    1
 -2      4503      5284      5262      4794
 -1     29038    3    0    1
 -2      1717      3467      2401      1779
 -1     29039    3    0    1
 -2      3546      1774      1795      2411
 -1     29040    3    0    1
 -2      8816      8817      9159      7942
 -1     29041    3    0    1
 -2      8262      9075      9105      7841
 -1     29042    3    0    1
 -2      2885      1133       547      2904
 -1     29043    3    0    1
 -2      6956      6957      6989      8470
 -1     29044    3    0    1
 -2      4273      3787      4296      4679
 -1     29045    3    0    1
 -2      4412      4411      5006      4804
 -1     29046    3    0    1
 -2      1954      1870      3663      2538
 -1     29047    3    0    1
 -2      8721      7886      6599      6583
 -1     29048    3    0    1
 -2       956      3347      1603      1624
 -1     29049    3    0    1
 -2       877       903       425      2175
 -1     29050    3    0    1
 -2      4690      5369      5368      5231
 -1     29051    3    0    1
 -2      4177      3064      4155      4113
 -1     29052    3    0    1
 -2      2934      1135      1117      1789
 -1     29053    3    0    1
 -2      6289      6264      6225      8203
 -1     29054    3    0    1
 -2      6496      7891      6560      6495
 -1     29055    3    0    1
 -2      5339      5192      5766      5691
 -1     29056    3    0    1
 -2      7712      8140      8997      6144
 -1     29057    3    0    1
 -2      8379      7956      9203      6729
 -1     29058    3    0    1
 -2      3002      4163      4107      3031
 -1     29059    3    0    1
 -2      5395      8616      8639      6217
 -1     29060    3    0    1
 -2      8696      8697      7871      8711
 -1     29061    3    0    1
 -2      8201      8200      5853      8162
 -1     29062    3    0    1
 -2      1400      2594      3741      2615
 -1     29063    3    0    1
 -2      5720      5730      5778      5203
 -1     29064    3    0    1
 -2      6288      8152      8194      6215
 -1     29065    3    0    1
 -2      2122      3239       777      1429
 -1     29066    3    0    1
 -2      2007      1950      1951      3110
 -1     29067    3    0    1
 -2      3289      3859      3327      2761
 -1     29068    3    0    1
 -2      6219      6258      7764      6259
 -1     29069    3    0    1
 -2      1768      1736      2392      3997
 -1     29070    3    0    1
 -2       859       837       424       464
 -1     29071    3    0    1
 -2      9427      9628      9416      9674
 -1     29072    3    0    1
 -2      7376      8315      6505      6568
 -1     29073    3    0    1
 -2       836       856      2697      2750
 -1     29074    3    0    1
 -2      8538      7664      9272      6105
 -1     29075    3    0    1
 -2      4252      3705      4597      4888
 -1     29076    3    0    1
 -2      1999       713      2077      1346
 -1     29077    3    0    1
 -2      4341      4369      3921      4984
 -1     29078    3    0    1
 -2      6048      6061      7605      7088
 -1     29079    3    0    1
 -2      1035       536      1034      2898
 -1     29080    3    0    1
 -2      2255      1509      1538      2256
 -1     29081    3    0    1
 -2      1409      2052      1352      3185
 -1     29082    3    0    1
 -2      4908      4271      5205      5328
 -1     29083    3    0    1
 -2      7802      7771      8646      9059
 -1     29084    3    0    1
 -2      5338      6047      7601      7058
 -1     29085    3    0    1
 -2      7173      5852      5426      6152
 -1     29086    3    0    1
 -2      4975      4741      4692      5411
 -1     29087    3    0    1
 -2      6579      5527      5574      5952
 -1     29088    3    0    1
 -2       622      1134      3022      3021
 -1     29089    3    0    1
 -2      7626      7055      8503      6980
 -1     29090    3    0    1
 -2      7332      7914      6588      6501
 -1     29091    3    0    1
 -2      5793      6246      5468      9672
 -1     29092    3    0    1
 -2      2444      2479      1869      3662
 -1     29093    3    0    1
 -2       632      1206      3042      1891
 -1     29094    3    0    1
 -2      4313      4939      4924      4649
 -1     29095    3    0    1
 -2      6164      5464      6269      5374
 -1     29096    3    0    1
 -2       623       624      1185      3564
 -1     29097    3    0    1
 -2      6607      6626      7453      5983
 -1     29098    3    0    1
 -2      1025       530      1026      1685
 -1     29099    3    0    1
 -2      3582      1858      1823      4130
 -1     29100    3    0    1
 -2      7438      7995      7439      6026
 -1     29101    3    0    1
 -2      3771      3229      1428      2130
 -1     29102    3    0    1
 -2      2014      3239      3170      1344
 -1     29103    3    0    1
 -2      8632      7258      7794      8650
 -1     29104    3    0    1
 -2      7672      7063      8507      8902
 -1     29105    3    0    1
 -2      4337      3869      3302      3914
 -1     29106    3    0    1
 -2      2307      2808      1587      2829
 -1     29107    3    0    1
 -2      3817      2116      1415      3163
 -1     29108    3    0    1
 -2      5848      6259      5847      7223
 -1     29109    3    0    1
 -2       434       412       826      1477
 -1     29110    3    0    1
 -2      9150      8783      8357      7944
 -1     29111    3    0    1
 -2      9356      9041      8167      8193
 -1     29112    3    0    1
 -2      7580      7540      8449      7566
 -1     29113    3    0    1
 -2      6568      8324      8735      5910
 -1     29114    3    0    1
 -2      6433      6334      7233      8227
 -1     29115    3    0    1
 -2      3961      3388      2760      3972
 -1     29116    3    0    1
 -2      6306      6402      6381      7254
 -1     29117    3    0    1
 -2      6343      6498      5487      6344
 -1     29118    3    0    1
 -2      5936      5553      5252      5279
 -1     29119    3    0    1
 -2      3524      2370      2873      1744
 -1     29120    3    0    1
 -2      6062      4894      5326      5767
 -1     29121    3    0    1
 -2       312       311       790       310
 -1     29122    3    0    1
 -2      4279      4933      4639      3841
 -1     29123    3    0    1
 -2      1361      1307      1414      2130
 -1     29124    3    0    1
 -2      7982      7926      8780      8797
 -1     29125    3    0    1
 -2      8542      8890      8925      7017
 -1     29126    3    0    1
 -2      3450      3414      4020      2934
 -1     29127    3    0    1
 -2      7148      7743      9025      8637
 -1     29128    3    0    1
 -2      5616      6617      7410      5615
 -1     29129    3    0    1
 -2      5925      7379      6544      5927
 -1     29130    3    0    1
 -2      6047      5763      5686      7058
 -1     29131    3    0    1
 -2      5944      5945      7334      5523
 -1     29132    3    0    1
 -2      3824      1404      2125      1384
 -1     29133    3    0    1
 -2       870       443       454      2713
 -1     29134    3    0    1
 -2      7942      8816      7481      7438
 -1     29135    3    0    1
 -2      1351      1408      2126      3155
 -1     29136    3    0    1
 -2      2372      3525      3505      1771
 -1     29137    3    0    1
 -2      2857      3514      1719      2389
 -1     29138    3    0    1
 -2      3737      4259      4673      3771
 -1     29139    3    0    1
 -2      5819      7184      8178      6190
 -1     29140    3    0    1
 -2      9095      7881      8713      9383
 -1     29141    3    0    1
 -2      4223      4215      2544      1982
 -1     29142    3    0    1
 -2      6414      5511      6413      7292
 -1     29143    3    0    1
 -2      1308       692      1306      3162
 -1     29144    3    0    1
 -2      2047       754      3202      1287
 -1     29145    3    0    1
 -2      3062      3037      2982      4507
 -1     29146    3    0    1
 -2      5574      5071      5500      6519
 -1     29147    3    0    1
 -2      1730      2341      1731      3451
 -1     29148    3    0    1
 -2      6556      6580      8321      8306
 -1     29149    3    0    1
 -2       876       840       902      2235
 -1     29150    3    0    1
 -2      2201       868       847      1519
 -1     29151    3    0    1
 -2      2809      2214      2231      1552
 -1     29152    3    0    1
 -2      5676      6793      8408      6792
 -1     29153    3    0    1
 -2      5099      5113      5295      4833
 -1     29154    3    0    1
 -2      5492      5935      5507      5276
 -1     29155    3    0    1
 -2      3902      3933      3304      2227
 -1     29156    3    0    1
 -2      8540      8539      7052      8086
 -1     29157    3    0    1
 -2      3376      2831      3986      3399
 -1     29158    3    0    1
 -2      4633      4273      4632      4679
 -1     29159    3    0    1
 -2      1736      2392      3997      2866
 -1     29160    3    0    1
 -2      9425      9608      9635      9671
 -1     29161    3    0    1
 -2      4282      3153      4645      2625
 -1     29162    3    0    1
 -2      8675      8685      7876      7282
 -1     29163    3    0    1
 -2      5969      5292      5968      5302
 -1     29164    3    0    1
 -2      9359      9578      8163      9346
 -1     29165    3    0    1
 -2      1977      2021      3730      1978
 -1     29166    3    0    1
 -2      4835      5607      5606      5648
 -1     29167    3    0    1
 -2      7958      8409      9193      9673
 -1     29168    3    0    1
 -2      1869      1868      1836      2444
 -1     29169    3    0    1
 -2      3916      3915      3928      2778
 -1     29170    3    0    1
 -2      7648      7030      6083      8069
 -1     29171    3    0    1
 -2       910       866      1488      3298
 -1     29172    3    0    1
 -2      3206      3180      2138      2038
 -1     29173    3    0    1
 -2      8430      8438      8835      6806
 -1     29174    3    0    1
 -2      7207      7238      5444      6239
 -1     29175    3    0    1
 -2      2038      3132      1292      2552
 -1     29176    3    0    1
 -2      6125      7181      5849      5370
 -1     29177    3    0    1
 -2      4494      4091      3496      4431
 -1     29178    3    0    1
 -2      5729      6120      5758      5207
 -1     29179    3    0    1
 -2      4062      2979      2366      2942
 -1     29180    3    0    1
 -2      2870      2871      4030      1770
 -1     29181    3    0    1
 -2      2887      4492      4076      4471
 -1     29182    3    0    1
 -2      2912      2983      2369      3504
 -1     29183    3    0    1
 -2      6930      7602      6986      8466
 -1     29184    3    0    1
 -2      3464      1057      1059      1715
 -1     29185    3    0    1
 -2      8309      8308      8681      9086
 -1     29186    3    0    1
 -2      3911      3923      4370      4335
 -1     29187    3    0    1
 -2      4006      4502      4456      3424
 -1     29188    3    0    1
 -2      6602      6622      9170      7889
 -1     29189    3    0    1
 -2      8497      7071      7661      6975
 -1     29190    3    0    1
 -2      8270      7320      6528      7362
 -1     29191    3    0    1
 -2      4926      4655      4891      4664
 -1     29192    3    0    1
 -2      1227       665      1205      1920
 -1     29193    3    0    1
 -2      2949       537      1141      2854
 -1     29194    3    0    1
 -2      5781      5782      5367      5366
 -1     29195    3    0    1
 -2      6001      6000      6764      6002
 -1     29196    3    0    1
 -2      1809      1157      1860      3585
 -1     29197    3    0    1
 -2      9446      9425      6718      7487
 -1     29198    3    0    1
 -2      5769      5695      5341      5355
 -1     29199    3    0    1
 -2      4011      4805      4797      5077
 -1     29200    3    0    1
 -2      8328      8374      7929      8334
 -1     29201    3    0    1
 -2      2756       495       959      2262
 -1     29202    3    0    1
 -2      8708      7259      8240      7337
 -1     29203    3    0    1
 -2      6366      6364      8241      6412
 -1     29204    3    0    1
 -2      3403      2906      3491      4015
 -1     29205    3    0    1
 -2      2802      3370      3939      2306
 -1     29206    3    0    1
 -2      7565      8841      8829      7505
 -1     29207    3    0    1
 -2      4969      4700      4954      4699
 -1     29208    3    0    1
 -2      7370      7369      6565      8280
 -1     29209    3    0    1
 -2      1552      2197      3287      3286
 -1     29210    3    0    1
 -2      4539      3609      3656      4538
 -1     29211    3    0    1
 -2       300       364       302       299
 -1     29212    3    0    1
 -2      1927      1215      1234      3622
 -1     29213    3    0    1
 -2      5255      4415      4783      4811
 -1     29214    3    0    1
 -2      3167      3763      2568      2032
 -1     29215    3    0    1
 -2      3783      3209      2663      2614
 -1     29216    3    0    1
 -2      8228      7806      5444      6301
 -1     29217    3    0    1
 -2      4670      4596      3769      4651
 -1     29218    3    0    1
 -2      5605      5681      6702      5974
 -1     29219    3    0    1
 -2      3875      4692      3874      3265
 -1     29220    3    0    1
 -2      2270       866      2225      1517
 -1     29221    3    0    1
 -2      3196      3240      3744      2078
 -1     29222    3    0    1
 -2      2365      2852      1702      3478
 -1     29223    3    0    1
 -2      6706      8791      7433      6753
 -1     29224    3    0    1
 -2      2932      3493      2862      2933
 -1     29225    3    0    1
 -2      3133      4313      4934      3810
 -1     29226    3    0    1
 -2      1321      1377      2570      1972
 -1     29227    3    0    1
 -2      5155      5154      5192      5176
 -1     29228    3    0    1
 -2      7920      9160      9161      7921
 -1     29229    3    0    1
 -2      2019      1284      3716      2046
 -1     29230    3    0    1
 -2      2021      3748      3150      1324
 -1     29231    3    0    1
 -2      3522      3999      2868      1740
 -1     29232    3    0    1
 -2      5046      5246      4424      5047
 -1     29233    3    0    1
 -2      3491      4014      4491      4469
 -1     29234    3    0    1
 -2      7580      7632      8449      6057
 -1     29235    3    0    1
 -2      2866      2392      3997      4433
 -1     29236    3    0    1
 -2      8677      6402      5486      8705
 -1     29237    3    0    1
 -2      7009      8917      8918      7679
 -1     29238    3    0    1
 -2      2769      1563      3300      1489
 -1     29239    3    0    1
 -2      1658      1639      2319      2812
 -1     29240    3    0    1
 -2      7435      7940      8787      7434
 -1     29241    3    0    1
 -2      6441      7862      8762      8323
 -1     29242    3    0    1
 -2      4744      4730      5451      5225
 -1     29243    3    0    1
 -2      3197      2096      1421      2044
 -1     29244    3    0    1
 -2      2418      1838      3589      2428
 -1     29245    3    0    1
 -2      5103      5664      5296      5683
 -1     29246    3    0    1
 -2      4827      4106      4534      4505
 -1     29247    3    0    1
 -2      6502      5506      7332      5522
 -1     29248    3    0    1
 -2      9398      9608      9425      9671
 -1     29249    3    0    1
 -2      6843      6797      8410      6876
 -1     29250    3    0    1
 -2      7058      6059      7682      8869
 -1     29251    3    0    1
 -2      6875      6797      6843      6876
 -1     29252    3    0    1
 -2      7287      7867      7311      5497
 -1     29253    3    0    1
 -2      1402      2096      2044      1421
 -1     29254    3    0    1
 -2       962      2761      1590      1606
 -1     29255    3    0    1
 -2      6647      5982      6606      5600
 -1     29256    3    0    1
 -2      5387      5388      5453      4706
 -1     29257    3    0    1
 -2      3241      4297      3838      3255
 -1     29258    3    0    1
 -2      4593      4592      4886      5149
 -1     29259    3    0    1
 -2      7262      6364      7276      6412
 -1     29260    3    0    1
 -2      6113      7092      6996      5724
 -1     29261    3    0    1
 -2      5168      5336      6057      5169
 -1     29262    3    0    1
 -2      3733      3811      2050      3155
 -1     29263    3    0    1
 -2      1272      2009      1270      3700
 -1     29264    3    0    1
 -2      5376      5807      5414      5446
 -1     29265    3    0    1
 -2      9493      9246      8057      7100
 -1     29266    3    0    1
 -2      1874      3666      3589      2428
 -1     29267    3    0    1
 -2      1508       888       943      3318
 -1     29268    3    0    1
 -2      2341      1628      1678      3433
 -1     29269    3    0    1
 -2      8242      6370      6332      7264
 -1     29270    3    0    1
 -2       530       159       157      1051
 -1     29271    3    0    1
 -2       916       917      1567      2791
 -1     29272    3    0    1
 -2      6325      6391      6324      7822
 -1     29273    3    0    1
 -2      4005      4455      4803      2950
 -1     29274    3    0    1
 -2      6588      7332      6501      5522
 -1     29275    3    0    1
 -2      7632      8919      9239      6073
 -1     29276    3    0    1
 -2      8365      5961      8793      8769
 -1     29277    3    0    1
 -2      7793      5467      8230      9037
 -1     29278    3    0    1
 -2      6963      6932      7651      7610
 -1     29279    3    0    1
 -2      4154      2987      2421      1209
 -1     29280    3    0    1
 -2      5667      5137      4856      4838
 -1     29281    3    0    1
 -2      8290      8317      7340      6470
 -1     29282    3    0    1
 -2      4808      4435      3499      4475
 -1     29283    3    0    1
 -2      3062      1181      3601      1818
 -1     29284    3    0    1
 -2      8112      9499      8983      7053
 -1     29285    3    0    1
 -2      2494      4147      2431      1842
 -1     29286    3    0    1
 -2      9655      9541      8984      9273
 -1     29287    3    0    1
 -2      8154      6229      6177      7767
 -1     29288    3    0    1
 -2      8194      6288      6214      7195
 -1     29289    3    0    1
 -2      7628      7016      7668      7017
 -1     29290    3    0    1
 -2      6542      8316      6541      6469
 -1     29291    3    0    1
 -2      5038      5267      4793      4802
 -1     29292    3    0    1
 -2       834       109       400      2192
 -1     29293    3    0    1
 -2      5369      4690      5443      5231
 -1     29294    3    0    1
 -2      4465      5042      4466      4810
 -1     29295    3    0    1
 -2      7338      5946      5259      5910
 -1     29296    3    0    1
 -2      4944      4348      4383      5002
 -1     29297    3    0    1
 -2      6508      5924      5949      6607
 -1     29298    3    0    1
 -2      6494      7841      5484      5905
 -1     29299    3    0    1
 -2      6263      7200      7230      8202
 -1     29300    3    0    1
 -2      5660      6785      6786      8404
 -1     29301    3    0    1
 -2      7549      8434      6914      6835
 -1     29302    3    0    1
 -2      3306       922      2222      2203
 -1     29303    3    0    1
 -2       510      1057      1058      1786
 -1     29304    3    0    1
 -2      4396      4353      4743      4354
 -1     29305    3    0    1
 -2      8917      8535      8918      7679
 -1     29306    3    0    1
 -2      5223      5373      4945      5412
 -1     29307    3    0    1
 -2      4455      4803      4793      4005
 -1     29308    3    0    1
 -2        76         3         1       392
 -1     29309    3    0    1
 -2      1946      2533      1926      1232
 -1     29310    3    0    1
 -2      7892      5918      5559      7911
 -1     29311    3    0    1
 -2      4399      4713      4712      3913
 -1     29312    3    0    1
 -2      3178      3244      2137      1387
 -1     29313    3    0    1
 -2      7017      7018      7628      5710
 -1     29314    3    0    1
 -2      4179      1834      2471      2472
 -1     29315    3    0    1
 -2      3450      3414      1661      2863
 -1     29316    3    0    1
 -2      1629      1698      1630      2331
 -1     29317    3    0    1
 -2      4731      3927      3339      3903
 -1     29318    3    0    1
 -2      4315      2655      3190      4314
 -1     29319    3    0    1
 -2      1953      1952      2536      2537
 -1     29320    3    0    1
 -2      4408      2827      2839      1620
 -1     29321    3    0    1
 -2      1827      1815      1196      3650
 -1     29322    3    0    1
 -2      3112      1932      2539      4208
 -1     29323    3    0    1
 -2      1639      1658      2765      2766
 -1     29324    3    0    1
 -2      1483      1540      3278      2718
 -1     29325    3    0    1
 -2      2026      1362      1310      3739
 -1     29326    3    0    1
 -2      5395      6218      8616      6217
 -1     29327    3    0    1
 -2      5559      6603      7911      5560
 -1     29328    3    0    1
 -2      7499      8424      6835      7475
 -1     29329    3    0    1
 -2       832      2188      2244      1467
 -1     29330    3    0    1
 -2      4545      3024      4161      3025
 -1     29331    3    0    1
 -2      2600      4275      3716      4298
 -1     29332    3    0    1
 -2      6508      5949      7360      6607
 -1     29333    3    0    1
 -2      6166      5233      5379      6133
 -1     29334    3    0    1
 -2      5655      7573      8796      7989
 -1     29335    3    0    1
 -2      2701       902       840      2235
 -1     29336    3    0    1
 -2      4548      3652      4564      4864
 -1     29337    3    0    1
 -2      1661      1046      3414      3450
 -1     29338    3    0    1
 -2      4707      5453      4986      4706
 -1     29339    3    0    1
 -2      5032      5251      5075      4789
 -1     29340    3    0    1
 -2      6731      7529      5663      7453
 -1     29341    3    0    1
 -2      5108      5644      5094      5125
 -1     29342    3    0    1
 -2      5378      7773      8138      9036
 -1     29343    3    0    1
 -2      5255      5062      4811      5537
 -1     29344    3    0    1
 -2      4048      3560      2924      2902
 -1     29345    3    0    1
 -2      3299       829       912      1489
 -1     29346    3    0    1
 -2      7000      7652      8908      8056
 -1     29347    3    0    1
 -2      2896      3454      4037      4478
 -1     29348    3    0    1
 -2      4701      4332      4729      5234
 -1     29349    3    0    1
 -2      8113      8543      8926      7057
 -1     29350    3    0    1
 -2      1735      2937      3472      3473
 -1     29351    3    0    1
 -2      2972      4531      3553      3632
 -1     29352    3    0    1
 -2      6321      8663      8219      5862
 -1     29353    3    0    1
 -2      2515      3034      4197      1990
 -1     29354    3    0    1
 -2      3916      4725      3273      3307
 -1     29355    3    0    1
 -2      3325       859       838      1545
 -1     29356    3    0    1
 -2      1903      3068      3089      4185
 -1     29357    3    0    1
 -2      2033      2595       713      1319
 -1     29358    3    0    1
 -2      4739      4971      4718      4717
 -1     29359    3    0    1
 -2      1699       563       561      2941
 -1     29360    3    0    1
 -2       338      2600      1283       717
 -1     29361    3    0    1
 -2      4653      4315      3734      4314
 -1     29362    3    0    1
 -2      5444      5373      5223      5412
 -1     29363    3    0    1
 -2      7652      7000      6964      8056
 -1     29364    3    0    1
 -2      1642       970       971      1610
 -1     29365    3    0    1
 -2      3534      3413      3468      4074
 -1     29366    3    0    1
 -2      4811      4415      4414      5062
 -1     29367    3    0    1
 -2      1140      1175      3609      3637
 -1     29368    3    0    1
 -2      8233      7248      8218      7244
 -1     29369    3    0    1
 -2      1144       641       642      2960
 -1     29370    3    0    1
 -2      3444      1059      3464      3513
 -1     29371    3    0    1
 -2      5998      5997      5996      6022
 -1     29372    3    0    1
 -2      9100      9113      8293      8266
 -1     29373    3    0    1
 -2      6488      5941      5517      6487
 -1     29374    3    0    1
 -2      6025      8351      6738      7516
 -1     29375    3    0    1
 -2      6523      5932      7878      7401
 -1     29376    3    0    1
 -2      8511      6073      8919      8494
 -1     29377    3    0    1
 -2      4653      4891      4926      5690
 -1     29378    3    0    1
 -2      6571      8768      6609      6627
 -1     29379    3    0    1
 -2      1040      1055      2855      2902
 -1     29380    3    0    1
 -2      8442      6041      7561      7574
 -1     29381    3    0    1
 -2      3458      3439      3409      2322
 -1     29382    3    0    1
 -2      6761      7468      6675      8332
 -1     29383    3    0    1
 -2      1242       646      1185      3052
 -1     29384    3    0    1
 -2      8277      9106      8263      7358
 -1     29385    3    0    1
 -2      1181      1151      2432      1818
 -1     29386    3    0    1
 -2      1124       574      1026      1683
 -1     29387    3    0    1
 -2      6081      6048      7605      7088
 -1     29388    3    0    1
 -2      9516      8532      9247      8933
 -1     29389    3    0    1
 -2       922      2779      3306      1577
 -1     29390    3    0    1
 -2      8927      8506      9274      9287
 -1     29391    3    0    1
 -2      4726      4692      3874      3875
 -1     29392    3    0    1
 -2      3177      2085      2086      2606
 -1     29393    3    0    1
 -2      8978      9518      9647      9653
 -1     29394    3    0    1
 -2      6953      7029      8067      8469
 -1     29395    3    0    1
 -2      3698      4199      2529      4221
 -1     29396    3    0    1
 -2      5816      7183      7134      6240
 -1     29397    3    0    1
 -2      6920      7554      8495      6919
 -1     29398    3    0    1
 -2      2422      2990      1898      1211
 -1     29399    3    0    1
 -2      2968      2458      4099      3563
 -1     29400    3    0    1
 -2      7207      9062      8648      6239
 -1     29401    3    0    1
 -2      1955      1956      1272      3700
 -1     29402    3    0    1
 -2      3941      3283      2720      1513
 -1     29403    3    0    1
 -2      2326      3978      3987      3977
 -1     29404    3    0    1
 -2      7592      7629      8882      9216
 -1     29405    3    0    1
 -2      5875      8250      5498      6411
 -1     29406    3    0    1
 -2       423       821       858       857
 -1     29407    3    0    1
 -2      1861      4179      4132      1834
 -1     29408    3    0    1
 -2      9315      8134      7726      8168
 -1     29409    3    0    1
 -2      3336       885      2711      1492
 -1     29410    3    0    1
 -2      1483      2749       897      3277
 -1     29411    3    0    1
 -2      1815      1196      1195      1827
 -1     29412    3    0    1
 -2       862       450       904      2702
 -1     29413    3    0    1
 -2      3220      2608      3827      2088
 -1     29414    3    0    1
 -2      4553      4131      5078      4857
 -1     29415    3    0    1
 -2      5733      5178      5156      5193
 -1     29416    3    0    1
 -2      5828      5851      7164      5827
 -1     29417    3    0    1
 -2      6172      8141      6252      7147
 -1     29418    3    0    1
 -2      1353      1947      2564      3134
 -1     29419    3    0    1
 -2      6878      7540      6879      7566
 -1     29420    3    0    1
 -2      5602      5305      5129      5082
 -1     29421    3    0    1
 -2      4951      5210      4696      4979
 -1     29422    3    0    1
 -2      8244      6435      7281      5479
 -1     29423    3    0    1
 -2      6050      7607      8507      8472
 -1     29424    3    0    1
 -2      5141      4580      4547      5126
 -1     29425    3    0    1
 -2      1560       843      1477      2707
 -1     29426    3    0    1
 -2      6800      7540      6879      6878
 -1     29427    3    0    1
 -2      6564      5886      6563      7329
 -1     29428    3    0    1
 -2      9211      8054      8891      9480
 -1     29429    3    0    1
 -2      7931      9165      6642      7930
 -1     29430    3    0    1
 -2      5341      4928      5342      5355
 -1     29431    3    0    1
 -2      8088      8087      6107      9253
 -1     29432    3    0    1
 -2      2765      2767       909      3354
 -1     29433    3    0    1
 -2      6242      8211      7792      9048
 -1     29434    3    0    1
 -2      2596      3146      4629      2623
 -1     29435    3    0    1
 -2      2022       721      3176      1289
 -1     29436    3    0    1
 -2      5524      5551      6506      6507
 -1     29437    3    0    1
 -2      1835      1865      2476      2477
 -1     29438    3    0    1
 -2        83       400      2246      1468
 -1     29439    3    0    1
 -2      6547      5951      7314      7939
 -1     29440    3    0    1
 -2       647       242       688      1219
 -1     29441    3    0    1
 -2      8611      7765      5803      8145
 -1     29442    3    0    1
 -2      3594      4517      4534      4546
 -1     29443    3    0    1
 -2      2467      2503      3611      2438
 -1     29444    3    0    1
 -2      3938      2799      2826      3955
 -1     29445    3    0    1
 -2      7292      6413      6414      8234
 -1     29446    3    0    1
 -2      4299      3214      2101      2601
 -1     29447    3    0    1
 -2      7537      6046      6822      6044
 -1     29448    3    0    1
 -2      1644      3975      3947      2299
 -1     29449    3    0    1
 -2      1599      1508       943      3318
 -1     29450    3    0    1
 -2      4650      4313      4934      3133
 -1     29451    3    0    1
 -2      8704      8749      7878      8758
 -1     29452    3    0    1
 -2      3014      3639      2989      3015
 -1     29453    3    0    1
 -2       642       641      1133      2960
 -1     29454    3    0    1
 -2      3478      1099      1098      1702
 -1     29455    3    0    1
 -2      8481      6964      7652      8482
 -1     29456    3    0    1
 -2      2047      3824      2125      1384
 -1     29457    3    0    1
 -2      2572      2616      2612      4594
 -1     29458    3    0    1
 -2      4528      4578      4875      4514
 -1     29459    3    0    1
 -2       751       719       781      2647
 -1     29460    3    0    1
 -2      8710      8683      7313      6513
 -1     29461    3    0    1
 -2      8812      8411      7972      5607
 -1     29462    3    0    1
 -2      2790      3901      1525      2226
 -1     29463    3    0    1
 -2      6059      7532      8869      8008
 -1     29464    3    0    1
 -2      9626      9183      9184      9671
 -1     29465    3    0    1
 -2      3611      4154      2421      1854
 -1     29466    3    0    1
 -2      6111      7671      6063      5744
 -1     29467    3    0    1
 -2      4522      2954      4114      3642
 -1     29468    3    0    1
 -2        65        64        62      1466
 -1     29469    3    0    1
 -2      2719      2259      3280      1511
 -1     29470    3    0    1
 -2      4129      1856      2470      3580
 -1     29471    3    0    1
 -2      6772      7465      6029      7996
 -1     29472    3    0    1
 -2      7197      6326      8673      7225
 -1     29473    3    0    1
 -2      7936      7406      9099      9405
 -1     29474    3    0    1
 -2      8324      5946      6568      7934
 -1     29475    3    0    1
 -2      6826      6829      6828      8423
 -1     29476    3    0    1
 -2      3655      3638      3043      4521
 -1     29477    3    0    1
 -2      9161      9395      8748      7921
 -1     29478    3    0    1
 -2      9234      8862      8043      7004
 -1     29479    3    0    1
 -2       848       869      2712      1596
 -1     29480    3    0    1
 -2      7372      5920      7844      8282
 -1     29481    3    0    1
 -2      7913      7912      5908      8727
 -1     29482    3    0    1
 -2      6718      8777      7923      7415
 -1     29483    3    0    1
 -2      5733      5331      5693      5744
 -1     29484    3    0    1
 -2      8252      6432      6433      7280
 -1     29485    3    0    1
 -2      3446      1061       545      1695
 -1     29486    3    0    1
 -2      4574      4134      4841      4850
 -1     29487    3    0    1
 -2      6804      6655      8415      6805
 -1     29488    3    0    1
 -2      7432      7972      9154      6649
 -1     29489    3    0    1
 -2      1976      2019      3728      2020
 -1     29490    3    0    1
 -2      5654      8419      7522      7487
 -1     29491    3    0    1
 -2      4147      2431      4146      2494
 -1     29492    3    0    1
 -2      4685      3743      3742      4319
 -1     29493    3    0    1
 -2      6947      7052      6075      6948
 -1     29494    3    0    1
 -2      5248      5509      5279      4479
 -1     29495    3    0    1
 -2      1563       912       913      2769
 -1     29496    3    0    1
 -2      8022      7557      8441      8870
 -1     29497    3    0    1
 -2      5693      4657      5156      5178
 -1     29498    3    0    1
 -2      2744      2278       947      1668
 -1     29499    3    0    1
 -2      7666      8924      8059      6981
 -1     29500    3    0    1
 -2      6284      5823      5825      8158
 -1     29501    3    0    1
 -2      1889      3039      3605      1844
 -1     29502    3    0    1
 -2      2395      1772      4002      1748
 -1     29503    3    0    1
 -2      4147      2494      1882      1842
 -1     29504    3    0    1
 -2      1840      1839      3074      2487
 -1     29505    3    0    1
 -2      7847      8308      8309      9086
 -1     29506    3    0    1
 -2      2688      2743      3887      3873
 -1     29507    3    0    1
 -2      5966      5585      5291      5995
 -1     29508    3    0    1
 -2      6452      6450      6524      6451
 -1     29509    3    0    1
 -2      1484      3281       464      1546
 -1     29510    3    0    1
 -2      5836      7229      7801      6333
 -1     29511    3    0    1
 -2      8230      6353      5467      7793
 -1     29512    3    0    1
 -2      2440      2439      4156      1899
 -1     29513    3    0    1
 -2      8299      7293      6395      7264
 -1     29514    3    0    1
 -2      5448      4395      4743      5213
 -1     29515    3    0    1
 -2      6007      6005      6768      6006
 -1     29516    3    0    1
 -2      1338      2025      3188      3187
 -1     29517    3    0    1
 -2      1536      1535      1537      2209
 -1     29518    3    0    1
 -2      8747      8300      6483      7399
 -1     29519    3    0    1
 -2      6324      6390      5473      8223
 -1     29520    3    0    1
 -2      5831      6217      7222      6216
 -1     29521    3    0    1
 -2      7004      9234      7594      6065
 -1     29522    3    0    1
 -2      3281      3324      3348      4331
 -1     29523    3    0    1
 -2      5644      5658      4843      5125
 -1     29524    3    0    1
 -2      7959      9670      9475      9673
 -1     29525    3    0    1
 -2      2521      3637      3655      1895
 -1     29526    3    0    1
 -2      1914      1250      1938      1997
 -1     29527    3    0    1
 -2      3821      3173      1376      2081
 -1     29528    3    0    1
 -2      4417      4482      4415      4414
 -1     29529    3    0    1
 -2      5468      6356      6354      8231
 -1     29530    3    0    1
 -2      6831      6830      6832      6891
 -1     29531    3    0    1
 -2      5563      4494      5546      5274
 -1     29532    3    0    1
 -2      3087      3611      3680      4200
 -1     29533    3    0    1
 -2      6244      5825      5823      8158
 -1     29534    3    0    1
 -2      4583      4835      3040      4584
 -1     29535    3    0    1
 -2      9640      9617      9591      9590
 -1     29536    3    0    1
 -2      1822       637      3615      1901
 -1     29537    3    0    1
 -2      3910      2759      2785      3315
 -1     29538    3    0    1
 -2      5444      4693      5223      5433
 -1     29539    3    0    1
 -2      3969      2803      3396      1676
 -1     29540    3    0    1
 -2      3674      2432      1181      1885
 -1     29541    3    0    1
 -2      2360      3470      2361      1729
 -1     29542    3    0    1
 -2      2635      2647      3764      2646
 -1     29543    3    0    1
 -2      4801      4083      4445      4032
 -1     29544    3    0    1
 -2      2048      3204      1290      1291
 -1     29545    3    0    1
 -2      1470      2193       872      2687
 -1     29546    3    0    1
 -2      7107      7106      5758      7012
 -1     29547    3    0    1
 -2      7396      7382      6549      8320
 -1     29548    3    0    1
 -2      2422      1898      3612      1211
 -1     29549    3    0    1
 -2      3206      3180      3246      2138
 -1     29550    3    0    1
 -2      1748      4002      2395      2373
 -1     29551    3    0    1
 -2      1811      1186       624      3564
 -1     29552    3    0    1
 -2      8997      8140      8141      8636
 -1     29553    3    0    1
 -2      7936      9192      9167      6731
 -1     29554    3    0    1
 -2      6253      5391      5392      5236
 -1     29555    3    0    1
 -2      6597      5515      5533      5576
 -1     29556    3    0    1
 -2      2629      1367      2069      3740
 -1     29557    3    0    1
 -2      1093       589      1132      1694
 -1     29558    3    0    1
 -2      9662      9531      9645      9292
 -1     29559    3    0    1
 -2      6280      6186      5842      6187
 -1     29560    3    0    1
 -2      6004      5605      5681      6702
 -1     29561    3    0    1
 -2      4353      4743      4395      5213
 -1     29562    3    0    1
 -2      4478      3454      4037      4449
 -1     29563    3    0    1
 -2      2403      1731      1097      2404
 -1     29564    3    0    1
 -2      6984      6949      6107      7642
 -1     29565    3    0    1
 -2      1626      1627      2297      2849
 -1     29566    3    0    1
 -2      4778      5513      4779      4457
 -1     29567    3    0    1
 -2      2666      3200      3747      3807
 -1     29568    3    0    1
 -2      3347      4366      3895      4392
 -1     29569    3    0    1
 -2      8141      8190      6252      7147
 -1     29570    3    0    1
 -2      1045      1001      1000      1673
 -1     29571    3    0    1
 -2      2440      4156      2506      1899
 -1     29572    3    0    1
 -2      8018      7014      6097      6922
 -1     29573    3    0    1
 -2      2719      2804      2259      1511
 -1     29574    3    0    1
 -2      6358      6357      6314      8239
 -1     29575    3    0    1
 -2       589      1093      1060      1694
 -1     29576    3    0    1
 -2      5761      7084      7108      5777
 -1     29577    3    0    1
 -2      1492      3336       885      1521
 -1     29578    3    0    1
 -2      2967      4099      2458      3563
 -1     29579    3    0    1
 -2      6386      5489      6385      7845
 -1     29580    3    0    1
 -2      1863      1862      1144      2473
 -1     29581    3    0    1
 -2      5829      6214      6288      5830
 -1     29582    3    0    1
 -2      8793      7978      8417      9198
 -1     29583    3    0    1
 -2      6358      6408      8239      7827
 -1     29584    3    0    1
 -2      5283      5284      5262      4503
 -1     29585    3    0    1
 -2       574       530       190      1026
 -1     29586    3    0    1
 -2      8526      9512      7673      8883
 -1     29587    3    0    1
 -2      1694      1581      3412      1693
 -1     29588    3    0    1
 -2      3748      4637      4909      3764
 -1     29589    3    0    1
 -2      6179      6233      6278      6234
 -1     29590    3    0    1
 -2      1451       395        15      1450
 -1     29591    3    0    1
 -2      8614      6195      6194      7733
 -1     29592    3    0    1
 -2      3499      3497      3498      4082
 -1     29593    3    0    1
 -2      6164      9046      9032      7170
 -1     29594    3    0    1
 -2      5925      7309      7379      5927
 -1     29595    3    0    1
 -2      6931      6079      6080      6078
 -1     29596    3    0    1
 -2      1503      1515      2224      3293
 -1     29597    3    0    1
 -2      6877      8435      8001      6847
 -1     29598    3    0    1
 -2      7775      9340      9052      9672
 -1     29599    3    0    1
 -2      4440      4485      4486      3479
 -1     29600    3    0    1
 -2      3116      3154      2002      1986
 -1     29601    3    0    1
 -2      4661      4907      3743      4677
 -1     29602    3    0    1
 -2      5913      6512      6595      6612
 -1     29603    3    0    1
 -2      7836      6367      6327      7263
 -1     29604    3    0    1
 -2      7464      7440      8393      6738
 -1     29605    3    0    1
 -2      4675      4284      4904      4930
 -1     29606    3    0    1
 -2       765       357       756       390
 -1     29607    3    0    1
 -2      1990      2515      3034      1941
 -1     29608    3    0    1
 -2      3814      3227      2656      3160
 -1     29609    3    0    1
 -2      1129      1032       535      2948
 -1     29610    3    0    1
 -2      8663      6212      8219      5862
 -1     29611    3    0    1
 -2      1202       684      1267      1919
 -1     29612    3    0    1
 -2      9155      9431      9180      9139
 -1     29613    3    0    1
 -2      5612      5613      5611      5665
 -1     29614    3    0    1
 -2      8917      8535      9267      8918
 -1     29615    3    0    1
 -2      1786       510      1056      1796
 -1     29616    3    0    1
 -2      6568      5946      8324      5910
 -1     29617    3    0    1
 -2      9654      9650      9539      8980
 -1     29618    3    0    1
 -2      5469      8664      6212      7171
 -1     29619    3    0    1
 -2      6627      8774      9178      8809
 -1     29620    3    0    1
 -2      5110      5607      4835      5134
 -1     29621    3    0    1
 -2      8661      7242      6348      7246
 -1     29622    3    0    1
 -2      1054      2953      2952      2917
 -1     29623    3    0    1
 -2      9155      8387      7938      8813
 -1     29624    3    0    1
 -2      5707      7011      6120      5729
 -1     29625    3    0    1
 -2      8737      7378      8738      6544
 -1     29626    3    0    1
 -2      3238      3724      3780      9668
 -1     29627    3    0    1
 -2      4058      3447      2353      2930
 -1     29628    3    0    1
 -2      6001      6764      7473      8377
 -1     29629    3    0    1
 -2      5434      5224      5417      5850
 -1     29630    3    0    1
 -2      6838      6787      6788      6836
 -1     29631    3    0    1
 -2      6114      7652      8929      8908
 -1     29632    3    0    1
 -2      7522      8419      8822      7487
 -1     29633    3    0    1
 -2      2343      1081      3454      1687
 -1     29634    3    0    1
 -2      3154      3116      3750      1986
 -1     29635    3    0    1
 -2      2556      3125      2041      1280
 -1     29636    3    0    1
 -2        61       810       413       438
 -1     29637    3    0    1
 -2      4839      3578      4840      4169
 -1     29638    3    0    1
 -2      2267      2721      1559      3899
 -1     29639    3    0    1
 -2      8596      9028      7757      9349
 -1     29640    3    0    1
 -2      9034      8649      6242      9048
 -1     29641    3    0    1
 -2      5545      6589      6503      5563
 -1     29642    3    0    1
 -2      1698      1735      2331      3417
 -1     29643    3    0    1
 -2       970       912      3381      2768
 -1     29644    3    0    1
 -2      2528      4225      1346      1968
 -1     29645    3    0    1
 -2       920       870      2713      1575
 -1     29646    3    0    1
 -2      3041      3042      1206      1891
 -1     29647    3    0    1
 -2      1763      1778      4057      1764
 -1     29648    3    0    1
 -2      2017      3682      3727      1972
 -1     29649    3    0    1
 -2       445       925       849       444
 -1     29650    3    0    1
 -2      6061      8065      8037      9257
 -1     29651    3    0    1
 -2      7042      8911      8484      6942
 -1     29652    3    0    1
 -2      6332      6330      5854      8172
 -1     29653    3    0    1
 -2      8637      9323      7743      9025
 -1     29654    3    0    1
 -2      1734      1733      4023      2362
 -1     29655    3    0    1
 -2      5255      5537      5517      5482
 -1     29656    3    0    1
 -2      7038      6998      7611      7077
 -1     29657    3    0    1
 -2      7878      8304      6485      8749
 -1     29658    3    0    1
 -2      7025      6060      5688      5765
 -1     29659    3    0    1
 -2      3232      3835      3754      3708
 -1     29660    3    0    1
 -2      4010      3446      2882      3532
 -1     29661    3    0    1
 -2      7029      6953      6955      8469
 -1     29662    3    0    1
 -2      7278      7871      6430      5899
 -1     29663    3    0    1
 -2      6742      8820      7986      7482
 -1     29664    3    0    1
 -2      5718      5181      5163      5198
 -1     29665    3    0    1
 -2      8357      5970      9150      7944
 -1     29666    3    0    1
 -2      7380      8739      7342      6474
 -1     29667    3    0    1
 -2      3402      3462      2880      1655
 -1     29668    3    0    1
 -2      8866      9250      9497      8050
 -1     29669    3    0    1
 -2       791      2152       797      2611
 -1     29670    3    0    1
 -2      2077      4225      1999      1346
 -1     29671    3    0    1
 -2      6073      9269      8083      8082
 -1     29672    3    0    1
 -2      7012      6120      5758      5729
 -1     29673    3    0    1
 -2      4340      2697      3346      4339
 -1     29674    3    0    1
 -2      1567      1645       937      3357
 -1     29675    3    0    1
 -2      3942      2784      1604      1629
 -1     29676    3    0    1
 -2      1402      2096      2043      2044
 -1     29677    3    0    1
 -2      2937      1119      1735      3472
 -1     29678    3    0    1
 -2      2320      3966      1642      2815
 -1     29679    3    0    1
 -2      2308      3985      3963      1635
 -1     29680    3    0    1
 -2      6221      5398      7778      7748
 -1     29681    3    0    1
 -2       217      1142       596      1055
 -1     29682    3    0    1
 -2      1786      3487      1056      2339
 -1     29683    3    0    1
 -2      3148      4238      3822      3805
 -1     29684    3    0    1
 -2      7329      6564      6562      7894
 -1     29685    3    0    1
 -2      7528      8828      8807      6003
 -1     29686    3    0    1
 -2      4836      5665      5613      5114
 -1     29687    3    0    1
 -2      4136      1835      2966      2425
 -1     29688    3    0    1
 -2      2421      2987      4154      3611
 -1     29689    3    0    1
 -2      4980      4696      5210      4979
 -1     29690    3    0    1
 -2      1082       581       579      1712
 -1     29691    3    0    1
 -2      4741      4975      4974      5411
 -1     29692    3    0    1
 -2      6599      6619      7357      6490
 -1     29693    3    0    1
 -2      2749      1540      3278      1483
 -1     29694    3    0    1
 -2      5720      6904      8033      6922
 -1     29695    3    0    1
 -2      3835      4265      4928      4918
 -1     29696    3    0    1
 -2      1857      1823      1858      2423
 -1     29697    3    0    1
 -2      4105      4104      4173      3057
 -1     29698    3    0    1
 -2      7539      8448      7599      6899
 -1     29699    3    0    1
 -2      1255      3038       664      1887
 -1     29700    3    0    1
 -2      7646      6109      7588      6077
 -1     29701    3    0    1
 -2      5422      5454      5390      4708
 -1     29702    3    0    1
 -2      6245      6200      7190      8159
 -1     29703    3    0    1
 -2      8390      8788      8338      6710
 -1     29704    3    0    1
 -2      1735       591      2937      3473
 -1     29705    3    0    1
 -2      9068      7770      7796      9039
 -1     29706    3    0    1
 -2      4722      5461      5475      4752
 -1     29707    3    0    1
 -2      5510      5039      5267      5899
 -1     29708    3    0    1
 -2      3933      2272      3304      2227
 -1     29709    3    0    1
 -2      1913      1193       653      1223
 -1     29710    3    0    1
 -2      8845      5660      8404      6687
 -1     29711    3    0    1
 -2      1946      3117      3103      1988
 -1     29712    3    0    1
 -2      8405      6787      5675      6788
 -1     29713    3    0    1
 -2      4501      3449      3469      2888
 -1     29714    3    0    1
 -2      7840      9096      8686      8676
 -1     29715    3    0    1
 -2      5055      5245      5538      5043
 -1     29716    3    0    1
 -2      4455      4793      5038      4005
 -1     29717    3    0    1
 -2      3746      4273      3787      4296
 -1     29718    3    0    1
 -2      3307      2779       922      1576
 -1     29719    3    0    1
 -2      3301      2218      2817      1571
 -1     29720    3    0    1
 -2      2532      3116      2002      1986
 -1     29721    3    0    1
 -2      1976      1284      3716      2019
 -1     29722    3    0    1
 -2      1279      1280      2041      3760
 -1     29723    3    0    1
 -2      5605      5984      6004      5294
 -1     29724    3    0    1
 -2      3541      1770      1077      1743
 -1     29725    3    0    1
 -2      5213      4702      4743      5212
 -1     29726    3    0    1
 -2      3227      2656      1427      3814
 -1     29727    3    0    1
 -2      1901      1986      1987      1265
 -1     29728    3    0    1
 -2      6483      8747      7399      7398
 -1     29729    3    0    1
 -2      8469      6953      6955      7606
 -1     29730    3    0    1
 -2      1738      1073      1071      3477
 -1     29731    3    0    1
 -2        93       112       492      1539
 -1     29732    3    0    1
 -2      6275      7192      6142      5844
 -1     29733    3    0    1
 -2      2153      1446       285      9668
 -1     29734    3    0    1
 -2      5003      4704      4705      5452
 -1     29735    3    0    1
 -2      1415      1434      2116       757
 -1     29736    3    0    1
 -2      8633      8149      6201      7761
 -1     29737    3    0    1
 -2      3865      3317      2709      2683
 -1     29738    3    0    1
 -2      8737      7308      9126      5924
 -1     29739    3    0    1
 -2      3283      2260      3350      2261
 -1     29740    3    0    1
 -2      1127      1053       578      1052
 -1     29741    3    0    1
 -2      2103      2094      2578      3816
 -1     29742    3    0    1
 -2      1706      2311      1648       990
 -1     29743    3    0    1
 -2       782      3789      2648      2125
 -1     29744    3    0    1
 -2      4529      3553      2972      4531
 -1     29745    3    0    1
 -2      5820      7138      6283      8157
 -1     29746    3    0    1
 -2      2531      2551      4203      1984
 -1     29747    3    0    1
 -2       649       611      1180      1812
 -1     29748    3    0    1
 -2      5458      6327      6326      7226
 -1     29749    3    0    1
 -2      1517      2269      1562      2217
 -1     29750    3    0    1
 -2      5445      5210      4951      4979
 -1     29751    3    0    1
 -2      2953      1805      1054      2952
 -1     29752    3    0    1
 -2      8609      7717      8642      9043
 -1     29753    3    0    1
 -2      3005      3048      3645      3021
 -1     29754    3    0    1
 -2      2610      1294       697      3184
 -1     29755    3    0    1
 -2      6555      6450      6485      6451
 -1     29756    3    0    1
 -2      6627      9113      6609      6608
 -1     29757    3    0    1
 -2       136       518       509      9675
 -1     29758    3    0    1
 -2      9239      8962      8961      7105
 -1     29759    3    0    1
 -2      2788       434      1560      3377
 -1     29760    3    0    1
 -2      1128      1793      2897      1712
 -1     29761    3    0    1
 -2      1726      1766      4017      2354
 -1     29762    3    0    1
 -2      6161      8168      6292      5442
 -1     29763    3    0    1
 -2      5298      5614      5308      4837
 -1     29764    3    0    1
 -2      3046      1235       638      3017
 -1     29765    3    0    1
 -2      6106      8923      8878      6097
 -1     29766    3    0    1
 -2      4105      4173      4104      4826
 -1     29767    3    0    1
 -2      4119      5080      4099      3661
 -1     29768    3    0    1
 -2      2374      3544      2375      1749
 -1     29769    3    0    1
 -2      8475      8904      7065      7608
 -1     29770    3    0    1
 -2      4228      1993      3089      4205
 -1     29771    3    0    1
 -2      7293      6395      5501      6431
 -1     29772    3    0    1
 -2      5769      5695      6995      5746
 -1     29773    3    0    1
 -2      9641      9592      9593      9674
 -1     29774    3    0    1
 -2      2889      2920       146      3497
 -1     29775    3    0    1
 -2      8408      8829      7504      5676
 -1     29776    3    0    1
 -2      7922      8363      6659      7465
 -1     29777    3    0    1
 -2      1932      3112      3093      4208
 -1     29778    3    0    1
 -2      3432      1624      1625      1676
 -1     29779    3    0    1
 -2      5845      6253      6172      5392
 -1     29780    3    0    1
 -2      8736      7917      7377      7848
 -1     29781    3    0    1
 -2      6195      6194      5820      6282
 -1     29782    3    0    1
 -2      4137      5120      4171      5119
 -1     29783    3    0    1
 -2      8674      8261      8244      6435
 -1     29784    3    0    1
 -2      7944      8783      7424      8335
 -1     29785    3    0    1
 -2      2628      2064      2065      2581
 -1     29786    3    0    1
 -2      2941      3452      3496      4091
 -1     29787    3    0    1
 -2      1142       673      3657      2996
 -1     29788    3    0    1
 -2      1317       711      3171      1319
 -1     29789    3    0    1
 -2      8261      7281      8244      6435
 -1     29790    3    0    1
 -2      5733      5156      4916      5193
 -1     29791    3    0    1
 -2      6848      6849      7554      6851
 -1     29792    3    0    1
 -2      9154      8811      7901      6649
 -1     29793    3    0    1
 -2      8065      6061      7088      9257
 -1     29794    3    0    1
 -2      6893      6836      6838      6837
 -1     29795    3    0    1
 -2      3865      4712      4336      4358
 -1     29796    3    0    1
 -2      3138      4604      4605      4603
 -1     29797    3    0    1
 -2      1846      2466      1176      2420
 -1     29798    3    0    1
 -2      4934      5173      5710      6058
 -1     29799    3    0    1
 -2      4614      4613      4292      3775
 -1     29800    3    0    1
 -2      5951      7939      7408      6613
 -1     29801    3    0    1
 -2      6070      6897      8046      6069
 -1     29802    3    0    1
 -2      3858       824      3269      2703
 -1     29803    3    0    1
 -2      4944      5442      4347      5407
 -1     29804    3    0    1
 -2      3170      3171      1317      1344
 -1     29805    3    0    1
 -2      3568      3630      3029      4162
 -1     29806    3    0    1
 -2      3612      2439      2422      1211
 -1     29807    3    0    1
 -2      7192      7776      6318      5454
 -1     29808    3    0    1
 -2      7029      7061      6953      8067
 -1     29809    3    0    1
 -2      7971      6012      6648      7427
 -1     29810    3    0    1
 -2      3022      1134      2964      3021
 -1     29811    3    0    1
 -2      8258      8250      8709      7275
 -1     29812    3    0    1
 -2      5745      6099      6064      6112
 -1     29813    3    0    1
 -2      4772      4771      4495      4437
 -1     29814    3    0    1
 -2      2634      4277      3174      1380
 -1     29815    3    0    1
 -2      5816      5815      5806      6131
 -1     29816    3    0    1
 -2       962       905      2761      1606
 -1     29817    3    0    1
 -2      5786      5787      4694      5374
 -1     29818    3    0    1
 -2      7905      6553      5953      7874
 -1     29819    3    0    1
 -2      1660      1626      2297      2849
 -1     29820    3    0    1
 -2      9087      7880      7338      9373
 -1     29821    3    0    1
 -2      8451      8889      8498      8051
 -1     29822    3    0    1
 -2      7107      5758      7663      7012
 -1     29823    3    0    1
 -2      7429      9115      9407      5950
 -1     29824    3    0    1
 -2      1658      1639      2812      2766
 -1     29825    3    0    1
 -2       259       664       258      2465
 -1     29826    3    0    1
 -2      7802      5462      6372      7231
 -1     29827    3    0    1
 -2      5200      5702      5199      5328
 -1     29828    3    0    1
 -2      3053      1185      2478      3626
 -1     29829    3    0    1
 -2      4097      3624      3000      3020
 -1     29830    3    0    1
 -2      3382      1643      2309      2816
 -1     29831    3    0    1
 -2      1554      3922      3898      3316
 -1     29832    3    0    1
 -2       898      1500      2257      1510
 -1     29833    3    0    1
 -2      5000      4724      5476      4723
 -1     29834    3    0    1
 -2      2719      2804      3279      2259
 -1     29835    3    0    1
 -2      3415      1628      2341      3433
 -1     29836    3    0    1
 -2      3344      4390      4742      2748
 -1     29837    3    0    1
 -2      2132      1368      2629      3235
 -1     29838    3    0    1
 -2      7969      5968      5658      8800
 -1     29839    3    0    1
 -2      5782      6161      6123      5367
 -1     29840    3    0    1
 -2      7308      8249      7274      5495
 -1     29841    3    0    1
 -2      3396      2803      2751      1603
 -1     29842    3    0    1
 -2      1560      2288      1637      3376
 -1     29843    3    0    1
 -2      3663      1995      1954      2538
 -1     29844    3    0    1
 -2      4084      2983      2912      3504
 -1     29845    3    0    1
 -2      6751      6648      6608      9673
 -1     29846    3    0    1
 -2      2034      3702      3746      3172
 -1     29847    3    0    1
 -2      4527      4861      4161      5091
 -1     29848    3    0    1
 -2      5219      5457      5220      5398
 -1     29849    3    0    1
 -2      2270       866      1517       882
 -1     29850    3    0    1
 -2      6239      7160      5444      5433
 -1     29851    3    0    1
 -2      2704      3860      2787      3878
 -1     29852    3    0    1
 -2      2623      1375      2079      2123
 -1     29853    3    0    1
 -2      4438      4800      4028      4027
 -1     29854    3    0    1
 -2      5000      5431      4724      4725
 -1     29855    3    0    1
 -2      5240      5394      5469      4992
 -1     29856    3    0    1
 -2      6123      7178      6161      5782
 -1     29857    3    0    1
 -2      8134      9315      9017      8168
 -1     29858    3    0    1
 -2      1441       746       745      1430
 -1     29859    3    0    1
 -2      8299      6395      6431      7264
 -1     29860    3    0    1
 -2      1760      1761      1091      3485
 -1     29861    3    0    1
 -2      5697      4937      4660      4615
 -1     29862    3    0    1
 -2      7450      7982      7926      8780
 -1     29863    3    0    1
 -2      2347      2903      2328      4049
 -1     29864    3    0    1
 -2      3289      2762      3288      2198
 -1     29865    3    0    1
 -2      7381      7345      6578      8745
 -1     29866    3    0    1
 -2      7686      7637      6111      8103
 -1     29867    3    0    1
 -2      6350      5888      7303      7271
 -1     29868    3    0    1
 -2      2330      1064      3413      1671
 -1     29869    3    0    1
 -2      5804      5404      5403      6160
 -1     29870    3    0    1
 -2      3451      1731      2403      2404
 -1     29871    3    0    1
 -2      3468      3490      1134      2965
 -1     29872    3    0    1
 -2      7080      8098      7045      8553
 -1     29873    3    0    1
 -2      5204      4605      4672      5192
 -1     29874    3    0    1
 -2      6401      6402      5486      7826
 -1     29875    3    0    1
 -2      4940      4927      4602      5153
 -1     29876    3    0    1
 -2      6069      6070      7101      7638
 -1     29877    3    0    1
 -2      1328       293       720      1329
 -1     29878    3    0    1
 -2      8856      8018      9227      8878
 -1     29879    3    0    1
 -2      5310      5674      5661      5596
 -1     29880    3    0    1
 -2      2719      2259      3279      3280
 -1     29881    3    0    1
 -2      9053      9069      8191      8171
 -1     29882    3    0    1
 -2      5077      5558      5538      5055
 -1     29883    3    0    1
 -2       891      1532      1498      2253
 -1     29884    3    0    1
 -2      2955      1108      1142      3486
 -1     29885    3    0    1
 -2      4313      4935      4934      3810
 -1     29886    3    0    1
 -2      1405      2607      2111      2606
 -1     29887    3    0    1
 -2      5506      5273      5544      5049
 -1     29888    3    0    1
 -2       658       657      1139      1169
 -1     29889    3    0    1
 -2      5937      5555      5575      6521
 -1     29890    3    0    1
 -2      9271      8888      7634      7622
 -1     29891    3    0    1
 -2      4775      5035      5069      4791
 -1     29892    3    0    1
 -2      6280      6187      8156      7208
 -1     29893    3    0    1
 -2      3376      1637      1636      3399
 -1     29894    3    0    1
 -2      6097      6981      7666      8059
 -1     29895    3    0    1
 -2      3331      2240      2682      2163
 -1     29896    3    0    1
 -2      7162      8177      8178      6281
 -1     29897    3    0    1
 -2      4333      3920      2756      2701
 -1     29898    3    0    1
 -2      7312      7354      5498      6511
 -1     29899    3    0    1
 -2      9029      8129      6152      7747
 -1     29900    3    0    1
 -2      5712      5157      4897      5354
 -1     29901    3    0    1
 -2      3478      1138      1098      2942
 -1     29902    3    0    1
 -2      4044      2916      2379      3528
 -1     29903    3    0    1
 -2      4805      3533      3489      4797
 -1     29904    3    0    1
 -2      4612      4613      4614      3775
 -1     29905    3    0    1
 -2      6973      8030      7632      6057
 -1     29906    3    0    1
 -2       609       637       636      1806
 -1     29907    3    0    1
 -2      5174      4888      4252      4889
 -1     29908    3    0    1
 -2      2528      4226      4225      1991
 -1     29909    3    0    1
 -2      1246      1933      2539      3055
 -1     29910    3    0    1
 -2      5447      4699      4969      5416
 -1     29911    3    0    1
 -2      7550      8445      5699      7576
 -1     29912    3    0    1
 -2       875      2720      2755      2195
 -1     29913    3    0    1
 -2      4771      3501      4025      4495
 -1     29914    3    0    1
 -2      6954      6989      7029      8068
 -1     29915    3    0    1
 -2      7201      8203      8204      7157
 -1     29916    3    0    1
 -2      6113      7649      6996      8508
 -1     29917    3    0    1
 -2      4833      4834      4166      4565
 -1     29918    3    0    1
 -2      4532      4173      4105      4826
 -1     29919    3    0    1
 -2      4705      4704      5420      5452
 -1     29920    3    0    1
 -2      5506      6352      6502      8679
 -1     29921    3    0    1
 -2       972      2290      1566      3382
 -1     29922    3    0    1
 -2      2645      1379      1380      2046
 -1     29923    3    0    1
 -2      9113      7310      8768      6609
 -1     29924    3    0    1
 -2      6891      5715      6913      8027
 -1     29925    3    0    1
 -2      7359      5918      5486      8705
 -1     29926    3    0    1
 -2      5223      5779      5373      5433
 -1     29927    3    0    1
 -2      2221      2220      3905      1505
 -1     29928    3    0    1
 -2      3735      3137      2535      3694
 -1     29929    3    0    1
 -2      4713      4957      4993      4399
 -1     29930    3    0    1
 -2      1278      1961      1280      3125
 -1     29931    3    0    1
 -2      3852      4366      4700      3853
 -1     29932    3    0    1
 -2      1029      1030      1052      1711
 -1     29933    3    0    1
 -2      5302      5658      4843      5644
 -1     29934    3    0    1
 -2      3707      3737      1994      3722
 -1     29935    3    0    1
 -2      3597      2978      3634      1880
 -1     29936    3    0    1
 -2      5003      6170      5452      5421
 -1     29937    3    0    1
 -2      2570      1377      3702      1972
 -1     29938    3    0    1
 -2      7917      7377      7848      6507
 -1     29939    3    0    1
 -2      8474      7031      7607      8473
 -1     29940    3    0    1
 -2      3958      3980      2297      2849
 -1     29941    3    0    1
 -2      3859      4397      3327      2761
 -1     29942    3    0    1
 -2      4094      4502      3424      2915
 -1     29943    3    0    1
 -2      2463      1150      3634      1841
 -1     29944    3    0    1
 -2      5113      5131      4833      4834
 -1     29945    3    0    1
 -2      4292      4613      4266      3775
 -1     29946    3    0    1
 -2      3637      3655      3609      4510
 -1     29947    3    0    1
 -2      1675      1005      1006      2862
 -1     29948    3    0    1
 -2      2827      3368      3387      4408
 -1     29949    3    0    1
 -2      7438      7995      6026      7481
 -1     29950    3    0    1
 -2      5058      4801      4445      4444
 -1     29951    3    0    1
 -2      4147      2447      2431      1842
 -1     29952    3    0    1
 -2      4485      4440      4029      3479
 -1     29953    3    0    1
 -2       390       756       765      2147
 -1     29954    3    0    1
 -2      8440      7587      7555      7533
 -1     29955    3    0    1
 -2      7340      8317      6471      6470
 -1     29956    3    0    1
 -2      3576      4509      4174      3606
 -1     29957    3    0    1
 -2      4287      3747      3210      2035
 -1     29958    3    0    1
 -2      5003      4397      4356      4705
 -1     29959    3    0    1
 -2      6640      5590      5589      5657
 -1     29960    3    0    1
 -2      2556      1961      1963      4209
 -1     29961    3    0    1
 -2      5799      5798      6152      7119
 -1     29962    3    0    1
 -2      2004      3705      3109      3134
 -1     29963    3    0    1
 -2      7450      8772      7926      7892
 -1     29964    3    0    1
 -2      6443      6466      8286      8287
 -1     29965    3    0    1
 -2      6963      7675      8072      8906
 -1     29966    3    0    1
 -2      2755      2720       875      1547
 -1     29967    3    0    1
 -2      5706      6074      5345      5361
 -1     29968    3    0    1
 -2      5564      5935      5909      5548
 -1     29969    3    0    1
 -2       505       498       969      2240
 -1     29970    3    0    1
 -2       355       354       356       388
 -1     29971    3    0    1
 -2       994      1056      2385      3443
 -1     29972    3    0    1
 -2       642      1863      1239      1216
 -1     29973    3    0    1
 -2      9537      9493      9659      8552
 -1     29974    3    0    1
 -2       959      2756      1604      2235
 -1     29975    3    0    1
 -2      8827      6826      7992      7526
 -1     29976    3    0    1
 -2       317      1279      2585      1278
 -1     29977    3    0    1
 -2      4153      4175      4585      4865
 -1     29978    3    0    1
 -2      7058      7072      7601      5338
 -1     29979    3    0    1
 -2      7441      7440      7464      6738
 -1     29980    3    0    1
 -2      7248      7274      8249      5495
 -1     29981    3    0    1
 -2      5355      4918      4928      4884
 -1     29982    3    0    1
 -2      3216      3232      1342      3755
 -1     29983    3    0    1
 -2      7866      8737      8738      6544
 -1     29984    3    0    1
 -2      1510      2257      1542      1500
 -1     29985    3    0    1
 -2      6639      5627      5995      5678
 -1     29986    3    0    1
 -2      6943      6088      6086      6087
 -1     29987    3    0    1
 -2      3481      1084      1752      2396
 -1     29988    3    0    1
 -2      6870      6041      8442      7574
 -1     29989    3    0    1
 -2      1721      2859      2390      1722
 -1     29990    3    0    1
 -2      6365      6277      7262      6364
 -1     29991    3    0    1
 -2      4696      4742      4951      4979
 -1     29992    3    0    1
 -2      2610      3221      3247      3184
 -1     29993    3    0    1
 -2      8295      8743      8318      7394
 -1     29994    3    0    1
 -2      8668      8163      9359      9043
 -1     29995    3    0    1
 -2      4299      3214      2109      2101
 -1     29996    3    0    1
 -2      3652      2984      4548      4564
 -1     29997    3    0    1
 -2       465       931       494      2753
 -1     29998    3    0    1
 -2      7666      6097      8059      8923
 -1     29999    3    0    1
 -2      1637      3973      3986      3399
 -1     30000    3    0    1
 -2      1396      1369      1395      3237
 -1     30001    3    0    1
 -2      1164      1189      2418      3589
 -1     30002    3    0    1
 -2      2542      3652      4220      1970
 -1     30003    3    0    1
 -2      8760      7876      8718      6488
 -1     30004    3    0    1
 -2      8197      9029      7173      7747
 -1     30005    3    0    1
 -2      4575      5079      4543      4118
 -1     30006    3    0    1
 -2      3254      4297      3172      3255
 -1     30007    3    0    1
 -2      7081      5776      7678      6090
 -1     30008    3    0    1
 -2      5415      6132      6165      5807
 -1     30009    3    0    1
 -2       909       827      2789      2767
 -1     30010    3    0    1
 -2       968       505       980       910
 -1     30011    3    0    1
 -2      3347      4366      3852      3853
 -1     30012    3    0    1
 -2      5261      5570      5914      4791
 -1     30013    3    0    1
 -2      8903      8526      7630      8883
 -1     30014    3    0    1
 -2      1879      1841      3596      2446
 -1     30015    3    0    1
 -2       978       921      2778      2775
 -1     30016    3    0    1
 -2      9411      7316      7397      9393
 -1     30017    3    0    1
 -2      6878      6800      8412      7509
 -1     30018    3    0    1
 -2      6862      8430      7482      6806
 -1     30019    3    0    1
 -2      2319      3974      1663      1658
 -1     30020    3    0    1
 -2      8281      5891      7351      8282
 -1     30021    3    0    1
 -2      7553      7994      8830      6794
 -1     30022    3    0    1
 -2      7424      6643      6727      7460
 -1     30023    3    0    1
 -2      3805      4246      3804      2624
 -1     30024    3    0    1
 -2      1560       434       965      3377
 -1     30025    3    0    1
 -2      8754      8720      7885      6489
 -1     30026    3    0    1
 -2      7541      9160      8361      5957
 -1     30027    3    0    1
 -2      9269      6073      8511      8082
 -1     30028    3    0    1
 -2      1643      2321      1664      2290
 -1     30029    3    0    1
 -2      1364      2105      3216      3755
 -1     30030    3    0    1
 -2      7271      7303      6350      7257
 -1     30031    3    0    1
 -2      7422      8781      8333      8372
 -1     30032    3    0    1
 -2      5447      5377      4699      5416
 -1     30033    3    0    1
 -2      3743      4628      4627      4677
 -1     30034    3    0    1
 -2      7449      7926      8797      8332
 -1     30035    3    0    1
 -2      2249      1497       850      2206
 -1     30036    3    0    1
 -2      2689      2688      1530      3320
 -1     30037    3    0    1
 -2      2654      1412      1339      3225
 -1     30038    3    0    1
 -2      9361      9369      8688      8307
 -1     30039    3    0    1
 -2      3030      2485      2970      4120
 -1     30040    3    0    1
 -2      4076      3447      2860      4471
 -1     30041    3    0    1
 -2      6568      8288      6540      5910
 -1     30042    3    0    1
 -2      7131      7760      6164      6189
 -1     30043    3    0    1
 -2      5434      5224      4984      5417
 -1     30044    3    0    1
 -2      3209      2154      2155      2614
 -1     30045    3    0    1
 -2      4434      4435      4484      4808
 -1     30046    3    0    1
 -2      5137      5667      5136      4838
 -1     30047    3    0    1
 -2      3864      3880      3331      3298
 -1     30048    3    0    1
 -2      7763      7746      6149      6213
 -1     30049    3    0    1
 -2      1477       434      1560      2707
 -1     30050    3    0    1
 -2      2957      3580      1155      3581
 -1     30051    3    0    1
 -2      7179      7180      8603      6162
 -1     30052    3    0    1
 -2      4700      4366      3852      4699
 -1     30053    3    0    1
 -2      7912      7913      9401      8727
 -1     30054    3    0    1
 -2      5271      5918      5521      5559
 -1     30055    3    0    1
 -2      9493      8057      9245      7100
 -1     30056    3    0    1
 -2      2886      2859      1720      1722
 -1     30057    3    0    1
 -2      6519      7397      7396      8764
 -1     30058    3    0    1
 -2       849      3310      2715      2716
 -1     30059    3    0    1
 -2      8753      8700      8716      5939
 -1     30060    3    0    1
 -2      2205      2249      1497      1529
 -1     30061    3    0    1
 -2      7175      7176      7799      9073
 -1     30062    3    0    1
 -2      3182      3830      2673      1350
 -1     30063    3    0    1
 -2      2255      3891      1509      2223
 -1     30064    3    0    1
 -2      3356      1611       972      2816
 -1     30065    3    0    1
 -2      3665      1221      1189      3664
 -1     30066    3    0    1
 -2      8217      6315      5452      8170
 -1     30067    3    0    1
 -2      2001      2000      1974      2543
 -1     30068    3    0    1
 -2      5785      5839      6238      5232
 -1     30069    3    0    1
 -2      6983      8503      7056      6980
 -1     30070    3    0    1
 -2      9228      7605      9208      9241
 -1     30071    3    0    1
 -2      4338      3335      3362      3871
 -1     30072    3    0    1
 -2      5325      5668      5638      4870
 -1     30073    3    0    1
 -2      9208      7605      8037      9241
 -1     30074    3    0    1
 -2      8749      7401      7878      8758
 -1     30075    3    0    1
 -2      4370      3923      4986      4707
 -1     30076    3    0    1
 -2      5326      5692      6062      5767
 -1     30077    3    0    1
 -2      8037      7558      7590      8000
 -1     30078    3    0    1
 -2      7116      5381      6134      5450
 -1     30079    3    0    1
 -2      1292      2002      2038      2552
 -1     30080    3    0    1
 -2      1717      1062      3467      1779
 -1     30081    3    0    1
 -2      7939      6014      5683      6754
 -1     30082    3    0    1
 -2      4773      5067      5028      4801
 -1     30083    3    0    1
 -2      7675      6963      8478      8906
 -1     30084    3    0    1
 -2       883       479      1478      2202
 -1     30085    3    0    1
 -2      1642       970      1610      1686
 -1     30086    3    0    1
 -2      2982      3062      4507      4508
 -1     30087    3    0    1
 -2      8422      6824      7983      7997
 -1     30088    3    0    1
 -2      6713      7946      7520      6018
 -1     30089    3    0    1
 -2      7468      5992      6674      6761
 -1     30090    3    0    1
 -2      4164      4844      5081      4559
 -1     30091    3    0    1
 -2      6788      7550      6838      6837
 -1     30092    3    0    1
 -2      4497      4478      4037      4449
 -1     30093    3    0    1
 -2      6174      5458      6222      7225
 -1     30094    3    0    1
 -2      2278       947      1531      2744
 -1     30095    3    0    1
 -2      6444      8287      6445      6505
 -1     30096    3    0    1
 -2      4058      4076      2931      2930
 -1     30097    3    0    1
 -2      5731      4934      5710      5762
 -1     30098    3    0    1
 -2      3734      2545      1269      4217
 -1     30099    3    0    1
 -2      3970      1628      3415      3433
 -1     30100    3    0    1
 -2      6346      8212      8661      7246
 -1     30101    3    0    1
 -2      2886      1064      2402      1720
 -1     30102    3    0    1
 -2      2286      3388      2760      1632
 -1     30103    3    0    1
 -2      7479      8810      7456      6702
 -1     30104    3    0    1
 -2      4692      4726      4387      4975
 -1     30105    3    0    1
 -2      2039      3118      3751      2023
 -1     30106    3    0    1
 -2      1765      1797      4013      1724
 -1     30107    3    0    1
 -2      7173      6152      6258      7747
 -1     30108    3    0    1
 -2      4495      3539      3501      4025
 -1     30109    3    0    1
 -2       234       206       235      1784
 -1     30110    3    0    1
 -2      2872      1078      1663      2335
 -1     30111    3    0    1
 -2      4505      4106      3620      3554
 -1     30112    3    0    1
 -2      9344      9300      8585      8127
 -1     30113    3    0    1
 -2      6142      5422      6275      5844
 -1     30114    3    0    1
 -2      6736      7436      8350      7435
 -1     30115    3    0    1
 -2      7326      8723      7890      7368
 -1     30116    3    0    1
 -2      2508      3102      4202      2531
 -1     30117    3    0    1
 -2      8360      7941      9159      9441
 -1     30118    3    0    1
 -2      8272      8720      8754      6489
 -1     30119    3    0    1
 -2      9313      8584      8990      8124
 -1     30120    3    0    1
 -2      1144      1824      3644      2473
 -1     30121    3    0    1
 -2       624      1161      1186      1811
 -1     30122    3    0    1
 -2      2613      3794      2617      3721
 -1     30123    3    0    1
 -2      3585      1860      2457      3047
 -1     30124    3    0    1
 -2      5986      9158      8392      7975
 -1     30125    3    0    1
 -2      8774      7945      8808      7427
 -1     30126    3    0    1
 -2      8541      7666      8936      6106
 -1     30127    3    0    1
 -2      7605      8002      8023      9228
 -1     30128    3    0    1
 -2      5849      7729      7128      7181
 -1     30129    3    0    1
 -2      7401      7878      6523      8749
 -1     30130    3    0    1
 -2      2581      2064      2065      2580
 -1     30131    3    0    1
 -2      7216      7821      7776      6317
 -1     30132    3    0    1
 -2      2953      2917      4055      4095
 -1     30133    3    0    1
 -2      8511      7047      7659      6091
 -1     30134    3    0    1
 -2      5995      7451      6585      6639
 -1     30135    3    0    1
 -2      7981      6672      6673      7925
 -1     30136    3    0    1
 -2      1345      2077       713      1346
 -1     30137    3    0    1
 -2      5233      5380      5242      5843
 -1     30138    3    0    1
 -2      9626      6599      9134      9183
 -1     30139    3    0    1
 -2      1982      2544      2504      1944
 -1     30140    3    0    1
 -2      7622      7012      5707      5729
 -1     30141    3    0    1
 -2      2191      2246       400      1468
 -1     30142    3    0    1
 -2      7624      6979      7665      6945
 -1     30143    3    0    1
 -2      6070      5702      5773      5200
 -1     30144    3    0    1
 -2      1328       720      3130      1329
 -1     30145    3    0    1
 -2      8743      6514      6515      7394
 -1     30146    3    0    1
 -2      7069      7009      8917      7008
 -1     30147    3    0    1
 -2      7988      5655      8796      6672
 -1     30148    3    0    1
 -2      6675      6721      5992      8332
 -1     30149    3    0    1
 -2      4228      3119      1993      4205
 -1     30150    3    0    1
 -2      9530      9662      9645      9292
 -1     30151    3    0    1
 -2      5667      5324      5136      5298
 -1     30152    3    0    1
 -2      4934      4924      6058      5762
 -1     30153    3    0    1
 -2       810        38        37      1464
 -1     30154    3    0    1
 -2      8967      9286      8542      7110
 -1     30155    3    0    1
 -2      2536      2008      3111      2537
 -1     30156    3    0    1
 -2      2036      1287      2047      1286
 -1     30157    3    0    1
 -2      5305      5663      5632      5602
 -1     30158    3    0    1
 -2      5363      5362      7013      5759
 -1     30159    3    0    1
 -2       583      1141       582       537
 -1     30160    3    0    1
 -2      4641      4688      4668      3789
 -1     30161    3    0    1
 -2      2917      1653      1038      1708
 -1     30162    3    0    1
 -2      5199      5773      5702      5200
 -1     30163    3    0    1
 -2      2042      1996      2029      3711
 -1     30164    3    0    1
 -2      6220      6221      5398      7778
 -1     30165    3    0    1
 -2      3131      3152      3202      2047
 -1     30166    3    0    1
 -2      5932      5903      6597      5576
 -1     30167    3    0    1
 -2      8228      7207      7238      5444
 -1     30168    3    0    1
 -2      7565      8408      6793      6792
 -1     30169    3    0    1
 -2      4397      4356      4398      5003
 -1     30170    3    0    1
 -2      1286      1287      3202      1288
 -1     30171    3    0    1
 -2      4662      4271      5205      4631
 -1     30172    3    0    1
 -2      8284      7846      7374      8285
 -1     30173    3    0    1
 -2      4295      3745      4271      4678
 -1     30174    3    0    1
 -2      3459      1036      1647      2854
 -1     30175    3    0    1
 -2      2287      1662      1634      2318
 -1     30176    3    0    1
 -2      8522      7670      8091      9241
 -1     30177    3    0    1
 -2      3243      3790      3204      1290
 -1     30178    3    0    1
 -2      2074      2615      2622      2592
 -1     30179    3    0    1
 -2       464       859      1484      1546
 -1     30180    3    0    1
 -2      3476      1069      1736      2363
 -1     30181    3    0    1
 -2      6245      6199      7142      8159
 -1     30182    3    0    1
 -2      6573      7407      6629      6611
 -1     30183    3    0    1
 -2      2284       957      3371      2297
 -1     30184    3    0    1
 -2      5543      5542      5258      5888
 -1     30185    3    0    1
 -2      7458      6735      8349      6706
 -1     30186    3    0    1
 -2      9147      6672      6622      8796
 -1     30187    3    0    1
 -2      2291      3391      3383      1612
 -1     30188    3    0    1
 -2      9544      8968      8545      9543
 -1     30189    3    0    1
 -2      3508      1131      2991      3559
 -1     30190    3    0    1
 -2      7856      9105      9075      7841
 -1     30191    3    0    1
 -2       693       772       738      3194
 -1     30192    3    0    1
 -2      3041      1259      1258      1976
 -1     30193    3    0    1
 -2      5588      4825      5590      5589
 -1     30194    3    0    1
 -2      6634      9141      9162      8362
 -1     30195    3    0    1
 -2      2107      1370      3761      3781
 -1     30196    3    0    1
 -2      3670      2540      2527      4194
 -1     30197    3    0    1
 -2      1586       931       874      1585
 -1     30198    3    0    1
 -2      3512      3443      2385      3530
 -1     30199    3    0    1
 -2      7275      5498      8258      7354
 -1     30200    3    0    1
 -2       536      1035      1036       537
 -1     30201    3    0    1
 -2       673      1142      3657      3617
 -1     30202    3    0    1
 -2      3066      4204      2532      1986
 -1     30203    3    0    1
 -2      1902      4178      4158      1855
 -1     30204    3    0    1
 -2      6955      6954      6953      7029
 -1     30205    3    0    1
 -2      4109      2451      2947      3557
 -1     30206    3    0    1
 -2      7814      5865      5864      7290
 -1     30207    3    0    1
 -2       865       910       866      1488
 -1     30208    3    0    1
 -2      4642      4644      4643      3790
 -1     30209    3    0    1
 -2      6164      9032      9003      6130
 -1     30210    3    0    1
 -2      7071      7661      6975      6976
 -1     30211    3    0    1
 -2      8767      6427      8290      6543
 -1     30212    3    0    1
 -2      7787      7154      7752      7153
 -1     30213    3    0    1
 -2      7218      5845      7219      6360
 -1     30214    3    0    1
 -2      1470       872       416      2687
 -1     30215    3    0    1
 -2      5832      7227      8199      8200
 -1     30216    3    0    1
 -2      3118      2533      3088      1988
 -1     30217    3    0    1
 -2      6569      6471      8317      6542
 -1     30218    3    0    1
 -2      5355      4918      4884      5695
 -1     30219    3    0    1
 -2      2533      1946      1988      1232
 -1     30220    3    0    1
 -2      5637      5957      5639      6654
 -1     30221    3    0    1
 -2      7192      7216      7776      5454
 -1     30222    3    0    1
 -2      1376      3199       716      1377
 -1     30223    3    0    1
 -2      1213       637      1178      1901
 -1     30224    3    0    1
 -2      7813      6212      8615      7194
 -1     30225    3    0    1
 -2      8023      7572      6988      8858
 -1     30226    3    0    1
 -2        57       102        26        27
 -1     30227    3    0    1
 -2      3939      3370      2802      3346
 -1     30228    3    0    1
 -2       989      2336      1644      1645
 -1     30229    3    0    1
 -2      2055      2617      3157      3721
 -1     30230    3    0    1
 -2      8064      8896      7026      8897
 -1     30231    3    0    1
 -2      5381      5212      5213      5792
 -1     30232    3    0    1
 -2      7842      7326      5906      7368
 -1     30233    3    0    1
 -2      2922      3557      2875      4054
 -1     30234    3    0    1
 -2      2702      2759       904      1551
 -1     30235    3    0    1
 -2      9265      8913      8912      7657
 -1     30236    3    0    1
 -2      5634      5682      5144      5317
 -1     30237    3    0    1
 -2      5529      5481      5007      5254
 -1     30238    3    0    1
 -2      6518      5510      5267      5899
 -1     30239    3    0    1
 -2      6176      7123      6265      7756
 -1     30240    3    0    1
 -2      7876      9079      8685      8675
 -1     30241    3    0    1
 -2      8833      8392      8842      7514
 -1     30242    3    0    1
 -2      9127      8739      7311      7342
 -1     30243    3    0    1
 -2      1579      2820      1577      1578
 -1     30244    3    0    1
 -2      1348      3718      1331      3205
 -1     30245    3    0    1
 -2      1675      2907      3492      1788
 -1     30246    3    0    1
 -2      4818      4523      4571      5116
 -1     30247    3    0    1
 -2      7420      7954      8799      9148
 -1     30248    3    0    1
 -2      6956      6957      6954      6989
 -1     30249    3    0    1
 -2      6741      7442      8394      6740
 -1     30250    3    0    1
 -2      6351      5872      6405      7304
 -1     30251    3    0    1
 -2      8785      8348      8337      7430
 -1     30252    3    0    1
 -2       517       134       515      2353
 -1     30253    3    0    1
 -2      1131       585      3508      2916
 -1     30254    3    0    1
 -2      1854      3611      2503      2438
 -1     30255    3    0    1
 -2      7066      6116      5726      7004
 -1     30256    3    0    1
 -2      3596      4145      3059      2446
 -1     30257    3    0    1
 -2      4052      4766      4424      3448
 -1     30258    3    0    1
 -2      2915      4094      2989      2951
 -1     30259    3    0    1
 -2      8910      8530      7655      8075
 -1     30260    3    0    1
 -2      3429      2296      3956      2305
 -1     30261    3    0    1
 -2      6198      6272      8632      7794
 -1     30262    3    0    1
 -2      7225      8641      7263      8673
 -1     30263    3    0    1
 -2      6401      6381      6402      7254
 -1     30264    3    0    1
 -2      6312      6272      5850      7794
 -1     30265    3    0    1
 -2      3915      3928      4723      3916
 -1     30266    3    0    1
 -2       211       243       180      9675
 -1     30267    3    0    1
 -2      1414      1307       736      3192
 -1     30268    3    0    1
 -2      1017      1019       528      2366
 -1     30269    3    0    1
 -2       537       583      1141      2950
 -1     30270    3    0    1
 -2      7384      7883      6453      7319
 -1     30271    3    0    1
 -2      3198       290      2558      1320
 -1     30272    3    0    1
 -2      8486      8045      7043      7597
 -1     30273    3    0    1
 -2      4038      2896      3543      1747
 -1     30274    3    0    1
 -2      5856      7215      7259      5855
 -1     30275    3    0    1
 -2      7651      6963      7610      8479
 -1     30276    3    0    1
 -2      2771      1594      3356      2741
 -1     30277    3    0    1
 -2      7540      8449      8030      6057
 -1     30278    3    0    1
 -2      7800      7175      7799      9073
 -1     30279    3    0    1
 -2      4198      3682      4212      3081
 -1     30280    3    0    1
 -2      6833      5674      6834      6835
 -1     30281    3    0    1
 -2      2687      3311      3318       813
 -1     30282    3    0    1
 -2      6063      6111      5744      5340
 -1     30283    3    0    1
 -2      6517      5510      6518      5899
 -1     30284    3    0    1
 -2      7825      9075      7856      6380
 -1     30285    3    0    1
 -2      3475      3496      4091      4431
 -1     30286    3    0    1
 -2      5205      4271      4662      4678
 -1     30287    3    0    1
 -2      4938      4626      3784      3820
 -1     30288    3    0    1
 -2      8643      7800      9346      9073
 -1     30289    3    0    1
 -2      2950      2949      1141      2854
 -1     30290    3    0    1
 -2      5259      5549      5024      5493
 -1     30291    3    0    1
 -2      8452      8033      7568      6904
 -1     30292    3    0    1
 -2      1582       455       890      2745
 -1     30293    3    0    1
 -2      8661      6348      6346      7246
 -1     30294    3    0    1
 -2      4032      4801      4773      4443
 -1     30295    3    0    1
 -2      7654      8509      7653      7002
 -1     30296    3    0    1
 -2      3553      3474      4090      2937
 -1     30297    3    0    1
 -2      8337      7937      6732      7430
 -1     30298    3    0    1
 -2      3626      1868      2478      2426
 -1     30299    3    0    1
 -2      7618      5775      5703      5334
 -1     30300    3    0    1
 -2      1265      3066      1986      1264
 -1     30301    3    0    1
 -2      8262      9105      8277      7841
 -1     30302    3    0    1
 -2      9083      8678      7270      6498
 -1     30303    3    0    1
 -2      4482      4783      4415      4811
 -1     30304    3    0    1
 -2      6917      8047      9224      7006
 -1     30305    3    0    1
 -2      5050      5057      4814      4486
 -1     30306    3    0    1
 -2      8778      7966      9146      8771
 -1     30307    3    0    1
 -2      9261      8473      7648      8474
 -1     30308    3    0    1
 -2      2968      1929      3050      3661
 -1     30309    3    0    1
 -2      9272      8921      8051      7664
 -1     30310    3    0    1
 -2      5137      4856      4838      4586
 -1     30311    3    0    1
 -2      9045      8625      7205      6238
 -1     30312    3    0    1
 -2      7056      6983      6980      6982
 -1     30313    3    0    1
 -2      3956      2296      2282      2305
 -1     30314    3    0    1
 -2      1961      2556      3689      4209
 -1     30315    3    0    1
 -2      5896      5496      5912      5567
 -1     30316    3    0    1
 -2      6283      6282      5820      8157
 -1     30317    3    0    1
 -2       555      1006      1115      1675
 -1     30318    3    0    1
 -2      3825      3177      2649      2638
 -1     30319    3    0    1
 -2      3454      3456      2343      1687
 -1     30320    3    0    1
 -2      4046      4500      4816      4781
 -1     30321    3    0    1
 -2      6750      6684      7421      7525
 -1     30322    3    0    1
 -2      5405      5406      6177      5477
 -1     30323    3    0    1
 -2      8458      8865      8886      8029
 -1     30324    3    0    1
 -2      2192       400       834      1479
 -1     30325    3    0    1
 -2      3347      3396      2751      1624
 -1     30326    3    0    1
 -2      4457      2916      4044      3508
 -1     30327    3    0    1
 -2      6963      6100      8041      8905
 -1     30328    3    0    1
 -2      3290      2200      2238      3328
 -1     30329    3    0    1
 -2      6916      8446      7538      5701
 -1     30330    3    0    1
 -2      2947      2452      4152      2946
 -1     30331    3    0    1
 -2      6035      6034      6776      5654
 -1     30332    3    0    1
 -2      6625      5594      6605      6645
 -1     30333    3    0    1
 -2      2108      1373      2074      2073
 -1     30334    3    0    1
 -2      5871      7286      6405      8247
 -1     30335    3    0    1
 -2      2385      3512      3530      2956
 -1     30336    3    0    1
 -2      4371      2706      4357      3352
 -1     30337    3    0    1
 -2      8413      5683      7510      6754
 -1     30338    3    0    1
 -2       587      3508      3529      1131
 -1     30339    3    0    1
 -2      5963      6743      5622      5962
 -1     30340    3    0    1
 -2      4684      4617      3724      3781
 -1     30341    3    0    1
 -2      1169      1139       658      1883
 -1     30342    3    0    1
 -2      9102      7314      8267      7870
 -1     30343    3    0    1
 -2      6914      6915      7549      6835
 -1     30344    3    0    1
 -2      3057      4105      4532      4173
 -1     30345    3    0    1
 -2      1705      1085       583      1795
 -1     30346    3    0    1
 -2      3597      4518      4845      4164
 -1     30347    3    0    1
 -2      4522      5957      5958      5639
 -1     30348    3    0    1
 -2      3598      2980      3010      4506
 -1     30349    3    0    1
 -2      3526      2895      3556      4065
 -1     30350    3    0    1
 -2      4624      4286      4938      3784
 -1     30351    3    0    1
 -2      1094      2346      2903      3465
 -1     30352    3    0    1
 -2      7002      7654      8509      7001
 -1     30353    3    0    1
 -2      7090      6062      6049      5767
 -1     30354    3    0    1
 -2      7327      8723      7890      7326
 -1     30355    3    0    1
 -2      3446      4010      4089      3532
 -1     30356    3    0    1
 -2      6696      6698      6697      8380
 -1     30357    3    0    1
 -2      3214      4299      3729      2601
 -1     30358    3    0    1
 -2      8193      9041      8167      7172
 -1     30359    3    0    1
 -2      1712      3439      3458      2336
 -1     30360    3    0    1
 -2      8060      7643      7021      8464
 -1     30361    3    0    1
 -2      6001      6764      8377      7425
 -1     30362    3    0    1
 -2       573       661       660      1123
 -1     30363    3    0    1
 -2      5638      5639      5668      5637
 -1     30364    3    0    1
 -2      2244      2187       831      1467
 -1     30365    3    0    1
 -2      9241      8091      8522      9508
 -1     30366    3    0    1
 -2      8914      7658      8080      7067
 -1     30367    3    0    1
 -2      5875      5498      7249      7275
 -1     30368    3    0    1
 -2      3167      3145      2557      2568
 -1     30369    3    0    1
 -2      4374      5236      4988      4710
 -1     30370    3    0    1
 -2      6515      6514      8743      7903
 -1     30371    3    0    1
 -2      4401      4715      3868      2791
 -1     30372    3    0    1
 -2      3294      2789      2767      3354
 -1     30373    3    0    1
 -2      6441      7915      5944      8323
 -1     30374    3    0    1
 -2      2542      4220      3105      1970
 -1     30375    3    0    1
 -2      2690      2207       851      3888
 -1     30376    3    0    1
 -2       871       872       416      1470
 -1     30377    3    0    1
 -2      8852      7630      6958      8883
 -1     30378    3    0    1
 -2       220       642       641      1133
 -1     30379    3    0    1
 -2      2809      4355      2214      1552
 -1     30380    3    0    1
 -2      5496      5912      5567      5075
 -1     30381    3    0    1
 -2      4210      3034      4197      2515
 -1     30382    3    0    1
 -2      6787      8405      8425      6788
 -1     30383    3    0    1
 -2      3179      1349      1330      3205
 -1     30384    3    0    1
 -2      7625      8437      6947      6948
 -1     30385    3    0    1
 -2      9398      9425      9163      7923
 -1     30386    3    0    1
 -2      8426      8407      7502      5663
 -1     30387    3    0    1
 -2      9097      9372      7375      9389
 -1     30388    3    0    1
 -2      3801      1417      2119      3756
 -1     30389    3    0    1
 -2       896      1601      2747      2282
 -1     30390    3    0    1
 -2      3987       993      1650      2916
 -1     30391    3    0    1
 -2      2877      2878      1755      4067
 -1     30392    3    0    1
 -2      3682      1972      1973      1254
 -1     30393    3    0    1
 -2      6719      6747      5990      5671
 -1     30394    3    0    1
 -2      7425      6001      6764      7498
 -1     30395    3    0    1
 -2      1642      1686      1610      3390
 -1     30396    3    0    1
 -2      8047      6917      8863      7578
 -1     30397    3    0    1
 -2      7240      8166      9033      8660
 -1     30398    3    0    1
 -2      1780      2349      1063      1787
 -1     30399    3    0    1
 -2      6887      6867      6869      6886
 -1     30400    3    0    1
 -2      3147      4246      4238      3805
 -1     30401    3    0    1
 -2      5693      6817      8421      7546
 -1     30402    3    0    1
 -2      5166      4920      4276      4932
 -1     30403    3    0    1
 -2      6724      7419      7420      8790
 -1     30404    3    0    1
 -2      7458      8791      7433      6706
 -1     30405    3    0    1
 -2      8047      9224      7553      8863
 -1     30406    3    0    1
 -2      6868      6886      8003      8420
 -1     30407    3    0    1
 -2      1174       632      1128      3042
 -1     30408    3    0    1
 -2      4903      4618      4684      5196
 -1     30409    3    0    1
 -2      7221      7784      8233      7244
 -1     30410    3    0    1
 -2      6164      8613      7760      7131
 -1     30411    3    0    1
 -2      3565      3627      3025      4545
 -1     30412    3    0    1
 -2      1368      2041      1367      2629
 -1     30413    3    0    1
 -2      7309      7379      8291      5925
 -1     30414    3    0    1
 -2      9262      6113      6996      8508
 -1     30415    3    0    1
 -2      1544      3279      2719      2258
 -1     30416    3    0    1
 -2      9560      9573      8990      8583
 -1     30417    3    0    1
 -2      4881      5664      5102      4538
 -1     30418    3    0    1
 -2      5445      9033      7240      5815
 -1     30419    3    0    1
 -2      3978      2344      2326      3987
 -1     30420    3    0    1
 -2      8514      8504      6983      7627
 -1     30421    3    0    1
 -2      4615      4937      4660      4616
 -1     30422    3    0    1
 -2      5681      6796      7994      7456
 -1     30423    3    0    1
 -2      6769      7430      8348      6007
 -1     30424    3    0    1
 -2      1108      1109      3486      2384
 -1     30425    3    0    1
 -2      5021      4431      4769      5020
 -1     30426    3    0    1
 -2      4030      2368      2870      1743
 -1     30427    3    0    1
 -2      7553      7994      6794      6795
 -1     30428    3    0    1
 -2      1552      2214      2197      3286
 -1     30429    3    0    1
 -2      1321      3199       715      2034
 -1     30430    3    0    1
 -2      5392      6172      5845      5811
 -1     30431    3    0    1
 -2      4749      4759      4959      4750
 -1     30432    3    0    1
 -2      4843      5094      5644      5125
 -1     30433    3    0    1
 -2      4548      2984      4108      3574
 -1     30434    3    0    1
 -2      5472      5852      5426      5241
 -1     30435    3    0    1
 -2      6427      9111      8767      9076
 -1     30436    3    0    1
 -2      8225      7279      8226      8243
 -1     30437    3    0    1
 -2      6099      6994      7064      7091
 -1     30438    3    0    1
 -2      4545      3024      3025      3565
 -1     30439    3    0    1
 -2      1592      1679      3398      3374
 -1     30440    3    0    1
 -2      7406      6607      6731      5602
 -1     30441    3    0    1
 -2      3747      3149      2018      2000
 -1     30442    3    0    1
 -2      5048      4785      5013      5064
 -1     30443    3    0    1
 -2      1815      1827      3593      3650
 -1     30444    3    0    1
 -2      8231      8238      8651      7272
 -1     30445    3    0    1
 -2      7282      8685      7876      6487
 -1     30446    3    0    1
 -2       639       638      1859      2958
 -1     30447    3    0    1
 -2      3334      2183      3302      1491
 -1     30448    3    0    1
 -2      3214      2101      2601      2099
 -1     30449    3    0    1
 -2      1901      3643      3066      1265
 -1     30450    3    0    1
 -2      4438      5024      4800      4027
 -1     30451    3    0    1
 -2      8495      8436      7554      6920
 -1     30452    3    0    1
 -2      6242      7209      5446      7792
 -1     30453    3    0    1
 -2      3576      4174      4509      4109
 -1     30454    3    0    1
 -2      6120      7622      7011      5707
 -1     30455    3    0    1
 -2      8361      8818      9160      7541
 -1     30456    3    0    1
 -2      4804      5535      5504      5557
 -1     30457    3    0    1
 -2       477       937       916       438
 -1     30458    3    0    1
 -2      3875      3874      3275      3265
 -1     30459    3    0    1
 -2      3707      1994      1995      3722
 -1     30460    3    0    1
 -2      7930      9165      6642      8801
 -1     30461    3    0    1
 -2      3064      4177      4112      4113
 -1     30462    3    0    1
 -2       903       933       932      2757
 -1     30463    3    0    1
 -2      1078      3974      1663      2319
 -1     30464    3    0    1
 -2      8479      7675      6963      8478
 -1     30465    3    0    1
 -2      4839      3615      3578      4169
 -1     30466    3    0    1
 -2      6184      6183      6185      7159
 -1     30467    3    0    1
 -2      6654      7541      5957      6739
 -1     30468    3    0    1
 -2      9490      9233      9503      8042
 -1     30469    3    0    1
 -2       296       297       298       353
 -1     30470    3    0    1
 -2      7901      9420      9408      7407
 -1     30471    3    0    1
 -2      3359      3333      3301      1571
 -1     30472    3    0    1
 -2      1304       734       282      2040
 -1     30473    3    0    1
 -2      5042      5285      4817      4810
 -1     30474    3    0    1
 -2      6779      6021      6780      8431
 -1     30475    3    0    1
 -2      9262      8508      8039      8477
 -1     30476    3    0    1
 -2      7183      8177      6240      7136
 -1     30477    3    0    1
 -2      7817      6338      6296      6419
 -1     30478    3    0    1
 -2       760      2042      1312      3777
 -1     30479    3    0    1
 -2      6805      6861      6804      6860
 -1     30480    3    0    1
 -2      1145      1159       622      1810
 -1     30481    3    0    1
 -2      1757      2381      4070      2879
 -1     30482    3    0    1
 -2      5951      9643      6547      9611
 -1     30483    3    0    1
 -2      6500      5889      5258      5888
 -1     30484    3    0    1
 -2      7963      9197      7986      8820
 -1     30485    3    0    1
 -2      3364      4732      3884      4382
 -1     30486    3    0    1
 -2      6601      9426      6584      9399
 -1     30487    3    0    1
 -2      7382      5901      5930      8297
 -1     30488    3    0    1
 -2      5371      5372      5839      5232
 -1     30489    3    0    1
 -2      6893      6836      6837      6892
 -1     30490    3    0    1
 -2      1534      1618      3343      1619
 -1     30491    3    0    1
 -2      4384      4383      4348      5002
 -1     30492    3    0    1
 -2      2896      1081       614      1804
 -1     30493    3    0    1
 -2      6777      6778      6040      7573
 -1     30494    3    0    1
 -2      4808      4434      4435      5022
 -1     30495    3    0    1
 -2      3071      1185      1953      3052
 -1     30496    3    0    1
 -2      3130      4279      4639      3841
 -1     30497    3    0    1
 -2      3029      1135      3568      3588
 -1     30498    3    0    1
 -2      1308      1994      1995      3707
 -1     30499    3    0    1
 -2      7624      7665      8500      6945
 -1     30500    3    0    1
 -2      5538      6531      5245      5558
 -1     30501    3    0    1
 -2      6009      6020      6717      5581
 -1     30502    3    0    1
 -2      9033      9004      7135      8627
 -1     30503    3    0    1
 -2      2111      3153      4645      2606
 -1     30504    3    0    1
 -2      8060      7022      6059      8928
 -1     30505    3    0    1
 -2      4045      2381      2398      2382
 -1     30506    3    0    1
 -2      7478      7502      6700      8358
 -1     30507    3    0    1
 -2      3390      1610      1642      2815
 -1     30508    3    0    1
 -2      8442      7561      6041      7536
 -1     30509    3    0    1
 -2      3987      2344       993      2916
 -1     30510    3    0    1
 -2      4045      1759      3442      2382
 -1     30511    3    0    1
 -2      3624      1863      3000      3020
 -1     30512    3    0    1
 -2      5967      6586      6587      9674
 -1     30513    3    0    1
 -2      2984      2464      4548      4108
 -1     30514    3    0    1
 -2      2111      3732      4645      3825
 -1     30515    3    0    1
 -2      4248      4300      2083      2084
 -1     30516    3    0    1
 -2      3382      3356       972      2816
 -1     30517    3    0    1
 -2      2607      2111      2625      1405
 -1     30518    3    0    1
 -2      5395      7785      6257      5471
 -1     30519    3    0    1
 -2      2078      2077      2643      1375
 -1     30520    3    0    1
 -2      8399      6747      9169      7966
 -1     30521    3    0    1
 -2      4829      5594      5660      5315
 -1     30522    3    0    1
 -2      3761      1370      2567      3781
 -1     30523    3    0    1
 -2      9635      9446      9425      9671
 -1     30524    3    0    1
 -2      2499      3676      3063      1888
 -1     30525    3    0    1
 -2      8002      7605      9208      9228
 -1     30526    3    0    1
 -2      4752      4740      5461      4760
 -1     30527    3    0    1
 -2      4283      2652      1445      3156
 -1     30528    3    0    1
 -2      2235      3284      3350      2261
 -1     30529    3    0    1
 -2      6400      5484      6379      7299
 -1     30530    3    0    1
 -2       631       614      1171      1819
 -1     30531    3    0    1
 -2      3305      2774      3904      2220
 -1     30532    3    0    1
 -2      2542      2015      1320      1971
 -1     30533    3    0    1
 -2      7349      5903      7295      6522
 -1     30534    3    0    1
 -2      7827      7305      8681      8309
 -1     30535    3    0    1
 -2      1245      1931      1244      3647
 -1     30536    3    0    1
 -2      5655      7988      8796      8838
 -1     30537    3    0    1
 -2      6665      6716      6744      7413
 -1     30538    3    0    1
 -2      7387      7330      7351      8730
 -1     30539    3    0    1
 -2      8300      8747      8301      7399
 -1     30540    3    0    1
 -2      6166      5379      5233      5843
 -1     30541    3    0    1
 -2      5482      8675      7282      6419
 -1     30542    3    0    1
 -2      3996      2864      1732      2391
 -1     30543    3    0    1
 -2      2875      1030       531      1711
 -1     30544    3    0    1
 -2      3817      2064      2116      3213
 -1     30545    3    0    1
 -2        53        54       806        81
 -1     30546    3    0    1
 -2      2529      3041      4199      1976
 -1     30547    3    0    1
 -2      5070      5053      5265      5898
 -1     30548    3    0    1
 -2      8239      6408      6387      7827
 -1     30549    3    0    1
 -2      6100      6963      7650      8072
 -1     30550    3    0    1
 -2        49        51        50      1459
 -1     30551    3    0    1
 -2      5168      5190      5336      5169
 -1     30552    3    0    1
 -2      1659      2283      1623      2315
 -1     30553    3    0    1
 -2      6732      7479      8337      6752
 -1     30554    3    0    1
 -2      3470      1046      2361      1789
 -1     30555    3    0    1
 -2      8632      7736      9022      9331
 -1     30556    3    0    1
 -2      7233      6334      6335      7280
 -1     30557    3    0    1
 -2      4571      4572      4523      3623
 -1     30558    3    0    1
 -2      5582      5654      5626      5300
 -1     30559    3    0    1
 -2      2928      2347      2903      1694
 -1     30560    3    0    1
 -2      2900       201      2917      2388
 -1     30561    3    0    1
 -2      1203      1170       662      1886
 -1     30562    3    0    1
 -2      5944      5490      5275      5547
 -1     30563    3    0    1
 -2      4632      4273      4296      4679
 -1     30564    3    0    1
 -2       237       597      1183      1796
 -1     30565    3    0    1
 -2      1124       190       662       663
 -1     30566    3    0    1
 -2      2121      1419      1373      2568
 -1     30567    3    0    1
 -2      3448      2862      1675      2932
 -1     30568    3    0    1
 -2      2987      1208      2421      1209
 -1     30569    3    0    1
 -2      6524      6580      7383      8321
 -1     30570    3    0    1
 -2      9176      9165      9136      7930
 -1     30571    3    0    1
 -2       856       420       899      2750
 -1     30572    3    0    1
 -2      8890      8925      9286      8542
 -1     30573    3    0    1
 -2        67       105       121       399
 -1     30574    3    0    1
 -2      5654      5582      6718      5625
 -1     30575    3    0    1
 -2      8931      6998      7038      8094
 -1     30576    3    0    1
 -2      8883      6958      8852      8010
 -1     30577    3    0    1
 -2       930        48        94       494
 -1     30578    3    0    1
 -2      2023      1334      2024      1988
 -1     30579    3    0    1
 -2      5961      8793      8769      7884
 -1     30580    3    0    1
 -2      5760      5362      7013      5363
 -1     30581    3    0    1
 -2      7918      9421      7939      9432
 -1     30582    3    0    1
 -2      4534      4546      4862      3594
 -1     30583    3    0    1
 -2      3181      3826      3827      2088
 -1     30584    3    0    1
 -2      6668      7415      8777      6666
 -1     30585    3    0    1
 -2      1994      1954      1995      2548
 -1     30586    3    0    1
 -2      1997      1998      3113      2514
 -1     30587    3    0    1
 -2      2847      3443      2339      1666
 -1     30588    3    0    1
 -2      2970       558      1136      2935
 -1     30589    3    0    1
 -2      2818      2833      3950      2292
 -1     30590    3    0    1
 -2      7941      9159      7942      6653
 -1     30591    3    0    1
 -2      2662      1418      1343      2031
 -1     30592    3    0    1
 -2      5149      4886      5685      5148
 -1     30593    3    0    1
 -2      1851      2481      1872      4142
 -1     30594    3    0    1
 -2      5391      6253      5812      5236
 -1     30595    3    0    1
 -2      4694      4727      4950      4978
 -1     30596    3    0    1
 -2      1605      1604      2784      1629
 -1     30597    3    0    1
 -2      7435      7480      6736      7434
 -1     30598    3    0    1
 -2      7929      7969      8374      8328
 -1     30599    3    0    1
 -2      8385      9196      7960      7974
 -1     30600    3    0    1
 -2      5650      6658      5960      7483
 -1     30601    3    0    1
 -2      6649      5608      5606      5648
 -1     30602    3    0    1
 -2      7883      8752      6618      5938
 -1     30603    3    0    1
 -2      4475      4053      3497      4082
 -1     30604    3    0    1
 -2      4579      4851      4825      4516
 -1     30605    3    0    1
 -2      4855      4837      4112      4113
 -1     30606    3    0    1
 -2      4884      4658      4928      5355
 -1     30607    3    0    1
 -2      7268      8687      7842      7300
 -1     30608    3    0    1
 -2      3674      4149      2432      3080
 -1     30609    3    0    1
 -2      6987      6109      7059      6077
 -1     30610    3    0    1
 -2      4629      2596      2623      2096
 -1     30611    3    0    1
 -2      6863      6030      6029      7996
 -1     30612    3    0    1
 -2      5024      4788      5549      5074
 -1     30613    3    0    1
 -2      3582      1808      1823      2456
 -1     30614    3    0    1
 -2      7821      6318      6317      5860
 -1     30615    3    0    1
 -2      6708      7513      6771      6736
 -1     30616    3    0    1
 -2      4697      4742      4390      3908
 -1     30617    3    0    1
 -2      8907      6998      7611      7612
 -1     30618    3    0    1
 -2      7795      6251      6274      6316
 -1     30619    3    0    1
 -2      8738      7379      7866      6544
 -1     30620    3    0    1
 -2      6671      6719      8778      7924
 -1     30621    3    0    1
 -2      6256      7813      8161      7165
 -1     30622    3    0    1
 -2      6872      6912      8461      7548
 -1     30623    3    0    1
 -2       883       479       480      1478
 -1     30624    3    0    1
 -2      4998      5244      4971      4739
 -1     30625    3    0    1
 -2      5654      6718      7448      5625
 -1     30626    3    0    1
 -2      4106      1800      3594      3554
 -1     30627    3    0    1
 -2      7066      8075      7689      6065
 -1     30628    3    0    1
 -2      1077      1100      3541      1743
 -1     30629    3    0    1
 -2      8391      8427      7998      6852
 -1     30630    3    0    1
 -2       392       393       415      1469
 -1     30631    3    0    1
 -2      5480      5061      5504      5938
 -1     30632    3    0    1
 -2      3359      3301      2817      1571
 -1     30633    3    0    1
 -2      5707      6120      7622      5729
 -1     30634    3    0    1
 -2      1512       858      2194      1544
 -1     30635    3    0    1
 -2      8611      8645      8644      9014
 -1     30636    3    0    1
 -2      6290      8236      6398      6397
 -1     30637    3    0    1
 -2      2460       249       652      1222
 -1     30638    3    0    1
 -2      4560      4844      5127      4559
 -1     30639    3    0    1
 -2      4499      5037      4453      4454
 -1     30640    3    0    1
 -2      1853      1881      1167      3600
 -1     30641    3    0    1
 -2      7979      7521      6020      7965
 -1     30642    3    0    1
 -2      5691      6082      6988      7572
 -1     30643    3    0    1
 -2      6949      7019      7642      8463
 -1     30644    3    0    1
 -2      7411      5989      6758      8341
 -1     30645    3    0    1
 -2       611       649      1116      1812
 -1     30646    3    0    1
 -2      7584      6923      5710      6882
 -1     30647    3    0    1
 -2      7586      6107      8868      9253
 -1     30648    3    0    1
 -2       828       829       475      2709
 -1     30649    3    0    1
 -2      6327      7226      7836      7263
 -1     30650    3    0    1
 -2      8239      6387      7273      7827
 -1     30651    3    0    1
 -2      1224      3033      3672      1880
 -1     30652    3    0    1
 -2      2522      1943      1981      1980
 -1     30653    3    0    1
 -2       881       909       844      2789
 -1     30654    3    0    1
 -2      2565      1276      1275      3758
 -1     30655    3    0    1
 -2      5511      6520      7355      7317
 -1     30656    3    0    1
 -2      1991      1884      1252      1968
 -1     30657    3    0    1
 -2      7165      6255      7744      7166
 -1     30658    3    0    1
 -2      1996      2527      2540      3710
 -1     30659    3    0    1
 -2      8786      8348      8384      6769
 -1     30660    3    0    1
 -2      3405      3432      1624      2316
 -1     30661    3    0    1
 -2      1509       855       854      1538
 -1     30662    3    0    1
 -2      8456      7549      8434      6914
 -1     30663    3    0    1
 -2      7856      8766      9105      6494
 -1     30664    3    0    1
 -2      5643      4527      5583      5584
 -1     30665    3    0    1
 -2      4738      6274      6250      5388
 -1     30666    3    0    1
 -2      6514      6515      6574      7903
 -1     30667    3    0    1
 -2      6246      6356      7812      7769
 -1     30668    3    0    1
 -2      1968      2528      4225      1991
 -1     30669    3    0    1
 -2      3636      3037      3012      4165
 -1     30670    3    0    1
 -2      6729      8379      7499      7475
 -1     30671    3    0    1
 -2      2194       857       821      2752
 -1     30672    3    0    1
 -2      4671      5151      4888      5174
 -1     30673    3    0    1
 -2      6495      6461      8278      6459
 -1     30674    3    0    1
 -2      5089      5642      5289      5290
 -1     30675    3    0    1
 -2      5541      5542      6587      6500
 -1     30676    3    0    1
 -2      9099      9098      9375      7864
 -1     30677    3    0    1
 -2       693       694      1362      1310
 -1     30678    3    0    1
 -2      7793      8630      5467      9037
 -1     30679    3    0    1
 -2      7797      8196      8655      7173
 -1     30680    3    0    1
 -2      5701      7538      6916      6873
 -1     30681    3    0    1
 -2      4401      4379      3357      2791
 -1     30682    3    0    1
 -2      1628      3970      3959      2840
 -1     30683    3    0    1
 -2      9628      9593      9416      9674
 -1     30684    3    0    1
 -2      8503      7667      7056      7055
 -1     30685    3    0    1
 -2      1735       591      1119      2937
 -1     30686    3    0    1
 -2      7968      7523      7451      5678
 -1     30687    3    0    1
 -2      3424       990      1707      2311
 -1     30688    3    0    1
 -2       981      2777      2778      1576
 -1     30689    3    0    1
 -2      5222      4350      4691      4961
 -1     30690    3    0    1
 -2      3212      2671      1449      1448
 -1     30691    3    0    1
 -2      8321      6452      6556      8306
 -1     30692    3    0    1
 -2      5464      6164      6341      6339
 -1     30693    3    0    1
 -2      1968      1999      4225      1346
 -1     30694    3    0    1
 -2      7068      8534      8081      7677
 -1     30695    3    0    1
 -2      3025      4172      4161      4545
 -1     30696    3    0    1
 -2      2554      3122      1948      3693
 -1     30697    3    0    1
 -2      7969      6685      7929      8374
 -1     30698    3    0    1
 -2      5639      6654      5668      5637
 -1     30699    3    0    1
 -2      2415      1062      3467      1716
 -1     30700    3    0    1
 -2      8632      6137      6198      9022
 -1     30701    3    0    1
 -2       829       913       912      1489
 -1     30702    3    0    1
 -2      4223      4232      2571      2544
 -1     30703    3    0    1
 -2      7679      8918      7009      7070
 -1     30704    3    0    1
 -2       441       886       887      1493
 -1     30705    3    0    1
 -2      7109      6106      6097      5778
 -1     30706    3    0    1
 -2      5067      5029      5028      4801
 -1     30707    3    0    1
 -2      5741      4600      5352      5688
 -1     30708    3    0    1
 -2      3410      1647      2854      3459
 -1     30709    3    0    1
 -2      6969      7658      7618      7619
 -1     30710    3    0    1
 -2      8197      6258      7764      7747
 -1     30711    3    0    1
 -2      2542      3652      1970      2519
 -1     30712    3    0    1
 -2      1364       739      1342      3216
 -1     30713    3    0    1
 -2      4373      4955      4988      4746
 -1     30714    3    0    1
 -2      1661      1660      2297      3414
 -1     30715    3    0    1
 -2      3137      3110      2535      3694
 -1     30716    3    0    1
 -2      6432      5903      6396      7318
 -1     30717    3    0    1
 -2      3745      4272      3836      4295
 -1     30718    3    0    1
 -2      5570      5914      5253      5261
 -1     30719    3    0    1
 -2      4560      5081      4844      4559
 -1     30720    3    0    1
 -2      3413      1064      2303      1671
 -1     30721    3    0    1
 -2      5211      5414      4698      4953
 -1     30722    3    0    1
 -2      6862      6027      6807      6806
 -1     30723    3    0    1
 -2      5076      5075      5567      4809
 -1     30724    3    0    1
 -2       515      1004      2353      1696
 -1     30725    3    0    1
 -2      5202      5707      5708      4922
 -1     30726    3    0    1
 -2      4632      4633      4679      5189
 -1     30727    3    0    1
 -2      4832      5663      5305      5680
 -1     30728    3    0    1
 -2      8289      6468      6541      6469
 -1     30729    3    0    1
 -2      4799      5024      4788      4027
 -1     30730    3    0    1
 -2      6020      6717      7521      7979
 -1     30731    3    0    1
 -2      3501      4771      3453      4436
 -1     30732    3    0    1
 -2      9154      8775      8786      7972
 -1     30733    3    0    1
 -2      6877      6900      8435      6847
 -1     30734    3    0    1
 -2      3791      4288      4302      3205
 -1     30735    3    0    1
 -2      5979      5586      6604      5587
 -1     30736    3    0    1
 -2      3332       917      1567      1568
 -1     30737    3    0    1
 -2      4388      4352      3343      3276
 -1     30738    3    0    1
 -2      3323      4352      2734      3322
 -1     30739    3    0    1
 -2      8729      7371      7927      8728
 -1     30740    3    0    1
 -2       327       326       325      1316
 -1     30741    3    0    1
 -2      9646      9532      8946      9533
 -1     30742    3    0    1
 -2      1983      2022      1291      1982
 -1     30743    3    0    1
 -2      5891      7387      7351      8282
 -1     30744    3    0    1
 -2      2885      1133      2904      2961
 -1     30745    3    0    1
 -2      5673      5323      4829      5126
 -1     30746    3    0    1
 -2      3206      3767      4680      3245
 -1     30747    3    0    1
 -2      7564      6967      6067      6068
 -1     30748    3    0    1
 -2      6030      6772      6029      7996
 -1     30749    3    0    1
 -2      6367      7278      6430      5899
 -1     30750    3    0    1
 -2       791      2152      2611      3252
 -1     30751    3    0    1
 -2      3724      2567      1282      3781
 -1     30752    3    0    1
 -2      7443      7442      8394      6741
 -1     30753    3    0    1
 -2      5015      5264      5943      5934
 -1     30754    3    0    1
 -2       849       401       444      2717
 -1     30755    3    0    1
 -2      6117      7100      6102      7616
 -1     30756    3    0    1
 -2      2283      3370      3939      3957
 -1     30757    3    0    1
 -2      5982      6647      6010      5600
 -1     30758    3    0    1
 -2       650      1135       244      3029
 -1     30759    3    0    1
 -2      9285      9272      9251      8538
 -1     30760    3    0    1
 -2      8492      8864      8448      7599
 -1     30761    3    0    1
 -2      4933      5361      5345      4687
 -1     30762    3    0    1
 -2      4632      4273      3746      4296
 -1     30763    3    0    1
 -2      7338      7337      8708      5910
 -1     30764    3    0    1
 -2      2500      3608      3085      1845
 -1     30765    3    0    1
 -2      1353      2054      1354      3770
 -1     30766    3    0    1
 -2       773       758      2131      2142
 -1     30767    3    0    1
 -2      1744      2394      1122      1745
 -1     30768    3    0    1
 -2       537      1035      2854      2898
 -1     30769    3    0    1
 -2      3075      4193      2513      3095
 -1     30770    3    0    1
 -2         9         7       274      1336
 -1     30771    3    0    1
 -2      7008      8458      8886      6918
 -1     30772    3    0    1
 -2      7219      7261      8652      6360
 -1     30773    3    0    1
 -2      2887      4076      2860      4471
 -1     30774    3    0    1
 -2      1949      2546      1989      3070
 -1     30775    3    0    1
 -2      6004      5681      7461      6702
 -1     30776    3    0    1
 -2      8838      5655      7988      7573
 -1     30777    3    0    1
 -2      8156      6188      6187      6280
 -1     30778    3    0    1
 -2      5978      7450      7892      8798
 -1     30779    3    0    1
 -2      2829      1631      2808      3960
 -1     30780    3    0    1
 -2      6563      6534      7369      8313
 -1     30781    3    0    1
 -2      4387      4364      4741      4975
 -1     30782    3    0    1
 -2      5080      4859      4119      5088
 -1     30783    3    0    1
 -2      6398      8236      8244      6397
 -1     30784    3    0    1
 -2       513       997       999      2884
 -1     30785    3    0    1
 -2      8448      7539      6898      6899
 -1     30786    3    0    1
 -2      1690      1650       993      2916
 -1     30787    3    0    1
 -2      7335      8702      7334      8733
 -1     30788    3    0    1
 -2      8811      9154      7972      6649
 -1     30789    3    0    1
 -2      8086      7051      7052      6947
 -1     30790    3    0    1
 -2      4462      5040      5072      4781
 -1     30791    3    0    1
 -2      5042      4465      4795      4810
 -1     30792    3    0    1
 -2      5413      4694      4950      4978
 -1     30793    3    0    1
 -2      1307      1994      3737      3722
 -1     30794    3    0    1
 -2      7934      8735      9403      9138
 -1     30795    3    0    1
 -2      8384      8348      6768      6007
 -1     30796    3    0    1
 -2      7946      6714      6713      7520
 -1     30797    3    0    1
 -2      4801      5058      5029      4444
 -1     30798    3    0    1
 -2      6435      8244      7831      5479
 -1     30799    3    0    1
 -2      3274      3884      2742      2716
 -1     30800    3    0    1
 -2       605       564       565      1801
 -1     30801    3    0    1
 -2      3470      1046      1789      2934
 -1     30802    3    0    1
 -2      5946      5550      5259      5910
 -1     30803    3    0    1
 -2       520      1046      1008      3450
 -1     30804    3    0    1
 -2      2623      2596      3146      2080
 -1     30805    3    0    1
 -2      2255      3892      3891      2223
 -1     30806    3    0    1
 -2      3087      2503      3680      2467
 -1     30807    3    0    1
 -2      5707      5729      5207      5202
 -1     30808    3    0    1
 -2      4248      4300      3151      2083
 -1     30809    3    0    1
 -2      2639      3220      3827      2089
 -1     30810    3    0    1
 -2      6324      6391      6390      7822
 -1     30811    3    0    1
 -2      3448      3493      2862      2932
 -1     30812    3    0    1
 -2      6245      7190      8183      8159
 -1     30813    3    0    1
 -2      6478      7344      6480      8318
 -1     30814    3    0    1
 -2      1643      2309      2321      2290
 -1     30815    3    0    1
 -2      7529      6789      5663      7453
 -1     30816    3    0    1
 -2      2990      1210      1898      1211
 -1     30817    3    0    1
 -2      2629      1368      2041      3775
 -1     30818    3    0    1
 -2      4232      4223      4215      2544
 -1     30819    3    0    1
 -2      8685      7879      9079      6487
 -1     30820    3    0    1
 -2      2644      3836      3198      1441
 -1     30821    3    0    1
 -2      8168      8236      7816      8656
 -1     30822    3    0    1
 -2      1058      3464      2400      1786
 -1     30823    3    0    1
 -2      3698      4199      3041      1976
 -1     30824    3    0    1
 -2      2872      1658      1663      3974
 -1     30825    3    0    1
 -2      6198      5434      5417      5850
 -1     30826    3    0    1
 -2      4303      3247      3221      3184
 -1     30827    3    0    1
 -2      1476      2178      2706      2239
 -1     30828    3    0    1
 -2      2743      2249      1530      3320
 -1     30829    3    0    1
 -2      1426       785      3830      1425
 -1     30830    3    0    1
 -2       587      1131       586       585
 -1     30831    3    0    1
 -2       821       858       857      2194
 -1     30832    3    0    1
 -2      9399      6584      6601      9105
 -1     30833    3    0    1
 -2      5069      4792      4791      4040
 -1     30834    3    0    1
 -2      5497      7287      7867      5508
 -1     30835    3    0    1
 -2      7395      6518      7381      8325
 -1     30836    3    0    1
 -2      5248      5052      5509      4479
 -1     30837    3    0    1
 -2       933      1550      1587      1631
 -1     30838    3    0    1
 -2      5136      5137      4838      4586
 -1     30839    3    0    1
 -2       889       447       418      2688
 -1     30840    3    0    1
 -2      7825      8262      9075      6380
 -1     30841    3    0    1
 -2      6556      6524      6452      8321
 -1     30842    3    0    1
 -2      1958      1221      1189      3665
 -1     30843    3    0    1
 -2      4727      4694      4365      4978
 -1     30844    3    0    1
 -2      8773      9138      7934      9439
 -1     30845    3    0    1
 -2      3111      2008      2536      3699
 -1     30846    3    0    1
 -2      1265      3643      3066      1264
 -1     30847    3    0    1
 -2      8157      8180      6194      8181
 -1     30848    3    0    1
 -2      4247      4639      4687      3765
 -1     30849    3    0    1
 -2      6148      5813      6149      5215
 -1     30850    3    0    1
 -2      4756      3351      4342      3326
 -1     30851    3    0    1
 -2      7184      5819      6191      6190
 -1     30852    3    0    1
 -2      1432       703       732      1413
 -1     30853    3    0    1
 -2      4325      5477      5001      5432
 -1     30854    3    0    1
 -2      6091      7659      8511      6972
 -1     30855    3    0    1
 -2      6034      6776      5654      7545
 -1     30856    3    0    1
 -2      2424      1834      1861      4132
 -1     30857    3    0    1
 -2      6064      6994      5157      6099
 -1     30858    3    0    1
 -2      2697       856       899      2750
 -1     30859    3    0    1
 -2      7666      6097      8923      6106
 -1     30860    3    0    1
 -2      4916      5733      5744      5340
 -1     30861    3    0    1
 -2      7514      8815      8833      6015
 -1     30862    3    0    1
 -2      1791      2406      2926      3476
 -1     30863    3    0    1
 -2      7590      6885      8037      8000
 -1     30864    3    0    1
 -2      7430      8786      7431      6769
 -1     30865    3    0    1
 -2      1058      1057      3464      1786
 -1     30866    3    0    1
 -2      1379      2634      2645      1380
 -1     30867    3    0    1
 -2      2443      1824      1862      2473
 -1     30868    3    0    1
 -2      6147      5469      5797      5214
 -1     30869    3    0    1
 -2      6497      7270      8701      7857
 -1     30870    3    0    1
 -2      7630      7033      8903      7608
 -1     30871    3    0    1
 -2      6739      6633      6596      5958
 -1     30872    3    0    1
 -2      3498       603      1121      1800
 -1     30873    3    0    1
 -2      2365      1099      1098      3478
 -1     30874    3    0    1
 -2      5875      6389      6411      5874
 -1     30875    3    0    1
 -2      3501      4771      4025      3453
 -1     30876    3    0    1
 -2      3227      4940      4927      4256
 -1     30877    3    0    1
 -2      9247      9296      9236      8956
 -1     30878    3    0    1
 -2      5498      7249      8250      5875
 -1     30879    3    0    1
 -2      3702      3727      3682      1972
 -1     30880    3    0    1
 -2      2911      4487      4084      4446
 -1     30881    3    0    1
 -2      3841      4279      4933      4311
 -1     30882    3    0    1
 -2      4609      5158      5179      5194
 -1     30883    3    0    1
 -2      8347      7454      7478      6699
 -1     30884    3    0    1
 -2      7787      6261      7154      7153
 -1     30885    3    0    1
 -2      8199      7198      7751      7750
 -1     30886    3    0    1
 -2      3105      4219      4220      2542
 -1     30887    3    0    1
 -2      2373      2395      1748      1747
 -1     30888    3    0    1
 -2      2030      3713      3098      1965
 -1     30889    3    0    1
 -2      4909      4943      4663      3764
 -1     30890    3    0    1
 -2      2234      3849      3848      2168
 -1     30891    3    0    1
 -2      8206      8236      6398      6290
 -1     30892    3    0    1
 -2      4436      4772      4771      5023
 -1     30893    3    0    1
 -2       511       994      1056      2385
 -1     30894    3    0    1
 -2      1140      1152      2985      3609
 -1     30895    3    0    1
 -2      5721      5187      5764      5151
 -1     30896    3    0    1
 -2      5520      4467      5519      5269
 -1     30897    3    0    1
 -2      2952      3547      1105      1759
 -1     30898    3    0    1
 -2      4386      2690      4351      4350
 -1     30899    3    0    1
 -2      5498      8250      7249      7275
 -1     30900    3    0    1
 -2      2701      2680      2756      3856
 -1     30901    3    0    1
 -2      4866      5103      5296      4538
 -1     30902    3    0    1
 -2      7439      8351      7440      6738
 -1     30903    3    0    1
 -2      7909      7910      9385      8718
 -1     30904    3    0    1
 -2      6824      5658      6725      7955
 -1     30905    3    0    1
 -2      2030      2031      3714      1965
 -1     30906    3    0    1
 -2      4469      4470      4014      5011
 -1     30907    3    0    1
 -2      7182      7759      6185      6127
 -1     30908    3    0    1
 -2      2884      2885      4051      2961
 -1     30909    3    0    1
 -2      7579      8029      8458      6918
 -1     30910    3    0    1
 -2      7673      7630      8526      8883
 -1     30911    3    0    1
 -2      8450      8877      8005      7581
 -1     30912    3    0    1
 -2      3396      3405      3969      1676
 -1     30913    3    0    1
 -2      3655      1978      3086      3692
 -1     30914    3    0    1
 -2       447       889       850      2688
 -1     30915    3    0    1
 -2      1674      2296      3429      2305
 -1     30916    3    0    1
 -2      6559      7888      8275      6493
 -1     30917    3    0    1
 -2      1151      1181      2432      1843
 -1     30918    3    0    1
 -2      2716      4732      3884      3364
 -1     30919    3    0    1
 -2      2307      1631      2808      2829
 -1     30920    3    0    1
 -2      6751      7428      7958      9673
 -1     30921    3    0    1
 -2      2331      1630      1629      2828
 -1     30922    3    0    1
 -2      5383      4946      5224      5417
 -1     30923    3    0    1
 -2      8803      6645      9152      6625
 -1     30924    3    0    1
 -2      2948      4454      3422      3482
 -1     30925    3    0    1
 -2      4904      3127      3762      4294
 -1     30926    3    0    1
 -2      5610      5103      5296      5683
 -1     30927    3    0    1
 -2      5626      5087      5079      5300
 -1     30928    3    0    1
 -2       515      1004       517      2353
 -1     30929    3    0    1
 -2      7904      9129      5915      7918
 -1     30930    3    0    1
 -2      1804      2896      1081      1747
 -1     30931    3    0    1
 -2      6170      5452      5386      6247
 -1     30932    3    0    1
 -2      6568      8735      8288      5910
 -1     30933    3    0    1
 -2      7276      6364      5897      6412
 -1     30934    3    0    1
 -2      5496      7310      7830      7352
 -1     30935    3    0    1
 -2      1307      1306       692      3192
 -1     30936    3    0    1
 -2      4916      5331      5156      5733
 -1     30937    3    0    1
 -2      1977      3101      3086      1978
 -1     30938    3    0    1
 -2      3062      1123       661      1818
 -1     30939    3    0    1
 -2      7717      8609      9314      9043
 -1     30940    3    0    1
 -2      9398      9425      7923      6620
 -1     30941    3    0    1
 -2      5674      5661      5596      6691
 -1     30942    3    0    1
 -2      3966      3408      1686      3390
 -1     30943    3    0    1
 -2      5539      5883      5073      5011
 -1     30944    3    0    1
 -2      3132      3750      3154      3180
 -1     30945    3    0    1
 -2      6334      6433      6432      7280
 -1     30946    3    0    1
 -2      1917      3635      1225      1883
 -1     30947    3    0    1
 -2      7006      6917      8047      7578
 -1     30948    3    0    1
 -2      7374      7333      5921      8285
 -1     30949    3    0    1
 -2      6025      7995      8351      7516
 -1     30950    3    0    1
 -2      1293      1332       696      1292
 -1     30951    3    0    1
 -2      4475      3499      4808      4082
 -1     30952    3    0    1
 -2      8325      9157      9433      9140
 -1     30953    3    0    1
 -2      4495      4771      4772      5023
 -1     30954    3    0    1
 -2      8895      8520      8063      9254
 -1     30955    3    0    1
 -2      2800      3891      1509      2255
 -1     30956    3    0    1
 -2      4466      5042      4817      4810
 -1     30957    3    0    1
 -2      5708      7011      5707      5202
 -1     30958    3    0    1
 -2      4408      2839      3387      1620
 -1     30959    3    0    1
 -2      2008      2536      1952      2537
 -1     30960    3    0    1
 -2      5678      7523      7451      7546
 -1     30961    3    0    1
 -2      6739      7541      7985      7517
 -1     30962    3    0    1
 -2      2667      4311      3841      3258
 -1     30963    3    0    1
 -2      2599      3148      3822      2097
 -1     30964    3    0    1
 -2      7329      5885      5886      8279
 -1     30965    3    0    1
 -2       702      2545      1269      1268
 -1     30966    3    0    1
 -2      1133       548       547      1787
 -1     30967    3    0    1
 -2      7886      8795      6636      9145
 -1     30968    3    0    1
 -2      5192      4604      4605      5154
 -1     30969    3    0    1
 -2      5621      5299      5653      5963
 -1     30970    3    0    1
 -2      7842      9081      8687      8264
 -1     30971    3    0    1
 -2      5731      4934      5762      4935
 -1     30972    3    0    1
 -2      6683      6681      7421      6682
 -1     30973    3    0    1
 -2      3073       650      1246      3648
 -1     30974    3    0    1
 -2      6288      7222      8152      5831
 -1     30975    3    0    1
 -2      7599      8864      8049      7639
 -1     30976    3    0    1
 -2      3760      3235      4309      3775
 -1     30977    3    0    1
 -2      1957      1246      1933      2539
 -1     30978    3    0    1
 -2      5785      6238      6128      5232
 -1     30979    3    0    1
 -2      2547      2536      2008      3699
 -1     30980    3    0    1
 -2      5235      5387      5453      4706
 -1     30981    3    0    1
 -2      6502      8265      7861      9084
 -1     30982    3    0    1
 -2      1276      1275      1277      2565
 -1     30983    3    0    1
 -2      1398      2031      1371      4269
 -1     30984    3    0    1
 -2      4486      4441      5050      4439
 -1     30985    3    0    1
 -2      7776      9008      9039      7192
 -1     30986    3    0    1
 -2      1239       687       269      3000
 -1     30987    3    0    1
 -2      5627      4842      5092      5672
 -1     30988    3    0    1
 -2      4589      1950      3110      3694
 -1     30989    3    0    1
 -2      3719      3185      2052      3812
 -1     30990    3    0    1
 -2      1661      1046      1660      3414
 -1     30991    3    0    1
 -2      2463      1198      1150      1841
 -1     30992    3    0    1
 -2      2899      2412      3529      4007
 -1     30993    3    0    1
 -2      1115      1675      3492      1788
 -1     30994    3    0    1
 -2      7841      5484      7856      6494
 -1     30995    3    0    1
 -2      8895      7544      7602      9214
 -1     30996    3    0    1
 -2      6143      6144      6253      5391
 -1     30997    3    0    1
 -2       869       848      2711      1492
 -1     30998    3    0    1
 -2      8566      9306      9581      9551
 -1     30999    3    0    1
 -2      3542      3556       614      2896
 -1     31000    3    0    1
 -2      6162      6235      5783      5231
 -1     31001    3    0    1
 -2      4251      3768      4303      4682
 -1     31002    3    0    1
 -2      5495      8249      7248      6409
 -1     31003    3    0    1
 -2      8428      8834      7567      8437
 -1     31004    3    0    1
 -2      5918      5884      5521      5486
 -1     31005    3    0    1
 -2      9033      8166      7240      5815
 -1     31006    3    0    1
 -2      4479      4451      5248      4450
 -1     31007    3    0    1
 -2      7391      5935      7336      8734
 -1     31008    3    0    1
 -2      4835      4583      3040      3606
 -1     31009    3    0    1
 -2      1109      1108      1777      2384
 -1     31010    3    0    1
 -2      6252      8190      8141      6172
 -1     31011    3    0    1
 -2      1642      3456      1687      1686
 -1     31012    3    0    1
 -2      6963      7651      7675      8479
 -1     31013    3    0    1
 -2      5254      6581      5536      7321
 -1     31014    3    0    1
 -2      8858      6988      8023      9215
 -1     31015    3    0    1
 -2      1284      2559      2600      1283
 -1     31016    3    0    1
 -2      5200      5199      5205      5328
 -1     31017    3    0    1
 -2      4324      5229      5461      4740
 -1     31018    3    0    1
 -2       605       628      1801      1816
 -1     31019    3    0    1
 -2      1885      3062      1884      1181
 -1     31020    3    0    1
 -2      8444      6935      6998      7612
 -1     31021    3    0    1
 -2      5341      6995      5695      5746
 -1     31022    3    0    1
 -2      5713      5696      7593      8039
 -1     31023    3    0    1
 -2      8707      8680      9085      7845
 -1     31024    3    0    1
 -2      7032      6994      9209      9231
 -1     31025    3    0    1
 -2      8680      6384      7258      8257
 -1     31026    3    0    1
 -2      5643      5584      6021      5122
 -1     31027    3    0    1
 -2      4500      3549      3511      4046
 -1     31028    3    0    1
 -2      5938      6598      5557      5904
 -1     31029    3    0    1
 -2      6513      5570      5253      6574
 -1     31030    3    0    1
 -2      8490      8491      7598      6969
 -1     31031    3    0    1
 -2      7644      6985      6951      8035
 -1     31032    3    0    1
 -2      6649      5607      5985      5648
 -1     31033    3    0    1
 -2      6913      6786      6830      8012
 -1     31034    3    0    1
 -2      6501      7332      5506      5522
 -1     31035    3    0    1
 -2      1257      1227      1942      1920
 -1     31036    3    0    1
 -2      6818      5678      7451      7546
 -1     31037    3    0    1
 -2      7733      6308      6193      9020
 -1     31038    3    0    1
 -2      3913      4358      4399      3381
 -1     31039    3    0    1
 -2      4928      4307      3835      3754
 -1     31040    3    0    1
 -2      2126       697      2049      3768
 -1     31041    3    0    1
 -2      6935      7611      6998      7612
 -1     31042    3    0    1
 -2      7851      8297      8298      8320
 -1     31043    3    0    1
 -2      6152      7173      9029      7747
 -1     31044    3    0    1
 -2      3585      4132      2424      3047
 -1     31045    3    0    1
 -2      7017      5710      6058      5762
 -1     31046    3    0    1
 -2      5468      6246      6356      7243
 -1     31047    3    0    1
 -2      7450      6721      7449      7982
 -1     31048    3    0    1
 -2      6850      8436      7554      6851
 -1     31049    3    0    1
 -2      7628      7668      8925      7017
 -1     31050    3    0    1
 -2      8202      7230      6263      8164
 -1     31051    3    0    1
 -2      5014      5048      5064      5530
 -1     31052    3    0    1
 -2      8841      8829      7504      9193
 -1     31053    3    0    1
 -2      7809      7163      9063      8649
 -1     31054    3    0    1
 -2      4712      4957      4713      4399
 -1     31055    3    0    1
 -2      7545      8419      5654      7487
 -1     31056    3    0    1
 -2      2713      2221      3341      1494
 -1     31057    3    0    1
 -2      1625      3396      2803      1676
 -1     31058    3    0    1
 -2      7374      6504      8284      7373
 -1     31059    3    0    1
 -2      4556      4516      4579      4825
 -1     31060    3    0    1
 -2      8017      7999      6881      6802
 -1     31061    3    0    1
 -2      8812      7530      6798      5607
 -1     31062    3    0    1
 -2      4013      3516      1797      1765
 -1     31063    3    0    1
 -2      5160      4621      4622      4676
 -1     31064    3    0    1
 -2      6365      6277      5852      7173
 -1     31065    3    0    1
 -2      4923      4680      4681      3750
 -1     31066    3    0    1
 -2      3136      4240      2091      3135
 -1     31067    3    0    1
 -2       324       287       709      9668
 -1     31068    3    0    1
 -2      8060      7021      7022      8464
 -1     31069    3    0    1
 -2      8663      9055      6212      8664
 -1     31070    3    0    1
 -2      3876      4700      4366      3853
 -1     31071    3    0    1
 -2      3486      1109      1709      2384
 -1     31072    3    0    1
 -2      7418      7451      6639      9164
 -1     31073    3    0    1
 -2      6084      5772      5188      6067
 -1     31074    3    0    1
 -2      8933      8532      9247      7101
 -1     31075    3    0    1
 -2      6105      7013      6096      5759
 -1     31076    3    0    1
 -2      3188      3223      3187      4652
 -1     31077    3    0    1
 -2      5937      5575      5555      6615
 -1     31078    3    0    1
 -2       697       698      1295      1294
 -1     31079    3    0    1
 -2      6147      7745      6212      7166
 -1     31080    3    0    1
 -2      4632      4273      4633      3746
 -1     31081    3    0    1
 -2      2007      1340       770      3160
 -1     31082    3    0    1
 -2      6835      8424      6833      7475
 -1     31083    3    0    1
 -2      5415      5211      6132      5376
 -1     31084    3    0    1
 -2      4251      4593      4682      4885
 -1     31085    3    0    1
 -2      1379      1284      1380      2046
 -1     31086    3    0    1
 -2      7941      9130      9422      7919
 -1     31087    3    0    1
 -2      1592      1608       964      2764
 -1     31088    3    0    1
 -2      3207      4253      3249      3159
 -1     31089    3    0    1
 -2      7529      5663      7502      6731
 -1     31090    3    0    1
 -2      8466      8062      6986      8894
 -1     31091    3    0    1
 -2      4428      2865      3996      2391
 -1     31092    3    0    1
 -2      4377      4711      4992      4376
 -1     31093    3    0    1
 -2      6557      6580      6556      8306
 -1     31094    3    0    1
 -2      6334      7233      8227      7280
 -1     31095    3    0    1
 -2      2035      2018      1323      1322
 -1     31096    3    0    1
 -2      5092      4823      5291      5140
 -1     31097    3    0    1
 -2      7262      8241      8196      6366
 -1     31098    3    0    1
 -2      3202      4668      4280      3842
 -1     31099    3    0    1
 -2      5543      5018      5258      4798
 -1     31100    3    0    1
 -2      3767      3206      3180      3245
 -1     31101    3    0    1
 -2      2527      3097      3670      4194
 -1     31102    3    0    1
 -2      9077      9362      9384      9117
 -1     31103    3    0    1
 -2      6598      6658      5960      5959
 -1     31104    3    0    1
 -2      7905      6553      7874      8302
 -1     31105    3    0    1
 -2      9271      6120      7622      7011
 -1     31106    3    0    1
 -2       958      3324      2806      2284
 -1     31107    3    0    1
 -2      5851      7214      7164      6273
 -1     31108    3    0    1
 -2       990       991      1706      3484
 -1     31109    3    0    1
 -2      6099      5745      7091      6112
 -1     31110    3    0    1
 -2       481       976       918      2243
 -1     31111    3    0    1
 -2      9154      7901      7432      6649
 -1     31112    3    0    1
 -2      6748      6724      5587      7954
 -1     31113    3    0    1
 -2      8892      7586      6949      8462
 -1     31114    3    0    1
 -2      3226      1392      1413      2626
 -1     31115    3    0    1
 -2      5398      7778      7748      9012
 -1     31116    3    0    1
 -2      7167      8654      5470      7172
 -1     31117    3    0    1
 -2      4084      4446      2912      2911
 -1     31118    3    0    1
 -2      4135      3660      2475      2997
 -1     31119    3    0    1
 -2      5028      4773      4801      4443
 -1     31120    3    0    1
 -2      8771      6719      5977      7924
 -1     31121    3    0    1
 -2      5862      7829      6321      5861
 -1     31122    3    0    1
 -2      6139      6168      6138      9672
 -1     31123    3    0    1
 -2      1705      1036      1647      3459
 -1     31124    3    0    1
 -2      3797      3815      2062      4241
 -1     31125    3    0    1
 -2      6452      7356      6556      8306
 -1     31126    3    0    1
 -2      2575      2056      2613      2576
 -1     31127    3    0    1
 -2      2477      2475      4135      4180
 -1     31128    3    0    1
 -2      3459      1705      1036      2854
 -1     31129    3    0    1
 -2      3358      3932      2723      1569
 -1     31130    3    0    1
 -2      1541      1542      2801      1500
 -1     31131    3    0    1
 -2      6164      7760      8613      6189
 -1     31132    3    0    1
 -2      3259      4915      4302      4288
 -1     31133    3    0    1
 -2      1036      1035      1647      2854
 -1     31134    3    0    1
 -2      4108      3526      2945      2465
 -1     31135    3    0    1
 -2      2042      3097      1996      3710
 -1     31136    3    0    1
 -2      2058      1269      2546      4217
 -1     31137    3    0    1
 -2      8868      8892      7586      9253
 -1     31138    3    0    1
 -2      1902      4178      1855      2509
 -1     31139    3    0    1
 -2      5704      6899      6898      6875
 -1     31140    3    0    1
 -2      2952      1105      1089      1759
 -1     31141    3    0    1
 -2      5692      7592      8882      8850
 -1     31142    3    0    1
 -2      4661      5718      5327      5198
 -1     31143    3    0    1
 -2      6064      5712      5157      5694
 -1     31144    3    0    1
 -2      4367      4392      3895      4728
 -1     31145    3    0    1
 -2      1029       531      1030      1711
 -1     31146    3    0    1
 -2      5019      5065      4430      4768
 -1     31147    3    0    1
 -2      7363      8311      8719      6529
 -1     31148    3    0    1
 -2      4826      4532      4173      4852
 -1     31149    3    0    1
 -2      7342      7380      6610      7429
 -1     31150    3    0    1
 -2      6020      6717      7979      7965
 -1     31151    3    0    1
 -2      4670      4651      4289      5347
 -1     31152    3    0    1
 -2      6815      6885      7590      8000
 -1     31153    3    0    1
 -2      2505      2506      4156      1899
 -1     31154    3    0    1
 -2      7100      8108      8976      7690
 -1     31155    3    0    1
 -2      7548      7984      6782      7471
 -1     31156    3    0    1
 -2      6542      6471      8317      6470
 -1     31157    3    0    1
 -2      4926      4891      4655      4892
 -1     31158    3    0    1
 -2      3121      1353      3188      3134
 -1     31159    3    0    1
 -2      4395      5448      4964      5213
 -1     31160    3    0    1
 -2      7336      7305      8309      8734
 -1     31161    3    0    1
 -2      9160      7920      7943      5957
 -1     31162    3    0    1
 -2      5692      6062      6049      7629
 -1     31163    3    0    1
 -2      3653      3085      4184      1894
 -1     31164    3    0    1
 -2      4711      3880      4747      4376
 -1     31165    3    0    1
 -2      6730      5675      7500      7476
 -1     31166    3    0    1
 -2      1632      1633      2286      3972
 -1     31167    3    0    1
 -2      8066      6082      8898      9258
 -1     31168    3    0    1
 -2      4616      4937      4660      3778
 -1     31169    3    0    1
 -2      5180      5751      5358      6053
 -1     31170    3    0    1
 -2      4811      4414      4482      5062
 -1     31171    3    0    1
 -2      4169      4550      4588      4587
 -1     31172    3    0    1
 -2      7989      5655      6672      8796
 -1     31173    3    0    1
 -2      6745      7414      6636      8794
 -1     31174    3    0    1
 -2      2548      1954      1995      2538
 -1     31175    3    0    1
 -2       998       997       547      2885
 -1     31176    3    0    1
 -2      7379      8738      7378      6544
 -1     31177    3    0    1
 -2      8278      6533      6495      6459
 -1     31178    3    0    1
 -2      8199      7227      5832      7198
 -1     31179    3    0    1
 -2      4560      4164      5081      4559
 -1     31180    3    0    1
 -2      1684      3389      1640      3379
 -1     31181    3    0    1
 -2      3496      3452      3475      4091
 -1     31182    3    0    1
 -2      7766      8203      6227      7157
 -1     31183    3    0    1
 -2      1601      2282      2296      2305
 -1     31184    3    0    1
 -2      8737      9126      7378      5924
 -1     31185    3    0    1
 -2      8924      7666      7667      6981
 -1     31186    3    0    1
 -2      7936      9167      6700      5602
 -1     31187    3    0    1
 -2      4492      4016      5270      5063
 -1     31188    3    0    1
 -2      4123      4122      3036      4124
 -1     31189    3    0    1
 -2      4902      3724      4684      4617
 -1     31190    3    0    1
 -2      3898      2215      3288      1554
 -1     31191    3    0    1
 -2      3168      3783      2663      2568
 -1     31192    3    0    1
 -2       247       270      1220       651
 -1     31193    3    0    1
 -2      4581      4580      4547      5141
 -1     31194    3    0    1
 -2       860      2263      2758      2213
 -1     31195    3    0    1
 -2      2607      3153      4282      2625
 -1     31196    3    0    1
 -2      6187      6280      6188      5842
 -1     31197    3    0    1
 -2      2212      2720      3283      1513
 -1     31198    3    0    1
 -2      8770      6636      7414      8794
 -1     31199    3    0    1
 -2      2618      2626      2059      4254
 -1     31200    3    0    1
 -2      4825      5657      5590      5107
 -1     31201    3    0    1
 -2      3430      4017      4059      2354
 -1     31202    3    0    1
 -2       969       980       505       910
 -1     31203    3    0    1
 -2      1671      3413      2330      1618
 -1     31204    3    0    1
 -2      2413      2414      1107      3485
 -1     31205    3    0    1
 -2      1314       710      2591      1316
 -1     31206    3    0    1
 -2      2568      2557      3167      2032
 -1     31207    3    0    1
 -2      1642      3455      3456      1686
 -1     31208    3    0    1
 -2      2125      1404       754      1384
 -1     31209    3    0    1
 -2      8744      7381      6518      8325
 -1     31210    3    0    1
 -2      3026      1871      3647      3028
 -1     31211    3    0    1
 -2      2025      3188      3187      3121
 -1     31212    3    0    1
 -2      5264      5943      5540      5015
 -1     31213    3    0    1
 -2      7006      5703      6917      7578
 -1     31214    3    0    1
 -2      6983      7056      7015      6982
 -1     31215    3    0    1
 -2      3720      3704      1904      3120
 -1     31216    3    0    1
 -2       748       338       340      2045
 -1     31217    3    0    1
 -2      5909      7305      5492      5935
 -1     31218    3    0    1
 -2      8760      8718      7910      6488
 -1     31219    3    0    1
 -2      6156      4949      5228      5802
 -1     31220    3    0    1
 -2      8220      9040      9055      7171
 -1     31221    3    0    1
 -2      7806      8228      7245      6301
 -1     31222    3    0    1
 -2      9531      9292      8945      8548
 -1     31223    3    0    1
 -2      2811      3398      1679      3374
 -1     31224    3    0    1
 -2       861       860       877      2196
 -1     31225    3    0    1
 -2      2046      3716      2600      1284
 -1     31226    3    0    1
 -2      5263      5538      5245      5043
 -1     31227    3    0    1
 -2      4170      3581      3623      4115
 -1     31228    3    0    1
 -2      7461      5681      7456      6702
 -1     31229    3    0    1
 -2      3384      2792      1647      1613
 -1     31230    3    0    1
 -2      6791      5663      8407      6789
 -1     31231    3    0    1
 -2      5327      4907      4661      5198
 -1     31232    3    0    1
 -2       679      1867       239      9669
 -1     31233    3    0    1
 -2      7933      6001      8377      7425
 -1     31234    3    0    1
 -2      7070      8493      7010      6093
 -1     31235    3    0    1
 -2      4232      3204      2571      1982
 -1     31236    3    0    1
 -2      2488      4173      4104      3057
 -1     31237    3    0    1
 -2      5949      5526      5924      6508
 -1     31238    3    0    1
 -2      2362      4023      1734      2391
 -1     31239    3    0    1
 -2      7504      6793      6895      8408
 -1     31240    3    0    1
 -2      2279      2295      3395      1617
 -1     31241    3    0    1
 -2      1691      1657      2312      1656
 -1     31242    3    0    1
 -2      6400      5484      7856      7841
 -1     31243    3    0    1
 -2      2210      2719      3280      1511
 -1     31244    3    0    1
 -2      8055      7023      8857      9213
 -1     31245    3    0    1
 -2      3357      2299      1567      1645
 -1     31246    3    0    1
 -2      7644      5740      8035      8061
 -1     31247    3    0    1
 -2      5651      5580      5309      5652
 -1     31248    3    0    1
 -2      3205      4203      3718      3179
 -1     31249    3    0    1
 -2      3362      3335      2187      3871
 -1     31250    3    0    1
 -2       818       459        92       817
 -1     31251    3    0    1
 -2      2434      3605      1172      1829
 -1     31252    3    0    1
 -2      1943      3683      2522      1922
 -1     31253    3    0    1
 -2      8748      7279      7348      8703
 -1     31254    3    0    1
 -2      3767      3212      3809      1332
 -1     31255    3    0    1
 -2      5793      7243      8634      9672
 -1     31256    3    0    1
 -2      8461      6911      6872      7548
 -1     31257    3    0    1
 -2      3290      1502      1556      2238
 -1     31258    3    0    1
 -2      3081      3682      4212      2017
 -1     31259    3    0    1
 -2      1691      2846      2845      1657
 -1     31260    3    0    1
 -2      7486      6020      7521      7965
 -1     31261    3    0    1
 -2      3534      3413      4074      4467
 -1     31262    3    0    1
 -2      4978      4950      5413      4977
 -1     31263    3    0    1
 -2      3791      4302      3792      3205
 -1     31264    3    0    1
 -2      6067      6967      6066      6068
 -1     31265    3    0    1
 -2      7033      7674      8526      8903
 -1     31266    3    0    1
 -2      3444      3991      2856      3513
 -1     31267    3    0    1
 -2      5274      5545      6463      5021
 -1     31268    3    0    1
 -2      4131      4553      4552      4857
 -1     31269    3    0    1
 -2      6543      7898      8767      7897
 -1     31270    3    0    1
 -2      6327      6326      7226      7263
 -1     31271    3    0    1
 -2      6321      8664      8663      5469
 -1     31272    3    0    1
 -2      2175       877       903      1550
 -1     31273    3    0    1
 -2      9212      7532      6883      8009
 -1     31274    3    0    1
 -2      4851      4579      5107      5124
 -1     31275    3    0    1
 -2      7884      8769      5961      7412
 -1     31276    3    0    1
 -2       737       790       757       312
 -1     31277    3    0    1
 -2      8043      9492      9234      9504
 -1     31278    3    0    1
 -2       475       829       912      2709
 -1     31279    3    0    1
 -2      4669      4647      4646      3792
 -1     31280    3    0    1
 -2      6500      5258      5542      5888
 -1     31281    3    0    1
 -2      6657      5955      6742      5619
 -1     31282    3    0    1
 -2      5916      5882      5880      5881
 -1     31283    3    0    1
 -2      2481      2482      4142      4141
 -1     31284    3    0    1
 -2      8421      6818      7451      7546
 -1     31285    3    0    1
 -2      2239      1592       964      2764
 -1     31286    3    0    1
 -2      7101      8933      8934      6069
 -1     31287    3    0    1
 -2      6519      6579      7355      5511
 -1     31288    3    0    1
 -2      6032      6033      7587      7533
 -1     31289    3    0    1
 -2      4683      3236      3779      3776
 -1     31290    3    0    1
 -2      7855      8722      8312      6532
 -1     31291    3    0    1
 -2      3756      4308      3758      2641
 -1     31292    3    0    1
 -2      5328      5182      5205      4908
 -1     31293    3    0    1
 -2      6463      6503      5489      5545
 -1     31294    3    0    1
 -2      2407      1770      4063      1742
 -1     31295    3    0    1
 -2      1560       843       434      1477
 -1     31296    3    0    1
 -2      5654      6776      7448      7522
 -1     31297    3    0    1
 -2      4636      4276      3174      4932
 -1     31298    3    0    1
 -2      5745      6064      5712      5354
 -1     31299    3    0    1
 -2      7280      8252      7318      8684
 -1     31300    3    0    1
 -2      1078      4000      2873      1745
 -1     31301    3    0    1
 -2      7474      8378      8804      7475
 -1     31302    3    0    1
 -2      6873      6894      7538      6791
 -1     31303    3    0    1
 -2      4196      3713      3714      1965
 -1     31304    3    0    1
 -2      2410      1793      1750      2897
 -1     31305    3    0    1
 -2      8481      6936      6965      8482
 -1     31306    3    0    1
 -2      6318      7821      8232      5860
 -1     31307    3    0    1
 -2      8321      6580      8765      8306
 -1     31308    3    0    1
 -2      6569      8317      7898      6542
 -1     31309    3    0    1
 -2      3783      4318      3168      2663
 -1     31310    3    0    1
 -2      8308      7847      7375      9086
 -1     31311    3    0    1
 -2      3929      2267      1515      3899
 -1     31312    3    0    1
 -2      5055      5518      5245      5043
 -1     31313    3    0    1
 -2      2501      2986      1207      3044
 -1     31314    3    0    1
 -2      3756      2068      2028      2584
 -1     31315    3    0    1
 -2      3196      4661      3743      4677
 -1     31316    3    0    1
 -2      3669      1961      3689      3058
 -1     31317    3    0    1
 -2      3408      3455      3966      1686
 -1     31318    3    0    1
 -2      5299      4513      4820      5086
 -1     31319    3    0    1
 -2      1869      1836      2479      2444
 -1     31320    3    0    1
 -2      1170      1203      2433      3602
 -1     31321    3    0    1
 -2      2805      2297      1627      3958
 -1     31322    3    0    1
 -2      7516      6025      7995      6024
 -1     31323    3    0    1
 -2      5882      8274      5916      5880
 -1     31324    3    0    1
 -2      4295      2644      3745      4678
 -1     31325    3    0    1
 -2      7463      8832      9181      9470
 -1     31326    3    0    1
 -2      5442      6161      7178      5782
 -1     31327    3    0    1
 -2      5491      5490      4434      5022
 -1     31328    3    0    1
 -2      7592      5692      6887      8850
 -1     31329    3    0    1
 -2      5285      5042      4795      4810
 -1     31330    3    0    1
 -2      2352      4013      1797      1724
 -1     31331    3    0    1
 -2      3746      3727      3702      1377
 -1     31332    3    0    1
 -2      2476      1835      2477      4135
 -1     31333    3    0    1
 -2      2858      3468       999      2905
 -1     31334    3    0    1
 -2      3174      3716      4275      4298
 -1     31335    3    0    1
 -2      1073      1072      1071      3477
 -1     31336    3    0    1
 -2      7528      8807      7970      6003
 -1     31337    3    0    1
 -2      2579      1270      2009      3738
 -1     31338    3    0    1
 -2      1763      3513      1059      1715
 -1     31339    3    0    1
 -2      1214      2510      3617      1926
 -1     31340    3    0    1
 -2      7173      6277      5852      5799
 -1     31341    3    0    1
 -2      8307      6499      8688      8727
 -1     31342    3    0    1
 -2      3167      3145      4210      1990
 -1     31343    3    0    1
 -2       358       736       309      1428
 -1     31344    3    0    1
 -2      3227      2129      1357      3752
 -1     31345    3    0    1
 -2      5079      4873      5626      5106
 -1     31346    3    0    1
 -2      7511      8359      8846      6755
 -1     31347    3    0    1
 -2      7030      6051      6050      8507
 -1     31348    3    0    1
 -2      1358       771       735      3139
 -1     31349    3    0    1
 -2      5829      6216      8152      6218
 -1     31350    3    0    1
 -2      7032      9209      6994      8024
 -1     31351    3    0    1
 -2      1863      1239      3624      3000
 -1     31352    3    0    1
 -2      7197      5458      6326      7225
 -1     31353    3    0    1
 -2       939      1647      2792      1613
 -1     31354    3    0    1
 -2      4751      5440      5441      4721
 -1     31355    3    0    1
 -2      5018      5543      5888      4787
 -1     31356    3    0    1
 -2      1337      1904      1297      3720
 -1     31357    3    0    1
 -2      3811      2126      1408      3155
 -1     31358    3    0    1
 -2      4922      5207      4688      4667
 -1     31359    3    0    1
 -2      4504      2958      2929      4116
 -1     31360    3    0    1
 -2      8760      7910      7363      6488
 -1     31361    3    0    1
 -2      9434      9182      7397      9158
 -1     31362    3    0    1
 -2       880       429       879      1475
 -1     31363    3    0    1
 -2      7319      6453      8268      6436
 -1     31364    3    0    1
 -2      2999      3063      3676      1888
 -1     31365    3    0    1
 -2      9614      6635      7951      9462
 -1     31366    3    0    1
 -2      6842      6917      8028      6874
 -1     31367    3    0    1
 -2      5321      5303      6642      5659
 -1     31368    3    0    1
 -2      3354      2740      2767      3924
 -1     31369    3    0    1
 -2      1407      1406      3829      1389
 -1     31370    3    0    1
 -2      1148      1814      1137      2971
 -1     31371    3    0    1
 -2      4860      4859      5080      5088
 -1     31372    3    0    1
 -2      3276      2209      1536      3367
 -1     31373    3    0    1
 -2      1014      1015      1016      3453
 -1     31374    3    0    1
 -2      3496      3475      3452      4431
 -1     31375    3    0    1
 -2      6254      8161      8151      6211
 -1     31376    3    0    1
 -2      8962      9239      8083      7105
 -1     31377    3    0    1
 -2      5620      4818      4819      5116
 -1     31378    3    0    1
 -2      1904      2003      3720      3120
 -1     31379    3    0    1
 -2      6539      7376      7391      8287
 -1     31380    3    0    1
 -2      4300      2636      2637      2084
 -1     31381    3    0    1
 -2      7890      8278      7327      6458
 -1     31382    3    0    1
 -2      5767      4894      5326      5208
 -1     31383    3    0    1
 -2      2799      2303      1619      1618
 -1     31384    3    0    1
 -2      6719      8398      5671      6812
 -1     31385    3    0    1
 -2      2054      2574      2055      3157
 -1     31386    3    0    1
 -2       785      1425      1406      1389
 -1     31387    3    0    1
 -2      6173      8127      7714      7119
 -1     31388    3    0    1
 -2      3595      1816      1165      2430
 -1     31389    3    0    1
 -2      1161      1112       624       554
 -1     31390    3    0    1
 -2      8338      8350      8390      7436
 -1     31391    3    0    1
 -2      4517      3594      4533      4546
 -1     31392    3    0    1
 -2      4836      5665      5611      5613
 -1     31393    3    0    1
 -2      3361      3303       884      2202
 -1     31394    3    0    1
 -2      8920      8887      9270      7633
 -1     31395    3    0    1
 -2      6400      6380      6379      6340
 -1     31396    3    0    1
 -2      4769      4494      4431      5021
 -1     31397    3    0    1
 -2      3202      3131      1286      1288
 -1     31398    3    0    1
 -2      8907      7563      7612      8873
 -1     31399    3    0    1
 -2      8578      9006      9299      9672
 -1     31400    3    0    1
 -2      4193      3075      3688      3631
 -1     31401    3    0    1
 -2      5445      7808      8627      5816
 -1     31402    3    0    1
 -2      8149      6201      6200      8633
 -1     31403    3    0    1
 -2      8826      7984      7548      7471
 -1     31404    3    0    1
 -2      3867      2741      2232      2181
 -1     31405    3    0    1
 -2      1259      3041      1206      1891
 -1     31406    3    0    1
 -2      8733      7272      7335      8702
 -1     31407    3    0    1
 -2      5391      6172      6253      5392
 -1     31408    3    0    1
 -2      6887      6869      7592      8420
 -1     31409    3    0    1
 -2      8890      7628      8925      7017
 -1     31410    3    0    1
 -2        79        80       420      2169
 -1     31411    3    0    1
 -2      7745      9009      6212      8615
 -1     31412    3    0    1
 -2      4154      3611      2503      1854
 -1     31413    3    0    1
 -2      2357      3449       985      2888
 -1     31414    3    0    1
 -2      6538      7896      7374      8285
 -1     31415    3    0    1
 -2      7365      8722      7840      6532
 -1     31416    3    0    1
 -2       987       533       162      2376
 -1     31417    3    0    1
 -2      3387      2827      4408      1620
 -1     31418    3    0    1
 -2      8143      7151      8608      5395
 -1     31419    3    0    1
 -2      8066      7089      6082      8523
 -1     31420    3    0    1
 -2       785       355      1426      1350
 -1     31421    3    0    1
 -2       775       326       776      1343
 -1     31422    3    0    1
 -2      3518      3430      1798      1725
 -1     31423    3    0    1
 -2      8479      6963      7610      8478
 -1     31424    3    0    1
 -2      2288      1637       965      1560
 -1     31425    3    0    1
 -2      6838      7550      6893      6837
 -1     31426    3    0    1
 -2      1674      3429      3404      2305
 -1     31427    3    0    1
 -2      3700      2525      3104      4591
 -1     31428    3    0    1
 -2      7315      5898      8251      7870
 -1     31429    3    0    1
 -2      5851      5828      5826      5827
 -1     31430    3    0    1
 -2      4302      4288      3791      3259
 -1     31431    3    0    1
 -2      8938      8087      9253      9505
 -1     31432    3    0    1
 -2      5675      7500      8405      6788
 -1     31433    3    0    1
 -2      8812      7539      8411      6798
 -1     31434    3    0    1
 -2      7469      6678      8343      8371
 -1     31435    3    0    1
 -2      6212      8663      8664      5469
 -1     31436    3    0    1
 -2      5547      5523      5490      5022
 -1     31437    3    0    1
 -2      2365      1098      1099      1769
 -1     31438    3    0    1
 -2      3928      2775      2778      3915
 -1     31439    3    0    1
 -2      6975      7621      7071      6074
 -1     31440    3    0    1
 -2      1150      1198      1166      1841
 -1     31441    3    0    1
 -2      8637      7193      7148      7221
 -1     31442    3    0    1
 -2      2224      1515      1559      3899
 -1     31443    3    0    1
 -2      5769      7033      5695      5355
 -1     31444    3    0    1
 -2      7582      8451      8016      6881
 -1     31445    3    0    1
 -2      7909      7910      8718      6488
 -1     31446    3    0    1
 -2      5184      5185      5329      4686
 -1     31447    3    0    1
 -2      5455      6145      7221      7784
 -1     31448    3    0    1
 -2      3331      3880      4377      3355
 -1     31449    3    0    1
 -2      6586      6604      5934      6535
 -1     31450    3    0    1
 -2      3351      4744      4756      4342
 -1     31451    3    0    1
 -2      4917      4657      5178      5193
 -1     31452    3    0    1
 -2      5945      5970      6644      5631
 -1     31453    3    0    1
 -2      7892      7911      8772      9400
 -1     31454    3    0    1
 -2      5519      5933      6492      5269
 -1     31455    3    0    1
 -2      4657      5156      5178      5193
 -1     31456    3    0    1
 -2      7582      8051      6921      5330
 -1     31457    3    0    1
 -2      5560      5559      5521      5918
 -1     31458    3    0    1
 -2      6973      7632      6073      6057
 -1     31459    3    0    1
 -2      6844      5682      8831      6846
 -1     31460    3    0    1
 -2       570       569      1139      2893
 -1     31461    3    0    1
 -2      4739      4971      4998      3360
 -1     31462    3    0    1
 -2      1053      1127      2914      1052
 -1     31463    3    0    1
 -2      5775      5703      5334      5735
 -1     31464    3    0    1
 -2      8327      6557      6580      7906
 -1     31465    3    0    1
 -2      1377      2017      3727      1972
 -1     31466    3    0    1
 -2      1905      1928      1238      2457
 -1     31467    3    0    1
 -2      3477      1071      1738      3501
 -1     31468    3    0    1
 -2      1294      1992      1295      3184
 -1     31469    3    0    1
 -2      4292      5195      4900      5356
 -1     31470    3    0    1
 -2      8909      8908      7652      8056
 -1     31471    3    0    1
 -2      1362       693       738      3194
 -1     31472    3    0    1
 -2      3302      3334      1491      2242
 -1     31473    3    0    1
 -2      1827      2490      3593      3650
 -1     31474    3    0    1
 -2      2800      1509      3891      2209
 -1     31475    3    0    1
 -2      8170      8239      6315      8672
 -1     31476    3    0    1
 -2      2749       897      1540      1483
 -1     31477    3    0    1
 -2      1064      1065      2402      1720
 -1     31478    3    0    1
 -2       250       224       249       653
 -1     31479    3    0    1
 -2      4822      5090      5089      5290
 -1     31480    3    0    1
 -2      5109      5097      5142      4562
 -1     31481    3    0    1
 -2      3429      3404      1002      1674
 -1     31482    3    0    1
 -2      4277      3729      3174      1380
 -1     31483    3    0    1
 -2      1628      3959      2317      2840
 -1     31484    3    0    1
 -2      5345      4933      4687      4921
 -1     31485    3    0    1
 -2      6776      8419      7534      7522
 -1     31486    3    0    1
 -2      6793      6896      7565      6792
 -1     31487    3    0    1
 -2      8377      9152      6687      7932
 -1     31488    3    0    1
 -2      1707       538       991      3484
 -1     31489    3    0    1
 -2      2339      3443       994      1666
 -1     31490    3    0    1
 -2      5251      5075      5496      5247
 -1     31491    3    0    1
 -2      5314      4860      5080      5088
 -1     31492    3    0    1
 -2      1321      3199      3746      1377
 -1     31493    3    0    1
 -2      7230      7200      6263      5837
 -1     31494    3    0    1
 -2      8838      5655      7573      8796
 -1     31495    3    0    1
 -2      9314      9302      8590      9359
 -1     31496    3    0    1
 -2       495       959      2262      1605
 -1     31497    3    0    1
 -2      1256      1204      3040      1890
 -1     31498    3    0    1
 -2      1875       626      1194      3592
 -1     31499    3    0    1
 -2      2613      2574      2056      2575
 -1     31500    3    0    1
 -2      3462      3549      3510      4046
 -1     31501    3    0    1
 -2      6165      7114      5788      5789
 -1     31502    3    0    1
 -2      6326      6327      6367      7263
 -1     31503    3    0    1
 -2      4845      4519      4518      4121
 -1     31504    3    0    1
 -2      1120      2392      1737      2364
 -1     31505    3    0    1
 -2      1675      3448      2932      3492
 -1     31506    3    0    1
 -2      5654      5582      5625      5300
 -1     31507    3    0    1
 -2      5364      4669      5209      4915
 -1     31508    3    0    1
 -2      3368      3369      2281      3387
 -1     31509    3    0    1
 -2      6708      6771      6709      6736
 -1     31510    3    0    1
 -2      5730      7109      6097      5778
 -1     31511    3    0    1
 -2      7033      7674      8903      7608
 -1     31512    3    0    1
 -2      7564      7577      7615      6967
 -1     31513    3    0    1
 -2      1207      1979      1229      3044
 -1     31514    3    0    1
 -2      8356      6821      5657      8402
 -1     31515    3    0    1
 -2      3614      1902      4158      2441
 -1     31516    3    0    1
 -2      2301      2844      3402      3952
 -1     31517    3    0    1
 -2      1985      1925      2508      1945
 -1     31518    3    0    1
 -2      8493      8511      8494      7620
 -1     31519    3    0    1
 -2      6774      6808      6773      6809
 -1     31520    3    0    1
 -2       609       637      1806      1822
 -1     31521    3    0    1
 -2      6513      5253      7313      6512
 -1     31522    3    0    1
 -2      7654      8932      7613      7003
 -1     31523    3    0    1
 -2      6833      5674      6835      7475
 -1     31524    3    0    1
 -2      8500      6944      7624      6945
 -1     31525    3    0    1
 -2      8438      8430      6882      6806
 -1     31526    3    0    1
 -2      3040      3576      4174      3606
 -1     31527    3    0    1
 -2      4541      4176      5104      4540
 -1     31528    3    0    1
 -2      8036      7028      7026      8897
 -1     31529    3    0    1
 -2      4364      4741      3874      4387
 -1     31530    3    0    1
 -2      1993      1992      1903      3089
 -1     31531    3    0    1
 -2      4518      3597      4845      4121
 -1     31532    3    0    1
 -2      2713      3341       870      1494
 -1     31533    3    0    1
 -2       450       862       428      2702
 -1     31534    3    0    1
 -2      5176      5192      5155      5691
 -1     31535    3    0    1
 -2      5897      7276      6412      6513
 -1     31536    3    0    1
 -2      3987      1650      2326      3977
 -1     31537    3    0    1
 -2       567       566      1020      2891
 -1     31538    3    0    1
 -2      3405      1624      3396      2316
 -1     31539    3    0    1
 -2      7632      9210      8449      8030
 -1     31540    3    0    1
 -2      5312      6019      5138      5618
 -1     31541    3    0    1
 -2      4016      1002      2860      2887
 -1     31542    3    0    1
 -2      7260      6506      7848      5027
 -1     31543    3    0    1
 -2      1673      3403      2839      1672
 -1     31544    3    0    1
 -2      2077      2643      3196      2078
 -1     31545    3    0    1
 -2      7668      8542      8925      7017
 -1     31546    3    0    1
 -2      9423      9162      9141      8362
 -1     31547    3    0    1
 -2      6554      6449      5502      7348
 -1     31548    3    0    1
 -2       322       323       286       375
 -1     31549    3    0    1
 -2      5735      5334      5775      5189
 -1     31550    3    0    1
 -2      4959      4759      5438      4750
 -1     31551    3    0    1
 -2      8507      6051      6050      8472
 -1     31552    3    0    1
 -2      4699      5788      5377      5789
 -1     31553    3    0    1
 -2      4975      4364      4741      4974
 -1     31554    3    0    1
 -2      3308      2276      3907      3309
 -1     31555    3    0    1
 -2      7004      5699      7594      7576
 -1     31556    3    0    1
 -2      1679      3964      3398      2811
 -1     31557    3    0    1
 -2      3283      2260      3941      3350
 -1     31558    3    0    1
 -2      2039      3182      3118      2024
 -1     31559    3    0    1
 -2      4010      3466      3488      4089
 -1     31560    3    0    1
 -2      5782      7178      5442      5407
 -1     31561    3    0    1
 -2      6508      5924      7308      5495
 -1     31562    3    0    1
 -2      8241      7262      6364      6366
 -1     31563    3    0    1
 -2      3226       733      1392      2058
 -1     31564    3    0    1
 -2      8036      7647      7028      8897
 -1     31565    3    0    1
 -2      4317      4942      4674      4611
 -1     31566    3    0    1
 -2      6282      5820      5821      6283
 -1     31567    3    0    1
 -2      2518      3651      1969      1884
 -1     31568    3    0    1
 -2      8864      7539      8448      7599
 -1     31569    3    0    1
 -2      9021      8994      8138      9036
 -1     31570    3    0    1
 -2      1240       643      1864      3021
 -1     31571    3    0    1
 -2      4774      5248      4451      4450
 -1     31572    3    0    1
 -2      5598      5971      7476      5947
 -1     31573    3    0    1
 -2      6025      6738      7464      7516
 -1     31574    3    0    1
 -2      3595      1165      1816      3032
 -1     31575    3    0    1
 -2      7442      6741      6655      6740
 -1     31576    3    0    1
 -2      5716      5159      4902      5196
 -1     31577    3    0    1
 -2      4727      4695      4694      4950
 -1     31578    3    0    1
 -2      6897      7565      8447      6896
 -1     31579    3    0    1
 -2      2857      2883      4050      2348
 -1     31580    3    0    1
 -2      6071      5755      7639      5728
 -1     31581    3    0    1
 -2      6782      6784      7548      7471
 -1     31582    3    0    1
 -2      5749      4660      5714      5357
 -1     31583    3    0    1
 -2      9032      9305      9003      8136
 -1     31584    3    0    1
 -2      7759      8148      8624      6185
 -1     31585    3    0    1
 -2      3907      2820      2276      1579
 -1     31586    3    0    1
 -2      7224      6325      5473      8223
 -1     31587    3    0    1
 -2      6083      7030      8507      8473
 -1     31588    3    0    1
 -2      1040      1055      1692      2855
 -1     31589    3    0    1
 -2      6831      6830      6785      6832
 -1     31590    3    0    1
 -2      6492      5009      7840      6491
 -1     31591    3    0    1
 -2      8818      9161      9160      7921
 -1     31592    3    0    1
 -2      6272      8650      8632      7794
 -1     31593    3    0    1
 -2      8721      6599      7886      9397
 -1     31594    3    0    1
 -2      6390      6391      7277      7822
 -1     31595    3    0    1
 -2      8637      9323      9054      7743
 -1     31596    3    0    1
 -2      7120      8602      8587      9326
 -1     31597    3    0    1
 -2      8138      5378      7139      9021
 -1     31598    3    0    1
 -2       728      1409      1352      2127
 -1     31599    3    0    1
 -2      3744      4270      3146      2079
 -1     31600    3    0    1
 -2      7835      7278      6516      8696
 -1     31601    3    0    1
 -2      7846      7333      7374      8285
 -1     31602    3    0    1
 -2       868       499       847       440
 -1     31603    3    0    1
 -2      8444      6889      6890      7563
 -1     31604    3    0    1
 -2       526      1010       560      3452
 -1     31605    3    0    1
 -2      5373      6239      5444      5433
 -1     31606    3    0    1
 -2      1382       752      2124      1383
 -1     31607    3    0    1
 -2      3756      4674      4610      4611
 -1     31608    3    0    1
 -2      3666      2445      3074      3667
 -1     31609    3    0    1
 -2      3419      1700      1632      3418
 -1     31610    3    0    1
 -2      1802      1168      3599      1817
 -1     31611    3    0    1
 -2      4676      5726      5161      5771
 -1     31612    3    0    1
 -2      3062      1181       661      1884
 -1     31613    3    0    1
 -2      2539      1957      1932      3112
 -1     31614    3    0    1
 -2      1091      1107       541      1806
 -1     31615    3    0    1
 -2      2527      2540      3710      4194
 -1     31616    3    0    1
 -2      4145      2430      4144      2446
 -1     31617    3    0    1
 -2      2793       479       939      1613
 -1     31618    3    0    1
 -2      2106      2629      3740      4244
 -1     31619    3    0    1
 -2      6727      5996      7424      8335
 -1     31620    3    0    1
 -2      7046      8491      8080      6969
 -1     31621    3    0    1
 -2      5683      5103      5664      4866
 -1     31622    3    0    1
 -2      1100      1077      2368      1743
 -1     31623    3    0    1
 -2      6071      7639      8492      5704
 -1     31624    3    0    1
 -2      4037      4448      4497      4449
 -1     31625    3    0    1
 -2      1636      2831      3376      3399
 -1     31626    3    0    1
 -2      5840      7791      7807      6188
 -1     31627    3    0    1
 -2       199       540       198       201
 -1     31628    3    0    1
 -2      4965      4996      4997      4360
 -1     31629    3    0    1
 -2      8296      7346      5901      8297
 -1     31630    3    0    1
 -2      3691      3084      3040      1942
 -1     31631    3    0    1
 -2       288       714       290       289
 -1     31632    3    0    1
 -2      3042      1174       632      1891
 -1     31633    3    0    1
 -2      3180      1293      2038      1292
 -1     31634    3    0    1
 -2      2304      3403      1000      1672
 -1     31635    3    0    1
 -2      5549      5550      5946      5910
 -1     31636    3    0    1
 -2      1173      1172      1127      1890
 -1     31637    3    0    1
 -2      6935      5714      5697      5357
 -1     31638    3    0    1
 -2      5344      5360      5361      4933
 -1     31639    3    0    1
 -2      8857      7023      8034      9213
 -1     31640    3    0    1
 -2      3225      1339      2654      3189
 -1     31641    3    0    1
 -2      1632      1012      1633      1700
 -1     31642    3    0    1
 -2      1875      1193       626      3592
 -1     31643    3    0    1
 -2      1273      1341       284      1274
 -1     31644    3    0    1
 -2      4301      4644      4642      3790
 -1     31645    3    0    1
 -2      7785      9026      8639      5395
 -1     31646    3    0    1
 -2       954       953       896      1601
 -1     31647    3    0    1
 -2      2328      4413      4764      2903
 -1     31648    3    0    1
 -2      6805      6804      6655      5669
 -1     31649    3    0    1
 -2      4730      5419      5435      5384
 -1     31650    3    0    1
 -2      2018      3149      2550      2000
 -1     31651    3    0    1
 -2      6576      6480      6481      7344
 -1     31652    3    0    1
 -2      5452      5386      5226      6170
 -1     31653    3    0    1
 -2       865       473       910       436
 -1     31654    3    0    1
 -2       836       856      1501      2696
 -1     31655    3    0    1
 -2      6509      6477      8294      6475
 -1     31656    3    0    1
 -2      3226      4315      2655      3190
 -1     31657    3    0    1
 -2      1682      3437      2842      1684
 -1     31658    3    0    1
 -2      2478      1185      1186      3626
 -1     31659    3    0    1
 -2      4663      3748      3764      3150
 -1     31660    3    0    1
 -2      5973      5972      6628      7428
 -1     31661    3    0    1
 -2      2424      2443      1834      3618
 -1     31662    3    0    1
 -2       785       355       388      1426
 -1     31663    3    0    1
 -2      2481      1872      1852      1851
 -1     31664    3    0    1
 -2      6766      7503      8382      6011
 -1     31665    3    0    1
 -2      7099      5772      6084      6067
 -1     31666    3    0    1
 -2      7120      5800      6153      7715
 -1     31667    3    0    1
 -2      3745      4630      4662      2644
 -1     31668    3    0    1
 -2      5198      4907      4661      4677
 -1     31669    3    0    1
 -2      1773      1753      1084      2396
 -1     31670    3    0    1
 -2      8863      7553      8047      7578
 -1     31671    3    0    1
 -2      1572      3334      2772      1612
 -1     31672    3    0    1
 -2      2213      2263      3896      2231
 -1     31673    3    0    1
 -2      5647      5675      6730      7476
 -1     31674    3    0    1
 -2      8003      6887      5692      8850
 -1     31675    3    0    1
 -2      1556      3290      2238      2786
 -1     31676    3    0    1
 -2      7957      8405      8425      6787
 -1     31677    3    0    1
 -2      8469      8470      6956      8068
 -1     31678    3    0    1
 -2      3202      3789      4668      3842
 -1     31679    3    0    1
 -2       608       635      1821      1805
 -1     31680    3    0    1
 -2      4222      4201      2522      1980
 -1     31681    3    0    1
 -2      1511      1544       858      1512
 -1     31682    3    0    1
 -2      2868      1739      3522      1740
 -1     31683    3    0    1
 -2      7925      9147      6622      7889
 -1     31684    3    0    1
 -2      3221      2651      3247      4303
 -1     31685    3    0    1
 -2      5846      6220      8198      7152
 -1     31686    3    0    1
 -2      5868      6378      7245      5867
 -1     31687    3    0    1
 -2      3685      1948      2474      2534
 -1     31688    3    0    1
 -2      3478      2365      1099      1702
 -1     31689    3    0    1
 -2      2754      2679      3855      4368
 -1     31690    3    0    1
 -2      5252      5498      5936      5279
 -1     31691    3    0    1
 -2      1840      2445      1814      3590
 -1     31692    3    0    1
 -2      1533      2279      2295      3366
 -1     31693    3    0    1
 -2      1798      3430      2887      1725
 -1     31694    3    0    1
 -2      8077      7005      6066      9264
 -1     31695    3    0    1
 -2      3448      4052      4493      3492
 -1     31696    3    0    1
 -2      3725      3714      3713      1965
 -1     31697    3    0    1
 -2      3490      1134      1064      3468
 -1     31698    3    0    1
 -2      5425      5216      4957      4712
 -1     31699    3    0    1
 -2      1590      3944      2761      1553
 -1     31700    3    0    1
 -2      3215      4311      3175      3258
 -1     31701    3    0    1
 -2      5170      5171      4921      4247
 -1     31702    3    0    1
 -2      5781      7126      6123      5782
 -1     31703    3    0    1
 -2      6075      7084      7108      5761
 -1     31704    3    0    1
 -2      6384      7258      8237      8680
 -1     31705    3    0    1
 -2      7799      8172      6330      7264
 -1     31706    3    0    1
 -2      9129      7870      7869      7904
 -1     31707    3    0    1
 -2      2047      2605      3823      2110
 -1     31708    3    0    1
 -2      8839      8401      7491      7954
 -1     31709    3    0    1
 -2      3315      4322      3910      2176
 -1     31710    3    0    1
 -2      8576      8995      7703      9331
 -1     31711    3    0    1
 -2      8285      7862      7896      8762
 -1     31712    3    0    1
 -2      3622      3561      2957      3562
 -1     31713    3    0    1
 -2      3602      1203      2433      2498
 -1     31714    3    0    1
 -2      1931      2010      1955      2525
 -1     31715    3    0    1
 -2      3775      4613      4266      3125
 -1     31716    3    0    1
 -2      6466      6539      6443      6444
 -1     31717    3    0    1
 -2      2582      3194      2117      4262
 -1     31718    3    0    1
 -2      6991      5331      6063      5744
 -1     31719    3    0    1
 -2      1673       601      3491      2967
 -1     31720    3    0    1
 -2      3663      4207      4192      2538
 -1     31721    3    0    1
 -2      8934      8079      8933      7101
 -1     31722    3    0    1
 -2      8895      8063      8520      9506
 -1     31723    3    0    1
 -2      5502      6449      6554      5514
 -1     31724    3    0    1
 -2      5660      8845      8404      6786
 -1     31725    3    0    1
 -2      5153      5743      4940      5191
 -1     31726    3    0    1
 -2      9068      7821      7776      7216
 -1     31727    3    0    1
 -2      5489      5546      4769      5021
 -1     31728    3    0    1
 -2      1841      3596      2463      1879
 -1     31729    3    0    1
 -2      2303      3413      1671      1618
 -1     31730    3    0    1
 -2      5425      4713      5216      4712
 -1     31731    3    0    1
 -2      5963      5622      5621      5962
 -1     31732    3    0    1
 -2      7150      7149      5813      6148
 -1     31733    3    0    1
 -2      4888      4252      4652      4671
 -1     31734    3    0    1
 -2      3517      2906      4015      2967
 -1     31735    3    0    1
 -2       758      2131      2142      3232
 -1     31736    3    0    1
 -2      6744      6664      6716      6665
 -1     31737    3    0    1
 -2      3355       969       910      2289
 -1     31738    3    0    1
 -2      1650      1690      3987      2916
 -1     31739    3    0    1
 -2      2993      3578      3615      3643
 -1     31740    3    0    1
 -2      5957      7541      8818      6739
 -1     31741    3    0    1
 -2      2807      1604      2235      2285
 -1     31742    3    0    1
 -2       944       943       487       888
 -1     31743    3    0    1
 -2      1841      1150      3596      2446
 -1     31744    3    0    1
 -2      9158      8788      8392      7975
 -1     31745    3    0    1
 -2      3117      4233      3103      1988
 -1     31746    3    0    1
 -2      6246      7243      5468      9672
 -1     31747    3    0    1
 -2      1135       602      1146       650
 -1     31748    3    0    1
 -2      7870      9129      5915      7904
 -1     31749    3    0    1
 -2      3085      3654      3608      2500
 -1     31750    3    0    1
 -2      6149      5216      5215      5424
 -1     31751    3    0    1
 -2      8500      7664      6979      8921
 -1     31752    3    0    1
 -2      4933      5337      5344      4639
 -1     31753    3    0    1
 -2      3553      2940      3007      3632
 -1     31754    3    0    1
 -2      8203      6227      6289      7766
 -1     31755    3    0    1
 -2      8390      7531      6756      7436
 -1     31756    3    0    1
 -2      4617      4684      4902      5159
 -1     31757    3    0    1
 -2      1894      2500      3085      1845
 -1     31758    3    0    1
 -2      1808      3582      2958      2456
 -1     31759    3    0    1
 -2       736      1307      1414      1361
 -1     31760    3    0    1
 -2      1689      1033      1032      2876
 -1     31761    3    0    1
 -2      1115      1066       555      1675
 -1     31762    3    0    1
 -2      1015      1014      1634      3420
 -1     31763    3    0    1
 -2      4157      2506      2507      2440
 -1     31764    3    0    1
 -2      7410      8362      9162      6655
 -1     31765    3    0    1
 -2      7750      6174      7749      9013
 -1     31766    3    0    1
 -2      5684      5738      5346      5739
 -1     31767    3    0    1
 -2      3438      2395      4002      2373
 -1     31768    3    0    1
 -2      7596      6916      7616      5701
 -1     31769    3    0    1
 -2      5741      4890      4600      5688
 -1     31770    3    0    1
 -2      1255      1254      3038      1887
 -1     31771    3    0    1
 -2      2814      1682      1684      1640
 -1     31772    3    0    1
 -2      8920      8497      8496      7681
 -1     31773    3    0    1
 -2      8758      7401      6597      6634
 -1     31774    3    0    1
 -2      3513      4057      3991      1763
 -1     31775    3    0    1
 -2      2687      3311       813      3844
 -1     31776    3    0    1
 -2      2251       851      1523      1524
 -1     31777    3    0    1
 -2      8661      5478      7242      7773
 -1     31778    3    0    1
 -2      6821      8356      5657      6680
 -1     31779    3    0    1
 -2      7238      7245      8228      6301
 -1     31780    3    0    1
 -2      3236      2660      3779      3776
 -1     31781    3    0    1
 -2      5571      5253      6595      5913
 -1     31782    3    0    1
 -2      5540      5272      5015      5488
 -1     31783    3    0    1
 -2      8199      7198      7750      9013
 -1     31784    3    0    1
 -2      2106      2629      2069      3740
 -1     31785    3    0    1
 -2      4411      4762      4412      5006
 -1     31786    3    0    1
 -2      4715      4401      3926      2791
 -1     31787    3    0    1
 -2      6339      6380      6341      6340
 -1     31788    3    0    1
 -2      4475      4808      4435      5022
 -1     31789    3    0    1
 -2      7040      7653      7652      8482
 -1     31790    3    0    1
 -2      7473      5999      6001      7933
 -1     31791    3    0    1
 -2      5953      7905      8326      7920
 -1     31792    3    0    1
 -2      5504      5061      5557      5938
 -1     31793    3    0    1
 -2      1274      1342      3708      3123
 -1     31794    3    0    1
 -2      2493      2494      4146      1853
 -1     31795    3    0    1
 -2      7276      7313      8683      6513
 -1     31796    3    0    1
 -2       412       434       843      1477
 -1     31797    3    0    1
 -2      3853      4700      3852      4699
 -1     31798    3    0    1
 -2      4920      5166      5186      4932
 -1     31799    3    0    1
 -2      4334      3921      4369      2757
 -1     31800    3    0    1
 -2      9499      8982      8983      7053
 -1     31801    3    0    1
 -2      2472      3618      4133      4179
 -1     31802    3    0    1
 -2      7421      6685      6750      8334
 -1     31803    3    0    1
 -2      1135       244       245       650
 -1     31804    3    0    1
 -2      1990      2557      3145      1966
 -1     31805    3    0    1
 -2      8739      7311      7342      6474
 -1     31806    3    0    1
 -2      8621      8198      7815      7152
 -1     31807    3    0    1
 -2      4081      4813      5273      5049
 -1     31808    3    0    1
 -2      3929      1515      2268      3899
 -1     31809    3    0    1
 -2      7180      8603      8617      7179
 -1     31810    3    0    1
 -2      6718      6666      5582      6667
 -1     31811    3    0    1
 -2      5742      4653      4926      5722
 -1     31812    3    0    1
 -2      8035      8055      8893      8930
 -1     31813    3    0    1
 -2      3037       661       660      1884
 -1     31814    3    0    1
 -2      3124      2565      1275      3758
 -1     31815    3    0    1
 -2      7218      8191      9069      6253
 -1     31816    3    0    1
 -2      4536      3599      4520      4561
 -1     31817    3    0    1
 -2       463       956       900      2230
 -1     31818    3    0    1
 -2      1569      3358      3932      1570
 -1     31819    3    0    1
 -2      2316      3449       983      2357
 -1     31820    3    0    1
 -2      7062      6990      6049      8471
 -1     31821    3    0    1
 -2      5600      5982      5662      6010
 -1     31822    3    0    1
 -2      2369      4446      2872      3504
 -1     31823    3    0    1
 -2      8709      9090      8258      7354
 -1     31824    3    0    1
 -2      4940      4602      4256      5153
 -1     31825    3    0    1
 -2      7249      8221      5873      5471
 -1     31826    3    0    1
 -2      5743      6048      6081      7088
 -1     31827    3    0    1
 -2      3875      3275      3874      3366
 -1     31828    3    0    1
 -2      2054      2055      1354      2102
 -1     31829    3    0    1
 -2      2101      3214      2634      2099
 -1     31830    3    0    1
 -2      1503       843      1515      2268
 -1     31831    3    0    1
 -2      4457      3508      4459      4458
 -1     31832    3    0    1
 -2      4647      4915      4669      4646
 -1     31833    3    0    1
 -2      4307      3800      3233      3754
 -1     31834    3    0    1
 -2      8079      8934      8488      6069
 -1     31835    3    0    1
 -2      3946      2765      1658      2766
 -1     31836    3    0    1
 -2      2112      3749      4282      1405
 -1     31837    3    0    1
 -2      8317      7898      8767      8290
 -1     31838    3    0    1
 -2      1865      1826      1160      2966
 -1     31839    3    0    1
 -2      8158      5823      6244      7140
 -1     31840    3    0    1
 -2      6840      6839      7527      6010
 -1     31841    3    0    1
 -2      7179      8173      6267      6181
 -1     31842    3    0    1
 -2      7567      6903      6902      7583
 -1     31843    3    0    1
 -2      6085      6102      5727      7616
 -1     31844    3    0    1
 -2      8071      9262      6113      9232
 -1     31845    3    0    1
 -2      1790      1782      1118      3521
 -1     31846    3    0    1
 -2      6041      6870      5694      7574
 -1     31847    3    0    1
 -2      4003      1773      1751      2410
 -1     31848    3    0    1
 -2      6772      7465      5650      6029
 -1     31849    3    0    1
 -2      8037      8398      7558      8000
 -1     31850    3    0    1
 -2      7324      5882      5916      5881
 -1     31851    3    0    1
 -2      8687      9081      7842      7300
 -1     31852    3    0    1
 -2      4827      4517      5629      5322
 -1     31853    3    0    1
 -2      6530      7839      8311      5879
 -1     31854    3    0    1
 -2      8474      7607      7031      7574
 -1     31855    3    0    1
 -2      5524      4814      5027      5057
 -1     31856    3    0    1
 -2       666      1175      3637      1260
 -1     31857    3    0    1
 -2      6078      6931      7603      8467
 -1     31858    3    0    1
 -2      8452      8415      7542      7543
 -1     31859    3    0    1
 -2      4680      4681      3750      3206
 -1     31860    3    0    1
 -2      9119      8723      7842      7368
 -1     31861    3    0    1
 -2      4893      4606      4894      5326
 -1     31862    3    0    1
 -2      2980      3035      3010      4506
 -1     31863    3    0    1
 -2      3083      3039      3605      1889
 -1     31864    3    0    1
 -2      6124      6235      6163      5231
 -1     31865    3    0    1
 -2      7575      6823      5696      7997
 -1     31866    3    0    1
 -2      2905      3534      3468      2965
 -1     31867    3    0    1
 -2      3035      1990      3034      1940
 -1     31868    3    0    1
 -2      5856      5857      6359      5855
 -1     31869    3    0    1
 -2       879      1554      1553      2762
 -1     31870    3    0    1
 -2       661      1123      3062      3037
 -1     31871    3    0    1
 -2      9122      5908      7912      8727
 -1     31872    3    0    1
 -2      7338      6591      5259      6590
 -1     31873    3    0    1
 -2      2409      1079      1122      1745
 -1     31874    3    0    1
 -2      1566      1565       867      1504
 -1     31875    3    0    1
 -2      1335      3183      3182      1333
 -1     31876    3    0    1
 -2      4119      4554      3661      2968
 -1     31877    3    0    1
 -2      2751      3396      1603      1624
 -1     31878    3    0    1
 -2      5659      6782      7984      7471
 -1     31879    3    0    1
 -2      6747      9169      8355      8399
 -1     31880    3    0    1
 -2      5405      5238      5477      6266
 -1     31881    3    0    1
 -2      7553      6917      5703      7578
 -1     31882    3    0    1
 -2      1629      3417      2850       986
 -1     31883    3    0    1
 -2       561       560      1010      3452
 -1     31884    3    0    1
 -2      3194      4316      4941      4263
 -1     31885    3    0    1
 -2      1793      1104      1103      2410
 -1     31886    3    0    1
 -2      3811      1408      2051      3155
 -1     31887    3    0    1
 -2      5229      8644      7765      8611
 -1     31888    3    0    1
 -2      4425      5250      5014      5257
 -1     31889    3    0    1
 -2      5653      5299      5623      5963
 -1     31890    3    0    1
 -2      5470      7814      8654      7167
 -1     31891    3    0    1
 -2      2701      2756       902      2235
 -1     31892    3    0    1
 -2      6873      6894      6791      6841
 -1     31893    3    0    1
 -2      4023      1733      3521      2362
 -1     31894    3    0    1
 -2      3116      4204      3750      1986
 -1     31895    3    0    1
 -2      8431      6779      6868      8420
 -1     31896    3    0    1
 -2      5244      4998      5437      4739
 -1     31897    3    0    1
 -2      1203      1170      2984      3602
 -1     31898    3    0    1
 -2      5475      7231      6374      6372
 -1     31899    3    0    1
 -2      3326      4321      4342      2702
 -1     31900    3    0    1
 -2      2483      2427      3629      4141
 -1     31901    3    0    1
 -2      7795      9067      8635      6251
 -1     31902    3    0    1
 -2      7240      8627      7808      9033
 -1     31903    3    0    1
 -2      3720      1297      1337      3120
 -1     31904    3    0    1
 -2      3740      2069      2106      4244
 -1     31905    3    0    1
 -2      6130      7132      7697      5786
 -1     31906    3    0    1
 -2      5909      5492      4771      5548
 -1     31907    3    0    1
 -2      6047      5338      5763      7058
 -1     31908    3    0    1
 -2      7395      5554      6517      6614
 -1     31909    3    0    1
 -2      3513      3444      1059      1715
 -1     31910    3    0    1
 -2      9318      7733      7732      9020
 -1     31911    3    0    1
 -2      3202      3131      2047      1286
 -1     31912    3    0    1
 -2      2282      1601      2747      2305
 -1     31913    3    0    1
 -2      3975      1644      1688      2299
 -1     31914    3    0    1
 -2      1590      2761       962      1553
 -1     31915    3    0    1
 -2      2490      1827      1196      3650
 -1     31916    3    0    1
 -2      6434      7296      6417      7265
 -1     31917    3    0    1
 -2      5926      6570      7341      6571
 -1     31918    3    0    1
 -2      5264      4812      4786      5272
 -1     31919    3    0    1
 -2      6070      5702      6897      6069
 -1     31920    3    0    1
 -2      5322      5629      4827      5646
 -1     31921    3    0    1
 -2      5669      6655      7410      5616
 -1     31922    3    0    1
 -2      5544      5273      4813      5049
 -1     31923    3    0    1
 -2       868      3302      1491      2242
 -1     31924    3    0    1
 -2      8378      7425      6764      7498
 -1     31925    3    0    1
 -2      5850      7212      6313      6312
 -1     31926    3    0    1
 -2      6244      8619      8158      7140
 -1     31927    3    0    1
 -2      6266      5477      6177      6231
 -1     31928    3    0    1
 -2      3217      3818      2589      4236
 -1     31929    3    0    1
 -2      7379      8291      8738      7866
 -1     31930    3    0    1
 -2      2262      2756      2784      1605
 -1     31931    3    0    1
 -2      9257      9241      8522      9508
 -1     31932    3    0    1
 -2      4394      4393      3348      4330
 -1     31933    3    0    1
 -2      8252      6433      8227      7280
 -1     31934    3    0    1
 -2      2629      2041      1367      3740
 -1     31935    3    0    1
 -2       185       603      1013      1800
 -1     31936    3    0    1
 -2      4927      4601      5153      5152
 -1     31937    3    0    1
 -2      6343      6498      6344      7256
 -1     31938    3    0    1
 -2      9096      9386      8273      9366
 -1     31939    3    0    1
 -2      4933      5171      5337      4639
 -1     31940    3    0    1
 -2      5773      5774      6070      5200
 -1     31941    3    0    1
 -2      5285      5556      5516      4817
 -1     31942    3    0    1
 -2      5024      4788      5074      4799
 -1     31943    3    0    1
 -2      3581      4170      3562      4115
 -1     31944    3    0    1
 -2      1682      1641      1025      1684
 -1     31945    3    0    1
 -2      7473      6687      6688      7932
 -1     31946    3    0    1
 -2      6752      7430      6732      6005
 -1     31947    3    0    1
 -2      7976      7999      8847      6801
 -1     31948    3    0    1
 -2      2086      2111      3732      2606
 -1     31949    3    0    1
 -2      2701      2680      2174      2756
 -1     31950    3    0    1
 -2      4698      2697      3909      3851
 -1     31951    3    0    1
 -2      9153      8806      7970      6647
 -1     31952    3    0    1
 -2      2687      2204      2248      3885
 -1     31953    3    0    1
 -2      6717      6637      6619      5581
 -1     31954    3    0    1
 -2      1243      1870       647      3025
 -1     31955    3    0    1
 -2      6649      7431      7462      6769
 -1     31956    3    0    1
 -2      3443      4411      4071      3512
 -1     31957    3    0    1
 -2      3163      3142      3817      4242
 -1     31958    3    0    1
 -2      3189      2554      1298      3159
 -1     31959    3    0    1
 -2      6813      6815      6866      7558
 -1     31960    3    0    1
 -2      7312      8741      8709      5936
 -1     31961    3    0    1
 -2       890       947       455      1582
 -1     31962    3    0    1
 -2      7365      8312      8722      6532
 -1     31963    3    0    1
 -2      4943      4909      4637      3764
 -1     31964    3    0    1
 -2      2748      3313      4328      2746
 -1     31965    3    0    1
 -2       769       770       306      1427
 -1     31966    3    0    1
 -2      2589      1398      2071      3217
 -1     31967    3    0    1
 -2      5247      5251      5075      5032
 -1     31968    3    0    1
 -2      7291      6392      5898      8251
 -1     31969    3    0    1
 -2      1204      1173       615      1890
 -1     31970    3    0    1
 -2      7428      6628      5984      5950
 -1     31971    3    0    1
 -2      6789      8426      7538      7529
 -1     31972    3    0    1
 -2      8009      6059      6883      9212
 -1     31973    3    0    1
 -2      6840      7577      7551      6839
 -1     31974    3    0    1
 -2       583      1705      1795      2950
 -1     31975    3    0    1
 -2      3481      2948      1032      1794
 -1     31976    3    0    1
 -2      3223      3188      3770      4652
 -1     31977    3    0    1
 -2      7821      8232      7776      6318
 -1     31978    3    0    1
 -2      3246      3809      3245      2672
 -1     31979    3    0    1
 -2      9087      7337      8708      7338
 -1     31980    3    0    1
 -2      2251      1531       851      2690
 -1     31981    3    0    1
 -2      8698      7317      8234      7316
 -1     31982    3    0    1
 -2      7398      5937      8756      7941
 -1     31983    3    0    1
 -2        96        50        51      1459
 -1     31984    3    0    1
 -2      5978      8823      6021      8431
 -1     31985    3    0    1
 -2      6639      6676      7451      7418
 -1     31986    3    0    1
 -2      2016      2558       290      1320
 -1     31987    3    0    1
 -2      8051      8921      8499      6979
 -1     31988    3    0    1
 -2      7786      6323      6257      5471
 -1     31989    3    0    1
 -2      1659      1675      2861      3448
 -1     31990    3    0    1
 -2      2667      3219      3765      2135
 -1     31991    3    0    1
 -2      4947      4708      5389      4709
 -1     31992    3    0    1
 -2      4365      3849      3848      2693
 -1     31993    3    0    1
 -2      1271       705      1270      2579
 -1     31994    3    0    1
 -2      3337      4345      4403      4749
 -1     31995    3    0    1
 -2      2917      2953      2952      4095
 -1     31996    3    0    1
 -2      1726      3518      1798      1725
 -1     31997    3    0    1
 -2      1242      1185      1930      3052
 -1     31998    3    0    1
 -2      3137      3735      4234      3694
 -1     31999    3    0    1
 -2      1078      3974      2872      1663
 -1     32000    3    0    1
 -2      7025      5688      5741      5765
 -1     32001    3    0    1
 -2      3430      4059      2355      2354
 -1     32002    3    0    1
 -2       873      3282      1474      2195
 -1     32003    3    0    1
 -2      7176      7175      8643      9073
 -1     32004    3    0    1
 -2      7521      6020      7486      6810
 -1     32005    3    0    1
 -2      5619      5955      6656      5617
 -1     32006    3    0    1
 -2      6220      5846      6221      7152
 -1     32007    3    0    1
 -2      2223      3891      1509      2209
 -1     32008    3    0    1
 -2      7451      7523      8844      7546
 -1     32009    3    0    1
 -2      9513      8949      8071      9277
 -1     32010    3    0    1
 -2      7315      5898      6392      8251
 -1     32011    3    0    1
 -2      2907      1675      1066      1788
 -1     32012    3    0    1
 -2      7172      5470      6149      5424
 -1     32013    3    0    1
 -2      2423      1858      1857      4130
 -1     32014    3    0    1
 -2      5966      5585      5995      6585
 -1     32015    3    0    1
 -2      1560       965      2288      3377
 -1     32016    3    0    1
 -2      8777      6718      6666      7415
 -1     32017    3    0    1
 -2      4628      4907      5163      5198
 -1     32018    3    0    1
 -2      6538      5944      7896      7862
 -1     32019    3    0    1
 -2      5352      4925      4600      5741
 -1     32020    3    0    1
 -2      4494      4432      3496      4769
 -1     32021    3    0    1
 -2      4355      3897      3896      2214
 -1     32022    3    0    1
 -2      4651      3769      4670      4289
 -1     32023    3    0    1
 -2      6433      6334      8227      7280
 -1     32024    3    0    1
 -2      9105      6584      6601      6494
 -1     32025    3    0    1
 -2      8447      8046      8014      6897
 -1     32026    3    0    1
 -2      4783      4482      4089      4811
 -1     32027    3    0    1
 -2      2585      3125      1278      3760
 -1     32028    3    0    1
 -2      6193      5377      5447      5416
 -1     32029    3    0    1
 -2      2608      3181      3827      2088
 -1     32030    3    0    1
 -2      4941      4607      4263      4897
 -1     32031    3    0    1
 -2      3244      3749      4282      2112
 -1     32032    3    0    1
 -2      6005      6752      6767      6006
 -1     32033    3    0    1
 -2      6992      6050      6051      8472
 -1     32034    3    0    1
 -2      6310      6309      6350      6349
 -1     32035    3    0    1
 -2      5227      5780      5393      5436
 -1     32036    3    0    1
 -2      3186      2652      4283      3156
 -1     32037    3    0    1
 -2      8706      8314      7332      7860
 -1     32038    3    0    1
 -2      3716      3728      2019      2046
 -1     32039    3    0    1
 -2      4842      4576      4140      4823
 -1     32040    3    0    1
 -2      5860      7821      8232      5858
 -1     32041    3    0    1
 -2       964      1591      2239      2764
 -1     32042    3    0    1
 -2      4596      3120      3769      4651
 -1     32043    3    0    1
 -2       751       781       719       342
 -1     32044    3    0    1
 -2      3140      3141      3798      4235
 -1     32045    3    0    1
 -2      5003      4704      4397      4705
 -1     32046    3    0    1
 -2      3603      2999      3063      4151
 -1     32047    3    0    1
 -2      8454      8895      7602      9214
 -1     32048    3    0    1
 -2      3829      3828      1425      1406
 -1     32049    3    0    1
 -2      3647      1955      3700      3027
 -1     32050    3    0    1
 -2      5957      5639      6654      6739
 -1     32051    3    0    1
 -2      2259      3325      3280      1545
 -1     32052    3    0    1
 -2      3387      3983      3403      2304
 -1     32053    3    0    1
 -2      4374      4373      3377      3879
 -1     32054    3    0    1
 -2      6139      7705      7143      9672
 -1     32055    3    0    1
 -2      1994      1308      3737      3707
 -1     32056    3    0    1
 -2      7320      6528      7362      5939
 -1     32057    3    0    1
 -2      5705      5186      5167      6072
 -1     32058    3    0    1
 -2      5030      5031      5278      4476
 -1     32059    3    0    1
 -2      5642      5089      5655      5290
 -1     32060    3    0    1
 -2      6432      6396      6334      7280
 -1     32061    3    0    1
 -2      7512      7554      6848      7511
 -1     32062    3    0    1
 -2      4691      2690      4363      4350
 -1     32063    3    0    1
 -2      6541      6468      8289      7339
 -1     32064    3    0    1
 -2      7207      8228      7806      5444
 -1     32065    3    0    1
 -2      2371      3524      1771      1744
 -1     32066    3    0    1
 -2      8230      5467      7188      9037
 -1     32067    3    0    1
 -2      7507      8388      8387      6705
 -1     32068    3    0    1
 -2       888       813      2687      3318
 -1     32069    3    0    1
 -2      7070      8493      7009      7010
 -1     32070    3    0    1
 -2      5948      5524      5551      5947
 -1     32071    3    0    1
 -2      3830      3133      4313      4650
 -1     32072    3    0    1
 -2      3118      2023      2024      1988
 -1     32073    3    0    1
 -2      8863      6917      7553      7578
 -1     32074    3    0    1
 -2      8412      5683      7961      7509
 -1     32075    3    0    1
 -2      2325      3950      2292      3976
 -1     32076    3    0    1
 -2      5498      8250      8709      7312
 -1     32077    3    0    1
 -2      1369      2042       760      3777
 -1     32078    3    0    1
 -2      4400      4997      4996      4360
 -1     32079    3    0    1
 -2      5219      5428      5398      5800
 -1     32080    3    0    1
 -2      4537      3651      3062      4508
 -1     32081    3    0    1
 -2      5485      8264      7842      7268
 -1     32082    3    0    1
 -2      6285      6199      6245      8183
 -1     32083    3    0    1
 -2      8921      8051      7664      6979
 -1     32084    3    0    1
 -2      7044      7043      6088      7597
 -1     32085    3    0    1
 -2      2346      4057      1778      1764
 -1     32086    3    0    1
 -2      1955      1244      1931      3647
 -1     32087    3    0    1
 -2      8483      8509      8932      7654
 -1     32088    3    0    1
 -2      5683      9205      8412      7961
 -1     32089    3    0    1
 -2      5467      7188      6353      8230
 -1     32090    3    0    1
 -2      2494      2431      4146      1853
 -1     32091    3    0    1
 -2      1677      1628      1048      2341
 -1     32092    3    0    1
 -2      9269      8962      8919      8083
 -1     32093    3    0    1
 -2      7621      8496      6974      6975
 -1     32094    3    0    1
 -2      3812      2616      3719      4594
 -1     32095    3    0    1
 -2      5076      5567      5568      4809
 -1     32096    3    0    1
 -2      5179      5734      4674      5194
 -1     32097    3    0    1
 -2      5590      5588      5589      5657
 -1     32098    3    0    1
 -2         8         9       275      1444
 -1     32099    3    0    1
 -2      1978      1261      1260      2521
 -1     32100    3    0    1
 -2      2473      1862      2443      2472
 -1     32101    3    0    1
 -2      2514      1997      1914      3031
 -1     32102    3    0    1
 -2      5767      5326      5692      5208
 -1     32103    3    0    1
 -2      3488      3466      4482      4089
 -1     32104    3    0    1
 -2      4965      5471      5395      5456
 -1     32105    3    0    1
 -2      9469      9192      8354      9191
 -1     32106    3    0    1
 -2      4139      3072      2444      2426
 -1     32107    3    0    1
 -2      4913      5363      4301      4642
 -1     32108    3    0    1
 -2      4558      4173      4532      4852
 -1     32109    3    0    1
 -2      5069      5914      5570      4791
 -1     32110    3    0    1
 -2      8609      7154      7717      7752
 -1     32111    3    0    1
 -2      6507      5948      4814      5027
 -1     32112    3    0    1
 -2      4540      2989      2988      4167
 -1     32113    3    0    1
 -2      4414      4416      4482      5062
 -1     32114    3    0    1
 -2      7935      6696      8346      8380
 -1     32115    3    0    1
 -2      6030      6863      6028      7996
 -1     32116    3    0    1
 -2      2126      3811      3768      3155
 -1     32117    3    0    1
 -2      4402      4361      3302      4337
 -1     32118    3    0    1
 -2       600      1045       552       601
 -1     32119    3    0    1
 -2      5692      6886      6887      8003
 -1     32120    3    0    1
 -2      7577      7552      7551      6839
 -1     32121    3    0    1
 -2      2887      4492      4471      4016
 -1     32122    3    0    1
 -2      7848      8248      8691      7260
 -1     32123    3    0    1
 -2      5420      4705      5386      5385
 -1     32124    3    0    1
 -2      3063      1819      1171      1888
 -1     32125    3    0    1
 -2      3237       761      2120      3236
 -1     32126    3    0    1
 -2      5995      5627      5291      5678
 -1     32127    3    0    1
 -2      8374      8373      7525      8344
 -1     32128    3    0    1
 -2      8852      6820      6910      7547
 -1     32129    3    0    1
 -2      2623      3197      2096      3803
 -1     32130    3    0    1
 -2      6365      6364      6366      6363
 -1     32131    3    0    1
 -2      7602      7556      8454      9214
 -1     32132    3    0    1
 -2      7708      6170      8170      8121
 -1     32133    3    0    1
 -2      4984      5224      4946      5417
 -1     32134    3    0    1
 -2      7514      8392      8842      7975
 -1     32135    3    0    1
 -2      5638      5668      6654      5637
 -1     32136    3    0    1
 -2      4527      4545      4172      5122
 -1     32137    3    0    1
 -2      2483      1852      1873      1851
 -1     32138    3    0    1
 -2      5577      5578      4819      5650
 -1     32139    3    0    1
 -2      2761      1590      1606      1634
 -1     32140    3    0    1
 -2      7495      6727      5998      7460
 -1     32141    3    0    1
 -2      3294      4343      4757      4948
 -1     32142    3    0    1
 -2      8149      6200      8185      8633
 -1     32143    3    0    1
 -2      3776      1312      2042      3777
 -1     32144    3    0    1
 -2      5182      5205      5199      5328
 -1     32145    3    0    1
 -2      7401      6555      7383      8305
 -1     32146    3    0    1
 -2      3188      1353      3222      3770
 -1     32147    3    0    1
 -2      5352      5688      6060      5765
 -1     32148    3    0    1
 -2      8424      8379      8805      7475
 -1     32149    3    0    1
 -2      7983      8403      8422      7997
 -1     32150    3    0    1
 -2      3999      2890      3522      2868
 -1     32151    3    0    1
 -2      6870      6041      6781      7536
 -1     32152    3    0    1
 -2      4386      4753      4973      4961
 -1     32153    3    0    1
 -2       778      2665      2664      1440
 -1     32154    3    0    1
 -2      8251      8267      7315      7870
 -1     32155    3    0    1
 -2      4910      5708      5707      4922
 -1     32156    3    0    1
 -2      4908      5182      5205      4662
 -1     32157    3    0    1
 -2      7887      8312      8722      7365
 -1     32158    3    0    1
 -2      7656      7042      8484      6940
 -1     32159    3    0    1
 -2      8170      8239      8217      6315
 -1     32160    3    0    1
 -2      3486      4464      4465      4810
 -1     32161    3    0    1
 -2      1118      1782      1733      3521
 -1     32162    3    0    1
 -2      7790      7128      7181      7169
 -1     32163    3    0    1
 -2      8315      6445      6505      6467
 -1     32164    3    0    1
 -2      4353      4395      4354      4964
 -1     32165    3    0    1
 -2      6443      6444      8287      6445
 -1     32166    3    0    1
 -2      3142      3817      2063      3163
 -1     32167    3    0    1
 -2       691       308       692      1309
 -1     32168    3    0    1
 -2      6607      7392      7406      6626
 -1     32169    3    0    1
 -2      3742      4661      3743      4685
 -1     32170    3    0    1
 -2      5980      5660      5593      5315
 -1     32171    3    0    1
 -2      6719      7966      8778      8771
 -1     32172    3    0    1
 -2      3634      1198      1150      2463
 -1     32173    3    0    1
 -2      3122      1948      2006      2554
 -1     32174    3    0    1
 -2      8647      6232      7804      9074
 -1     32175    3    0    1
 -2      5391      6144      6172      5392
 -1     32176    3    0    1
 -2      2618      2060      2091      4240
 -1     32177    3    0    1
 -2      8729      7927      9135      8728
 -1     32178    3    0    1
 -2      3356      3925      4359      2770
 -1     32179    3    0    1
 -2      3622      1927      1215      2442
 -1     32180    3    0    1
 -2      8735      8288      8315      6568
 -1     32181    3    0    1
 -2      4365      3919      3369      2693
 -1     32182    3    0    1
 -2      4442      4063      4030      1770
 -1     32183    3    0    1
 -2      1590      2761      3944      1634
 -1     32184    3    0    1
 -2      4527      5091      5584      5122
 -1     32185    3    0    1
 -2      4253      3189      4600      4689
 -1     32186    3    0    1
 -2      4771      4495      5548      5276
 -1     32187    3    0    1
 -2      6329      7251      6414      8234
 -1     32188    3    0    1
 -2      7814      5470      6322      7167
 -1     32189    3    0    1
 -2      8586      8585      9300      8127
 -1     32190    3    0    1
 -2      1513       875      2720      1547
 -1     32191    3    0    1
 -2      1993      1295      1992      2049
 -1     32192    3    0    1
 -2      3031      1197      3032      2977
 -1     32193    3    0    1
 -2      1406      1425      3829      1389
 -1     32194    3    0    1
 -2       550       551       175       599
 -1     32195    3    0    1
 -2      4696      4697      4742      4979
 -1     32196    3    0    1
 -2      4443      4032      4444      3436
 -1     32197    3    0    1
 -2      4923      4681      4648      3750
 -1     32198    3    0    1
 -2      5725      7000      5715      5750
 -1     32199    3    0    1
 -2       827       844       909      2789
 -1     32200    3    0    1
 -2       985      1067      1116      2888
 -1     32201    3    0    1
 -2       172       171       122      1785
 -1     32202    3    0    1
 -2      4934      5762      4935      4939
 -1     32203    3    0    1
 -2      2325      1648      2311      2292
 -1     32204    3    0    1
 -2       561      1069       563      1699
 -1     32205    3    0    1
 -2      3621      3603      3038      3675
 -1     32206    3    0    1
 -2      4805      3489      4011      4797
 -1     32207    3    0    1
 -2      1894      4184      3653      1893
 -1     32208    3    0    1
 -2      1570      3932      2817      1568
 -1     32209    3    0    1
 -2      6417      5516      7296      6434
 -1     32210    3    0    1
 -2      8350      7435      8787      7480
 -1     32211    3    0    1
 -2      1707       167       538      2915
 -1     32212    3    0    1
 -2      4615      4665      4937      4616
 -1     32213    3    0    1
 -2      6173      6257      5814      6150
 -1     32214    3    0    1
 -2      4992      5240      4711      4377
 -1     32215    3    0    1
 -2      6603      6722      5965      6623
 -1     32216    3    0    1
 -2      5769      5341      5695      5746
 -1     32217    3    0    1
 -2      5152      5153      4927      5191
 -1     32218    3    0    1
 -2      5009      7840      6422      5869
 -1     32219    3    0    1
 -2      4420      4011      5077      5043
 -1     32220    3    0    1
 -2      7541      8429      7985      7517
 -1     32221    3    0    1
 -2      7451      7560      6818      8421
 -1     32222    3    0    1
 -2       326       710       325      1316
 -1     32223    3    0    1
 -2      5520      5009      4467      4765
 -1     32224    3    0    1
 -2      2524      1948      1906      2474
 -1     32225    3    0    1
 -2      3859      4704      4397      2761
 -1     32226    3    0    1
 -2      5005      4751      5441      4721
 -1     32227    3    0    1
 -2      1078      1123       572      2912
 -1     32228    3    0    1
 -2       673      1142      3617      2995
 -1     32229    3    0    1
 -2      3650      1815      1196      2974
 -1     32230    3    0    1
 -2      5662      5601      5600      6010
 -1     32231    3    0    1
 -2      2212      2211       839      1514
 -1     32232    3    0    1
 -2      1723      1765      4013      1724
 -1     32233    3    0    1
 -2      1650       940       941      2795
 -1     32234    3    0    1
 -2      5139      4849      4572      5319
 -1     32235    3    0    1
 -2      8170      7708      8121      9320
 -1     32236    3    0    1
 -2      5599      5304      5647      5971
 -1     32237    3    0    1
 -2      7644      5740      6985      8035
 -1     32238    3    0    1
 -2      4149      3080      2498      2448
 -1     32239    3    0    1
 -2      9284      8097      8077      8955
 -1     32240    3    0    1
 -2      5569      5508      5929      5260
 -1     32241    3    0    1
 -2      4692      3874      4741      4387
 -1     32242    3    0    1
 -2      7998      7581      6855      6853
 -1     32243    3    0    1
 -2      3172      3254      3255      2598
 -1     32244    3    0    1
 -2      9187      7492      6749      7947
 -1     32245    3    0    1
 -2      1363       693       738      1362
 -1     32246    3    0    1
 -2      1729      2361      1789      3470
 -1     32247    3    0    1
 -2      7102      7045      7080      6103
 -1     32248    3    0    1
 -2      7152      6221      8621      7748
 -1     32249    3    0    1
 -2      6921      7582      5330      6881
 -1     32250    3    0    1
 -2      3989      2359      3995      2925
 -1     32251    3    0    1
 -2      1283      1284      2559      1285
 -1     32252    3    0    1
 -2      6845      6846      5682      6844
 -1     32253    3    0    1
 -2      7862      6441      5944      8323
 -1     32254    3    0    1
 -2      4414      4415      4417      3466
 -1     32255    3    0    1
 -2      1999      3743      4225      2077
 -1     32256    3    0    1
 -2      2510      1849      1831      1855
 -1     32257    3    0    1
 -2      1370      2107      2133      3781
 -1     32258    3    0    1
 -2      6494      8766      6584      7385
 -1     32259    3    0    1
 -2      8661      6346      5478      7773
 -1     32260    3    0    1
 -2      6332      8172      8242      7264
 -1     32261    3    0    1
 -2      8694      8695      7288      7287
 -1     32262    3    0    1
 -2      3002      3571      4107      2975
 -1     32263    3    0    1
 -2      5310      5597      5674      5595
 -1     32264    3    0    1
 -2      2510      3617      2995      1214
 -1     32265    3    0    1
 -2      7527      7528      8406      6010
 -1     32266    3    0    1
 -2      3921      4334      3857      2757
 -1     32267    3    0    1
 -2      8761      7323      8272      6531
 -1     32268    3    0    1
 -2      2567      3144      2070      3761
 -1     32269    3    0    1
 -2      5600      5601      5311      4830
 -1     32270    3    0    1
 -2      3115      2532      3116      2002
 -1     32271    3    0    1
 -2      3010      3540      2980      3598
 -1     32272    3    0    1
 -2      8190      7218      8141      6172
 -1     32273    3    0    1
 -2      6236      7772      8658      7204
 -1     32274    3    0    1
 -2      1675      1115      1066      1788
 -1     32275    3    0    1
 -2      9482      8857      8034      9213
 -1     32276    3    0    1
 -2      4384      4383      3319      4348
 -1     32277    3    0    1
 -2      1533      2279       948      1617
 -1     32278    3    0    1
 -2      1999      2595      3743      2033
 -1     32279    3    0    1
 -2      4482      4417      4416      4414
 -1     32280    3    0    1
 -2      7249      5875      6389      6411
 -1     32281    3    0    1
 -2      8207      7790      9031      8658
 -1     32282    3    0    1
 -2      4481      4072      4796      4009
 -1     32283    3    0    1
 -2      1398      2031      4269      2590
 -1     32284    3    0    1
 -2      4282      2625      2112      1405
 -1     32285    3    0    1
 -2      6738      7439      8351      6025
 -1     32286    3    0    1
 -2      7833      6384      6463      8257
 -1     32287    3    0    1
 -2      1287      3202      2047      1286
 -1     32288    3    0    1
 -2      3617      1142      3657      2996
 -1     32289    3    0    1
 -2      1373      2121      2568      2073
 -1     32290    3    0    1
 -2      6897      8447      8046      6896
 -1     32291    3    0    1
 -2      1976      3041      1259      1891
 -1     32292    3    0    1
 -2      6225      6227      6226      6289
 -1     32293    3    0    1
 -2      6170      8217      5452      8170
 -1     32294    3    0    1
 -2      3414      1046      1660      2849
 -1     32295    3    0    1
 -2      8852      8860      8883      8010
 -1     32296    3    0    1
 -2      6062      7637      5768      7090
 -1     32297    3    0    1
 -2      8768      6571      6609      7341
 -1     32298    3    0    1
 -2      8659      8210      9046      6164
 -1     32299    3    0    1
 -2      6742      6656      6027      5619
 -1     32300    3    0    1
 -2      4014      3491      4470      4469
 -1     32301    3    0    1
 -2      2377      2378      1751      4003
 -1     32302    3    0    1
 -2      6564      7329      8726      7894
 -1     32303    3    0    1
 -2      4547      4829      5323      5126
 -1     32304    3    0    1
 -2      5930      5902      6482      7851
 -1     32305    3    0    1
 -2      4866      3656      4521      4538
 -1     32306    3    0    1
 -2      8727      7246      7285      8688
 -1     32307    3    0    1
 -2      7734      8182      7735      7187
 -1     32308    3    0    1
 -2      2841      3406      3434      2342
 -1     32309    3    0    1
 -2      8493      7009      8512      7070
 -1     32310    3    0    1
 -2      6191      8179      7162      6192
 -1     32311    3    0    1
 -2      4566      3577      4152      3041
 -1     32312    3    0    1
 -2      1478       479      3303      2202
 -1     32313    3    0    1
 -2      4927      4602      4256      4940
 -1     32314    3    0    1
 -2      7666      8923      8936      6106
 -1     32315    3    0    1
 -2      5915      6577      7904      7918
 -1     32316    3    0    1
 -2      3190      3734      4315      4314
 -1     32317    3    0    1
 -2      4335      3860      2704      3878
 -1     32318    3    0    1
 -2      3018      2457      1905      3019
 -1     32319    3    0    1
 -2      5062      5537      5255      5482
 -1     32320    3    0    1
 -2      1540       897      1541      1483
 -1     32321    3    0    1
 -2      7292      6368      6413      8234
 -1     32322    3    0    1
 -2      6820      6871      6910      8432
 -1     32323    3    0    1
 -2      7030      6083      8069      8473
 -1     32324    3    0    1
 -2      8289      6468      6469      7339
 -1     32325    3    0    1
 -2       479       501      2793      1595
 -1     32326    3    0    1
 -2      4699      4954      4969      5416
 -1     32327    3    0    1
 -2      3451      3996      1731      2404
 -1     32328    3    0    1
 -2      6035      6865      6776      7534
 -1     32329    3    0    1
 -2      2909      3539      3500      4025
 -1     32330    3    0    1
 -2      6389      5875      5873      5874
 -1     32331    3    0    1
 -2      4539      4881      5102      4538
 -1     32332    3    0    1
 -2      8210      8176      9046      7170
 -1     32333    3    0    1
 -2      6908      6036      6037      7571
 -1     32334    3    0    1
 -2      8421      7451      8844      7546
 -1     32335    3    0    1
 -2      3239      3784      3218      2122
 -1     32336    3    0    1
 -2      5216      6149      5425      5424
 -1     32337    3    0    1
 -2      2483      1852      1851      4141
 -1     32338    3    0    1
 -2      4013      2352      1723      1724
 -1     32339    3    0    1
 -2      1388      2089      2113      2087
 -1     32340    3    0    1
 -2      6858      8428      5668      6857
 -1     32341    3    0    1
 -2      6541      6468      5893      6469
 -1     32342    3    0    1
 -2      7999      8017      6803      6802
 -1     32343    3    0    1
 -2      3408      3456      3455      1686
 -1     32344    3    0    1
 -2      5378      7210      5822      6196
 -1     32345    3    0    1
 -2      9266      6917      9249      7618
 -1     32346    3    0    1
 -2      6686      7472      7931      8782
 -1     32347    3    0    1
 -2      6260      5428      5427      5473
 -1     32348    3    0    1
 -2      2268      1503      3293      1515
 -1     32349    3    0    1
 -2      4085      3505      3407      4447
 -1     32350    3    0    1
 -2      3439      3409      1644      1688
 -1     32351    3    0    1
 -2      6527      7384      8269      7361
 -1     32352    3    0    1
 -2      4331      4394      3348      4330
 -1     32353    3    0    1
 -2      4694      4695      3919      2693
 -1     32354    3    0    1
 -2      3434      4029      4440      3479
 -1     32355    3    0    1
 -2      2753       931       494      1585
 -1     32356    3    0    1
 -2      6561      5562      6603      6585
 -1     32357    3    0    1
 -2      3436      4032      4083      2893
 -1     32358    3    0    1
 -2      8141      7218      8636      6172
 -1     32359    3    0    1
 -2      4863      5127      4844      4559
 -1     32360    3    0    1
 -2      3102      4203      4202      2531
 -1     32361    3    0    1
 -2      5590      4825      5107      5124
 -1     32362    3    0    1
 -2      6710      5666      7975      7437
 -1     32363    3    0    1
 -2      5100      5634      5144      5317
 -1     32364    3    0    1
 -2      5312      6657      6742      5619
 -1     32365    3    0    1
 -2      8332      7468      6675      8779
 -1     32366    3    0    1
 -2      1830      2506      2440      2507
 -1     32367    3    0    1
 -2      5686      5150      4595      4887
 -1     32368    3    0    1
 -2      5204      4603      5155      5339
 -1     32369    3    0    1
 -2      3355      3331      3880      3298
 -1     32370    3    0    1
 -2       569      1139       529       570
 -1     32371    3    0    1
 -2      7672      8525      6991      8460
 -1     32372    3    0    1
 -2      5860      6317      7821      5858
 -1     32373    3    0    1
 -2      6054      6969      7598      6055
 -1     32374    3    0    1
 -2      2592      2074      2615      2076
 -1     32375    3    0    1
 -2      3413      3979      3938      1618
 -1     32376    3    0    1
 -2      8991      9028      8133      9565
 -1     32377    3    0    1
 -2      5773      5199      5205      5200
 -1     32378    3    0    1
 -2      3990      2378      2377      4003
 -1     32379    3    0    1
 -2      7591      6082      6039      5691
 -1     32380    3    0    1
 -2      8069      6083      7648      8473
 -1     32381    3    0    1
 -2       204       544       543       205
 -1     32382    3    0    1
 -2      1037      1038      1708      2917
 -1     32383    3    0    1
 -2      8904      7674      7065      7608
 -1     32384    3    0    1
 -2      8412      5683      7509      7510
 -1     32385    3    0    1
 -2      4801      5029      5028      4443
 -1     32386    3    0    1
 -2      1132       589      1042      1694
 -1     32387    3    0    1
 -2      4936      4259      4606      4893
 -1     32388    3    0    1
 -2      1115       647      1163      1870
 -1     32389    3    0    1
 -2      1669      2349      1063      1718
 -1     32390    3    0    1
 -2      7528      8406      7552      7527
 -1     32391    3    0    1
 -2      8371      7451      7418      9164
 -1     32392    3    0    1
 -2      4735      4698      5414      4953
 -1     32393    3    0    1
 -2      4225      4226      3673      1991
 -1     32394    3    0    1
 -2       991       990      1707      3484
 -1     32395    3    0    1
 -2      6339      6341      5464      6340
 -1     32396    3    0    1
 -2      4300      4248      2636      2084
 -1     32397    3    0    1
 -2      6370      6332      8172      8242
 -1     32398    3    0    1
 -2       622      1134      1145      1810
 -1     32399    3    0    1
 -2      8539      7052      7084      6947
 -1     32400    3    0    1
 -2      1504      1565      2226      2770
 -1     32401    3    0    1
 -2      3168      2663      1439      2568
 -1     32402    3    0    1
 -2      1356       733      2058      1392
 -1     32403    3    0    1
 -2      7652      6114      7000      8908
 -1     32404    3    0    1
 -2      7471      8826      6726      8801
 -1     32405    3    0    1
 -2      6257      5395      5471      5456
 -1     32406    3    0    1
 -2      2930      3052      3619      3564
 -1     32407    3    0    1
 -2      2856      3444      3513      1715
 -1     32408    3    0    1
 -2      6263      7200      8202      8153
 -1     32409    3    0    1
 -2      4831      5097      5601      4830
 -1     32410    3    0    1
 -2      3771      2130      3192      3191
 -1     32411    3    0    1
 -2      6315      6357      6387      8239
 -1     32412    3    0    1
 -2      8472      8507      6992      8902
 -1     32413    3    0    1
 -2      8027      6891      8004      8404
 -1     32414    3    0    1
 -2      1853      2494      2431      1842
 -1     32415    3    0    1
 -2      2730      2686      2185      3882
 -1     32416    3    0    1
 -2      1525      1518      1564      2226
 -1     32417    3    0    1
 -2      5814      6151      6173      6150
 -1     32418    3    0    1
 -2      8723      7889      7890      7368
 -1     32419    3    0    1
 -2      1577       922      2779      1576
 -1     32420    3    0    1
 -2      1503      1477       843      2707
 -1     32421    3    0    1
 -2      8083      8961      8962      7105
 -1     32422    3    0    1
 -2      2832      2324      3967      2337
 -1     32423    3    0    1
 -2      8356      7547      8402      7492
 -1     32424    3    0    1
 -2      1726      1798      1113      1725
 -1     32425    3    0    1
 -2      2029      1996      2042      1311
 -1     32426    3    0    1
 -2      3037      1123      3062      2982
 -1     32427    3    0    1
 -2      3190      2655      3207      4314
 -1     32428    3    0    1
 -2      3244      3178      3749      1387
 -1     32429    3    0    1
 -2      6176      5230      5476      5431
 -1     32430    3    0    1
 -2      2297      2805      3371      3958
 -1     32431    3    0    1
 -2      7259      7337      7306      6425
 -1     32432    3    0    1
 -2      6445      7337      6467      8288
 -1     32433    3    0    1
 -2      8233      8653      7784      7221
 -1     32434    3    0    1
 -2      5412      4693      5444      4976
 -1     32435    3    0    1
 -2      3480      2394      4000      1745
 -1     32436    3    0    1
 -2      8977      9659      9294      8976
 -1     32437    3    0    1
 -2      7197      8673      6326      7263
 -1     32438    3    0    1
 -2      8286      6466      7336      7391
 -1     32439    3    0    1
 -2      1952      1953      2008      2537
 -1     32440    3    0    1
 -2      8888      9521      8537      9271
 -1     32441    3    0    1
 -2      3614      3067      1178      1901
 -1     32442    3    0    1
 -2      7739      8607      7740      6171
 -1     32443    3    0    1
 -2      7362      7884      8322      5939
 -1     32444    3    0    1
 -2      6335      5476      6334      7233
 -1     32445    3    0    1
 -2      3736      3138      3832      4656
 -1     32446    3    0    1
 -2      3793      2612      2616      4594
 -1     32447    3    0    1
 -2      4640      4249      4641      3766
 -1     32448    3    0    1
 -2      1509      2800      2254      2209
 -1     32449    3    0    1
 -2      6489      8720      7885      6530
 -1     32450    3    0    1
 -2      3780      3238      2661      4310
 -1     32451    3    0    1
 -2      8160      8150      7742      7146
 -1     32452    3    0    1
 -2      9376      9101      9115      9089
 -1     32453    3    0    1
 -2      8418      7486      7521      7965
 -1     32454    3    0    1
 -2      4145      4144      3671      2446
 -1     32455    3    0    1
 -2      3562      4170      4819      4115
 -1     32456    3    0    1
 -2      3730      2560      1977      1978
 -1     32457    3    0    1
 -2      4466      3486      4465      4810
 -1     32458    3    0    1
 -2      3243      4281      3204      4312
 -1     32459    3    0    1
 -2      5957      8361      7541      6654
 -1     32460    3    0    1
 -2      7791      5840      5841      6188
 -1     32461    3    0    1
 -2      5438      5459      4959      4750
 -1     32462    3    0    1
 -2      6521      6483      8746      7873
 -1     32463    3    0    1
 -2       978       981      2776      2778
 -1     32464    3    0    1
 -2      5894      6471      6542      6470
 -1     32465    3    0    1
 -2      5963      5653      6743      7466
 -1     32466    3    0    1
 -2      8213      7810      9064      9050
 -1     32467    3    0    1
 -2      1540       896       897      2749
 -1     32468    3    0    1
 -2      6202      7191      8186      6203
 -1     32469    3    0    1
 -2      1332      3750      3180      3767
 -1     32470    3    0    1
 -2      1368      1367      2069      2629
 -1     32471    3    0    1
 -2      7099      8108      8097      7100
 -1     32472    3    0    1
 -2      4397      4398      4356      3327
 -1     32473    3    0    1
 -2      4142      1851      2481      4141
 -1     32474    3    0    1
 -2      8743      8295      6514      7394
 -1     32475    3    0    1
 -2      5489      6463      5545      5021
 -1     32476    3    0    1
 -2      5666      7514      8392      6015
 -1     32477    3    0    1
 -2      5658      6750      6685      7969
 -1     32478    3    0    1
 -2      7671      6991      6063      5744
 -1     32479    3    0    1
 -2      7293      5501      5512      7873
 -1     32480    3    0    1
 -2      1104      1750      1773      2410
 -1     32481    3    0    1
 -2      2969      1146       650      3588
 -1     32482    3    0    1
 -2      8766      8276      7888      6494
 -1     32483    3    0    1
 -2      1534       950       457      3323
 -1     32484    3    0    1
 -2      8086      7051      8501      7665
 -1     32485    3    0    1
 -2      8255      8677      9082      8705
 -1     32486    3    0    1
 -2       816       835       458      1534
 -1     32487    3    0    1
 -2      6163      7694      7111      6124
 -1     32488    3    0    1
 -2      9122      7912      9401      8727
 -1     32489    3    0    1
 -2      4995      4993      4994      4713
 -1     32490    3    0    1
 -2      5873      8221      7249      6389
 -1     32491    3    0    1
 -2      6947      7052      7084      6075
 -1     32492    3    0    1
 -2      6640      6680      8356      8781
 -1     32493    3    0    1
 -2      3789      3202      2648      3842
 -1     32494    3    0    1
 -2      9188      9465      9175      7948
 -1     32495    3    0    1
 -2      1315      1314      3127      1965
 -1     32496    3    0    1
 -2      1760      1091      1806      3511
 -1     32497    3    0    1
 -2      6859      8834      8428      5668
 -1     32498    3    0    1
 -2      1900      3641      1177      1821
 -1     32499    3    0    1
 -2      3487      4411      4071      3443
 -1     32500    3    0    1
 -2      3051      1953      1185      3052
 -1     32501    3    0    1
 -2      4030      1770      3541      1743
 -1     32502    3    0    1
 -2      4537      5082      5128      4582
 -1     32503    3    0    1
 -2      6430      7278      7263      8697
 -1     32504    3    0    1
 -2      2872      4446      4488      2911
 -1     32505    3    0    1
 -2      6681      6682      6680      7470
 -1     32506    3    0    1
 -2      1765      3515      2390      1721
 -1     32507    3    0    1
 -2      1916      3635      2496      1883
 -1     32508    3    0    1
 -2      6726      6642      5659      7471
 -1     32509    3    0    1
 -2      8392      8391      8842      7975
 -1     32510    3    0    1
 -2      7532      6059      9212      6883
 -1     32511    3    0    1
 -2      5741      5352      4925      5765
 -1     32512    3    0    1
 -2      2234      3848      3849      2693
 -1     32513    3    0    1
 -2      2386       519       518      2862
 -1     32514    3    0    1
 -2      1865      1866      2477      2968
 -1     32515    3    0    1
 -2      3452       526      1010      2851
 -1     32516    3    0    1
 -2      6848      5665      7512      7511
 -1     32517    3    0    1
 -2      6723      6679      6724      7419
 -1     32518    3    0    1
 -2      1314      3127      2591      2031
 -1     32519    3    0    1
 -2      6916      7596      8446      5701
 -1     32520    3    0    1
 -2      6097      7014      7054      5730
 -1     32521    3    0    1
 -2      4377      4711      3880      3331
 -1     32522    3    0    1
 -2       634       265      1131      1210
 -1     32523    3    0    1
 -2      2038      3181      2087      3826
 -1     32524    3    0    1
 -2      6491      6492      5009      5519
 -1     32525    3    0    1
 -2      5882      8274      7324      5916
 -1     32526    3    0    1
 -2      7324      7298      8274      5882
 -1     32527    3    0    1
 -2      7591      6082      5691      8459
 -1     32528    3    0    1
 -2      3655      3043      3637      2521
 -1     32529    3    0    1
 -2      7216      7192      6275      5454
 -1     32530    3    0    1
 -2      5816      9033      5445      5815
 -1     32531    3    0    1
 -2      1112      1114      1002       553
 -1     32532    3    0    1
 -2      1151       661      1123      1818
 -1     32533    3    0    1
 -2      5253      4775      4791      5035
 -1     32534    3    0    1
 -2      1867       679       239      1218
 -1     32535    3    0    1
 -2      2339       994       511      1666
 -1     32536    3    0    1
 -2      1835      1826      1160      1865
 -1     32537    3    0    1
 -2      4943      5190      5169      4909
 -1     32538    3    0    1
 -2      5769      5342      4928      5355
 -1     32539    3    0    1
 -2      3845      4363      2690      4327
 -1     32540    3    0    1
 -2      5651      5309      4858      5652
 -1     32541    3    0    1
 -2       254      1936      1248      1937
 -1     32542    3    0    1
 -2       912       913       829       475
 -1     32543    3    0    1
 -2      1721      2350      2859      1722
 -1     32544    3    0    1
 -2      6675      5992      7468      6761
 -1     32545    3    0    1
 -2      5506      6501      5522      5544
 -1     32546    3    0    1
 -2      4775      4480      3458      4040
 -1     32547    3    0    1
 -2      2996      4512      4128      3617
 -1     32548    3    0    1
 -2       276       303       365       304
 -1     32549    3    0    1
 -2      1079      1123       573       572
 -1     32550    3    0    1
 -2      2720      3372      1513      1547
 -1     32551    3    0    1
 -2      4707      3923      3878      4335
 -1     32552    3    0    1
 -2      2928      1132      1042      1694
 -1     32553    3    0    1
 -2      4285      3763      3168      3167
 -1     32554    3    0    1
 -2      4431      4432      4769      5020
 -1     32555    3    0    1
 -2      7612      8444      6890      7563
 -1     32556    3    0    1
 -2      1699      1069      2926      3476
 -1     32557    3    0    1
 -2      6963      8041      8478      8905
 -1     32558    3    0    1
 -2      4388      4389      3847      3276
 -1     32559    3    0    1
 -2      6659      5987      8363      7411
 -1     32560    3    0    1
 -2      7998      8450      7581      6853
 -1     32561    3    0    1
 -2      7473      6688      5999      7933
 -1     32562    3    0    1
 -2      2316       983       518      2357
 -1     32563    3    0    1
 -2      4725      5000      5431      4405
 -1     32564    3    0    1
 -2      7561      6043      6041      7536
 -1     32565    3    0    1
 -2      2795       940      3339      2245
 -1     32566    3    0    1
 -2      6256      6210      6255      7165
 -1     32567    3    0    1
 -2      4957      5216      5425      5424
 -1     32568    3    0    1
 -2      6359      7259      7215      5855
 -1     32569    3    0    1
 -2      6097      5720      5778      5203
 -1     32570    3    0    1
 -2      5754      5718      4661      5198
 -1     32571    3    0    1
 -2      3970      1628      1678      2840
 -1     32572    3    0    1
 -2      2865      2864      3996      2391
 -1     32573    3    0    1
 -2      6759      7413      8368      7467
 -1     32574    3    0    1
 -2      3964      3398      2811      3374
 -1     32575    3    0    1
 -2      1324      3730      2560      1977
 -1     32576    3    0    1
 -2      3274      2716      4325      3884
 -1     32577    3    0    1
 -2      2601      2101      2602      2100
 -1     32578    3    0    1
 -2      6911      5332      6997      6100
 -1     32579    3    0    1
 -2      1418      2662      3782      2031
 -1     32580    3    0    1
 -2      6494      7888      7385      6493
 -1     32581    3    0    1
 -2      5397      6150      5395      5396
 -1     32582    3    0    1
 -2      7311      7290      7288      7289
 -1     32583    3    0    1
 -2       684      1202      1267      1253
 -1     32584    3    0    1
 -2      2051      2049      2050      3155
 -1     32585    3    0    1
 -2      1271      1272      1956      2009
 -1     32586    3    0    1
 -2      7984      6726      5659      7471
 -1     32587    3    0    1
 -2      3355      3389      2289      3379
 -1     32588    3    0    1
 -2      4527      3024      4545      3565
 -1     32589    3    0    1
 -2      3481      1752      4041      2396
 -1     32590    3    0    1
 -2      4620      3127      3762      4904
 -1     32591    3    0    1
 -2      9152      8377      7933      7932
 -1     32592    3    0    1
 -2      7855      7840      8722      6532
 -1     32593    3    0    1
 -2      9530      9511      9510      8547
 -1     32594    3    0    1
 -2      8183      6285      6199      7189
 -1     32595    3    0    1
 -2      8671      8211      7209      7254
 -1     32596    3    0    1
 -2       570      1077       569      2893
 -1     32597    3    0    1
 -2      1986      2002      2532      1987
 -1     32598    3    0    1
 -2      3750      3132      3154      1986
 -1     32599    3    0    1
 -2      4455      4087      4802      2950
 -1     32600    3    0    1
 -2      4243      2066      2067      4291
 -1     32601    3    0    1
 -2      1900      1177      3641      1830
 -1     32602    3    0    1
 -2      5856      7259      7215      6316
 -1     32603    3    0    1
 -2      4896      4607      4897      5157
 -1     32604    3    0    1
 -2      3174      4276      4920      4932
 -1     32605    3    0    1
 -2      7527      8406      7970      6010
 -1     32606    3    0    1
 -2      6530      6489      8720      6456
 -1     32607    3    0    1
 -2      8125      9313      9312      9577
 -1     32608    3    0    1
 -2      8168      8134      7726      6161
 -1     32609    3    0    1
 -2       750       780      2645      1379
 -1     32610    3    0    1
 -2      5519      5009      4467      5520
 -1     32611    3    0    1
 -2      1223      1913      1193      3057
 -1     32612    3    0    1
 -2       385       349       794      2159
 -1     32613    3    0    1
 -2      5657      5590      5107      5124
 -1     32614    3    0    1
 -2      3528      4457      4044      3559
 -1     32615    3    0    1
 -2      1736      1070      1069      3476
 -1     32616    3    0    1
 -2      6850      6849      6901      6851
 -1     32617    3    0    1
 -2      3282       874       873      1474
 -1     32618    3    0    1
 -2      3594      4517      4106      4534
 -1     32619    3    0    1
 -2       323       322       374       375
 -1     32620    3    0    1
 -2      4854      5110      5134      4584
 -1     32621    3    0    1
 -2      1694      1581      1693      1042
 -1     32622    3    0    1
 -2      3498      1013       603      1800
 -1     32623    3    0    1
 -2       176       133       134      9669
 -1     32624    3    0    1
 -2      1186      1161      2426      1811
 -1     32625    3    0    1
 -2      2079      3146      2596      2080
 -1     32626    3    0    1
 -2      6804      7542      8415      7543
 -1     32627    3    0    1
 -2      4514      4515      4162      4824
 -1     32628    3    0    1
 -2      5906      7300      5917      5505
 -1     32629    3    0    1
 -2      2030      3713      1965      3725
 -1     32630    3    0    1
 -2      7815      6220      6221      7152
 -1     32631    3    0    1
 -2      8381      7936      6700      7454
 -1     32632    3    0    1
 -2      2682       808      1463      2163
 -1     32633    3    0    1
 -2      8120      7186      8629      9005
 -1     32634    3    0    1
 -2      3917      2687      3319      3844
 -1     32635    3    0    1
 -2      4043      1756      2878      4067
 -1     32636    3    0    1
 -2      3890      2253      2208      3889
 -1     32637    3    0    1
 -2      3596      3059      2463      1879
 -1     32638    3    0    1
 -2      5912      7352      5496      5896
 -1     32639    3    0    1
 -2      3958      2297      1627      2849
 -1     32640    3    0    1
 -2      8576      9331      9339      9555
 -1     32641    3    0    1
 -2      8809      6648      7504      9673
 -1     32642    3    0    1
 -2      2443      1862      1834      2472
 -1     32643    3    0    1
 -2      4825      5657      5588      5590
 -1     32644    3    0    1
 -2      6527      6453      6437      6436
 -1     32645    3    0    1
 -2      7593      5696      6823      7997
 -1     32646    3    0    1
 -2      7609      6961      6959      8476
 -1     32647    3    0    1
 -2      4892      5722      5690      5689
 -1     32648    3    0    1
 -2      4067      1755      2877      2411
 -1     32649    3    0    1
 -2      8055      5740      7023      9213
 -1     32650    3    0    1
 -2      4197      3690      4210      1990
 -1     32651    3    0    1
 -2      2056      2055      2574      2613
 -1     32652    3    0    1
 -2      5915      6577      6576      7904
 -1     32653    3    0    1
 -2      6144      6172      6253      5391
 -1     32654    3    0    1
 -2       692       736      1307      3192
 -1     32655    3    0    1
 -2      7552      7551      6839      7527
 -1     32656    3    0    1
 -2      7856      6493      7325      8276
 -1     32657    3    0    1
 -2      7551      6840      6839      7527
 -1     32658    3    0    1
 -2      4355      2809      2264      1552
 -1     32659    3    0    1
 -2      4695      4694      3848      2693
 -1     32660    3    0    1
 -2      8393      7464      6738      7516
 -1     32661    3    0    1
 -2      7949      8802      9202      7526
 -1     32662    3    0    1
 -2      7344      6481      6576      7869
 -1     32663    3    0    1
 -2      3745      4271      2558      4272
 -1     32664    3    0    1
 -2      2688      3264      3263      3321
 -1     32665    3    0    1
 -2      7365      7840      6492      6532
 -1     32666    3    0    1
 -2      2239      2178      2706      3861
 -1     32667    3    0    1
 -2      3486      1777      1108      2384
 -1     32668    3    0    1
 -2      5159      4684      4902      5196
 -1     32669    3    0    1
 -2      4732      5477      5001      4325
 -1     32670    3    0    1
 -2      5154      4605      5192      5176
 -1     32671    3    0    1
 -2      5603      5973      5972      5604
 -1     32672    3    0    1
 -2      6120      9271      7662      7011
 -1     32673    3    0    1
 -2      1732      1734      1782      2391
 -1     32674    3    0    1
 -2      1628      2754      1586      3940
 -1     32675    3    0    1
 -2      4593      4885      4592      5149
 -1     32676    3    0    1
 -2      6544      7308      8737      5924
 -1     32677    3    0    1
 -2      4132      1861      2424      3047
 -1     32678    3    0    1
 -2      5323      4581      4547      5141
 -1     32679    3    0    1
 -2      5792      5212      5213      5467
 -1     32680    3    0    1
 -2      2103      1361      1414      2130
 -1     32681    3    0    1
 -2      7832      8690      7303      8729
 -1     32682    3    0    1
 -2      1392      2058      1356      2626
 -1     32683    3    0    1
 -2      5836      7229      6224      7801
 -1     32684    3    0    1
 -2      1773      1103      1104      2410
 -1     32685    3    0    1
 -2      2726       494       930      2753
 -1     32686    3    0    1
 -2      5625      5582      5976      5300
 -1     32687    3    0    1
 -2      6645      6687      9152      7932
 -1     32688    3    0    1
 -2      4366      3347      3876      3853
 -1     32689    3    0    1
 -2      1140       666       606      1175
 -1     32690    3    0    1
 -2      3879      4374      4373      4710
 -1     32691    3    0    1
 -2      5960      6618      7922      9143
 -1     32692    3    0    1
 -2      7699      8138      8570      8994
 -1     32693    3    0    1
 -2      2589      3818      3144      4236
 -1     32694    3    0    1
 -2      5872      5871      6405      7304
 -1     32695    3    0    1
 -2      8442      5694      6870      7574
 -1     32696    3    0    1
 -2      8168      9017      8134      6161
 -1     32697    3    0    1
 -2      4897      4896      5157      5712
 -1     32698    3    0    1
 -2      7472      7423      8375      8782
 -1     32699    3    0    1
 -2      2578      1361      2093      2094
 -1     32700    3    0    1
 -2      2418      3589      3030      2970
 -1     32701    3    0    1
 -2       889       447       417       418
 -1     32702    3    0    1
 -2      5565      5566      6592      5494
 -1     32703    3    0    1
 -2      5452      5226      5421      6170
 -1     32704    3    0    1
 -2      6423      7303      8690      7257
 -1     32705    3    0    1
 -2      4386      4363      2690      4350
 -1     32706    3    0    1
 -2      8398      6719      6813      6812
 -1     32707    3    0    1
 -2      2027      1960      1959      3095
 -1     32708    3    0    1
 -2      3811      2051      2050      3155
 -1     32709    3    0    1
 -2       709      2107      2133      1370
 -1     32710    3    0    1
 -2      3220      2089      2090      2088
 -1     32711    3    0    1
 -2      7437      9158      5986      7975
 -1     32712    3    0    1
 -2       587      2927      1088      1131
 -1     32713    3    0    1
 -2      3157      2574      2055      3721
 -1     32714    3    0    1
 -2      2101      2602      4299      2601
 -1     32715    3    0    1
 -2      2673      3810      3183      2160
 -1     32716    3    0    1
 -2      3904      3905      2220      1505
 -1     32717    3    0    1
 -2      1046      1047      1117       521
 -1     32718    3    0    1
 -2      5254      5481      5007      5876
 -1     32719    3    0    1
 -2      8627      9004      7135      5816
 -1     32720    3    0    1
 -2       441       887       919      2189
 -1     32721    3    0    1
 -2      5597      6729      6590      6646
 -1     32722    3    0    1
 -2      4478      2896      3542      4497
 -1     32723    3    0    1
 -2      7035      6997      5747      7076
 -1     32724    3    0    1
 -2      5490      5944      5523      5547
 -1     32725    3    0    1
 -2      2888      2357      3449      3469
 -1     32726    3    0    1
 -2      1581      1694      3412      2328
 -1     32727    3    0    1
 -2      3968      3951      2834      3425
 -1     32728    3    0    1
 -2      5223      5373      5444      5433
 -1     32729    3    0    1
 -2      8800      8328      8374      7969
 -1     32730    3    0    1
 -2      5803      6158      5402      5462
 -1     32731    3    0    1
 -2      1901      1213      3643      1265
 -1     32732    3    0    1
 -2      4873      5079      4526      5106
 -1     32733    3    0    1
 -2      6739      6654      7541      5668
 -1     32734    3    0    1
 -2      3856      4333      2756      2701
 -1     32735    3    0    1
 -2      8510      7655      7041      6966
 -1     32736    3    0    1
 -2      4718      5400      4739      4717
 -1     32737    3    0    1
 -2      3712      3031      1997      4195
 -1     32738    3    0    1
 -2      1750      4004      2410      2897
 -1     32739    3    0    1
 -2      5915      5036      5070      5898
 -1     32740    3    0    1
 -2      8179      8178      7184      6191
 -1     32741    3    0    1
 -2      3461      1706      1086      3527
 -1     32742    3    0    1
 -2      6852      8427      7998      6855
 -1     32743    3    0    1
 -2      2596      2623      2096      2080
 -1     32744    3    0    1
 -2      3385      2795      1650      2293
 -1     32745    3    0    1
 -2      2214      2213      3896      2231
 -1     32746    3    0    1
 -2      4160      4574      3624      4134
 -1     32747    3    0    1
 -2      1906      2524      1863      1216
 -1     32748    3    0    1
 -2       898      1500      1501      2257
 -1     32749    3    0    1
 -2      3078      1878      1879      2446
 -1     32750    3    0    1
 -2      3829      3828      1406      1407
 -1     32751    3    0    1
 -2      6041      6870      8442      7536
 -1     32752    3    0    1
 -2      4476      5031      5278      4487
 -1     32753    3    0    1
 -2      4548      2464      2984      3652
 -1     32754    3    0    1
 -2      4283      1338      3156      1445
 -1     32755    3    0    1
 -2      8278      7890      6533      6458
 -1     32756    3    0    1
 -2      2339      1057      3464      1715
 -1     32757    3    0    1
 -2      6216      7222      8152      6218
 -1     32758    3    0    1
 -2      2112      2137      3244      1387
 -1     32759    3    0    1
 -2       761       760      1369      1395
 -1     32760    3    0    1
 -2      3405      3396      1624      1676
 -1     32761    3    0    1
 -2      1567       937       916      3357
 -1     32762    3    0    1
 -2      5683      8413      7510      8412
 -1     32763    3    0    1
 -2      3568      3029      3588      4162
 -1     32764    3    0    1
 -2      1637      3986      2831      3399
 -1     32765    3    0    1
 -2      7910      7909      9385      9413
 -1     32766    3    0    1
 -2      3415      3451      2936      2935
 -1     32767    3    0    1
 -2      3645      4526      4118      3022
 -1     32768    3    0    1
 -2       176       134       178      9669
 -1     32769    3    0    1
 -2      2090      2608      3220      2088
 -1     32770    3    0    1
 -2      3594      2540      3670      4194
 -1     32771    3    0    1
 -2      7433      6014      6706      6753
 -1     32772    3    0    1
 -2      6356      5468      7243      8231
 -1     32773    3    0    1
 -2      1591      2737      2239      2764
 -1     32774    3    0    1
 -2      8294      6545      6509      6475
 -1     32775    3    0    1
 -2      3727      3702      1377      1972
 -1     32776    3    0    1
 -2      6835      5674      7499      7475
 -1     32777    3    0    1
 -2      5973      5972      7428      6608
 -1     32778    3    0    1
 -2      3556      3526      3621      2465
 -1     32779    3    0    1
 -2      2125      3789      3824      2047
 -1     32780    3    0    1
 -2      3784      3239      3170      2014
 -1     32781    3    0    1
 -2      1014      1015      3453      3420
 -1     32782    3    0    1
 -2      7411      6758      8363      8341
 -1     32783    3    0    1
 -2      4857      4553      4552      5117
 -1     32784    3    0    1
 -2      4680      4923      3767      3750
 -1     32785    3    0    1
 -2      4764      2328      2903      4049
 -1     32786    3    0    1
 -2      6609      8768      9113      6627
 -1     32787    3    0    1
 -2      5326      5177      5692      5208
 -1     32788    3    0    1
 -2      3840      3215      2647      2158
 -1     32789    3    0    1
 -2      3182      1334      1333      2024
 -1     32790    3    0    1
 -2      5153      4601      4602      5152
 -1     32791    3    0    1
 -2      1419       744      1373      2568
 -1     32792    3    0    1
 -2      7820      7795      6250      6316
 -1     32793    3    0    1
 -2      5561      5250      5257      5530
 -1     32794    3    0    1
 -2      8204      7788      6176      7756
 -1     32795    3    0    1
 -2      4835      3084      3040      4584
 -1     32796    3    0    1
 -2      7225      7226      6326      7263
 -1     32797    3    0    1
 -2      3415      1628      1677      2341
 -1     32798    3    0    1
 -2      5485      7269      8264      7268
 -1     32799    3    0    1
 -2      6410      6321      7829      5861
 -1     32800    3    0    1
 -2      6653      5614      6711      5298
 -1     32801    3    0    1
 -2      7549      8013      8456      8861
 -1     32802    3    0    1
 -2      3121      3705      2004      3134
 -1     32803    3    0    1
 -2      2757       903       933      1550
 -1     32804    3    0    1
 -2      6249      5828      6248      7145
 -1     32805    3    0    1
 -2       994       124       171      2385
 -1     32806    3    0    1
 -2      3594      2461       654      2974
 -1     32807    3    0    1
 -2      6172      8140      8141      7147
 -1     32808    3    0    1
 -2      4655      4654      4891      4664
 -1     32809    3    0    1
 -2      8708      7259      7337      9087
 -1     32810    3    0    1
 -2      1324      3764      2646      1381
 -1     32811    3    0    1
 -2      2978      1198      1150      3634
 -1     32812    3    0    1
 -2      5507      5492      4771      5023
 -1     32813    3    0    1
 -2      1871      1931      1245      3647
 -1     32814    3    0    1
 -2      3344      4742      4328      2748
 -1     32815    3    0    1
 -2      2990      1131       265      1210
 -1     32816    3    0    1
 -2      1364      2067      1365      2105
 -1     32817    3    0    1
 -2      8172      6332      6330      7264
 -1     32818    3    0    1
 -2       875      2720      2195      1513
 -1     32819    3    0    1
 -2      7138      6196      8157      8618
 -1     32820    3    0    1
 -2      7734      8182      7187      9005
 -1     32821    3    0    1
 -2      7061      8067      8066      8899
 -1     32822    3    0    1
 -2      5705      6845      6900      6877
 -1     32823    3    0    1
 -2      7198      5832      8199      7751
 -1     32824    3    0    1
 -2      2912      1123      2983      2911
 -1     32825    3    0    1
 -2      2091      3795      4240      4255
 -1     32826    3    0    1
 -2      7602      6884      7556      7570
 -1     32827    3    0    1
 -2      6092      6971      6091      6093
 -1     32828    3    0    1
 -2      5487      6497      7270      6498
 -1     32829    3    0    1
 -2      7164      6273      6202      5827
 -1     32830    3    0    1
 -2      5667      5136      5324      5137
 -1     32831    3    0    1
 -2      2267      1558      1559      3375
 -1     32832    3    0    1
 -2      6926      7022      7021      8464
 -1     32833    3    0    1
 -2      1628      1678      1048      2341
 -1     32834    3    0    1
 -2      4219      3697      4220      2542
 -1     32835    3    0    1
 -2      6105      7664      8051      7013
 -1     32836    3    0    1
 -2      7282      7876      8675      5482
 -1     32837    3    0    1
 -2       355       724       725       354
 -1     32838    3    0    1
 -2      3988      3412      1581      1693
 -1     32839    3    0    1
 -2      6590      6729      5597      5956
 -1     32840    3    0    1
 -2      4333      3856      4702      2701
 -1     32841    3    0    1
 -2      7359      5918      5560      5486
 -1     32842    3    0    1
 -2      6466      5935      7336      7391
 -1     32843    3    0    1
 -2      4327      3845      4363      4691
 -1     32844    3    0    1
 -2      4923      5720      5203      5730
 -1     32845    3    0    1
 -2      3754      3835      4928      4918
 -1     32846    3    0    1
 -2      2293      3978      3977      3385
 -1     32847    3    0    1
 -2      8726      6563      6564      7894
 -1     32848    3    0    1
 -2       892       404        89      2166
 -1     32849    3    0    1
 -2       285      2566       695      9668
 -1     32850    3    0    1
 -2      1840      2445      3590      3667
 -1     32851    3    0    1
 -2       813       416       888      2687
 -1     32852    3    0    1
 -2      1811       624      1112      3564
 -1     32853    3    0    1
 -2      2374      4002      1748      2373
 -1     32854    3    0    1
 -2      2757       933      2298      1550
 -1     32855    3    0    1
 -2      2808      1587      1631      2307
 -1     32856    3    0    1
 -2      3195       283       284      1341
 -1     32857    3    0    1
 -2      2490      2461      3650      1196
 -1     32858    3    0    1
 -2      8995      7737      7736      9022
 -1     32859    3    0    1
 -2      5348      5195      5747      5770
 -1     32860    3    0    1
 -2      7985      8819      9207      7962
 -1     32861    3    0    1
 -2      7782      6244      5792      7140
 -1     32862    3    0    1
 -2      9105      8766      6584      6494
 -1     32863    3    0    1
 -2      7979      8418      7521      7965
 -1     32864    3    0    1
 -2      1706      1783      3527      3483
 -1     32865    3    0    1
 -2      5427      5800      6260      5473
 -1     32866    3    0    1
 -2      7106      6120      5758      7012
 -1     32867    3    0    1
 -2       973       506      1611      1594
 -1     32868    3    0    1
 -2      2966      1835      1826      2425
 -1     32869    3    0    1
 -2      7442      6741      7410      6655
 -1     32870    3    0    1
 -2      4562      5142      5109      4563
 -1     32871    3    0    1
 -2      6996      5713      5696      5724
 -1     32872    3    0    1
 -2      6999      7000      5715      5725
 -1     32873    3    0    1
 -2      3334      3302      3869      3914
 -1     32874    3    0    1
 -2      5362      6096      7013      5759
 -1     32875    3    0    1
 -2      1636      1680      2853      1637
 -1     32876    3    0    1
 -2       162      2322       987      2376
 -1     32877    3    0    1
 -2      2912      2872      4446      3504
 -1     32878    3    0    1
 -2      2623      1375      2080      2079
 -1     32879    3    0    1
 -2      6687      7473      8377      7932
 -1     32880    3    0    1
 -2      5658      6685      5968      7969
 -1     32881    3    0    1
 -2      2279      1533      2295      1617
 -1     32882    3    0    1
 -2      2745      1668      2744       947
 -1     32883    3    0    1
 -2      2266      1460      3860      2787
 -1     32884    3    0    1
 -2      2777       981      1654      1576
 -1     32885    3    0    1
 -2      5970      9150      8802      8357
 -1     32886    3    0    1
 -2      3402      1655      2301      3952
 -1     32887    3    0    1
 -2      3158      1355      1411      3225
 -1     32888    3    0    1
 -2      7337      8288      6540      6467
 -1     32889    3    0    1
 -2      2688      3263      3264      3873
 -1     32890    3    0    1
 -2      4029      2891      2869      3502
 -1     32891    3    0    1
 -2      6059      7058      8060      8517
 -1     32892    3    0    1
 -2      3461      1756      4043      2397
 -1     32893    3    0    1
 -2      2209       835      1482      1536
 -1     32894    3    0    1
 -2      8453      8438      8430      6923
 -1     32895    3    0    1
 -2      1951      2007      3110      3137
 -1     32896    3    0    1
 -2      6437      6486      6527      7361
 -1     32897    3    0    1
 -2      8129      9325      9057      7119
 -1     32898    3    0    1
 -2      3204      4642      4643      3790
 -1     32899    3    0    1
 -2      1623      2283      3370      2306
 -1     32900    3    0    1
 -2      4580      3633      4163      3031
 -1     32901    3    0    1
 -2      1077      1100      1770      3541
 -1     32902    3    0    1
 -2      8105      7094      7688      8095
 -1     32903    3    0    1
 -2      5671      4860      5314      5088
 -1     32904    3    0    1
 -2      9266      8554      8533      9249
 -1     32905    3    0    1
 -2      8849      5687      7587      7533
 -1     32906    3    0    1
 -2      5438      4759      4959      4749
 -1     32907    3    0    1
 -2      5476      5403      5404      6176
 -1     32908    3    0    1
 -2      5643      4527      5584      5122
 -1     32909    3    0    1
 -2      4083      3436      2893      3503
 -1     32910    3    0    1
 -2      1916      3635      1225      2516
 -1     32911    3    0    1
 -2      3116      2532      4204      1986
 -1     32912    3    0    1
 -2      3988      1581      2294      1693
 -1     32913    3    0    1
 -2      4239      3794      2576      4598
 -1     32914    3    0    1
 -2      1838      1839      1164      1874
 -1     32915    3    0    1
 -2      3499      2889      3497      4475
 -1     32916    3    0    1
 -2      7329      6563      6564      8726
 -1     32917    3    0    1
 -2      1997      1938      1914      3031
 -1     32918    3    0    1
 -2      5378      7773      7139      9021
 -1     32919    3    0    1
 -2      2209       835      1536      1535
 -1     32920    3    0    1
 -2      5336      6973      6094      6118
 -1     32921    3    0    1
 -2      6782      6784      6783      7548
 -1     32922    3    0    1
 -2      4250      2608      3827      3220
 -1     32923    3    0    1
 -2      3661      5080      4099      4860
 -1     32924    3    0    1
 -2      5328      5205      5200      4271
 -1     32925    3    0    1
 -2      3438      4038      2395      2373
 -1     32926    3    0    1
 -2      2954      2953      4055      4095
 -1     32927    3    0    1
 -2      9239      9539      8961      8962
 -1     32928    3    0    1
 -2      1518       867      1565      1504
 -1     32929    3    0    1
 -2      6026      7481      7995      7515
 -1     32930    3    0    1
 -2      2302      2821      3953      1656
 -1     32931    3    0    1
 -2      6172      7217      6252      8190
 -1     32932    3    0    1
 -2      3698      2529      1976      2020
 -1     32933    3    0    1
 -2      5658      6824      8422      7955
 -1     32934    3    0    1
 -2      3053      4139      2478      3072
 -1     32935    3    0    1
 -2      1969      1991      2528      1968
 -1     32936    3    0    1
 -2      3091      2004      3019      4188
 -1     32937    3    0    1
 -2      2025      2005       730      3188
 -1     32938    3    0    1
 -2      8074      7651      7037      8480
 -1     32939    3    0    1
 -2      3729      4277      2601      1380
 -1     32940    3    0    1
 -2      7241      7254      6401      7826
 -1     32941    3    0    1
 -2      8174      6279      8175      7159
 -1     32942    3    0    1
 -2      8063      8520      8062      9254
 -1     32943    3    0    1
 -2      4158      2441      1902      1855
 -1     32944    3    0    1
 -2      2117      2628      2582      4262
 -1     32945    3    0    1
 -2      5857      6424      6359      5855
 -1     32946    3    0    1
 -2      5907      5250      5257      5562
 -1     32947    3    0    1
 -2      6748      6762      6723      8343
 -1     32948    3    0    1
 -2      5686      5763      5347      7058
 -1     32949    3    0    1
 -2      4206      4191      2536      2537
 -1     32950    3    0    1
 -2      2583      2067      2066      4291
 -1     32951    3    0    1
 -2      4522      5325      4869      4883
 -1     32952    3    0    1
 -2      7826      6402      5486      8677
 -1     32953    3    0    1
 -2      1487       881       844      2789
 -1     32954    3    0    1
 -2      1144      1133       641      2960
 -1     32955    3    0    1
 -2      7265      7356      6434      7296
 -1     32956    3    0    1
 -2      7418      6676      7451      8371
 -1     32957    3    0    1
 -2      1270      1955      1272      3700
 -1     32958    3    0    1
 -2      6097      7054      7109      5730
 -1     32959    3    0    1
 -2      7090      5768      6062      5767
 -1     32960    3    0    1
 -2      3965      3974      1658      3946
 -1     32961    3    0    1
 -2      8251      5898      7291      7870
 -1     32962    3    0    1
 -2      7631      8885      8456      8861
 -1     32963    3    0    1
 -2      5502      5503      5054      4460
 -1     32964    3    0    1
 -2      1675      2315      1659      2861
 -1     32965    3    0    1
 -2       679       239       240      9669
 -1     32966    3    0    1
 -2      7077      7038      6998      8094
 -1     32967    3    0    1
 -2      3604      3082      1889      1888
 -1     32968    3    0    1
 -2      8280      7369      7302      8313
 -1     32969    3    0    1
 -2      1231      1230      3064      1982
 -1     32970    3    0    1
 -2      4943      4663      3764      4320
 -1     32971    3    0    1
 -2      4902      5715      5159      5716
 -1     32972    3    0    1
 -2       917      1567      1490      3332
 -1     32973    3    0    1
 -2      2444      3072      1868      2426
 -1     32974    3    0    1
 -2      7489      6761      5994      8369
 -1     32975    3    0    1
 -2      1958      1342      1274      3123
 -1     32976    3    0    1
 -2      7539      8410      8448      6898
 -1     32977    3    0    1
 -2      3667      3666      2445      2428
 -1     32978    3    0    1
 -2      7304      6502      6352      8679
 -1     32979    3    0    1
 -2      3217      3818      3144      2589
 -1     32980    3    0    1
 -2      5994      6721      7489      8369
 -1     32981    3    0    1
 -2      7073      7023      5732      6108
 -1     32982    3    0    1
 -2      6415      6416      7294      7279
 -1     32983    3    0    1
 -2      4059      3519      2355      1766
 -1     32984    3    0    1
 -2      5274      4431      4494      5021
 -1     32985    3    0    1
 -2      2931      1002      2887      2860
 -1     32986    3    0    1
 -2      7023      8849      8857      7533
 -1     32987    3    0    1
 -2      7130      6237      8174      7159
 -1     32988    3    0    1
 -2      5671      5977      5088      5287
 -1     32989    3    0    1
 -2      6589      6624      5592      5591
 -1     32990    3    0    1
 -2      2241      3317      2682      2683
 -1     32991    3    0    1
 -2      4056      2901      2881      4008
 -1     32992    3    0    1
 -2      7968      7451      5995      5678
 -1     32993    3    0    1
 -2      3606      1127      1172      1890
 -1     32994    3    0    1
 -2      3404      3956      2747      2305
 -1     32995    3    0    1
 -2      5469      6321      8664      7171
 -1     32996    3    0    1
 -2      4062      2366      2979      2921
 -1     32997    3    0    1
 -2      5638      5668      5639      4870
 -1     32998    3    0    1
 -2      1716      1717      3467      2348
 -1     32999    3    0    1
 -2      6161      9017      8134      6180
 -1     33000    3    0    1
 -2      4101      3627      2933      3565
 -1     33001    3    0    1
 -2      1033      1032      1646      1689
 -1     33002    3    0    1
 -2      6284      5823      8158      7811
 -1     33003    3    0    1
 -2      7480      7435      8787      7434
 -1     33004    3    0    1
 -2      3192      1307      1306      3737
 -1     33005    3    0    1
 -2      4926      4892      5175      5722
 -1     33006    3    0    1
 -2       181       180       138      9675
 -1     33007    3    0    1
 -2      6840      6068      7577      6839
 -1     33008    3    0    1
 -2      6895      8447      7565      6896
 -1     33009    3    0    1
 -2      9411      7316      8764      7397
 -1     33010    3    0    1
 -2      6742      6656      7482      6027
 -1     33011    3    0    1
 -2      5846      6220      5848      8198
 -1     33012    3    0    1
 -2      3408      2895      3454      2343
 -1     33013    3    0    1
 -2      6181      7179      8173      6182
 -1     33014    3    0    1
 -2      6076      5352      6060      5765
 -1     33015    3    0    1
 -2      8183      7142      6199      8159
 -1     33016    3    0    1
 -2      1672      1673      1001      1621
 -1     33017    3    0    1
 -2      8596      8133      9028      9565
 -1     33018    3    0    1
 -2      4833      5099      5113      4549
 -1     33019    3    0    1
 -2      4381      4998      4971      3360
 -1     33020    3    0    1
 -2      6655      4839      5616      5669
 -1     33021    3    0    1
 -2      2839      1673      1672      1621
 -1     33022    3    0    1
 -2      7946      6713      7519      6018
 -1     33023    3    0    1
 -2      7365      7366      8312      6532
 -1     33024    3    0    1
 -2      7091      7064      6099      6112
 -1     33025    3    0    1
 -2      7074      7023      5740      7683
 -1     33026    3    0    1
 -2      1110      3446      3488      3532
 -1     33027    3    0    1
 -2      5047      5046      5246      5884
 -1     33028    3    0    1
 -2      4690      4362      3887      4734
 -1     33029    3    0    1
 -2      5052      5279      5509      4479
 -1     33030    3    0    1
 -2      8463      6949      7600      8462
 -1     33031    3    0    1
 -2      7047      8493      8512      7070
 -1     33032    3    0    1
 -2      3491      2906      3403      1673
 -1     33033    3    0    1
 -2      4445      5029      5058      4444
 -1     33034    3    0    1
 -2      5486      6381      6402      6401
 -1     33035    3    0    1
 -2      2452       685      1205      1258
 -1     33036    3    0    1
 -2      1351      2051      1408      3155
 -1     33037    3    0    1
 -2      7221      5455      5393      5436
 -1     33038    3    0    1
 -2      8274      8275      7324      5916
 -1     33039    3    0    1
 -2      3621      3575      3556      3603
 -1     33040    3    0    1
 -2      2713       870      3341      1575
 -1     33041    3    0    1
 -2      6713      7443      7946      7519
 -1     33042    3    0    1
 -2      6888      6912      6872      7548
 -1     33043    3    0    1
 -2      7245      6301      5868      5867
 -1     33044    3    0    1
 -2      6318      5454      6317      5860
 -1     33045    3    0    1
 -2      8788      7437      8338      6710
 -1     33046    3    0    1
 -2      5446      4953      5376      4952
 -1     33047    3    0    1
 -2      9224      8047      6917      8863
 -1     33048    3    0    1
 -2      1077       569      2893      1680
 -1     33049    3    0    1
 -2      5688      5352      5741      5765
 -1     33050    3    0    1
 -2      6061      6952      7604      7060
 -1     33051    3    0    1
 -2      1178      1902      2441      1855
 -1     33052    3    0    1
 -2      5520      5519      5009      5269
 -1     33053    3    0    1
 -2      3364      2742      3884      2716
 -1     33054    3    0    1
 -2      6718      5582      7923      6620
 -1     33055    3    0    1
 -2      6936      6937      7040      8482
 -1     33056    3    0    1
 -2      5001      4761      5432      5477
 -1     33057    3    0    1
 -2      2604      2109      2635      1381
 -1     33058    3    0    1
 -2      1674      1601      2296      1622
 -1     33059    3    0    1
 -2      4848      4128      4512      3617
 -1     33060    3    0    1
 -2      8039      6962      7609      8477
 -1     33061    3    0    1
 -2      2400      1059      1058      1763
 -1     33062    3    0    1
 -2      4566      4153      3577      4175
 -1     33063    3    0    1
 -2      2101      4299      2602      2100
 -1     33064    3    0    1
 -2      7899      8294      7343      6474
 -1     33065    3    0    1
 -2      1501       856       898      2696
 -1     33066    3    0    1
 -2      1898      1982      3681      1944
 -1     33067    3    0    1
 -2      5548      4495      5564      5276
 -1     33068    3    0    1
 -2      6987      5711      5689      7588
 -1     33069    3    0    1
 -2      1859      1184      2958      2456
 -1     33070    3    0    1
 -2      3237      1396      2588      4267
 -1     33071    3    0    1
 -2      5259      5024      5074      4800
 -1     33072    3    0    1
 -2       723      2113      2138      1388
 -1     33073    3    0    1
 -2      6801      8414      5324      6803
 -1     33074    3    0    1
 -2      2969       650      2484      3588
 -1     33075    3    0    1
 -2      5553      5252      5279      4479
 -1     33076    3    0    1
 -2      2819      1653      3951      2797
 -1     33077    3    0    1
 -2      6563      7329      8279      8726
 -1     33078    3    0    1
 -2      2110      2083      3151      2084
 -1     33079    3    0    1
 -2      5238      5405      5805      6266
 -1     33080    3    0    1
 -2      5660      8845      7497      6687
 -1     33081    3    0    1
 -2      1947      2004      1905      3091
 -1     33082    3    0    1
 -2      7207      7731      9018      6239
 -1     33083    3    0    1
 -2      4467      4468      5520      4765
 -1     33084    3    0    1
 -2      7914      7389      8706      9388
 -1     33085    3    0    1
 -2      7920      9161      8748      7921
 -1     33086    3    0    1
 -2       314       319       317       318
 -1     33087    3    0    1
 -2      2999      4151      3604      4183
 -1     33088    3    0    1
 -2      1881      3599      1168      1817
 -1     33089    3    0    1
 -2      9140      8744      8711      8325
 -1     33090    3    0    1
 -2      6431      8242      8299      7264
 -1     33091    3    0    1
 -2       843      1560      1515      2268
 -1     33092    3    0    1
 -2      4017      3430      1726      2354
 -1     33093    3    0    1
 -2      2567      1998      3126      3712
 -1     33094    3    0    1
 -2      6872      6911      6912      6888
 -1     33095    3    0    1
 -2      6772      8836      7996      7483
 -1     33096    3    0    1
 -2      5444      7806      6302      6301
 -1     33097    3    0    1
 -2      5559      5521      4807      5560
 -1     33098    3    0    1
 -2       110         1         2       415
 -1     33099    3    0    1
 -2      2897      2377      1750      4004
 -1     33100    3    0    1
 -2      2754      2679      3877      2726
 -1     33101    3    0    1
 -2      7787      7752      8201      7153
 -1     33102    3    0    1
 -2       407        49        50      1459
 -1     33103    3    0    1
 -2      6897      6896      6793      6792
 -1     33104    3    0    1
 -2      8867      8438      7628      8006
 -1     33105    3    0    1
 -2      6717      6619      6599      5581
 -1     33106    3    0    1
 -2      5445      5210      5375      4951
 -1     33107    3    0    1
 -2      7622      8005      7581      5707
 -1     33108    3    0    1
 -2      2238       907      1557      3328
 -1     33109    3    0    1
 -2      5911      5058      5494      5566
 -1     33110    3    0    1
 -2      4033      4446      4488      2872
 -1     33111    3    0    1
 -2       982       507      1657      2302
 -1     33112    3    0    1
 -2      7662      7634      8513      7049
 -1     33113    3    0    1
 -2      2757      2298      2808      1550
 -1     33114    3    0    1
 -2      4627      5163      5181      5198
 -1     33115    3    0    1
 -2      1534      1619      3343      2799
 -1     33116    3    0    1
 -2      9194      9195      9454      7960
 -1     33117    3    0    1
 -2      6381      6306      7254      7241
 -1     33118    3    0    1
 -2      1387      2137      3178      1348
 -1     33119    3    0    1
 -2      6958      8852      8010      7547
 -1     33120    3    0    1
 -2      6147      6212      5469      5394
 -1     33121    3    0    1
 -2      9223      8046      8014      8447
 -1     33122    3    0    1
 -2      6864      6031      5653      8397
 -1     33123    3    0    1
 -2      3497      1013      1710      3498
 -1     33124    3    0    1
 -2      1972      3081      3682      1973
 -1     33125    3    0    1
 -2      5059      4497      4448      4449
 -1     33126    3    0    1
 -2      4082      4475      4053      3554
 -1     33127    3    0    1
 -2      2503      3611      3680      2467
 -1     33128    3    0    1
 -2      5376      8179      7137      8628
 -1     33129    3    0    1
 -2      9004      9306      9033      7135
 -1     33130    3    0    1
 -2      5932      6523      6597      7401
 -1     33131    3    0    1
 -2      1940      3035      1200      1941
 -1     33132    3    0    1
 -2      1756      1755      4067      2397
 -1     33133    3    0    1
 -2      7352      5496      7310      5912
 -1     33134    3    0    1
 -2      1553      1590      3944      2287
 -1     33135    3    0    1
 -2      2353      3517      4058      2930
 -1     33136    3    0    1
 -2      4013      1797      3491      2352
 -1     33137    3    0    1
 -2      8508      7034      7649      8477
 -1     33138    3    0    1
 -2      1772      4039      4002      2374
 -1     33139    3    0    1
 -2      6603      7911      5560      6561
 -1     33140    3    0    1
 -2      4224      1989      3070      3686
 -1     33141    3    0    1
 -2      1959      3631      1912      1934
 -1     33142    3    0    1
 -2      2226      1565      3901      2770
 -1     33143    3    0    1
 -2      6100      6911      5332      8041
 -1     33144    3    0    1
 -2      7896      6538      7862      8285
 -1     33145    3    0    1
 -2      2603      2602      4299      2100
 -1     33146    3    0    1
 -2      9412      8713      8765      7906
 -1     33147    3    0    1
 -2      6929      6930      7024      8465
 -1     33148    3    0    1
 -2      6596      5957      6739      5958
 -1     33149    3    0    1
 -2       285      3780      2566      9668
 -1     33150    3    0    1
 -2      8357      6643      5970      7944
 -1     33151    3    0    1
 -2      1546       859      3325      1545
 -1     33152    3    0    1
 -2      2628      4242      2581      4262
 -1     33153    3    0    1
 -2      1517      2269      2217      2813
 -1     33154    3    0    1
 -2      5279      5936      5553      6611
 -1     33155    3    0    1
 -2      5695      6995      5341      6958
 -1     33156    3    0    1
 -2      3445      4010      4415      3466
 -1     33157    3    0    1
 -2      1214      3617       673      1926
 -1     33158    3    0    1
 -2      3669      3689      1961      3668
 -1     33159    3    0    1
 -2      3064      1230      1231      1210
 -1     33160    3    0    1
 -2      3819      2590      3217      1398
 -1     33161    3    0    1
 -2      1337      1352      2052      3185
 -1     33162    3    0    1
 -2      3870      3303      4380      4717
 -1     33163    3    0    1
 -2      2267      1559      1515      3899
 -1     33164    3    0    1
 -2      1900      3641      2507      1830
 -1     33165    3    0    1
 -2      4357      3329      2239      3861
 -1     33166    3    0    1
 -2      8065      7060      7604      8468
 -1     33167    3    0    1
 -2      8664      8220      9055      7171
 -1     33168    3    0    1
 -2      5037      5053      5070      5898
 -1     33169    3    0    1
 -2      2244      2773      2243      3335
 -1     33170    3    0    1
 -2      4411      4071      4412      3487
 -1     33171    3    0    1
 -2      4978      5413      5464      4977
 -1     33172    3    0    1
 -2      8856      8452      8033      8878
 -1     33173    3    0    1
 -2      5828      5851      7214      7164
 -1     33174    3    0    1
 -2      1101       574      1102      1683
 -1     33175    3    0    1
 -2      8729      7303      6500      8728
 -1     33176    3    0    1
 -2      3886      2206      2249      3320
 -1     33177    3    0    1
 -2      2427      2483      1851      4141
 -1     33178    3    0    1
 -2       580      1128       532       579
 -1     33179    3    0    1
 -2      8113      9541      8984      8967
 -1     33180    3    0    1
 -2      7258      6385      6384      8237
 -1     33181    3    0    1
 -2      3512      2385      1785      2956
 -1     33182    3    0    1
 -2      4704      3859      3858      2761
 -1     33183    3    0    1
 -2      8296      5901      6548      8297
 -1     33184    3    0    1
 -2      2589      1398      3217      2590
 -1     33185    3    0    1
 -2      5033      5068      5051      4790
 -1     33186    3    0    1
 -2      2874      1052      3457      1664
 -1     33187    3    0    1
 -2      1520      3902      3933      1573
 -1     33188    3    0    1
 -2      1180      1852      1872      1851
 -1     33189    3    0    1
 -2      5695      4658      4884      5355
 -1     33190    3    0    1
 -2      3750      3767      4680      3206
 -1     33191    3    0    1
 -2      8511      6073      7659      8082
 -1     33192    3    0    1
 -2      4870      5638      5325      4522
 -1     33193    3    0    1
 -2      6572      5936      7868      6510
 -1     33194    3    0    1
 -2      4579      4851      4181      5124
 -1     33195    3    0    1
 -2      5569      5929      6610      5950
 -1     33196    3    0    1
 -2      6542      8316      7849      6470
 -1     33197    3    0    1
 -2      8610      7154      7752      7787
 -1     33198    3    0    1
 -2      7785      9056      8222      8665
 -1     33199    3    0    1
 -2      3643      2455      3066      1264
 -1     33200    3    0    1
 -2      3594      3620      4106      3554
 -1     33201    3    0    1
 -2      7802      5462      7771      6372
 -1     33202    3    0    1
 -2      4031      2368      1100      2893
 -1     33203    3    0    1
 -2      7530      8410      6797      6876
 -1     33204    3    0    1
 -2      1739      3522      2890      2868
 -1     33205    3    0    1
 -2      4571      4819      4818      5116
 -1     33206    3    0    1
 -2      8211      8671      7792      9048
 -1     33207    3    0    1
 -2      2766      3946      2765      3354
 -1     33208    3    0    1
 -2      2325      2311      3976      2292
 -1     33209    3    0    1
 -2      2948      4093      4454      3482
 -1     33210    3    0    1
 -2      7994      7553      8028      6795
 -1     33211    3    0    1
 -2      5174      5151      4889      5687
 -1     33212    3    0    1
 -2      8095      8951      9281      9503
 -1     33213    3    0    1
 -2      5272      4786      5264      5015
 -1     33214    3    0    1
 -2      1187       650      2484      2969
 -1     33215    3    0    1
 -2      4616      4665      4937      3778
 -1     33216    3    0    1
 -2      2548      1994      1954      2538
 -1     33217    3    0    1
 -2      5696      5713      6996      8039
 -1     33218    3    0    1
 -2      5457      5220      4967      4758
 -1     33219    3    0    1
 -2      5851      5826      5828      7214
 -1     33220    3    0    1
 -2      5627      5092      5291      5140
 -1     33221    3    0    1
 -2      6898      8410      8448      6876
 -1     33222    3    0    1
 -2      6966      7594      7655      6065
 -1     33223    3    0    1
 -2      3433      1628      1678      3970
 -1     33224    3    0    1
 -2      4612      4613      3775      3125
 -1     33225    3    0    1
 -2      4087      4803      4802      2950
 -1     33226    3    0    1
 -2      5248      4774      5052      4450
 -1     33227    3    0    1
 -2      4230      3125      1961      3689
 -1     33228    3    0    1
 -2       650      1146      1135      3588
 -1     33229    3    0    1
 -2      4918      4658      4928      4884
 -1     33230    3    0    1
 -2      1643       972       973      1611
 -1     33231    3    0    1
 -2      3097      2527      3710      4194
 -1     33232    3    0    1
 -2      8179      5376      7792      8628
 -1     33233    3    0    1
 -2      4714      4965      4997      4360
 -1     33234    3    0    1
 -2      6195      5820      5821      6282
 -1     33235    3    0    1
 -2      7785      8221      8665      5471
 -1     33236    3    0    1
 -2      5469      6147      5394      5214
 -1     33237    3    0    1
 -2      8416      8439      6863      7996
 -1     33238    3    0    1
 -2      8402      7492      5657      8356
 -1     33239    3    0    1
 -2      6274      6251      6250      6171
 -1     33240    3    0    1
 -2      3239      3170      3785      3820
 -1     33241    3    0    1
 -2      5228      6156      5802      6157
 -1     33242    3    0    1
 -2      8725      6560      7386      7328
 -1     33243    3    0    1
 -2      3499      2889      4475      4435
 -1     33244    3    0    1
 -2      1864       643       622      3021
 -1     33245    3    0    1
 -2      8795      6717      6009      7965
 -1     33246    3    0    1
 -2      6370      6331      6332      7264
 -1     33247    3    0    1
 -2      6790      7538      6873      6789
 -1     33248    3    0    1
 -2      4644      4913      4301      4642
 -1     33249    3    0    1
 -2      1429       777       331      1344
 -1     33250    3    0    1
 -2      9405      7936      7406      9192
 -1     33251    3    0    1
 -2      1655       981      1654      2777
 -1     33252    3    0    1
 -2      2511      1904      2523      4186
 -1     33253    3    0    1
 -2      5482      6488      5517      6487
 -1     33254    3    0    1
 -2      3832      3228      3139      3736
 -1     33255    3    0    1
 -2      5515      5533      5576      4816
 -1     33256    3    0    1
 -2      1542       898      2257      1510
 -1     33257    3    0    1
 -2      5562      5907      5250      6497
 -1     33258    3    0    1
 -2      5918      5521      5560      5486
 -1     33259    3    0    1
 -2      2836      3975      3439      3409
 -1     33260    3    0    1
 -2      6048      4940      5153      5743
 -1     33261    3    0    1
 -2      3672      3008      3033      1251
 -1     33262    3    0    1
 -2      7005      7656      8911      8076
 -1     33263    3    0    1
 -2      3341      2275      1575      1506
 -1     33264    3    0    1
 -2      1717      3467      1062      1716
 -1     33265    3    0    1
 -2      8653      8218      7221      8233
 -1     33266    3    0    1
 -2      8225      6374      7231      6372
 -1     33267    3    0    1
 -2      5280      5266      5573      4802
 -1     33268    3    0    1
 -2      8178      8179      7162      6191
 -1     33269    3    0    1
 -2      2755       873       875      2195
 -1     33270    3    0    1
 -2      7755      8204      7788      9015
 -1     33271    3    0    1
 -2      7314      5951      5532      6613
 -1     33272    3    0    1
 -2      7041      7656      8484      6940
 -1     33273    3    0    1
 -2      2175       861       877      2196
 -1     33274    3    0    1
 -2      8422      5658      7955      8800
 -1     33275    3    0    1
 -2      4097      3624      4160      3000
 -1     33276    3    0    1
 -2      6426      8248      7848      5027
 -1     33277    3    0    1
 -2       461       953       492      1583
 -1     33278    3    0    1
 -2      5173      4934      4924      6058
 -1     33279    3    0    1
 -2      2461      1196       654      2974
 -1     33280    3    0    1
 -2      4188      2004      3705      3109
 -1     33281    3    0    1
 -2      3895      4366      3347      3876
 -1     33282    3    0    1
 -2      2455       672       266      1264
 -1     33283    3    0    1
 -2       587       585      1087      1714
 -1     33284    3    0    1
 -2      1609      1679      1608      1592
 -1     33285    3    0    1
 -2      5668      6739      6654      5639
 -1     33286    3    0    1
 -2       860      1550      2758      2263
 -1     33287    3    0    1
 -2      1229       668      1207      1921
 -1     33288    3    0    1
 -2      6583      6599      6490      5518
 -1     33289    3    0    1
 -2      3080      1885      2448      1843
 -1     33290    3    0    1
 -2      8169      6345      6307      7255
 -1     33291    3    0    1
 -2      6866      6885      6048      7590
 -1     33292    3    0    1
 -2      3937      2278      2744      1668
 -1     33293    3    0    1
 -2      3362      2773      3335      4338
 -1     33294    3    0    1
 -2      7804      7236      6231      8670
 -1     33295    3    0    1
 -2      8934      8488      8487      8079
 -1     33296    3    0    1
 -2      2752      2194       858      1544
 -1     33297    3    0    1
 -2      7814      8654      7288      5470
 -1     33298    3    0    1
 -2      8186      8620      7164      6203
 -1     33299    3    0    1
 -2      3734      3190      4653      4314
 -1     33300    3    0    1
 -2      5657      6820      7492      7547
 -1     33301    3    0    1
 -2      8598      6130      9305      7697
 -1     33302    3    0    1
 -2      3826      3181      2087      2088
 -1     33303    3    0    1
 -2      2090      2639      2113      2089
 -1     33304    3    0    1
 -2      5568      6609      5928      6608
 -1     33305    3    0    1
 -2      5587      7954      7420      9148
 -1     33306    3    0    1
 -2      9133      9170      9147      7889
 -1     33307    3    0    1
 -2       877       425       861      2175
 -1     33308    3    0    1
 -2      2995      3617       673      1214
 -1     33309    3    0    1
 -2      2004      1353      1947       730
 -1     33310    3    0    1
 -2      9246      8057      9235      9493
 -1     33311    3    0    1
 -2      3351      4321      4744      4342
 -1     33312    3    0    1
 -2      2979      3597      4518      4519
 -1     33313    3    0    1
 -2      4026      3478      2365      1769
 -1     33314    3    0    1
 -2      1231      1982      1898      1944
 -1     33315    3    0    1
 -2      1021      1075      2408      1741
 -1     33316    3    0    1
 -2      3970      3940      1628      3959
 -1     33317    3    0    1
 -2      1683      3407      1025      1685
 -1     33318    3    0    1
 -2      2027      4193      3095      1959
 -1     33319    3    0    1
 -2      2219      3902      2227      1520
 -1     33320    3    0    1
 -2      2761      3289      3859      2703
 -1     33321    3    0    1
 -2      1585      1586       931      1628
 -1     33322    3    0    1
 -2      3272      4324      3883      2714
 -1     33323    3    0    1
 -2      8617      8173      7180      7179
 -1     33324    3    0    1
 -2      3605      1172      3039      1890
 -1     33325    3    0    1
 -2      5495      7308      8249      6409
 -1     33326    3    0    1
 -2      5492      5909      5935      5548
 -1     33327    3    0    1
 -2      4183      2999      3676      1888
 -1     33328    3    0    1
 -2      8689      8690      7832      8729
 -1     33329    3    0    1
 -2      1893      2436      3607      1820
 -1     33330    3    0    1
 -2      5613      5307      5114      5665
 -1     33331    3    0    1
 -2      4425      4785      4060      5064
 -1     33332    3    0    1
 -2      2331      3943      1629      3971
 -1     33333    3    0    1
 -2      1628      2754      1585      1586
 -1     33334    3    0    1
 -2      1001      3403      1673      1672
 -1     33335    3    0    1
 -2      8002      7605      6885      8037
 -1     33336    3    0    1
 -2      2875      1052      1030      1711
 -1     33337    3    0    1
 -2      3508       585      1714      2916
 -1     33338    3    0    1
 -2      3356      1594      1611      2816
 -1     33339    3    0    1
 -2      1575       870      3341      1506
 -1     33340    3    0    1
 -2      1428       358       736      1414
 -1     33341    3    0    1
 -2      7477      6696      6695      6765
 -1     33342    3    0    1
 -2      1710      1013       603      3498
 -1     33343    3    0    1
 -2      6200      7243      8185      8633
 -1     33344    3    0    1
 -2      2283      3939      2306      3957
 -1     33345    3    0    1
 -2      2679      2754      3855      2699
 -1     33346    3    0    1
 -2      3122      2554      3189      3693
 -1     33347    3    0    1
 -2      8531      9265      9246      6085
 -1     33348    3    0    1
 -2      8868      7586      8439      8848
 -1     33349    3    0    1
 -2      3621      4549      3575      3675
 -1     33350    3    0    1
 -2      7284      6404      6403      7246
 -1     33351    3    0    1
 -2      7056      8514      8503      6983
 -1     33352    3    0    1
 -2      4300      3823      2605      2637
 -1     33353    3    0    1
 -2      1550       933      2298      1631
 -1     33354    3    0    1
 -2      7657      8912      9265      6085
 -1     33355    3    0    1
 -2      6545      7899      7380      6474
 -1     33356    3    0    1
 -2      6548      6578      5901      8296
 -1     33357    3    0    1
 -2      2112      3244      3749      1387
 -1     33358    3    0    1
 -2      4931      4938      4286      3784
 -1     33359    3    0    1
 -2      5182      6069      5702      5199
 -1     33360    3    0    1
 -2      6845      6900      6877      6847
 -1     33361    3    0    1
 -2      8873      7611      8042      7612
 -1     33362    3    0    1
 -2       503       946       889      2743
 -1     33363    3    0    1
 -2      5191      5152      5153      6048
 -1     33364    3    0    1
 -2      2912      2369      2872      3504
 -1     33365    3    0    1
 -2      5018      5543      5258      5888
 -1     33366    3    0    1
 -2      7013      7582      8051      6096
 -1     33367    3    0    1
 -2      1373       744      1372      2568
 -1     33368    3    0    1
 -2      4119      4099      5080      3563
 -1     33369    3    0    1
 -2      4389      4388      3343      3276
 -1     33370    3    0    1
 -2      8849      7023      5687      7533
 -1     33371    3    0    1
 -2      3194      3739      1362      3164
 -1     33372    3    0    1
 -2      5516      6557      5556      5285
 -1     33373    3    0    1
 -2      6764      5999      6001      7473
 -1     33374    3    0    1
 -2      3015      3639      2989      4167
 -1     33375    3    0    1
 -2      1760      1761      3485      2383
 -1     33376    3    0    1
 -2      8850      6049      8882      5692
 -1     33377    3    0    1
 -2      1098      2365      3478      1769
 -1     33378    3    0    1
 -2      7206      7253      8626      7237
 -1     33379    3    0    1
 -2      7674      7033      7065      7608
 -1     33380    3    0    1
 -2      4701      4332      5234      5380
 -1     33381    3    0    1
 -2      1033       534       535      1032
 -1     33382    3    0    1
 -2      3220      3828      2608      2090
 -1     33383    3    0    1
 -2      2608      4250      3828      3220
 -1     33384    3    0    1
 -2      4457      2916      3508      4458
 -1     33385    3    0    1
 -2      6026      8351      7439      6025
 -1     33386    3    0    1
 -2      4797      4420      4011      5077
 -1     33387    3    0    1
 -2      7653      7040      6937      8482
 -1     33388    3    0    1
 -2      8196      7797      6277      7173
 -1     33389    3    0    1
 -2      4313      4650      4649      3830
 -1     33390    3    0    1
 -2      3919      4365      4694      2693
 -1     33391    3    0    1
 -2      6500      7371      8729      8728
 -1     33392    3    0    1
 -2      6943      6968      6087      6086
 -1     33393    3    0    1
 -2      9167      7936      6731      5602
 -1     33394    3    0    1
 -2      2359      2358      3989      2360
 -1     33395    3    0    1
 -2      2475      2476      4135      1835
 -1     33396    3    0    1
 -2      3152      3202      3766      3131
 -1     33397    3    0    1
 -2      4112      2990      3064      4113
 -1     33398    3    0    1
 -2      8765      8713      6557      7906
 -1     33399    3    0    1
 -2      6859      7517      8834      5668
 -1     33400    3    0    1
 -2      3303       884       479      3361
 -1     33401    3    0    1
 -2      2130      3816      2103      3191
 -1     33402    3    0    1
 -2      8218      7248      6320      6319
 -1     33403    3    0    1
 -2      4382      4732      5001      4406
 -1     33404    3    0    1
 -2      5960      7922      7465      9143
 -1     33405    3    0    1
 -2       773       371        11      2676
 -1     33406    3    0    1
 -2      6942      6940      7042      7005
 -1     33407    3    0    1
 -2      1041      1040       544      1055
 -1     33408    3    0    1
 -2      1009       520      1697      2908
 -1     33409    3    0    1
 -2      7478      5602      6699      6700
 -1     33410    3    0    1
 -2      1850      3022      2475      1864
 -1     33411    3    0    1
 -2      5458      5237      5399      6222
 -1     33412    3    0    1
 -2      5262      5514      5502      5054
 -1     33413    3    0    1
 -2      3486      4047      1777      2384
 -1     33414    3    0    1
 -2      2226      3901      1525      2722
 -1     33415    3    0    1
 -2      1570      3358      3932      1568
 -1     33416    3    0    1
 -2      8059      8923      8924      7666
 -1     33417    3    0    1
 -2      8846      9206      7511      6755
 -1     33418    3    0    1
 -2      5248      5052      4479      4450
 -1     33419    3    0    1
 -2      6348      6346      5478      7242
 -1     33420    3    0    1
 -2      8369      5994      6721      8332
 -1     33421    3    0    1
 -2      3299       912       829      2709
 -1     33422    3    0    1
 -2      9142      9412      8765      7906
 -1     33423    3    0    1
 -2      1546      2805       957      1627
 -1     33424    3    0    1
 -2      5070      5572      5915      5898
 -1     33425    3    0    1
 -2      1939      2030      3098      1965
 -1     33426    3    0    1
 -2      7615      9264      9284      8077
 -1     33427    3    0    1
 -2      8822      7448      9446      7952
 -1     33428    3    0    1
 -2      3539      2909      3453      4025
 -1     33429    3    0    1
 -2      8888      9271      6120      7622
 -1     33430    3    0    1
 -2      8445      8425      7550      6893
 -1     33431    3    0    1
 -2      8835      7986      8820      7482
 -1     33432    3    0    1
 -2      7269      9033      7240      7808
 -1     33433    3    0    1
 -2      5297      5636      5986      5952
 -1     33434    3    0    1
 -2      3226      4653      4315      3734
 -1     33435    3    0    1
 -2      5267      5039      5038      5899
 -1     33436    3    0    1
 -2      4461      3511      3462      4046
 -1     33437    3    0    1
 -2      6967      7564      7577      6068
 -1     33438    3    0    1
 -2      3189      4253      3813      4689
 -1     33439    3    0    1
 -2      6498      6344      8229      7255
 -1     33440    3    0    1
 -2      2090      3828      2608      2609
 -1     33441    3    0    1
 -2      3188      3222      3223      3770
 -1     33442    3    0    1
 -2      3065      2508      4203      1985
 -1     33443    3    0    1
 -2      6372      8225      6374      8226
 -1     33444    3    0    1
 -2      6986      6930      8466      8894
 -1     33445    3    0    1
 -2      2041      2069      3740      2586
 -1     33446    3    0    1
 -2      4698      4391      4340      4953
 -1     33447    3    0    1
 -2      4099      4119      3661      2968
 -1     33448    3    0    1
 -2      1690       992       167      2379
 -1     33449    3    0    1
 -2      2557      3145      3167      1990
 -1     33450    3    0    1
 -2      3770      3223      4652      4671
 -1     33451    3    0    1
 -2      1885      3080      2432      1843
 -1     33452    3    0    1
 -2      8442      5694      7562      7536
 -1     33453    3    0    1
 -2      2576      2575      4239      4598
 -1     33454    3    0    1
 -2      1821      3641      1177      1830
 -1     33455    3    0    1
 -2      7653      6937      7002      6938
 -1     33456    3    0    1
 -2      1698       986      1629      1630
 -1     33457    3    0    1
 -2      1672      2304      2839      1621
 -1     33458    3    0    1
 -2        28        30        29       799
 -1     33459    3    0    1
 -2      1852      1837      1873      1851
 -1     33460    3    0    1
 -2      4395      4743      4353      4354
 -1     33461    3    0    1
 -2      5459      5438      4759      4750
 -1     33462    3    0    1
 -2       583       537      1705      2950
 -1     33463    3    0    1
 -2      4804      5535      4782      5504
 -1     33464    3    0    1
 -2      3195       694       283      1341
 -1     33465    3    0    1
 -2      3955      2303      3938      3979
 -1     33466    3    0    1
 -2      4143      3076      2429      3649
 -1     33467    3    0    1
 -2      7181      5849      7729      6125
 -1     33468    3    0    1
 -2      8364      6660      8365      7412
 -1     33469    3    0    1
 -2      5604      5603      5316      5083
 -1     33470    3    0    1
 -2      7059      6109      5742      6077
 -1     33471    3    0    1
 -2      7051      8501      8032      6947
 -1     33472    3    0    1
 -2       247       270       246      1220
 -1     33473    3    0    1
 -2      1517      2225      3297      2217
 -1     33474    3    0    1
 -2      2484      2483      2427      3629
 -1     33475    3    0    1
 -2       998       997      2885      1617
 -1     33476    3    0    1
 -2      3403      2906      1000      1673
 -1     33477    3    0    1
 -2      3437      3389      2842      1684
 -1     33478    3    0    1
 -2      2478      3053      3626      2426
 -1     33479    3    0    1
 -2      8651      6356      7243      8231
 -1     33480    3    0    1
 -2      2004      3018      1928      1905
 -1     33481    3    0    1
 -2      8725      9120      7892      9400
 -1     33482    3    0    1
 -2      4292      5195      4613      4614
 -1     33483    3    0    1
 -2      1964      2527      2540      1996
 -1     33484    3    0    1
 -2      9028      7757      8133      8596
 -1     33485    3    0    1
 -2      8868      8007      8848      9211
 -1     33486    3    0    1
 -2      7811      7735      5823      8158
 -1     33487    3    0    1
 -2      1236      1859      3017      3659
 -1     33488    3    0    1
 -2      3336      2272       885      1521
 -1     33489    3    0    1
 -2      7966      6719      9146      8771
 -1     33490    3    0    1
 -2      2483      1873      1837      1851
 -1     33491    3    0    1
 -2      3765      3130      2667      1347
 -1     33492    3    0    1
 -2      7530      8812      7972      5607
 -1     33493    3    0    1
 -2      7009      8512      8918      8493
 -1     33494    3    0    1
 -2      5696      5158      5734      5179
 -1     33495    3    0    1
 -2      4466      3560      3486      4810
 -1     33496    3    0    1
 -2      6579      6519      5574      5511
 -1     33497    3    0    1
 -2      1661      1008      1046      3450
 -1     33498    3    0    1
 -2      4501      3469      4060      4079
 -1     33499    3    0    1
 -2      4926      4891      4653      4664
 -1     33500    3    0    1
 -2      5573      5554      7395      6614
 -1     33501    3    0    1
 -2       981       978       921      2778
 -1     33502    3    0    1
 -2      7335      7334      6441      8733
 -1     33503    3    0    1
 -2      4500      4816      3549      4046
 -1     33504    3    0    1
 -2      2101      2109      4299      2100
 -1     33505    3    0    1
 -2      2467      2502      1847      1848
 -1     33506    3    0    1
 -2      3830      3829      1425      1389
 -1     33507    3    0    1
 -2      3795      2091      2129      3752
 -1     33508    3    0    1
 -2       453       881       909       452
 -1     33509    3    0    1
 -2      7672      7063      7030      8507
 -1     33510    3    0    1
 -2       952       951       491       894
 -1     33511    3    0    1
 -2      8463      7642      6949      8462
 -1     33512    3    0    1
 -2      6691      6729      5674      7475
 -1     33513    3    0    1
 -2      4044      2916      3528      3559
 -1     33514    3    0    1
 -2      5336      5757      6973      6118
 -1     33515    3    0    1
 -2      7552      7577      6068      6839
 -1     33516    3    0    1
 -2      8164      6263      8202      8153
 -1     33517    3    0    1
 -2      1859      1236      1904      3659
 -1     33518    3    0    1
 -2      6544      8737      7378      5924
 -1     33519    3    0    1
 -2      2004      1947      3109      3091
 -1     33520    3    0    1
 -2      3174      4275      3839      4298
 -1     33521    3    0    1
 -2      3433      1678      2341      2840
 -1     33522    3    0    1
 -2      6650      8813      7938      6734
 -1     33523    3    0    1
 -2      6106      6097      5778      5203
 -1     33524    3    0    1
 -2      1183      2957      3581      3622
 -1     33525    3    0    1
 -2      1214      1849      1179      1832
 -1     33526    3    0    1
 -2      8928      7022      6059      8464
 -1     33527    3    0    1
 -2      3382      2309      4410      2816
 -1     33528    3    0    1
 -2      3789      4688      4668      3842
 -1     33529    3    0    1
 -2      1363       772      3194       738
 -1     33530    3    0    1
 -2      6498      7329      6562      7894
 -1     33531    3    0    1
 -2      1770      4030      2870      1743
 -1     33532    3    0    1
 -2      2067      1364      2066      2105
 -1     33533    3    0    1
 -2      7912      7913      9416      9401
 -1     33534    3    0    1
 -2      1089      1054      2952      1759
 -1     33535    3    0    1
 -2      2317      1678      1628      2840
 -1     33536    3    0    1
 -2      5306      6627      5603      6648
 -1     33537    3    0    1
 -2      5445      5816      5210      4979
 -1     33538    3    0    1
 -2      4166      4833      4549      3575
 -1     33539    3    0    1
 -2      1079      1078      1123       572
 -1     33540    3    0    1
 -2      4502      4094      2989      2915
 -1     33541    3    0    1
 -2      5380      5379      6166      5843
 -1     33542    3    0    1
 -2      1167      2431      3600      1817
 -1     33543    3    0    1
 -2      6431      6395      5501      6331
 -1     33544    3    0    1
 -2      2404      3996      1732      2391
 -1     33545    3    0    1
 -2      6858      7541      5668      8428
 -1     33546    3    0    1
 -2      3950      3976      2311      2292
 -1     33547    3    0    1
 -2      3624      2524      1906      2474
 -1     33548    3    0    1
 -2      1941      3034      3035      1881
 -1     33549    3    0    1
 -2      9366      9586      9615      9671
 -1     33550    3    0    1
 -2      6883      6808      6774      6906
 -1     33551    3    0    1
 -2      2637      3824      1404      2125
 -1     33552    3    0    1
 -2      3131      3202      3203      1288
 -1     33553    3    0    1
 -2      3204      4232      2022      1982
 -1     33554    3    0    1
 -2      4064      2945      3526      2913
 -1     33555    3    0    1
 -2      6920      8436      7554      6850
 -1     33556    3    0    1
 -2      1847      1897      1176      1846
 -1     33557    3    0    1
 -2      6047      6059      7601      7058
 -1     33558    3    0    1
 -2      1559      2721      2267      3375
 -1     33559    3    0    1
 -2      7518      7542      8415      6805
 -1     33560    3    0    1
 -2      1948      2524      3685      2474
 -1     33561    3    0    1
 -2       728      1409      1390      1352
 -1     33562    3    0    1
 -2      3798      3797      2619      4241
 -1     33563    3    0    1
 -2      3944      1590      1634      2287
 -1     33564    3    0    1
 -2      6814      6866      6815      6885
 -1     33565    3    0    1
 -2      4673      4936      4894      5208
 -1     33566    3    0    1
 -2      7623      8005      7622      5707
 -1     33567    3    0    1
 -2      6176      5230      5404      5476
 -1     33568    3    0    1
 -2      6117      6102      6085      7616
 -1     33569    3    0    1
 -2      7277      6390      7822      8223
 -1     33570    3    0    1
 -2      4061      4800      2852      4062
 -1     33571    3    0    1
 -2      4756      4737      4744      5225
 -1     33572    3    0    1
 -2      1997      2514      4195      3031
 -1     33573    3    0    1
 -2      6696      7477      8380      6765
 -1     33574    3    0    1
 -2      3454      4448      4037      4449
 -1     33575    3    0    1
 -2      4365      3848      4694      2693
 -1     33576    3    0    1
 -2      6581      5254      6582      7321
 -1     33577    3    0    1
 -2      8164      7155      6263      8153
 -1     33578    3    0    1
 -2      5551      5948      4814      6507
 -1     33579    3    0    1
 -2      3030      1188      1189      2970
 -1     33580    3    0    1
 -2      3790      4642      4301      4312
 -1     33581    3    0    1
 -2      8435      8001      8386      8831
 -1     33582    3    0    1
 -2      8884      9220      8041      8461
 -1     33583    3    0    1
 -2      3197      3803      2631      2096
 -1     33584    3    0    1
 -2      6888      6872      6783      7548
 -1     33585    3    0    1
 -2      5844      6142      5422      5390
 -1     33586    3    0    1
 -2      7826      7254      6402      8677
 -1     33587    3    0    1
 -2      7182      8624      7758      6185
 -1     33588    3    0    1
 -2      6685      7421      7929      8334
 -1     33589    3    0    1
 -2      7988      6720      6672      8796
 -1     33590    3    0    1
 -2       862      1552      2214      2197
 -1     33591    3    0    1
 -2      6630      5634      6650      5100
 -1     33592    3    0    1
 -2      3128      2014      1967      2013
 -1     33593    3    0    1
 -2      7442      9162      8394      6655
 -1     33594    3    0    1
 -2      4691      2690      3845      4363
 -1     33595    3    0    1
 -2      8897      8521      8064      8896
 -1     33596    3    0    1
 -2      4814      5057      5050      5027
 -1     33597    3    0    1
 -2      3959      3940      1628      2317
 -1     33598    3    0    1
 -2      4005      4803      4793      2950
 -1     33599    3    0    1
 -2      8500      7664      7665      6979
 -1     33600    3    0    1
 -2      4091      3496      2941      4494
 -1     33601    3    0    1
 -2      5021      4769      5489      5020
 -1     33602    3    0    1
 -2      6237      8174      7159      6279
 -1     33603    3    0    1
 -2      4029      4485      3523      4092
 -1     33604    3    0    1
 -2      5660      5594      5593      5315
 -1     33605    3    0    1
 -2      6331      6330      6332      7264
 -1     33606    3    0    1
 -2       895       896       954      2748
 -1     33607    3    0    1
 -2      6250      6203      6202      6171
 -1     33608    3    0    1
 -2      7225      6326      8673      7263
 -1     33609    3    0    1
 -2      6319      5495      7248      6409
 -1     33610    3    0    1
 -2      1682      2842      2814      1684
 -1     33611    3    0    1
 -2      7542      8018      8856      6922
 -1     33612    3    0    1
 -2      5796      6147      5797      5214
 -1     33613    3    0    1
 -2      7821      7247      5858      6426
 -1     33614    3    0    1
 -2      1812      1871       649      3028
 -1     33615    3    0    1
 -2      8382      8336      8347      7455
 -1     33616    3    0    1
 -2      5509      5936      5498      5279
 -1     33617    3    0    1
 -2      5628      5586      5979      5679
 -1     33618    3    0    1
 -2      3943      3942      1629      3971
 -1     33619    3    0    1
 -2      8268      8714      8715      7319
 -1     33620    3    0    1
 -2      6239      6186      7731      7161
 -1     33621    3    0    1
 -2      3627      2933      3006      4101
 -1     33622    3    0    1
 -2      3444      3464      1059      1715
 -1     33623    3    0    1
 -2      2109      2603      4299      2100
 -1     33624    3    0    1
 -2      6372      6371      6373      8226
 -1     33625    3    0    1
 -2      2522      3107      4201      2563
 -1     33626    3    0    1
 -2      2387      2379      2991      3528
 -1     33627    3    0    1
 -2      4783      5255      4811      5517
 -1     33628    3    0    1
 -2      2834      1652      2327      3951
 -1     33629    3    0    1
 -2      8062      7645      6986      8894
 -1     33630    3    0    1
 -2      5822      5820      7138      6283
 -1     33631    3    0    1
 -2      3348      2806      3324      2284
 -1     33632    3    0    1
 -2      3594       654      1800      2974
 -1     33633    3    0    1
 -2      7260      8248      7821      6426
 -1     33634    3    0    1
 -2       653       249      2460      2488
 -1     33635    3    0    1
 -2      2430      1878      4144      2446
 -1     33636    3    0    1
 -2      2782       927       949      2734
 -1     33637    3    0    1
 -2      3965      3974      2319      1658
 -1     33638    3    0    1
 -2       644       601      1160       610
 -1     33639    3    0    1
 -2      5999      6687      6688      7473
 -1     33640    3    0    1
 -2      3573      2943      2910      3503
 -1     33641    3    0    1
 -2      4680      4923      4681      4648
 -1     33642    3    0    1
 -2       361       362       382      2146
 -1     33643    3    0    1
 -2      6173      6151      7714      6150
 -1     33644    3    0    1
 -2      6801      6881      6803      6802
 -1     33645    3    0    1
 -2      3199       715       716      1377
 -1     33646    3    0    1
 -2      6449      5502      5953      5514
 -1     33647    3    0    1
 -2      5162      5752      6066      6068
 -1     33648    3    0    1
 -2      3443      1056      3487      2339
 -1     33649    3    0    1
 -2      2769      3300      3299      1489
 -1     33650    3    0    1
 -2      2340      1668      1716      1600
 -1     33651    3    0    1
 -2      7931      7423      6686      8782
 -1     33652    3    0    1
 -2      8794      6745      7414      8330
 -1     33653    3    0    1
 -2      6421      7283      6299      5245
 -1     33654    3    0    1
 -2      1420      2123      2643      1375
 -1     33655    3    0    1
 -2      1356      2618      2626      2059
 -1     33656    3    0    1
 -2      4057      3991      2346      3465
 -1     33657    3    0    1
 -2      3443      4071      3487      3530
 -1     33658    3    0    1
 -2      4317      4308      4942      4659
 -1     33659    3    0    1
 -2      4570      4848      4512      3617
 -1     33660    3    0    1
 -2      8186      6273      7191      6202
 -1     33661    3    0    1
 -2      3363      4752      4722      3883
 -1     33662    3    0    1
 -2      1813      1146      1187      2969
 -1     33663    3    0    1
 -2      5704      6071      7639      5728
 -1     33664    3    0    1
 -2      3394      3395      2295      1617
 -1     33665    3    0    1
 -2      2374      4002      1772      1748
 -1     33666    3    0    1
 -2      4354      4396      4353      2701
 -1     33667    3    0    1
 -2      4859      4554      5118      4860
 -1     33668    3    0    1
 -2      8388      8349      8387      6705
 -1     33669    3    0    1
 -2      2853      3421      3973      1637
 -1     33670    3    0    1
 -2      2755      3282       873      2195
 -1     33671    3    0    1
 -2      2615      2593      2592      2076
 -1     33672    3    0    1
 -2      1782      1734      1118      1733
 -1     33673    3    0    1
 -2      3276      3323       816      2678
 -1     33674    3    0    1
 -2      8924      8503      8502      7667
 -1     33675    3    0    1
 -2      8001      8386      8831      6846
 -1     33676    3    0    1
 -2      1157      1809      2424      3585
 -1     33677    3    0    1
 -2      3588      3029      3648      4162
 -1     33678    3    0    1
 -2      7998      7581      5707      6855
 -1     33679    3    0    1
 -2      3206      3180      3245      3246
 -1     33680    3    0    1
 -2      2096      3197      2043      2044
 -1     33681    3    0    1
 -2      2287      1662      1590      1634
 -1     33682    3    0    1
 -2      1405       763      2112      1387
 -1     33683    3    0    1
 -2      6749      7492      9187      8356
 -1     33684    3    0    1
 -2      3355       969      2240       910
 -1     33685    3    0    1
 -2      6917      5703      7006      7618
 -1     33686    3    0    1
 -2      5990      5671      5314      5288
 -1     33687    3    0    1
 -2      4360      4400      4359      3356
 -1     33688    3    0    1
 -2      8299      5501      7293      7873
 -1     33689    3    0    1
 -2      5901      5902      5930      5900
 -1     33690    3    0    1
 -2      2193      1527       872      2687
 -1     33691    3    0    1
 -2      7004      8862      8043      7576
 -1     33692    3    0    1
 -2      3129      3691      3149      2543
 -1     33693    3    0    1
 -2      7883      5938      6453      7319
 -1     33694    3    0    1
 -2      1819      1171       631      1887
 -1     33695    3    0    1
 -2      7598      7619      8490      6969
 -1     33696    3    0    1
 -2      2479      1870      3587      1163
 -1     33697    3    0    1
 -2      8677      5486      5918      8705
 -1     33698    3    0    1
 -2      2720      2755      3372      1547
 -1     33699    3    0    1
 -2      1281      1997      3724      2566
 -1     33700    3    0    1
 -2      1152      1140      1175      3609
 -1     33701    3    0    1
 -2      5961      7459      6661      8365
 -1     33702    3    0    1
 -2       205       217       596      1055
 -1     33703    3    0    1
 -2      6998      8907      8444      7612
 -1     33704    3    0    1
 -2      2855      1692      1040      2902
 -1     33705    3    0    1
 -2      3471      4080      4427      3415
 -1     33706    3    0    1
 -2       492       461      1583      1539
 -1     33707    3    0    1
 -2      6057      6073      5757      5168
 -1     33708    3    0    1
 -2      2529      3041      1976      1891
 -1     33709    3    0    1
 -2      3281      3348      4393      4330
 -1     33710    3    0    1
 -2      6290      6376      8236      6397
 -1     33711    3    0    1
 -2      6123      5781      5782      5367
 -1     33712    3    0    1
 -2      2903      4073      4764      4049
 -1     33713    3    0    1
 -2      8733      7915      6441      8762
 -1     33714    3    0    1
 -2      2239      2737      3329      4357
 -1     33715    3    0    1
 -2      5316      5306      5676      4864
 -1     33716    3    0    1
 -2      5304      5647      4880      5095
 -1     33717    3    0    1
 -2      8196      7797      7262      6277
 -1     33718    3    0    1
 -2      3080      4182      4149      2498
 -1     33719    3    0    1
 -2      7172      5470      7167      6149
 -1     33720    3    0    1
 -2      6507      5524      5948      5027
 -1     33721    3    0    1
 -2      3738      3163      3230      3753
 -1     33722    3    0    1
 -2      2753       494       930      1585
 -1     33723    3    0    1
 -2      3879      3270      4374      4710
 -1     33724    3    0    1
 -2      4851      4579      4825      5107
 -1     33725    3    0    1
 -2      3966      3380      3390      2815
 -1     33726    3    0    1
 -2      9556      9353      8577      9299
 -1     33727    3    0    1
 -2      2552      1292      2002      1986
 -1     33728    3    0    1
 -2      4432      4431      5021      5020
 -1     33729    3    0    1
 -2      8478      8479      7675      8906
 -1     33730    3    0    1
 -2      5461      5475      4752      4760
 -1     33731    3    0    1
 -2      7836      6430      6367      7263
 -1     33732    3    0    1
 -2      2822      1580      1616      2313
 -1     33733    3    0    1
 -2      8921      8500      8499      6979
 -1     33734    3    0    1
 -2      6686      5996      5997      7423
 -1     33735    3    0    1
 -2      4431      4432      4494      4769
 -1     33736    3    0    1
 -2      7787      8201      6261      7153
 -1     33737    3    0    1
 -2      6688      6001      5999      7933
 -1     33738    3    0    1
 -2      5520      5009      6492      5269
 -1     33739    3    0    1
 -2      5763      5347      4651      5150
 -1     33740    3    0    1
 -2      2056      1355      1411      3158
 -1     33741    3    0    1
 -2      8921      8889      9272      8051
 -1     33742    3    0    1
 -2      6879      6057      7580      6880
 -1     33743    3    0    1
 -2      6417      6336      6337      6375
 -1     33744    3    0    1
 -2      3089      1992      1903      4185
 -1     33745    3    0    1
 -2      7755      8204      7756      7788
 -1     33746    3    0    1
 -2      7769      7775      9052      9672
 -1     33747    3    0    1
 -2      5516      6557      6525      5528
 -1     33748    3    0    1
 -2      1189      2418      3589      3030
 -1     33749    3    0    1
 -2      7768      6270      7819      9065
 -1     33750    3    0    1
 -2      7986      8835      8438      6806
 -1     33751    3    0    1
 -2      3508       587       585      1131
 -1     33752    3    0    1
 -2      4517      4827      4862      5322
 -1     33753    3    0    1
 -2      3042      1128      1174      1820
 -1     33754    3    0    1
 -2      8858      8859      8881      9215
 -1     33755    3    0    1
 -2      2160      3810      3183      2114
 -1     33756    3    0    1
 -2      1834      1861      1157      2424
 -1     33757    3    0    1
 -2      8931      8094      9281      8907
 -1     33758    3    0    1
 -2      4975      4692      5232      5411
 -1     33759    3    0    1
 -2      5527      5574      5268      5511
 -1     33760    3    0    1
 -2      5852      5472      5243      5241
 -1     33761    3    0    1
 -2       848       831       482      2186
 -1     33762    3    0    1
 -2      2392      2406      1768      3997
 -1     33763    3    0    1
 -2      6307      7780      5447      8169
 -1     33764    3    0    1
 -2      3600      2431      1167      1853
 -1     33765    3    0    1
 -2      6025      6026      7995      6024
 -1     33766    3    0    1
 -2      7303      7271      8690      7257
 -1     33767    3    0    1
 -2      4639      3765      3130      3841
 -1     33768    3    0    1
 -2      7262      7797      8196      8655
 -1     33769    3    0    1
 -2      9028      6232      7757      9349
 -1     33770    3    0    1
 -2      5697      5714      4660      5357
 -1     33771    3    0    1
 -2      1269      2058      3734      4217
 -1     33772    3    0    1
 -2      4652      4888      4671      5187
 -1     33773    3    0    1
 -2      8850      8003      6887      8420
 -1     33774    3    0    1
 -2      4331      3281      3854      4330
 -1     33775    3    0    1
 -2      4449      5497      5260      5508
 -1     33776    3    0    1
 -2      5497      7288      5864      7289
 -1     33777    3    0    1
 -2      4791      3458      4040      4775
 -1     33778    3    0    1
 -2      4455      4087      2854      4042
 -1     33779    3    0    1
 -2       436       865       866      1488
 -1     33780    3    0    1
 -2      4089      3488      3446      3532
 -1     33781    3    0    1
 -2      8356      6680      8372      8781
 -1     33782    3    0    1
 -2      3710      2540      1996      3711
 -1     33783    3    0    1
 -2      5474      7228      7798      8667
 -1     33784    3    0    1
 -2      4222      2522      4201      2563
 -1     33785    3    0    1
 -2      1832      1142      1179      2995
 -1     33786    3    0    1
 -2      5323      4829      6687      5673
 -1     33787    3    0    1
 -2      5864      7288      5470      5866
 -1     33788    3    0    1
 -2      3577      4110      4566      4152
 -1     33789    3    0    1
 -2      6048      5743      6081      4940
 -1     33790    3    0    1
 -2      6483      8300      8746      7873
 -1     33791    3    0    1
 -2      5944      7334      5490      5523
 -1     33792    3    0    1
 -2      3933      2272      1520      1573
 -1     33793    3    0    1
 -2      8664      8663      7829      6321
 -1     33794    3    0    1
 -2      7909      7910      9424      9413
 -1     33795    3    0    1
 -2      4388      4945      4389      4976
 -1     33796    3    0    1
 -2      4430      4429      5019      4768
 -1     33797    3    0    1
 -2      1052      2321      1664      2874
 -1     33798    3    0    1
 -2      6930      6986      7645      8894
 -1     33799    3    0    1
 -2      7926      8780      8797      8332
 -1     33800    3    0    1
 -2      5516      6557      5528      5556
 -1     33801    3    0    1
 -2      7227      5833      5832      7198
 -1     33802    3    0    1
 -2       888       872      1527      2687
 -1     33803    3    0    1
 -2      6573      6512      5913      6612
 -1     33804    3    0    1
 -2      6359      6424      7259      5855
 -1     33805    3    0    1
 -2      8399      5671      6747      7966
 -1     33806    3    0    1
 -2      7060      7647      6078      8468
 -1     33807    3    0    1
 -2      6097      5720      5730      5778
 -1     33808    3    0    1
 -2      6600      6619      7364      6637
 -1     33809    3    0    1
 -2       805        55        54       397
 -1     33810    3    0    1
 -2      4299      4278      2603      2109
 -1     33811    3    0    1
 -2      2567      1282      1998      1281
 -1     33812    3    0    1
 -2      7226      6326      5458      7225
 -1     33813    3    0    1
 -2       315       759       741      1435
 -1     33814    3    0    1
 -2      6281      7184      8178      5819
 -1     33815    3    0    1
 -2      4923      5720      5172      5203
 -1     33816    3    0    1
 -2      9052      7812      7769      9051
 -1     33817    3    0    1
 -2      4956      4711      4747      4376
 -1     33818    3    0    1
 -2      5168      5757      5190      4943
 -1     33819    3    0    1
 -2      6335      6334      6396      7280
 -1     33820    3    0    1
 -2      5718      5327      5163      5701
 -1     33821    3    0    1
 -2      4371      4357      4372      4708
 -1     33822    3    0    1
 -2      3352      2239      2706      4357
 -1     33823    3    0    1
 -2      4376      4377      3880      3355
 -1     33824    3    0    1
 -2      5863      8219      6388      5861
 -1     33825    3    0    1
 -2      3020      4160      3624      4134
 -1     33826    3    0    1
 -2       138       508       181      9675
 -1     33827    3    0    1
 -2      3811      2050      2051      3793
 -1     33828    3    0    1
 -2      6344      6307      6345      7255
 -1     33829    3    0    1
 -2      7925      6675      6673      8779
 -1     33830    3    0    1
 -2      3431      2306      3939      3957
 -1     33831    3    0    1
 -2      3490      3468      4074      2965
 -1     33832    3    0    1
 -2      3578      2994      3548      2454
 -1     33833    3    0    1
 -2      4352      4388      3847      3276
 -1     33834    3    0    1
 -2      8474      7648      7031      8473
 -1     33835    3    0    1
 -2      9419      6608      6627      9673
 -1     33836    3    0    1
 -2      7659      8083      8082      6073
 -1     33837    3    0    1
 -2      6919      5706      6920      6901
 -1     33838    3    0    1
 -2      9092      8696      7835      8711
 -1     33839    3    0    1
 -2      6775      5653      6031      8397
 -1     33840    3    0    1
 -2      8711      7871      6518      8744
 -1     33841    3    0    1
 -2      2756       959       902      2235
 -1     33842    3    0    1
 -2      3348      3281      4331      4330
 -1     33843    3    0    1
 -2      6223      7175      7176      5854
 -1     33844    3    0    1
 -2      8624      8625      8993      7205
 -1     33845    3    0    1
 -2      5350      4905      5160      4676
 -1     33846    3    0    1
 -2      4075      4423      3491      4015
 -1     33847    3    0    1
 -2      5114      5307      5613      4836
 -1     33848    3    0    1
 -2      6263      5229      7200      7765
 -1     33849    3    0    1
 -2      6592      5566      5911      5494
 -1     33850    3    0    1
 -2      6598      5535      5904      6526
 -1     33851    3    0    1
 -2      7823      7261      7219      6360
 -1     33852    3    0    1
 -2      7428      5973      6608      9673
 -1     33853    3    0    1
 -2       425       861       860       877
 -1     33854    3    0    1
 -2      5457      5220      4758      4748
 -1     33855    3    0    1
 -2      3335      2712       848      2186
 -1     33856    3    0    1
 -2       896       953       954      2748
 -1     33857    3    0    1
 -2      7022      6925      6926      7021
 -1     33858    3    0    1
 -2      8094      8931      6998      8907
 -1     33859    3    0    1
 -2      8162      5832      8199      8200
 -1     33860    3    0    1
 -2      4956      4711      3880      4747
 -1     33861    3    0    1
 -2      1959      1934      1912      1247
 -1     33862    3    0    1
 -2      4016      4492      4784      5063
 -1     33863    3    0    1
 -2      8726      8279      6563      8313
 -1     33864    3    0    1
 -2      1403       751      2646      1381
 -1     33865    3    0    1
 -2      4243      2067      2105      4291
 -1     33866    3    0    1
 -2      1802       567      1021      2891
 -1     33867    3    0    1
 -2       875       874       873      2755
 -1     33868    3    0    1
 -2      4000      2370      3524      4001
 -1     33869    3    0    1
 -2      9391      9125      9110      7917
 -1     33870    3    0    1
 -2      4737      4321      4744      5225
 -1     33871    3    0    1
 -2      1112      1114      1113      1002
 -1     33872    3    0    1
 -2      3062      4507      4508      4165
 -1     33873    3    0    1
 -2      8626      7205      7206      7237
 -1     33874    3    0    1
 -2      6048      5743      5191      6061
 -1     33875    3    0    1
 -2      5891      7387      8282      7372
 -1     33876    3    0    1
 -2      1532      1523      2253      2252
 -1     33877    3    0    1
 -2      7504      6793      8408      5676
 -1     33878    3    0    1
 -2      5083      5306      5316      4864
 -1     33879    3    0    1
 -2      8739      7429      7899      7380
 -1     33880    3    0    1
 -2      1093      1132      2903      1694
 -1     33881    3    0    1
 -2      6565      6566      7370      5908
 -1     33882    3    0    1
 -2      7822      6325      7224      8223
 -1     33883    3    0    1
 -2      8770      7886      6636      9145
 -1     33884    3    0    1
 -2      8172      7799      9073      7264
 -1     33885    3    0    1
 -2      4176      5104      5145      4868
 -1     33886    3    0    1
 -2      6027      5312      5619      5617
 -1     33887    3    0    1
 -2      2616      3812      3719      2573
 -1     33888    3    0    1
 -2      2712      2187      2186      3335
 -1     33889    3    0    1
 -2      7176      8172      7799      9073
 -1     33890    3    0    1
 -2      6445      8315      8288      6467
 -1     33891    3    0    1
 -2      3325      2259      1546      1545
 -1     33892    3    0    1
 -2      6942      7042      8911      7005
 -1     33893    3    0    1
 -2      2969      1187      1813      2427
 -1     33894    3    0    1
 -2      4285      3167      4621      4622
 -1     33895    3    0    1
 -2      6979      7665      8500      7624
 -1     33896    3    0    1
 -2      1854      1208      2438      1848
 -1     33897    3    0    1
 -2      2006      3122      2554      3189
 -1     33898    3    0    1
 -2      7211      6244      8619      8158
 -1     33899    3    0    1
 -2      8387      7938      8813      6734
 -1     33900    3    0    1
 -2      2235      2701      3350      3284
 -1     33901    3    0    1
 -2      2714      2797       920      1575
 -1     33902    3    0    1
 -2      4324      3342      2797      2714
 -1     33903    3    0    1
 -2      7092      7093      7035      5724
 -1     33904    3    0    1
 -2      7491      5679      6781      7524
 -1     33905    3    0    1
 -2      8302      6552      7852      8301
 -1     33906    3    0    1
 -2      1484       859      3325      1546
 -1     33907    3    0    1
 -2      2918      4010      2882      3532
 -1     33908    3    0    1
 -2      1251      3033      3672      1224
 -1     33909    3    0    1
 -2      8703      7348      6554      7875
 -1     33910    3    0    1
 -2      8850      6049      5692      8003
 -1     33911    3    0    1
 -2      7496      6826      5646      7526
 -1     33912    3    0    1
 -2      2298       933       932      1631
 -1     33913    3    0    1
 -2      4074      3413      3468      3490
 -1     33914    3    0    1
 -2      8317      8316      6542      6470
 -1     33915    3    0    1
 -2      2035      2001      3747      1322
 -1     33916    3    0    1
 -2      7248      7274      5495      6319
 -1     33917    3    0    1
 -2      4371      4372      4745      4709
 -1     33918    3    0    1
 -2      5971      6694      9166      7917
 -1     33919    3    0    1
 -2      2321      3400      4410      2309
 -1     33920    3    0    1
 -2      5590      5320      4825      5124
 -1     33921    3    0    1
 -2      3939      3370      2283      2306
 -1     33922    3    0    1
 -2      8480      7037      6998      8026
 -1     33923    3    0    1
 -2      8243      7348      6449      8748
 -1     33924    3    0    1
 -2      9156      7918      7433      6014
 -1     33925    3    0    1
 -2      5664      4881      4866      4538
 -1     33926    3    0    1
 -2      2344      1714       993      2916
 -1     33927    3    0    1
 -2      9493      9537      9246      8552
 -1     33928    3    0    1
 -2      4575      5079      4526      4873
 -1     33929    3    0    1
 -2      8299      9093      8712      7873
 -1     33930    3    0    1
 -2      7175      7176      5854      7799
 -1     33931    3    0    1
 -2      1421      1430      2631      1402
 -1     33932    3    0    1
 -2      5050      5057      4486      4439
 -1     33933    3    0    1
 -2      6530      5878      7839      5879
 -1     33934    3    0    1
 -2      8399      7535      5671      7966
 -1     33935    3    0    1
 -2       761      1436      2120      3236
 -1     33936    3    0    1
 -2      6021      5121      5122      5091
 -1     33937    3    0    1
 -2      3635      2496      4231      3696
 -1     33938    3    0    1
 -2      7047      8512      7679      7070
 -1     33939    3    0    1
 -2      7873      6446      6483      8300
 -1     33940    3    0    1
 -2      7437      8788      9158      7975
 -1     33941    3    0    1
 -2      8412      7961      6878      7509
 -1     33942    3    0    1
 -2      8048      8915      8081      7007
 -1     33943    3    0    1
 -2      5717      5772      6066      6068
 -1     33944    3    0    1
 -2      7247      7821      8248      6426
 -1     33945    3    0    1
 -2      4549      4166      3675      4565
 -1     33946    3    0    1
 -2      2183      3302      3869      3334
 -1     33947    3    0    1
 -2      1706      3461      3483      3527
 -1     33948    3    0    1
 -2      1694      1094      2346      2903
 -1     33949    3    0    1
 -2      4957      5470      5425      4993
 -1     33950    3    0    1
 -2      3169      3741      3218      1400
 -1     33951    3    0    1
 -2      6391      6325      6392      7822
 -1     33952    3    0    1
 -2      5590      6640      6680      5657
 -1     33953    3    0    1
 -2      5138      6019      5147      5618
 -1     33954    3    0    1
 -2      7254      6401      6381      7241
 -1     33955    3    0    1
 -2      8488      8487      7617      6943
 -1     33956    3    0    1
 -2      4996      5471      4965      4997
 -1     33957    3    0    1
 -2      3740      2586      2069      4244
 -1     33958    3    0    1
 -2      7356      6557      6556      8306
 -1     33959    3    0    1
 -2      3985      2333      2852      1635
 -1     33960    3    0    1
 -2      2449      4128      2996      3579
 -1     33961    3    0    1
 -2      7924      8778      6671      8331
 -1     33962    3    0    1
 -2      4527      3627      4101      3565
 -1     33963    3    0    1
 -2      5609      5975      6008      5317
 -1     33964    3    0    1
 -2      5412      4945      4693      4976
 -1     33965    3    0    1
 -2      8475      7065      6960      7608
 -1     33966    3    0    1
 -2      7262      8241      6364      6412
 -1     33967    3    0    1
 -2      7242      5478      5809      7810
 -1     33968    3    0    1
 -2      2298       932       933      2757
 -1     33969    3    0    1
 -2      7041      7595      8510      6966
 -1     33970    3    0    1
 -2      2904      1133       547      1787
 -1     33971    3    0    1
 -2      6071      8916      7677      7007
 -1     33972    3    0    1
 -2      6859      8428      7567      6857
 -1     33973    3    0    1
 -2      5897      7313      7276      6513
 -1     33974    3    0    1
 -2      3458      2897      4086      4040
 -1     33975    3    0    1
 -2      5703      5183      5164      5165
 -1     33976    3    0    1
 -2      5875      5873      7249      6389
 -1     33977    3    0    1
 -2      5898      7314      5915      7870
 -1     33978    3    0    1
 -2      4467      3413      3490      4483
 -1     33979    3    0    1
 -2      3717      4203      3102      2551
 -1     33980    3    0    1
 -2      7744      8161      7813      7165
 -1     33981    3    0    1
 -2      2979      3597      1138      2978
 -1     33982    3    0    1
 -2      7778      7224      5473      8223
 -1     33983    3    0    1
 -2      5293      4517      4853      5629
 -1     33984    3    0    1
 -2      8032      7051      6947      6946
 -1     33985    3    0    1
 -2      6488      5517      5537      5482
 -1     33986    3    0    1
 -2      4171      4544      4137      5119
 -1     33987    3    0    1
 -2      7110      7668      7017      8542
 -1     33988    3    0    1
 -2      6168      5384      6139      6138
 -1     33989    3    0    1
 -2      6240      5817      6241      7136
 -1     33990    3    0    1
 -2      5183      5703      5735      5165
 -1     33991    3    0    1
 -2      3791      4669      3792      4302
 -1     33992    3    0    1
 -2      6134      5792      5467      5450
 -1     33993    3    0    1
 -2      3683      2522      4201      1980
 -1     33994    3    0    1
 -2      6513      5897      5253      5914
 -1     33995    3    0    1
 -2      1152      2985      3609      1895
 -1     33996    3    0    1
 -2      6529      6455      7363      6488
 -1     33997    3    0    1
 -2      2461      2491      3670      3594
 -1     33998    3    0    1
 -2      6838      7957      8425      6787
 -1     33999    3    0    1
 -2      2782       950      1534      3323
 -1     34000    3    0    1
 -2      1851      1837      2483      2427
 -1     34001    3    0    1
 -2      5330      6921      6881      6802
 -1     34002    3    0    1
 -2      5519      6492      5009      5269
 -1     34003    3    0    1
 -2      6637      7364      6600      9671
 -1     34004    3    0    1
 -2      7554      7512      8359      7511
 -1     34005    3    0    1
 -2      8392      5666      5986      7975
 -1     34006    3    0    1
 -2      5774      7101      5773      6070
 -1     34007    3    0    1
 -2       793       780      3257      3242
 -1     34008    3    0    1
 -2      1412      2006      1339      3225
 -1     34009    3    0    1
 -2      4694      3849      3848      4365
 -1     34010    3    0    1
 -2      4671      4888      4252      5174
 -1     34011    3    0    1
 -2      3206      3750      3767      3180
 -1     34012    3    0    1
 -2      6026      7995      8351      6025
 -1     34013    3    0    1
 -2      3631      2459      1192      2972
 -1     34014    3    0    1
 -2      4943      5168      5757      4638
 -1     34015    3    0    1
 -2      3672      1965      1251      1224
 -1     34016    3    0    1
 -2       858      1543      2752      1544
 -1     34017    3    0    1
 -2      2237      3269       806      2177
 -1     34018    3    0    1
 -2      3053      3626      2426      4138
 -1     34019    3    0    1
 -2      8446      8876      7596      6916
 -1     34020    3    0    1
 -2      5635      5085      5104      6023
 -1     34021    3    0    1
 -2      6839      7528      7527      6010
 -1     34022    3    0    1
 -2      7084      8922      8539      6947
 -1     34023    3    0    1
 -2      3447      4492      4076      4058
 -1     34024    3    0    1
 -2      5117      5651      4858      5652
 -1     34025    3    0    1
 -2      7019      7643      7642      8463
 -1     34026    3    0    1
 -2      3688      3075      1912      3631
 -1     34027    3    0    1
 -2      6064      6994      6099      5745
 -1     34028    3    0    1
 -2      6981      8502      8059      7626
 -1     34029    3    0    1
 -2      4252      3770      4652      4671
 -1     34030    3    0    1
 -2      5161      5726      5349      4622
 -1     34031    3    0    1
 -2      6255      7744      7813      7165
 -1     34032    3    0    1
 -2      3161      3138      4605      4672
 -1     34033    3    0    1
 -2      7021      7022      6059      8060
 -1     34034    3    0    1
 -2      9082      8255      7359      7857
 -1     34035    3    0    1
 -2      5473      6390      7778      8223
 -1     34036    3    0    1
 -2      3696      3635      2496      1967
 -1     34037    3    0    1
 -2      6176      7201      7788      8204
 -1     34038    3    0    1
 -2      3193      1362      1957      3112
 -1     34039    3    0    1
 -2      9086      9390      7375      9372
 -1     34040    3    0    1
 -2      4714      2770      3925      3866
 -1     34041    3    0    1
 -2      8348      8384      6769      6007
 -1     34042    3    0    1
 -2      1950      2535      1951      3110
 -1     34043    3    0    1
 -2      4183      3604      2999      1888
 -1     34044    3    0    1
 -2      2702       904       862      1551
 -1     34045    3    0    1
 -2      6577      5532      5572      6613
 -1     34046    3    0    1
 -2      3537      1120      1121      3498
 -1     34047    3    0    1
 -2      2952      2953      4088      4095
 -1     34048    3    0    1
 -2      6374      8225      7279      8226
 -1     34049    3    0    1
 -2      3758      2028      3124      3757
 -1     34050    3    0    1
 -2      5214      5394      5469      5240
 -1     34051    3    0    1
 -2      5242      4701      4983      5234
 -1     34052    3    0    1
 -2      4677      4627      3743      3196
 -1     34053    3    0    1
 -2      8755      6503      7930      7373
 -1     34054    3    0    1
 -2      7765      5803      5229      8611
 -1     34055    3    0    1
 -2      4177      2468      3064      4112
 -1     34056    3    0    1
 -2      6968      7044      8487      8079
 -1     34057    3    0    1
 -2      8225      7231      6374      7279
 -1     34058    3    0    1
 -2      6384      5489      6463      7845
 -1     34059    3    0    1
 -2      2485      3030      3664      4120
 -1     34060    3    0    1
 -2      5572      5070      5265      5898
 -1     34061    3    0    1
 -2      6827      6826      6828      8423
 -1     34062    3    0    1
 -2       526      3452      3475      2851
 -1     34063    3    0    1
 -2      4563      4124      3036      3635
 -1     34064    3    0    1
 -2      6356      6354      6355      5468
 -1     34065    3    0    1
 -2      4099      4119      2968      3563
 -1     34066    3    0    1
 -2      2913      3505      2944      1683
 -1     34067    3    0    1
 -2      8648      9062      8165      7160
 -1     34068    3    0    1
 -2      8506      8544      9274      9287
 -1     34069    3    0    1
 -2      3389      2814      1684      1640
 -1     34070    3    0    1
 -2      5079      5582      5626      5300
 -1     34071    3    0    1
 -2      7464      7541      8361      6654
 -1     34072    3    0    1
 -2      2327      2834      3951      3425
 -1     34073    3    0    1
 -2      5556      5528      5516      4817
 -1     34074    3    0    1
 -2      5522      6501      6588      5544
 -1     34075    3    0    1
 -2      6658      6598      7403      5959
 -1     34076    3    0    1
 -2      7769      6246      6168      9672
 -1     34077    3    0    1
 -2      7004      5726      7066      6065
 -1     34078    3    0    1
 -2      1604      2285      1629      1630
 -1     34079    3    0    1
 -2      2999      1819      3063      1888
 -1     34080    3    0    1
 -2      1353       731       730      3188
 -1     34081    3    0    1
 -2      5768      4894      6062      5767
 -1     34082    3    0    1
 -2      5014      4425      4060      5064
 -1     34083    3    0    1
 -2      2670      3205      3791      1348
 -1     34084    3    0    1
 -2      3185      3769      4651      4289
 -1     34085    3    0    1
 -2      5026      5050      5057      5027
 -1     34086    3    0    1
 -2      6578      6518      7345      7381
 -1     34087    3    0    1
 -2       601       600      1045      1673
 -1     34088    3    0    1
 -2      1853      1882      2494      1842
 -1     34089    3    0    1
 -2      8855      8436      7554      8495
 -1     34090    3    0    1
 -2      6196      5378      7781      7139
 -1     34091    3    0    1
 -2      3333      3302       868      2242
 -1     34092    3    0    1
 -2      5696      5713      5179      5724
 -1     34093    3    0    1
 -2      3200      3822      2633      2599
 -1     34094    3    0    1
 -2      8036      8467      7647      8897
 -1     34095    3    0    1
 -2      5374      6164      5464      5413
 -1     34096    3    0    1
 -2       854       855       817      1472
 -1     34097    3    0    1
 -2      3784      4626      3170      3820
 -1     34098    3    0    1
 -2      6499      7285      8688      8727
 -1     34099    3    0    1
 -2      4653      4891      5690      5711
 -1     34100    3    0    1
 -2      3579      2996      4512      4128
 -1     34101    3    0    1
 -2      2267      1515      2268      3929
 -1     34102    3    0    1
 -2      1446      2661      3780      9668
 -1     34103    3    0    1
 -2      8904      8903      7674      7608
 -1     34104    3    0    1
 -2      1950      2535      3110      3694
 -1     34105    3    0    1
 -2      5839      6238      7205      6127
 -1     34106    3    0    1
 -2      2551      3718      4203      1985
 -1     34107    3    0    1
 -2      1998      1997      1914      2514
 -1     34108    3    0    1
 -2      8708      8735      9403      7934
 -1     34109    3    0    1
 -2       180       181       211      9675
 -1     34110    3    0    1
 -2      6984      5351      5738      6107
 -1     34111    3    0    1
 -2       650      1187      1146      2969
 -1     34112    3    0    1
 -2      6584      9146      6719      8771
 -1     34113    3    0    1
 -2      8850      6887      7592      8420
 -1     34114    3    0    1
 -2      8874      8854      8027      8004
 -1     34115    3    0    1
 -2       790       369       312       310
 -1     34116    3    0    1
 -2      8121      7144      6170      9024
 -1     34117    3    0    1
 -2      2707       434      1560      2788
 -1     34118    3    0    1
 -2      2811      1609      1592      3374
 -1     34119    3    0    1
 -2      6868      7490      6779      8431
 -1     34120    3    0    1
 -2      2031      3714      3725      2030
 -1     34121    3    0    1
 -2      7389      9450      9388      7914
 -1     34122    3    0    1
 -2      2372      3525      4034      3505
 -1     34123    3    0    1
 -2      7066      6116      5771      5726
 -1     34124    3    0    1
 -2      7757      7125      8133      8596
 -1     34125    3    0    1
 -2      8289      7377      8316      6541
 -1     34126    3    0    1
 -2      7062      7029      6989      8068
 -1     34127    3    0    1
 -2       679       678       239      1218
 -1     34128    3    0    1
 -2      4034      2372      2371      1746
 -1     34129    3    0    1
 -2      4848      4512      5138      4570
 -1     34130    3    0    1
 -2       595       265      1131       634
 -1     34131    3    0    1
 -2      6655      5669      5677      5641
 -1     34132    3    0    1
 -2       537      1035      1036      2854
 -1     34133    3    0    1
 -2      8360      7481      8816      6711
 -1     34134    3    0    1
 -2      3467      3488      2415      1716
 -1     34135    3    0    1
 -2      4904      3762      4620      4284
 -1     34136    3    0    1
 -2      4835      4854      5134      4584
 -1     34137    3    0    1
 -2      8289      7377      6541      7339
 -1     34138    3    0    1
 -2      1943      3683      3639      1923
 -1     34139    3    0    1
 -2      4369      3921      4334      4341
 -1     34140    3    0    1
 -2      2919      2357      2386      9675
 -1     34141    3    0    1
 -2       912      2815      1610      3380
 -1     34142    3    0    1
 -2      7288      7311      7289      5497
 -1     34143    3    0    1
 -2      3324       958       464      1546
 -1     34144    3    0    1
 -2      2366      1049      1017      2852
 -1     34145    3    0    1
 -2      5190      5757      5336      6118
 -1     34146    3    0    1
 -2      9661      8981      9527      8558
 -1     34147    3    0    1
 -2      3745      3198      2558      1320
 -1     34148    3    0    1
 -2      3184      3768      4303      4251
 -1     34149    3    0    1
 -2      2343      1028      1081      1687
 -1     34150    3    0    1
 -2      2559      2600      3716      1284
 -1     34151    3    0    1
 -2      1900      2992      3641      1821
 -1     34152    3    0    1
 -2      7552      6839      7528      7527
 -1     34153    3    0    1
 -2      8374      7525      6750      8344
 -1     34154    3    0    1
 -2      8299      6431      5501      7873
 -1     34155    3    0    1
 -2      6063      6909      5331      6991
 -1     34156    3    0    1
 -2      4758      5220      4967      4337
 -1     34157    3    0    1
 -2      5428      5219      5427      5800
 -1     34158    3    0    1
 -2      4655      3226      4654      4664
 -1     34159    3    0    1
 -2      6444      6539      7376      6505
 -1     34160    3    0    1
 -2      2637      1404      2110      2084
 -1     34161    3    0    1
 -2      3432      3449       985      2316
 -1     34162    3    0    1
 -2        65        62       811      1466
 -1     34163    3    0    1
 -2      4687      4921      4247      3765
 -1     34164    3    0    1
 -2      7308      9126      9099      8737
 -1     34165    3    0    1
 -2      6400      7856      5484      7299
 -1     34166    3    0    1
 -2      6248      5828      5826      7214
 -1     34167    3    0    1
 -2      3123      3701      1958      3094
 -1     34168    3    0    1
 -2      5278      5031      5030      5495
 -1     34169    3    0    1
 -2      5773      5702      6070      6069
 -1     34170    3    0    1
 -2      4542      4882      4522      4883
 -1     34171    3    0    1
 -2      8309      8286      7336      8734
 -1     34172    3    0    1
 -2      2349      2904      1669      1787
 -1     34173    3    0    1
 -2      1789      1047      1729      1781
 -1     34174    3    0    1
 -2      1699      2363      1069      3476
 -1     34175    3    0    1
 -2      3599      1168      3035      1881
 -1     34176    3    0    1
 -2      8823      6780      6021      8431
 -1     34177    3    0    1
 -2      8365      6661      6660      8364
 -1     34178    3    0    1
 -2      5673      5315      5660      5126
 -1     34179    3    0    1
 -2      1854      1208      2421      2438
 -1     34180    3    0    1
 -2      3698      2529      4199      1976
 -1     34181    3    0    1
 -2      6319      7248      6320      6409
 -1     34182    3    0    1
 -2      1370      2567      2070      3761
 -1     34183    3    0    1
 -2      8280      7302      6565      7858
 -1     34184    3    0    1
 -2      8037      8002      7605      9208
 -1     34185    3    0    1
 -2      3829      1407      1389      2609
 -1     34186    3    0    1
 -2      2525      1955      1931      3027
 -1     34187    3    0    1
 -2      3612      2439      1211      1899
 -1     34188    3    0    1
 -2      4547      4828      4829      5126
 -1     34189    3    0    1
 -2      4380      3303      4381      4717
 -1     34190    3    0    1
 -2      7838      9077      9362      8699
 -1     34191    3    0    1
 -2      2884      4051      2905      2961
 -1     34192    3    0    1
 -2      6231      6229      6177      8154
 -1     34193    3    0    1
 -2      5207      5202      4688      4667
 -1     34194    3    0    1
 -2      2059      2058      2626      1356
 -1     34195    3    0    1
 -2      6937      7653      8482      6938
 -1     34196    3    0    1
 -2      6517      5510      5554      6518
 -1     34197    3    0    1
 -2      5508      7342      5497      5569
 -1     34198    3    0    1
 -2      8994      8138      7139      9021
 -1     34199    3    0    1
 -2      7159      8155      8175      8174
 -1     34200    3    0    1
 -2      2017      3081      3682      1972
 -1     34201    3    0    1
 -2      4863      5127      5661      4844
 -1     34202    3    0    1
 -2      1625      2803      1603      1676
 -1     34203    3    0    1
 -2      9054      7784      8171      8653
 -1     34204    3    0    1
 -2      3168      4285      4676      4318
 -1     34205    3    0    1
 -2      8276      8275      7888      6493
 -1     34206    3    0    1
 -2      4456      4502      5060      3424
 -1     34207    3    0    1
 -2      4557      4530      4529      5125
 -1     34208    3    0    1
 -2      8445      7550      8875      7576
 -1     34209    3    0    1
 -2      6212      8219      5862      6388
 -1     34210    3    0    1
 -2      3701      3123      4229      3094
 -1     34211    3    0    1
 -2      8768      9406      9113      6627
 -1     34212    3    0    1
 -2      8934      8079      7101      6069
 -1     34213    3    0    1
 -2      6932      7651      7036      6933
 -1     34214    3    0    1
 -2      6717      6599      6009      5581
 -1     34215    3    0    1
 -2      3847      4352      3323      3322
 -1     34216    3    0    1
 -2      4957      5215      5216      5424
 -1     34217    3    0    1
 -2      2126       786       726      3221
 -1     34218    3    0    1
 -2      3462      1090      1039      2345
 -1     34219    3    0    1
 -2      8795      6636      6599      7886
 -1     34220    3    0    1
 -2      2117      2095      1416      2582
 -1     34221    3    0    1
 -2      8374      6750      6685      8334
 -1     34222    3    0    1
 -2      8359      5665      6707      6755
 -1     34223    3    0    1
 -2      2907      3492      1788      3519
 -1     34224    3    0    1
 -2      6379      5484      6400      6340
 -1     34225    3    0    1
 -2       505       969       910      2240
 -1     34226    3    0    1
 -2      5482      7282      7876      6487
 -1     34227    3    0    1
 -2      1152      1140       606      1175
 -1     34228    3    0    1
 -2      8678      8229      7255      6498
 -1     34229    3    0    1
 -2      3748      3764      3150      1324
 -1     34230    3    0    1
 -2      8545      8940      8968      9544
 -1     34231    3    0    1
 -2      7472      6686      7423      8782
 -1     34232    3    0    1
 -2      3325       838       859      1484
 -1     34233    3    0    1
 -2      4813      4081      3474      5049
 -1     34234    3    0    1
 -2      8271      7876      8717      7322
 -1     34235    3    0    1
 -2      1144      1133      2960      1824
 -1     34236    3    0    1
 -2      1812       649      1116      3028
 -1     34237    3    0    1
 -2      1603      3396      2803      1625
 -1     34238    3    0    1
 -2      2763      2238      1557      3328
 -1     34239    3    0    1
 -2      1673      2352      1797      1724
 -1     34240    3    0    1
 -2      8793      9144      8769      7884
 -1     34241    3    0    1
 -2      2891      2334      3434      2869
 -1     34242    3    0    1
 -2      7446      8339      7445      6757
 -1     34243    3    0    1
 -2      6280      7791      7807      5840
 -1     34244    3    0    1
 -2      7913      6604      5967      9674
 -1     34245    3    0    1
 -2      2498      1203      2433      2448
 -1     34246    3    0    1
 -2       860      2213      2214      2231
 -1     34247    3    0    1
 -2      2846      1691      2845      3463
 -1     34248    3    0    1
 -2      3967      2324      3410      2337
 -1     34249    3    0    1
 -2      2362      1734      2865      2391
 -1     34250    3    0    1
 -2      9608      9615      9635      9671
 -1     34251    3    0    1
 -2      3389      2814      1640      3379
 -1     34252    3    0    1
 -2      7223      8198      8197      7152
 -1     34253    3    0    1
 -2      4583      4835      4854      3606
 -1     34254    3    0    1
 -2      4021      4427      4022      3451
 -1     34255    3    0    1
 -2      7596      9246      9265      6085
 -1     34256    3    0    1
 -2      1124       574      3505      1803
 -1     34257    3    0    1
 -2       711      1317      1344      1318
 -1     34258    3    0    1
 -2      8201      7752      7787      8610
 -1     34259    3    0    1
 -2      6389      8250      7249      6411
 -1     34260    3    0    1
 -2       939      2793      2792      1595
 -1     34261    3    0    1
 -2      6032      7587      5687      7533
 -1     34262    3    0    1
 -2      4071      3443      3512      3530
 -1     34263    3    0    1
 -2      7037      7651      7036      8480
 -1     34264    3    0    1
 -2      2646      3764      2635      1381
 -1     34265    3    0    1
 -2      2752      3279      2194      1544
 -1     34266    3    0    1
 -2      7556      6060      5688      7602
 -1     34267    3    0    1
 -2      1605       959      1604      1629
 -1     34268    3    0    1
 -2      3304      2219      3902      2227
 -1     34269    3    0    1
 -2      2677      3311      3262      3844
 -1     34270    3    0    1
 -2      8005      7998      8450      7581
 -1     34271    3    0    1
 -2      3335       918       976      2243
 -1     34272    3    0    1
 -2      6172      7217      8190      7218
 -1     34273    3    0    1
 -2      9189      9467      9466      8345
 -1     34274    3    0    1
 -2      5864      7287      7288      5497
 -1     34275    3    0    1
 -2      9318      7733      8118      7732
 -1     34276    3    0    1
 -2      5552      5058      5029      4801
 -1     34277    3    0    1
 -2      2396      1773      4003      2410
 -1     34278    3    0    1
 -2      5207      5729      5707      4922
 -1     34279    3    0    1
 -2      3037      3062       661      1884
 -1     34280    3    0    1
 -2      3490      1111      1134      2402
 -1     34281    3    0    1
 -2      5531      5497      7342      5569
 -1     34282    3    0    1
 -2      6449      8757      8748      7920
 -1     34283    3    0    1
 -2      1170      1203      2984      1886
 -1     34284    3    0    1
 -2      4549      4833      5099      3621
 -1     34285    3    0    1
 -2      2049      1295      1992      3184
 -1     34286    3    0    1
 -2      2457      1905      1928      3018
 -1     34287    3    0    1
 -2       897       820      1483      3277
 -1     34288    3    0    1
 -2      5227      5455      5393      4948
 -1     34289    3    0    1
 -2      2985      1152      1182      1895
 -1     34290    3    0    1
 -2       940       919      3339      2245
 -1     34291    3    0    1
 -2      3470      1789      1729      1781
 -1     34292    3    0    1
 -2      8709      9090      8250      8258
 -1     34293    3    0    1
 -2      2612      2051      2050      3793
 -1     34294    3    0    1
 -2      5711      5742      4653      6077
 -1     34295    3    0    1
 -2      8264      7301      7269      5485
 -1     34296    3    0    1
 -2      2964      4098      4118      3022
 -1     34297    3    0    1
 -2      2984      4548      4125      3574
 -1     34298    3    0    1
 -2      9087      7259      7337      7306
 -1     34299    3    0    1
 -2      5991      6622      6602      5289
 -1     34300    3    0    1
 -2      9264      8485      8911      8076
 -1     34301    3    0    1
 -2      2567      1282      1281      3724
 -1     34302    3    0    1
 -2      7999      8017      8414      6803
 -1     34303    3    0    1
 -2      2997      2475      4135      2425
 -1     34304    3    0    1
 -2      4952      4340      4391      4953
 -1     34305    3    0    1
 -2      5422      6275      6204      5795
 -1     34306    3    0    1
 -2      4074      3413      3490      4467
 -1     34307    3    0    1
 -2      9416      7913      7912      9427
 -1     34308    3    0    1
 -2      3445      2838      1668      2340
 -1     34309    3    0    1
 -2      8120      7734      6166      9005
 -1     34310    3    0    1
 -2      6498      6562      9121      7894
 -1     34311    3    0    1
 -2      4155      4838      4856      4586
 -1     34312    3    0    1
 -2      4896      5157      5712      5694
 -1     34313    3    0    1
 -2      1738      1739      1073      3477
 -1     34314    3    0    1
 -2       626      1194      1193      1875
 -1     34315    3    0    1
 -2      3610      1176      2466      2420
 -1     34316    3    0    1
 -2      4711      3864      3880      3331
 -1     34317    3    0    1
 -2      8037      6885      8002      8000
 -1     34318    3    0    1
 -2      8186      7164      7214      6273
 -1     34319    3    0    1
 -2      1287      2047       754      1384
 -1     34320    3    0    1
 -2      5153      4940      4927      5191
 -1     34321    3    0    1
 -2      6380      8209      7267      6379
 -1     34322    3    0    1
 -2      3896      3897      3286      2214
 -1     34323    3    0    1
 -2      8794      7414      8770      8330
 -1     34324    3    0    1
 -2      5645      5303      6642      5321
 -1     34325    3    0    1
 -2      5927      5925      7309      5926
 -1     34326    3    0    1
 -2      3303      2185       479      1478
 -1     34327    3    0    1
 -2      2631      2644      3198      1430
 -1     34328    3    0    1
 -2      3992      2857      4418      3514
 -1     34329    3    0    1
 -2      4140      3028      3567      4555
 -1     34330    3    0    1
 -2      4532      4173      4558      3057
 -1     34331    3    0    1
 -2      3069      1857      1858      4130
 -1     34332    3    0    1
 -2      2893      2943      4083      3503
 -1     34333    3    0    1
 -2      5347      6059      5686      7058
 -1     34334    3    0    1
 -2      3506      4086      4791      4040
 -1     34335    3    0    1
 -2      1616      2339       511      1666
 -1     34336    3    0    1
 -2      2362      4428      4023      2391
 -1     34337    3    0    1
 -2      6979      8051      7664      7013
 -1     34338    3    0    1
 -2      2490      1876      2429      3076
 -1     34339    3    0    1
 -2      7069      7010      7009      7008
 -1     34340    3    0    1
 -2      2834      3951      3968      2819
 -1     34341    3    0    1
 -2      6800      7510      7509      5683
 -1     34342    3    0    1
 -2      1982      2504      3681      1944
 -1     34343    3    0    1
 -2      4400      4714      4997      4360
 -1     34344    3    0    1
 -2      8786      8384      7972      7462
 -1     34345    3    0    1
 -2      5041      5042      4465      4795
 -1     34346    3    0    1
 -2      2885      3982      2848      1617
 -1     34347    3    0    1
 -2      2553      2523      1904      3704
 -1     34348    3    0    1
 -2      2965      3625      4098      2964
 -1     34349    3    0    1
 -2      1916      1225      3635      1883
 -1     34350    3    0    1
 -2      8603      7727      6162      5783
 -1     34351    3    0    1
 -2      3361       884      2219      2202
 -1     34352    3    0    1
 -2      6498      5561      5530      5487
 -1     34353    3    0    1
 -2      4592      4886      5149      5148
 -1     34354    3    0    1
 -2      5790      5808      4755      5378
 -1     34355    3    0    1
 -2      3138      3161      4656      4672
 -1     34356    3    0    1
 -2      4873      5654      5087      5626
 -1     34357    3    0    1
 -2      1063       548      1780      1787
 -1     34358    3    0    1
 -2       501       938      2730      1595
 -1     34359    3    0    1
 -2      8721      7253      7323      9080
 -1     34360    3    0    1
 -2      3739      4941      4607      4263
 -1     34361    3    0    1
 -2      6936      6937      8482      6938
 -1     34362    3    0    1
 -2      6986      6928      6930      7024
 -1     34363    3    0    1
 -2      2623      3146      4270      2079
 -1     34364    3    0    1
 -2      6778      6038      6039      6040
 -1     34365    3    0    1
 -2      4890      4600      4925      5741
 -1     34366    3    0    1
 -2      8450      7998      8427      6853
 -1     34367    3    0    1
 -2      9060      7789      7772      6235
 -1     34368    3    0    1
 -2      1005      1007      2862      3448
 -1     34369    3    0    1
 -2      2827      3387      3368      1620
 -1     34370    3    0    1
 -2      7554      6849      6850      6851
 -1     34371    3    0    1
 -2      7477      6696      8346      6694
 -1     34372    3    0    1
 -2      8432      8852      6910      7547
 -1     34373    3    0    1
 -2      5011      5044      4470      5010
 -1     34374    3    0    1
 -2      5962      6743      5622      6635
 -1     34375    3    0    1
 -2      1700      2286      1633      2830
 -1     34376    3    0    1
 -2      7916      9417      7917      9430
 -1     34377    3    0    1
 -2      4086      3506      3458      4040
 -1     34378    3    0    1
 -2      7037      6934      6998      8026
 -1     34379    3    0    1
 -2      2101      2601      2099      2100
 -1     34380    3    0    1
 -2      3175      4279      4311      3215
 -1     34381    3    0    1
 -2      6552      6446      8301      7399
 -1     34382    3    0    1
 -2      5554      5510      5266      5573
 -1     34383    3    0    1
 -2      6489      8272      8720      6456
 -1     34384    3    0    1
 -2      4692      5372      5232      5411
 -1     34385    3    0    1
 -2      8094      6998      7077      8907
 -1     34386    3    0    1
 -2      3739      4941      4263      3194
 -1     34387    3    0    1
 -2      3457      1029      1052      1711
 -1     34388    3    0    1
 -2      5502      6416      7294      6415
 -1     34389    3    0    1
 -2      5809      5808      5790      5478
 -1     34390    3    0    1
 -2      6188      8613      7760      6189
 -1     34391    3    0    1
 -2      8683      9091      8710      7313
 -1     34392    3    0    1
 -2      5185      5329      5206      5184
 -1     34393    3    0    1
 -2      1185      1186      3626      3564
 -1     34394    3    0    1
 -2      1004      1003      1002      1696
 -1     34395    3    0    1
 -2      3628      1851      1872      4142
 -1     34396    3    0    1
 -2      8387      7938      6734      6703
 -1     34397    3    0    1
 -2      3118      1333      2024      3182
 -1     34398    3    0    1
 -2       507       982       925      3364
 -1     34399    3    0    1
 -2      4464      3486      4795      4810
 -1     34400    3    0    1
 -2      7051      7050      8501      7665
 -1     34401    3    0    1
 -2      1824      1144      1862      2473
 -1     34402    3    0    1
 -2      7043      7044      8486      7597
 -1     34403    3    0    1
 -2      6592      5911      5566      6606
 -1     34404    3    0    1
 -2      2395      1080      1748      1747
 -1     34405    3    0    1
 -2      6994      6099      5745      7091
 -1     34406    3    0    1
 -2      6507      7848      6506      5027
 -1     34407    3    0    1
 -2      7886      8761      8721      9397
 -1     34408    3    0    1
 -2       827      2179      2789      2767
 -1     34409    3    0    1
 -2      5521      4807      5271      5559
 -1     34410    3    0    1
 -2      3454      3456      3408      2343
 -1     34411    3    0    1
 -2      6219      5847      6258      6259
 -1     34412    3    0    1
 -2      2745      1531       947      2744
 -1     34413    3    0    1
 -2      7285      5488      6383      7246
 -1     34414    3    0    1
 -2      1144      1824      2960      3644
 -1     34415    3    0    1
 -2      2973      4105      4104      2939
 -1     34416    3    0    1
 -2      4581      4580      3633      4547
 -1     34417    3    0    1
 -2      5884      5046      5246      5486
 -1     34418    3    0    1
 -2      8667      7798      5474      8642
 -1     34419    3    0    1
 -2      5957      5639      6739      5958
 -1     34420    3    0    1
 -2      6812      6815      7535      5671
 -1     34421    3    0    1
 -2       996      1694      1042      1581
 -1     34422    3    0    1
 -2      6817      6816      5693      8421
 -1     34423    3    0    1
 -2      7205      8993      8624      6127
 -1     34424    3    0    1
 -2      5144      5100      5317      5084
 -1     34425    3    0    1
 -2      7440      8789      8393      8351
 -1     34426    3    0    1
 -2      2395      1125      1080      1747
 -1     34427    3    0    1
 -2      6884      7556      5688      7602
 -1     34428    3    0    1
 -2      5144      5318      5682      5634
 -1     34429    3    0    1
 -2      7332      6501      8314      8706
 -1     34430    3    0    1
 -2      4553      4552      3017      4131
 -1     34431    3    0    1
 -2      8516      8060      7058      8517
 -1     34432    3    0    1
 -2      5526      5924      6508      5495
 -1     34433    3    0    1
 -2      5098      5083      4846      4864
 -1     34434    3    0    1
 -2      1275      2028      3124      3758
 -1     34435    3    0    1
 -2      1196      2461      3650      2974
 -1     34436    3    0    1
 -2      2912      2983      4084      2911
 -1     34437    3    0    1
 -2      5206      5329      5185      4686
 -1     34438    3    0    1
 -2      9080      7323      8721      6490
 -1     34439    3    0    1
 -2      3523      2891      4029      4092
 -1     34440    3    0    1
 -2       479      2793      2794      1613
 -1     34441    3    0    1
 -2      7922      6659      5960      7465
 -1     34442    3    0    1
 -2      2498      2984      1203      1886
 -1     34443    3    0    1
 -2      1631       561      1010      1699
 -1     34444    3    0    1
 -2      3282       873       874      2755
 -1     34445    3    0    1
 -2      7243      5468      6354      8231
 -1     34446    3    0    1
 -2      6283      7138      5822      8157
 -1     34447    3    0    1
 -2      7214      6248      5828      7145
 -1     34448    3    0    1
 -2      1863      1144       642      2960
 -1     34449    3    0    1
 -2      6518      7345      7381      8744
 -1     34450    3    0    1
 -2      8852      6958      6820      7547
 -1     34451    3    0    1
 -2      7368      6533      7890      6458
 -1     34452    3    0    1
 -2      3534      3413      4467      2858
 -1     34453    3    0    1
 -2      7126      6123      7725      5781
 -1     34454    3    0    1
 -2      9202      8827      7992      7526
 -1     34455    3    0    1
 -2      8206      8236      8244      6398
 -1     34456    3    0    1
 -2      4371      2706      4372      4357
 -1     34457    3    0    1
 -2      6821      6871      6819      8432
 -1     34458    3    0    1
 -2      2477      2475      2476      4135
 -1     34459    3    0    1
 -2      4527      3627      3565      4545
 -1     34460    3    0    1
 -2      8962      9239      8919      8083
 -1     34461    3    0    1
 -2      7221      7193      7148      6209
 -1     34462    3    0    1
 -2      1766      1788      3519      1767
 -1     34463    3    0    1
 -2      4697      4696      4980      4979
 -1     34464    3    0    1
 -2      2618      1356      2060      2059
 -1     34465    3    0    1
 -2      6070      7045      5774      7638
 -1     34466    3    0    1
 -2      3857      4703      4334      3921
 -1     34467    3    0    1
 -2      5863      6388      5862      5861
 -1     34468    3    0    1
 -2      7523      7451      8844      8370
 -1     34469    3    0    1
 -2      2309      2321      1664      1643
 -1     34470    3    0    1
 -2      1252      3037       660      1884
 -1     34471    3    0    1
 -2      8337      7937      7479      6732
 -1     34472    3    0    1
 -2      4291      2067      3801      2584
 -1     34473    3    0    1
 -2      2305      1674      2296      1622
 -1     34474    3    0    1
 -2      1560      1637      1636      3376
 -1     34475    3    0    1
 -2      6991      6993      7672      6992
 -1     34476    3    0    1
 -2      5603      6627      6608      6648
 -1     34477    3    0    1
 -2      6696      6698      8380      7452
 -1     34478    3    0    1
 -2      6848      7512      5665      6707
 -1     34479    3    0    1
 -2      6323      7249      5873      5471
 -1     34480    3    0    1
 -2      5655      6720      6672      7988
 -1     34481    3    0    1
 -2      7869      8319      9129      7904
 -1     34482    3    0    1
 -2      1732      1097      1731      2404
 -1     34483    3    0    1
 -2      5987      5960      6659      7465
 -1     34484    3    0    1
 -2      1315      2031      2030      1965
 -1     34485    3    0    1
 -2      4328      3850      4696      4951
 -1     34486    3    0    1
 -2      2497      1201       659      1917
 -1     34487    3    0    1
 -2      6346      6347      6404      6348
 -1     34488    3    0    1
 -2      9240      9496      9225      7641
 -1     34489    3    0    1
 -2      6882      6923      5710      6807
 -1     34490    3    0    1
 -2      7284      6403      6383      7246
 -1     34491    3    0    1
 -2      8005      7998      7581      5707
 -1     34492    3    0    1
 -2       909       881      1561      2789
 -1     34493    3    0    1
 -2      3474      3472      4024      4081
 -1     34494    3    0    1
 -2       991       990       538      1707
 -1     34495    3    0    1
 -2      3488      3446      4010      4089
 -1     34496    3    0    1
 -2      5099      5295      5294      4833
 -1     34497    3    0    1
 -2      1867       646       679      1909
 -1     34498    3    0    1
 -2      8437      7625      7567      6903
 -1     34499    3    0    1
 -2      8537      8888      9271      6120
 -1     34500    3    0    1
 -2      5425      5470      4957      5424
 -1     34501    3    0    1
 -2      3029      3568      1135      3552
 -1     34502    3    0    1
 -2      2893      2368      1077      1680
 -1     34503    3    0    1
 -2       714       715       289      2598
 -1     34504    3    0    1
 -2      5774      5773      5205      5200
 -1     34505    3    0    1
 -2      4983      4701      4729      5234
 -1     34506    3    0    1
 -2      8616      9026      8608      8639
 -1     34507    3    0    1
 -2      7501      7970      8806      6698
 -1     34508    3    0    1
 -2      2817      3301      3359      3932
 -1     34509    3    0    1
 -2      8697      7278      7263      8696
 -1     34510    3    0    1
 -2      4941      3739      4607      4608
 -1     34511    3    0    1
 -2      6784      6782      5659      7471
 -1     34512    3    0    1
 -2      1106      1089      1105      1759
 -1     34513    3    0    1
 -2      7781      8618      6196      7139
 -1     34514    3    0    1
 -2       523       559       558      1136
 -1     34515    3    0    1
 -2      6599      9134      8795      7886
 -1     34516    3    0    1
 -2      5995      7451      6639      5678
 -1     34517    3    0    1
 -2      4503      4088      3509      4490
 -1     34518    3    0    1
 -2      5571      6595      5253      5570
 -1     34519    3    0    1
 -2      1023      1680      1636      1637
 -1     34520    3    0    1
 -2      7910      7909      5940      6488
 -1     34521    3    0    1
 -2      3768      4303      3221      3184
 -1     34522    3    0    1
 -2      2972      3631      4531      3632
 -1     34523    3    0    1
 -2      2963      2961      4097      3000
 -1     34524    3    0    1
 -2      5659      6783      6782      6784
 -1     34525    3    0    1
 -2      5307      5114      4847      4836
 -1     34526    3    0    1
 -2      7180      7789      9030      6235
 -1     34527    3    0    1
 -2      5513      5282      4779      4069
 -1     34528    3    0    1
 -2      5516      7296      6434      7356
 -1     34529    3    0    1
 -2      5671      5314      5288      5287
 -1     34530    3    0    1
 -2      4301      5363      5362      4642
 -1     34531    3    0    1
 -2      4871      4820      5086      5623
 -1     34532    3    0    1
 -2      7024      6930      7645      8465
 -1     34533    3    0    1
 -2      2792      1647       939      1595
 -1     34534    3    0    1
 -2      4051      2885      3533      2961
 -1     34535    3    0    1
 -2      6598      5960      5578      5959
 -1     34536    3    0    1
 -2      7986      6742      7482      6027
 -1     34537    3    0    1
 -2      6426      7260      8248      5027
 -1     34538    3    0    1
 -2      1756      1755      2878      4067
 -1     34539    3    0    1
 -2      2092      2060      2059      3135
 -1     34540    3    0    1
 -2      9176      9165      7930      8801
 -1     34541    3    0    1
 -2       178       241       176      9669
 -1     34542    3    0    1
 -2      4555      4102      3567      4823
 -1     34543    3    0    1
 -2      2889      4053      3497      4475
 -1     34544    3    0    1
 -2      1454      1455      3266      2168
 -1     34545    3    0    1
 -2      4406      4325      4968      4407
 -1     34546    3    0    1
 -2      3812      2052      1409      3185
 -1     34547    3    0    1
 -2      5334      5165      4632      5189
 -1     34548    3    0    1
 -2      5245      6531      7323      6490
 -1     34549    3    0    1
 -2      1189      3094      2526      3665
 -1     34550    3    0    1
 -2      5219      5220      4748      4337
 -1     34551    3    0    1
 -2      2008      1952      2536      2547
 -1     34552    3    0    1
 -2      6678      6676      7418      8371
 -1     34553    3    0    1
 -2      2305      2296      1601      1622
 -1     34554    3    0    1
 -2       107       919       941       483
 -1     34555    3    0    1
 -2      6209      7148      7221      5393
 -1     34556    3    0    1
 -2      8824      7953      8370      9200
 -1     34557    3    0    1
 -2      1366      1276       741      2028
 -1     34558    3    0    1
 -2      7615      8485      9264      6066
 -1     34559    3    0    1
 -2      5733      5331      5156      5693
 -1     34560    3    0    1
 -2      8440      8849      7587      7533
 -1     34561    3    0    1
 -2      5940      5517      5537      6488
 -1     34562    3    0    1
 -2      6645      6605      5980      5593
 -1     34563    3    0    1
 -2      4291      2583      2067      2584
 -1     34564    3    0    1
 -2      2844      2880      1665      3402
 -1     34565    3    0    1
 -2      6661      6660      5961      7412
 -1     34566    3    0    1
 -2      6323      5873      7249      5875
 -1     34567    3    0    1
 -2      1295       697      1294      3184
 -1     34568    3    0    1
 -2      3167      4210      3690      1990
 -1     34569    3    0    1
 -2      7792      8628      9034      9048
 -1     34570    3    0    1
 -2      4487      5495      5277      5526
 -1     34571    3    0    1
 -2      2916      4044      3508      3559
 -1     34572    3    0    1
 -2      6599      6009      6636      8795
 -1     34573    3    0    1
 -2      5357      6998      5697      6935
 -1     34574    3    0    1
 -2      1973      1254      1255      1887
 -1     34575    3    0    1
 -2      3573      2910      2983      3504
 -1     34576    3    0    1
 -2      5463      6236      7181      7204
 -1     34577    3    0    1
 -2      3120      3704      1904      4187
 -1     34578    3    0    1
 -2      6903      7567      8437      7583
 -1     34579    3    0    1
 -2      9475      9193      8409      9673
 -1     34580    3    0    1
 -2      2995      3617      2510      3616
 -1     34581    3    0    1
 -2      2756      3920      4396      2701
 -1     34582    3    0    1
 -2      7315      6392      7822      8251
 -1     34583    3    0    1
 -2      4958      5217      5218      4716
 -1     34584    3    0    1
 -2      4478      4497      5059      4449
 -1     34585    3    0    1
 -2      8802      9151      9150      7915
 -1     34586    3    0    1
 -2      1875      1961      1962      1223
 -1     34587    3    0    1
 -2      9099      9126      7936      9405
 -1     34588    3    0    1
 -2      1942      3084      3040      1920
 -1     34589    3    0    1
 -2      3524      4034      2371      1771
 -1     34590    3    0    1
 -2      5434      4736      4984      4985
 -1     34591    3    0    1
 -2      2320      3456      1687      1642
 -1     34592    3    0    1
 -2      4137      4544      4171      3052
 -1     34593    3    0    1
 -2      8363      5987      6758      7411
 -1     34594    3    0    1
 -2      7973      6798      6733      5607
 -1     34595    3    0    1
 -2      9056      9070      7786      8222
 -1     34596    3    0    1
 -2      1337      1297       699      1296
 -1     34597    3    0    1
 -2      7789      9060      9030      6235
 -1     34598    3    0    1
 -2      3745      3198      1320      2015
 -1     34599    3    0    1
 -2       777      1401      2122      1429
 -1     34600    3    0    1
 -2      2634      1379      2099      1380
 -1     34601    3    0    1
 -2      8120      6166      7186      9005
 -1     34602    3    0    1
 -2      1911      1220       651      2485
 -1     34603    3    0    1
 -2      3609      2985      3654      1895
 -1     34604    3    0    1
 -2      1209      2503      4154      1922
 -1     34605    3    0    1
 -2      7783      6170      6249      7144
 -1     34606    3    0    1
 -2      5418      5384      5225      5468
 -1     34607    3    0    1
 -2      3361       884       479      1573
 -1     34608    3    0    1
 -2       580      1128       579       581
 -1     34609    3    0    1
 -2      3593      2490      2429      4143
 -1     34610    3    0    1
 -2      7519      8395      7946      7520
 -1     34611    3    0    1
 -2      8877      8866      8005      7623
 -1     34612    3    0    1
 -2      8781      7927      9135      9174
 -1     34613    3    0    1
 -2      7244      7248      5455      6319
 -1     34614    3    0    1
 -2       547       514       548      1133
 -1     34615    3    0    1
 -2      5940      5941      5517      6488
 -1     34616    3    0    1
 -2      2508      4202      4203      2531
 -1     34617    3    0    1
 -2      3862       826      1461      3270
 -1     34618    3    0    1
 -2      1020      2334      2891      2869
 -1     34619    3    0    1
 -2      2535      2512      1929      1241
 -1     34620    3    0    1
 -2      2071      3217      3144      2589
 -1     34621    3    0    1
 -2      6233      6161      6179      6180
 -1     34622    3    0    1
 -2      2888      2359      1727      3536
 -1     34623    3    0    1
 -2      1608       964      1609      1592
 -1     34624    3    0    1
 -2      1669      2904       547      1787
 -1     34625    3    0    1
 -2      4730      4744      4321      5225
 -1     34626    3    0    1
 -2      5792      6134      5381      5450
 -1     34627    3    0    1
 -2      4636      5335      5167      4932
 -1     34628    3    0    1
 -2      1317      3170      1344      1318
 -1     34629    3    0    1
 -2      4760      3363      4346      3342
 -1     34630    3    0    1
 -2      6361      7307      7261      6429
 -1     34631    3    0    1
 -2      5347      5150      5686      4887
 -1     34632    3    0    1
 -2      1033      1689      1704      2876
 -1     34633    3    0    1
 -2      3984      2287      3944      3962
 -1     34634    3    0    1
 -2      6991      5733      5693      5744
 -1     34635    3    0    1
 -2      6250      7795      8635      6251
 -1     34636    3    0    1
 -2      4984      5224      5434      5850
 -1     34637    3    0    1
 -2      1407      3828      1406      2090
 -1     34638    3    0    1
 -2      7751      7198      6174      7750
 -1     34639    3    0    1
 -2      7462      7431      8786      6769
 -1     34640    3    0    1
 -2      7910      6663      5963      8342
 -1     34641    3    0    1
 -2      5515      5533      4816      4781
 -1     34642    3    0    1
 -2      2084      2083      2636      1383
 -1     34643    3    0    1
 -2      4507      3062      3037      4165
 -1     34644    3    0    1
 -2      1504      1566      1565      2770
 -1     34645    3    0    1
 -2      3714      3725      2030      1965
 -1     34646    3    0    1
 -2      7679      7070      7010      7069
 -1     34647    3    0    1
 -2      5328      5702      5182      4908
 -1     34648    3    0    1
 -2      6519      7397      6549      7396
 -1     34649    3    0    1
 -2      3770      1353      2054      3157
 -1     34650    3    0    1
 -2      6637      6600      6620      9671
 -1     34651    3    0    1
 -2      2526      1958      1189      3665
 -1     34652    3    0    1
 -2      6944      8500      7050      6945
 -1     34653    3    0    1
 -2      2798      3934      1616      1666
 -1     34654    3    0    1
 -2      3443      2847      3954      1666
 -1     34655    3    0    1
 -2      3327      4356      3859      3289
 -1     34656    3    0    1
 -2      2797      3883      4324      2714
 -1     34657    3    0    1
 -2      6292      5442      6291      6290
 -1     34658    3    0    1
 -2      4267      2042      2588      3237
 -1     34659    3    0    1
 -2      2711      3304      3336      1492
 -1     34660    3    0    1
 -2      7916      9417      9391      7917
 -1     34661    3    0    1
 -2      6747      6719      9169      7966
 -1     34662    3    0    1
 -2      8283      6439      6464      8284
 -1     34663    3    0    1
 -2      6306      6381      6305      7241
 -1     34664    3    0    1
 -2      9079      9364      9385      7879
 -1     34665    3    0    1
 -2      6655      8394      7442      6740
 -1     34666    3    0    1
 -2      4202      3065      2508      4203
 -1     34667    3    0    1
 -2      8294      7899      6545      6474
 -1     34668    3    0    1
 -2      4224      1989      2546      3070
 -1     34669    3    0    1
 -2      6040      6778      6038      7573
 -1     34670    3    0    1
 -2        79       420       836      2169
 -1     34671    3    0    1
 -2      2392      1736      1737      2866
 -1     34672    3    0    1
 -2      7506      8384      6768      6007
 -1     34673    3    0    1
 -2      6804      8415      7542      6805
 -1     34674    3    0    1
 -2      6072      5756      5186      4932
 -1     34675    3    0    1
 -2      8635      8187      6250      6171
 -1     34676    3    0    1
 -2      8406      8807      7970      7528
 -1     34677    3    0    1
 -2      5496      5912      5075      5251
 -1     34678    3    0    1
 -2      5619      6656      6027      5617
 -1     34679    3    0    1
 -2      8932      7613      8483      7654
 -1     34680    3    0    1
 -2      7876      6488      5482      6487
 -1     34681    3    0    1
 -2      2130      3771      3816      3191
 -1     34682    3    0    1
 -2      8422      6824      5658      7983
 -1     34683    3    0    1
 -2      8570      9298      8571      9308
 -1     34684    3    0    1
 -2      6484      7347      6553      8302
 -1     34685    3    0    1
 -2      6049      6062      5692      5767
 -1     34686    3    0    1
 -2      8670      7236      7235      7265
 -1     34687    3    0    1
 -2      6338      5482      6296      6419
 -1     34688    3    0    1
 -2      2743       946      1530      2781
 -1     34689    3    0    1
 -2      4102      4103      3567      4823
 -1     34690    3    0    1
 -2      3449      4501      3469      4060
 -1     34691    3    0    1
 -2      7780      6307      7809      8169
 -1     34692    3    0    1
 -2      6889      6827      6828      8423
 -1     34693    3    0    1
 -2      5497      5033      5034      5051
 -1     34694    3    0    1
 -2      1406      3828      1425      2090
 -1     34695    3    0    1
 -2      1299      1298      1339      3189
 -1     34696    3    0    1
 -2      2240      2241      3331      2682
 -1     34697    3    0    1
 -2      2945      1051      3526      2913
 -1     34698    3    0    1
 -2      8968      8939      8545      9543
 -1     34699    3    0    1
 -2      3952      1655      2301      2777
 -1     34700    3    0    1
 -2      8147      7127      7779      6233
 -1     34701    3    0    1
 -2      5093      5301      4874      5656
 -1     34702    3    0    1
 -2      3959      3970      3433      2840
 -1     34703    3    0    1
 -2      3287      2702       862      1551
 -1     34704    3    0    1
 -2      8766      7856      8276      6494
 -1     34705    3    0    1
 -2      8831      5682      6844      6734
 -1     34706    3    0    1
 -2       115       114       900       463
 -1     34707    3    0    1
 -2      1530       850       889      2688
 -1     34708    3    0    1
 -2      9178      9193      9475      9673
 -1     34709    3    0    1
 -2      6599      9134      7886      9397
 -1     34710    3    0    1
 -2      5090      5655      5120      5290
 -1     34711    3    0    1
 -2      1031      1029      3457      1711
 -1     34712    3    0    1
 -2      4752      4760      3363      4346
 -1     34713    3    0    1
 -2      1484      3325      3281      1546
 -1     34714    3    0    1
 -2      2913       530      1051      1685
 -1     34715    3    0    1
 -2      6059      7532      9212      8869
 -1     34716    3    0    1
 -2      6906      6774      6883      7532
 -1     34717    3    0    1
 -2      1618      1534      3343      2782
 -1     34718    3    0    1
 -2      5705      5186      5166      5167
 -1     34719    3    0    1
 -2       838       837       859      1484
 -1     34720    3    0    1
 -2      7205      8625      8993      6127
 -1     34721    3    0    1
 -2      3031      3002      4163      2462
 -1     34722    3    0    1
 -2      5111      5138      5147      5618
 -1     34723    3    0    1
 -2      1186      1161      1868      2426
 -1     34724    3    0    1
 -2       574      3505      1803      1683
 -1     34725    3    0    1
 -2      6383      6499      5488      7285
 -1     34726    3    0    1
 -2      3128      3170      3696      1967
 -1     34727    3    0    1
 -2      4472      4784      5063      5012
 -1     34728    3    0    1
 -2      9199      8418      7979      7965
 -1     34729    3    0    1
 -2       833        70       107       441
 -1     34730    3    0    1
 -2      4760      4752      4740      4346
 -1     34731    3    0    1
 -2      3113      2514      4195      3712
 -1     34732    3    0    1
 -2      4372      4371      4708      4709
 -1     34733    3    0    1
 -2      1511      2210       838      1545
 -1     34734    3    0    1
 -2      2251       851      1524      2207
 -1     34735    3    0    1
 -2      2941      1699      2926      3476
 -1     34736    3    0    1
 -2      2304       951      2280      1621
 -1     34737    3    0    1
 -2      5750      4902      4684      5196
 -1     34738    3    0    1
 -2      4476      2911      4033      4488
 -1     34739    3    0    1
 -2      5398      5219      5457      5473
 -1     34740    3    0    1
 -2      9001      7728      8603      5783
 -1     34741    3    0    1
 -2      6336      7235      7236      7265
 -1     34742    3    0    1
 -2      8447      8014      7565      6897
 -1     34743    3    0    1
 -2      8996      8121      7708      9320
 -1     34744    3    0    1
 -2      7586      8892      8868      8462
 -1     34745    3    0    1
 -2      8890      8438      7628      8867
 -1     34746    3    0    1
 -2      7336      6443      6466      8286
 -1     34747    3    0    1
 -2      5871      6405      5870      5872
 -1     34748    3    0    1
 -2       960      1588      1589      1632
 -1     34749    3    0    1
 -2      1996      2042      3710      3711
 -1     34750    3    0    1
 -2      1396      2042      1369      3237
 -1     34751    3    0    1
 -2      5638      4870      5637      4522
 -1     34752    3    0    1
 -2      2771      3356      3925      2741
 -1     34753    3    0    1
 -2      4635      5184      5329      4686
 -1     34754    3    0    1
 -2      3211      3203      4280      3842
 -1     34755    3    0    1
 -2      7327      7842      8723      7326
 -1     34756    3    0    1
 -2      1213      3643      3615      1901
 -1     34757    3    0    1
 -2      2138      3826      3206      2113
 -1     34758    3    0    1
 -2      1989      2546      1949      1269
 -1     34759    3    0    1
 -2      7012      7623      7622      5707
 -1     34760    3    0    1
 -2      4696      4329      3850      4328
 -1     34761    3    0    1
 -2       874      2754      1586      1585
 -1     34762    3    0    1
 -2      5018      5543      4787      4798
 -1     34763    3    0    1
 -2      5192      5766      5691      6082
 -1     34764    3    0    1
 -2      2395      1080      1125      1748
 -1     34765    3    0    1
 -2       996      1694      2347      1042
 -1     34766    3    0    1
 -2      3686      4189      3645      3049
 -1     34767    3    0    1
 -2      7677      8492      8916      6071
 -1     34768    3    0    1
 -2      2598       714       715      2034
 -1     34769    3    0    1
 -2      7731      7207      6186      6239
 -1     34770    3    0    1
 -2      3275      1533       891      2253
 -1     34771    3    0    1
 -2      2270      1517      2225      3297
 -1     34772    3    0    1
 -2      7814      7288      7290      5864
 -1     34773    3    0    1
 -2      6713      6714      7946      7444
 -1     34774    3    0    1
 -2      7247      8232      7821      5858
 -1     34775    3    0    1
 -2      2874      3400      2321      2309
 -1     34776    3    0    1
 -2      3334       975      3383      1612
 -1     34777    3    0    1
 -2      3334      2772      3383      3914
 -1     34778    3    0    1
 -2      1609      1679      1592      3374
 -1     34779    3    0    1
 -2      8743      8742      9128      7903
 -1     34780    3    0    1
 -2      1681      2872      2912      2369
 -1     34781    3    0    1
 -2      7551      7552      8406      7527
 -1     34782    3    0    1
 -2      8281      7331      5891      8282
 -1     34783    3    0    1
 -2      1246      3055      3648      3029
 -1     34784    3    0    1
 -2      2328      2903      2347      1694
 -1     34785    3    0    1
 -2      6046      6822      6823      7997
 -1     34786    3    0    1
 -2      2806       930       958      2284
 -1     34787    3    0    1
 -2      4429      3417      4024      3474
 -1     34788    3    0    1
 -2       940       941       919       483
 -1     34789    3    0    1
 -2      5051      5497      5531      5034
 -1     34790    3    0    1
 -2      3389      3437      3407      1684
 -1     34791    3    0    1
 -2      7808      7240      7269      5445
 -1     34792    3    0    1
 -2      5502      6416      7348      8243
 -1     34793    3    0    1
 -2      5681      6794      6796      6795
 -1     34794    3    0    1
 -2      7301      8264      7842      5485
 -1     34795    3    0    1
 -2      1189      1164      1874      3589
 -1     34796    3    0    1
 -2      6216      6217      7222      6218
 -1     34797    3    0    1
 -2      1353       730      2005      3188
 -1     34798    3    0    1
 -2      2823      3428      3988      1693
 -1     34799    3    0    1
 -2      1881      1168      1167      1817
 -1     34800    3    0    1
 -2      8041      7610      6963      8478
 -1     34801    3    0    1
 -2      5196      5750      7000      6114
 -1     34802    3    0    1
 -2      3160      1357      2007      2577
 -1     34803    3    0    1
 -2      7180      7203      8657      6295
 -1     34804    3    0    1
 -2      4441      5026      5050      4439
 -1     34805    3    0    1
 -2      8386      8831      6844      6734
 -1     34806    3    0    1
 -2      6673      7981      7925      8779
 -1     34807    3    0    1
 -2      3928      4405      4725      3916
 -1     34808    3    0    1
 -2        93       492       928      1539
 -1     34809    3    0    1
 -2      2327      1653      3426      3425
 -1     34810    3    0    1
 -2      4729      4368      4332      4701
 -1     34811    3    0    1
 -2      8480      7036      7037      8026
 -1     34812    3    0    1
 -2      5195      4292      4613      4266
 -1     34813    3    0    1
 -2      2272      2227      1520      1521
 -1     34814    3    0    1
 -2      7391      7336      8286      8734
 -1     34815    3    0    1
 -2      1403      2646      2635      1381
 -1     34816    3    0    1
 -2      7570      6884      7556      7544
 -1     34817    3    0    1
 -2      1412      1411      1355      3225
 -1     34818    3    0    1
 -2      3664      1188      1189      3030
 -1     34819    3    0    1
 -2       177       210       133      9669
 -1     34820    3    0    1
 -2      4627      4628      5163      5198
 -1     34821    3    0    1
 -2      2272      3336      2227      1521
 -1     34822    3    0    1
 -2      5058      4801      4083      4445
 -1     34823    3    0    1
 -2      6010      7528      7970      6003
 -1     34824    3    0    1
 -2      1135       245       602       650
 -1     34825    3    0    1
 -2      1141      1176      3610      2420
 -1     34826    3    0    1
 -2      5458      5399      6174      6222
 -1     34827    3    0    1
 -2      4296      3787      3838      4679
 -1     34828    3    0    1
 -2      7502      7478      6700      5602
 -1     34829    3    0    1
 -2      8547      9292      9530      8548
 -1     34830    3    0    1
 -2      2581      2582      2628      4262
 -1     34831    3    0    1
 -2      8185      6200      6201      8159
 -1     34832    3    0    1
 -2      5954      5528      5556      5955
 -1     34833    3    0    1
 -2      9498      9251      8016      8050
 -1     34834    3    0    1
 -2      2534      2474      3685      3706
 -1     34835    3    0    1
 -2      7563      6828      6829      8423
 -1     34836    3    0    1
 -2       844       827      1487      2789
 -1     34837    3    0    1
 -2       622      1145      1134       599
 -1     34838    3    0    1
 -2      3710      1996      2527      3097
 -1     34839    3    0    1
 -2      2824      1600      2278      1668
 -1     34840    3    0    1
 -2      2393      2416      1072      3477
 -1     34841    3    0    1
 -2      8768      6571      6570      6627
 -1     34842    3    0    1
 -2      3104      3738      3163      2009
 -1     34843    3    0    1
 -2      7236      7235      6231      8670
 -1     34844    3    0    1
 -2      3073      1932      3093      4208
 -1     34845    3    0    1
 -2      3410      2324      1647      2337
 -1     34846    3    0    1
 -2      7782      8619      6244      7140
 -1     34847    3    0    1
 -2      2236      3921      3857      2757
 -1     34848    3    0    1
 -2      1123      3062      2982      1818
 -1     34849    3    0    1
 -2      1419      3168      1439      2568
 -1     34850    3    0    1
 -2      6161      7779      9017      6180
 -1     34851    3    0    1
 -2      1163       222       647      1115
 -1     34852    3    0    1
 -2      7080      5359      7102      6103
 -1     34853    3    0    1
 -2      7034      6959      6961      8476
 -1     34854    3    0    1
 -2      5679      5979      7524      7991
 -1     34855    3    0    1
 -2      1994      1307      2548      3722
 -1     34856    3    0    1
 -2      2006      1948      1299      2554
 -1     34857    3    0    1
 -2      7380      7899      8739      6474
 -1     34858    3    0    1
 -2      3422      4499      4454      2948
 -1     34859    3    0    1
 -2      5945      5970      5631      5630
 -1     34860    3    0    1
 -2      1247      2459      1192      3631
 -1     34861    3    0    1
 -2      6603      5965      6722      7417
 -1     34862    3    0    1
 -2      5732      5764      6108      7074
 -1     34863    3    0    1
 -2      4501      4060      4785      5064
 -1     34864    3    0    1
 -2       738      1363      1362      3194
 -1     34865    3    0    1
 -2      7255      8169      6345      8229
 -1     34866    3    0    1
 -2      4957      3865      3317      4358
 -1     34867    3    0    1
 -2       697      2049      3768      3184
 -1     34868    3    0    1
 -2      7965      8795      8794      9145
 -1     34869    3    0    1
 -2      7047      8493      7070      6093
 -1     34870    3    0    1
 -2       746       745      1430      1402
 -1     34871    3    0    1
 -2      5265      5053      5532      5898
 -1     34872    3    0    1
 -2      2912      4446      2872      2911
 -1     34873    3    0    1
 -2      3789      3823      3824      2047
 -1     34874    3    0    1
 -2      4494      3496      4432      4431
 -1     34875    3    0    1
 -2      4063      4030      1770      3541
 -1     34876    3    0    1
 -2      2393      1073      1739      3477
 -1     34877    3    0    1
 -2      2607      4282      3749      1405
 -1     34878    3    0    1
 -2      2743       945       946      2781
 -1     34879    3    0    1
 -2      3745      3836      2644      4295
 -1     34880    3    0    1
 -2      3396      1625      1624      1676
 -1     34881    3    0    1
 -2      1634      2318      1662      2867
 -1     34882    3    0    1
 -2      5971      5647      5598      7476
 -1     34883    3    0    1
 -2      1931      1955      2010      1956
 -1     34884    3    0    1
 -2      2427      2969      2484      3629
 -1     34885    3    0    1
 -2      7127      8147      6278      6233
 -1     34886    3    0    1
 -2      1681      2872      2335      2912
 -1     34887    3    0    1
 -2      8357      5970      6643      7526
 -1     34888    3    0    1
 -2      5202      5207      5707      4922
 -1     34889    3    0    1
 -2      1928      1238      2457      3018
 -1     34890    3    0    1
 -2      4489      4068      4006      3483
 -1     34891    3    0    1
 -2      3521      1118      1790      3472
 -1     34892    3    0    1
 -2      1354      2128      2102      1410
 -1     34893    3    0    1
 -2      8250      8258      7249      7275
 -1     34894    3    0    1
 -2      4323      2189      3339      3340
 -1     34895    3    0    1
 -2      1830      2506      1899      2440
 -1     34896    3    0    1
 -2      7348      6449      5502      8243
 -1     34897    3    0    1
 -2      2814      3389      4409      3379
 -1     34898    3    0    1
 -2      5879      7839      8311      7322
 -1     34899    3    0    1
 -2      5084      4566      4153      3577
 -1     34900    3    0    1
 -2      4479      3457      4451      4498
 -1     34901    3    0    1
 -2      3667      2445      3590      2428
 -1     34902    3    0    1
 -2      5443      6295      7789      6235
 -1     34903    3    0    1
 -2       378       777       331      1429
 -1     34904    3    0    1
 -2      7337      8288      8735      5910
 -1     34905    3    0    1
 -2      4636      4276      3716      3174
 -1     34906    3    0    1
 -2      6190      6191      7162      6192
 -1     34907    3    0    1
 -2      2401      2883      3467      1717
 -1     34908    3    0    1
 -2      7088      7060      6061      8065
 -1     34909    3    0    1
 -2      5412      4962      4945      4976
 -1     34910    3    0    1
 -2      5134      5110      4854      4835
 -1     34911    3    0    1
 -2       483       940       105      2245
 -1     34912    3    0    1
 -2      5936      7312      5498      6511
 -1     34913    3    0    1
 -2      3782      4269      1397      2031
 -1     34914    3    0    1
 -2      1688      1645      1567      2299
 -1     34915    3    0    1
 -2       196       539       538       167
 -1     34916    3    0    1
 -2      7050      8501      8032      7051
 -1     34917    3    0    1
 -2      5530      5561      5250      5487
 -1     34918    3    0    1
 -2      8475      6960      6959      7608
 -1     34919    3    0    1
 -2      3344      1583       953      2748
 -1     34920    3    0    1
 -2      4714      2770      4359      3925
 -1     34921    3    0    1
 -2      4287      4274      3747      2035
 -1     34922    3    0    1
 -2      6800      7540      8412      7510
 -1     34923    3    0    1
 -2      8615      7744      8161      7813
 -1     34924    3    0    1
 -2      3775      2041      2629      3740
 -1     34925    3    0    1
 -2      6865      6036      5689      6908
 -1     34926    3    0    1
 -2      6603      5965      5964      6623
 -1     34927    3    0    1
 -2      8807      8406      8828      7528
 -1     34928    3    0    1
 -2      4795      4465      4464      4810
 -1     34929    3    0    1
 -2      3233      2151      2676      3800
 -1     34930    3    0    1
 -2      2393      3522      3477      2890
 -1     34931    3    0    1
 -2      2980      3599      4506      4520
 -1     34932    3    0    1
 -2      8254      7253      9080      7266
 -1     34933    3    0    1
 -2      3747      3129      2001      2035
 -1     34934    3    0    1
 -2      2330      1064      3468      3413
 -1     34935    3    0    1
 -2      4232      2571      2544      1982
 -1     34936    3    0    1
 -2      3787      3838      3746      4296
 -1     34937    3    0    1
 -2      7050      7665      6979      6945
 -1     34938    3    0    1
 -2      1007       519      2862       518
 -1     34939    3    0    1
 -2      5329      5704      5206      5184
 -1     34940    3    0    1
 -2      2841      3406      2342      1679
 -1     34941    3    0    1
 -2      4829      5660      6687      5673
 -1     34942    3    0    1
 -2      4488      4033      2872      2911
 -1     34943    3    0    1
 -2        95       841       406      2174
 -1     34944    3    0    1
 -2      2429      1827      2490      3593
 -1     34945    3    0    1
 -2      5665      8359      7512      7511
 -1     34946    3    0    1
 -2      7097      8107      8551      7079
 -1     34947    3    0    1
 -2      6350      6349      5888      7271
 -1     34948    3    0    1
 -2      7257      7186      6311      8214
 -1     34949    3    0    1
 -2      4455      4802      4087      4042
 -1     34950    3    0    1
 -2      9086      7375      8308      9372
 -1     34951    3    0    1
 -2      6507      4814      5050      5027
 -1     34952    3    0    1
 -2      6315      6314      6357      8239
 -1     34953    3    0    1
 -2      7325      8276      8275      7324
 -1     34954    3    0    1
 -2      7818      7283      7253      6421
 -1     34955    3    0    1
 -2      5455      8218      7248      7244
 -1     34956    3    0    1
 -2      6933      6963      7651      7036
 -1     34957    3    0    1
 -2      6553      7905      6552      8302
 -1     34958    3    0    1
 -2      2079      2623      3146      2080
 -1     34959    3    0    1
 -2      7602      7556      9214      7544
 -1     34960    3    0    1
 -2       882       910       866       865
 -1     34961    3    0    1
 -2      1200      1940      1941      1966
 -1     34962    3    0    1
 -2      5569      5531      5260      5059
 -1     34963    3    0    1
 -2      3223      3831      3187      4652
 -1     34964    3    0    1
 -2      5397      5396      5456      4344
 -1     34965    3    0    1
 -2      2302      3953      1657      1656
 -1     34966    3    0    1
 -2      4938      4286      4624      4931
 -1     34967    3    0    1
 -2       754       347       782      1443
 -1     34968    3    0    1
 -2      8145      8594      7721      9014
 -1     34969    3    0    1
 -2      3819      4269      2590      1398
 -1     34970    3    0    1
 -2      6049      6990      7062      8524
 -1     34971    3    0    1
 -2      5239      5374      5464      5413
 -1     34972    3    0    1
 -2      7144      6249      7783      7145
 -1     34973    3    0    1
 -2      7787      8642      8201      8610
 -1     34974    3    0    1
 -2      2766       909      2767      3354
 -1     34975    3    0    1
 -2      8276      7888      6494      6493
 -1     34976    3    0    1
 -2      8508      9262      6113      8071
 -1     34977    3    0    1
 -2       816      1534      3323      3276
 -1     34978    3    0    1
 -2      3837      3836      4272      4295
 -1     34979    3    0    1
 -2      7658      7619      6917      7618
 -1     34980    3    0    1
 -2      6415      7294      6373      7279
 -1     34981    3    0    1
 -2      7809      9049      7780      8169
 -1     34982    3    0    1
 -2      6675      5992      6674      7468
 -1     34983    3    0    1
 -2      5636      5666      5297      5986
 -1     34984    3    0    1
 -2      1115      1163      1162      3024
 -1     34985    3    0    1
 -2      7140      7782      8619      8606
 -1     34986    3    0    1
 -2      9512      8526      8903      8883
 -1     34987    3    0    1
 -2      7134      7135      9004      5816
 -1     34988    3    0    1
 -2      6814      6866      6885      6048
 -1     34989    3    0    1
 -2      1650      3977      3385      2293
 -1     34990    3    0    1
 -2      5940      7363      7910      6488
 -1     34991    3    0    1
 -2      9094      7875      8303      9382
 -1     34992    3    0    1
 -2      6833      6914      8434      6835
 -1     34993    3    0    1
 -2      5169      5190      5336      4909
 -1     34994    3    0    1
 -2      6734      7938      6650      6703
 -1     34995    3    0    1
 -2      5840      5841      6188      5842
 -1     34996    3    0    1
 -2      1856      4129      2470      3658
 -1     34997    3    0    1
 -2      3278      2749      1483      3277
 -1     34998    3    0    1
 -2      1768      1736      1737      2392
 -1     34999    3    0    1
 -2      5855      6424      7259      6425
 -1     35000    3    0    1
 -2      2943      1100      1139      2893
 -1     35001    3    0    1
 -2      4658      4265      4264      4918
 -1     35002    3    0    1
 -2      2862      1675      1005      3448
 -1     35003    3    0    1
 -2      5569      5531      5497      5260
 -1     35004    3    0    1
 -2      1726      1113      1114      1725
 -1     35005    3    0    1
 -2      3647      1931      1955      3027
 -1     35006    3    0    1
 -2      1917      1225      3635      2516
 -1     35007    3    0    1
 -2      7471      7548      8826      8801
 -1     35008    3    0    1
 -2      5744      5733      4916      5193
 -1     35009    3    0    1
 -2      4541      2988      3639      4540
 -1     35010    3    0    1
 -2      6633      6739      5639      5958
 -1     35011    3    0    1
 -2      6872      6782      6783      7548
 -1     35012    3    0    1
 -2      7618      5703      5775      5735
 -1     35013    3    0    1
 -2      5204      4656      4603      5339
 -1     35014    3    0    1
 -2      5182      5199      5702      5328
 -1     35015    3    0    1
 -2      5496      5251      5247      5032
 -1     35016    3    0    1
 -2      2458      4099      3661      2968
 -1     35017    3    0    1
 -2      1239      1863      2524      1216
 -1     35018    3    0    1
 -2      4364      3874      3366      4387
 -1     35019    3    0    1
 -2      4242      3142      2064      2580
 -1     35020    3    0    1
 -2      5627      5678      5672      5140
 -1     35021    3    0    1
 -2      1343      1315      1314      2031
 -1     35022    3    0    1
 -2      8369      6721      7489      7982
 -1     35023    3    0    1
 -2      9600      9419      9642      9670
 -1     35024    3    0    1
 -2      5418      5225      5451      5468
 -1     35025    3    0    1
 -2       888       944      1599      3318
 -1     35026    3    0    1
 -2      9320      8121      8170      9024
 -1     35027    3    0    1
 -2      7964      6864      5653      8397
 -1     35028    3    0    1
 -2      8488      8487      6968      7617
 -1     35029    3    0    1
 -2      5944      7915      7896      8323
 -1     35030    3    0    1
 -2      7390      7334      5945      5523
 -1     35031    3    0    1
 -2       701       278       276      1300
 -1     35032    3    0    1
 -2      5470      5425      6149      5424
 -1     35033    3    0    1
 -2      6525      5516      6434      7356
 -1     35034    3    0    1
 -2      4522      5637      5638      4882
 -1     35035    3    0    1
 -2      6501      7332      8314      7860
 -1     35036    3    0    1
 -2      3353      1503      2707      3293
 -1     35037    3    0    1
 -2      2039      1350      3182      1334
 -1     35038    3    0    1
 -2      6812      6813      6815      6814
 -1     35039    3    0    1
 -2      7188      8631      8230      9037
 -1     35040    3    0    1
 -2      1983      2544      2571      1982
 -1     35041    3    0    1
 -2      6599      6619      6490      5518
 -1     35042    3    0    1
 -2       727       729       728       766
 -1     35043    3    0    1
 -2      6200      5418      7190      7243
 -1     35044    3    0    1
 -2      7437      8338      6710      7436
 -1     35045    3    0    1
 -2      4975      5232      5839      5411
 -1     35046    3    0    1
 -2      3999      3522      1769      1740
 -1     35047    3    0    1
 -2      7511      5665      8359      6755
 -1     35048    3    0    1
 -2      2334      1021      1020      2891
 -1     35049    3    0    1
 -2      6048      6885      7605      8037
 -1     35050    3    0    1
 -2      5987      6659      5989      7411
 -1     35051    3    0    1
 -2      8788      7437      6710      7975
 -1     35052    3    0    1
 -2      7521      7486      8418      7544
 -1     35053    3    0    1
 -2      1048      1677      2341      3415
 -1     35054    3    0    1
 -2      3230      3833      4306      3753
 -1     35055    3    0    1
 -2      6412      6366      6364      6363
 -1     35056    3    0    1
 -2      1318      1317      3170      1967
 -1     35057    3    0    1
 -2      4694      5374      5239      5413
 -1     35058    3    0    1
 -2      4357      2239      2706      3861
 -1     35059    3    0    1
 -2      3772      4305      4673      4894
 -1     35060    3    0    1
 -2      8684      8252      7318      8704
 -1     35061    3    0    1
 -2      1755      4067      2397      2411
 -1     35062    3    0    1
 -2      1979      1229      3044      1921
 -1     35063    3    0    1
 -2      3880      4711      4377      4376
 -1     35064    3    0    1
 -2      6820      6871      6819      6910
 -1     35065    3    0    1
 -2      7439      7995      8351      6026
 -1     35066    3    0    1
 -2      8852      8860      8010      7547
 -1     35067    3    0    1
 -2       932      2298      2236      2757
 -1     35068    3    0    1
 -2      7257      8629      9065      7186
 -1     35069    3    0    1
 -2      3697      2541      3715      1971
 -1     35070    3    0    1
 -2      1664      2874      2321      2309
 -1     35071    3    0    1
 -2      7783      6170      7144      9024
 -1     35072    3    0    1
 -2      2927      3529      1088      2412
 -1     35073    3    0    1
 -2      6565      5908      7858      7859
 -1     35074    3    0    1
 -2      7791      8613      7807      6188
 -1     35075    3    0    1
 -2      7866      7308      8737      6544
 -1     35076    3    0    1
 -2      4284      4904      3762      4675
 -1     35077    3    0    1
 -2      7514      7950      8815      6015
 -1     35078    3    0    1
 -2      8846      7554      8359      7511
 -1     35079    3    0    1
 -2      4016      2860      4472      4471
 -1     35080    3    0    1
 -2      6144      8140      6172      7147
 -1     35081    3    0    1
 -2      7248      8218      5455      6319
 -1     35082    3    0    1
 -2      3419      1701      3497      2889
 -1     35083    3    0    1
 -2      3225      4890      4599      4925
 -1     35084    3    0    1
 -2      7382      6548      5901      8297
 -1     35085    3    0    1
 -2      5380      5234      5242      5843
 -1     35086    3    0    1
 -2      4468      5269      4467      5520
 -1     35087    3    0    1
 -2      6684      7421      6685      6750
 -1     35088    3    0    1
 -2      7456      6732      7479      6702
 -1     35089    3    0    1
 -2      1186      1185       624      3564
 -1     35090    3    0    1
 -2      4144      1878      3671      2446
 -1     35091    3    0    1
 -2      1024       155      1022      2894
 -1     35092    3    0    1
 -2      3036      4562      4563      3635
 -1     35093    3    0    1
 -2      3905      3904      2274      1505
 -1     35094    3    0    1
 -2      6893      8425      7550      6838
 -1     35095    3    0    1
 -2      4191      2536      3699      4206
 -1     35096    3    0    1
 -2      4236      4269      2590      3819
 -1     35097    3    0    1
 -2      2793      3870      3303      4380
 -1     35098    3    0    1
 -2      7567      6902      6859      6857
 -1     35099    3    0    1
 -2      1357      1340       770      2007
 -1     35100    3    0    1
 -2      4704      3858      3269      2761
 -1     35101    3    0    1
 -2      6020      6811      7486      6810
 -1     35102    3    0    1
 -2      5759      5363      5362      4301
 -1     35103    3    0    1
 -2      7024      6928      6929      8465
 -1     35104    3    0    1
 -2      2738      2288      1593      3377
 -1     35105    3    0    1
 -2      8288      7337      6540      5910
 -1     35106    3    0    1
 -2      9536      8529      9504      8954
 -1     35107    3    0    1
 -2      4405      4725      5000      3928
 -1     35108    3    0    1
 -2      6543      5565      6592      5494
 -1     35109    3    0    1
 -2      7674      7673      7033      8526
 -1     35110    3    0    1
 -2       416       813      1470      2687
 -1     35111    3    0    1
 -2      5949      7392      7360      6607
 -1     35112    3    0    1
 -2      4411      4782      4071      3512
 -1     35113    3    0    1
 -2      7619      6917      8914      7658
 -1     35114    3    0    1
 -2      6769      7431      7430      6007
 -1     35115    3    0    1
 -2      8820      9142      8339      7906
 -1     35116    3    0    1
 -2      6376      8236      6291      6290
 -1     35117    3    0    1
 -2      8731      6464      8283      7845
 -1     35118    3    0    1
 -2      8933      8079      8532      7101
 -1     35119    3    0    1
 -2       824       806       825      2177
 -1     35120    3    0    1
 -2      6632      5308      5614      6615
 -1     35121    3    0    1
 -2      2463      3634      1198      1880
 -1     35122    3    0    1
 -2      6378      5868      5869      5867
 -1     35123    3    0    1
 -2      2824      2278      3937      1668
 -1     35124    3    0    1
 -2      7922      6659      8363      7411
 -1     35125    3    0    1
 -2      9134      8795      7886      9145
 -1     35126    3    0    1
 -2      6471      6543      6569      7340
 -1     35127    3    0    1
 -2      3085      3608      3654      4184
 -1     35128    3    0    1
 -2      4241      3140      3798      4235
 -1     35129    3    0    1
 -2      1051       159       575      1028
 -1     35130    3    0    1
 -2      7625      8437      8922      6947
 -1     35131    3    0    1
 -2      7818      7206      6299      6300
 -1     35132    3    0    1
 -2       958       957       464      1546
 -1     35133    3    0    1
 -2      1623      2306      1659      2315
 -1     35134    3    0    1
 -2      5151      4597      4888      4889
 -1     35135    3    0    1
 -2      5484      5883      5539      5011
 -1     35136    3    0    1
 -2      2535      2555      3735      3694
 -1     35137    3    0    1
 -2      8837      8399      7535      8000
 -1     35138    3    0    1
 -2      3181      2038      3206      3826
 -1     35139    3    0    1
 -2      3120      1296      3186      3156
 -1     35140    3    0    1
 -2      1273      1342       706      3708
 -1     35141    3    0    1
 -2      6430      7278      6367      7263
 -1     35142    3    0    1
 -2      4999      4751      5441      5005
 -1     35143    3    0    1
 -2      7944      5970      9150      7915
 -1     35144    3    0    1
 -2      3954      3981      3934      2822
 -1     35145    3    0    1
 -2      3184      4303      3247      4251
 -1     35146    3    0    1
 -2       688      1219      1910      2480
 -1     35147    3    0    1
 -2      5312      6742      6027      5619
 -1     35148    3    0    1
 -2      3232      3835      3708      3755
 -1     35149    3    0    1
 -2      6122      5731      6121      4935
 -1     35150    3    0    1
 -2      5858      7260      7821      6426
 -1     35151    3    0    1
 -2      2362      2865      4428      2391
 -1     35152    3    0    1
 -2      4980      5210      5816      4979
 -1     35153    3    0    1
 -2      6906      6808      6774      7532
 -1     35154    3    0    1
 -2        77       403       419       456
 -1     35155    3    0    1
 -2      3715      2541      2015      1971
 -1     35156    3    0    1
 -2       477       974       915      2233
 -1     35157    3    0    1
 -2      3397      2808      1631      3960
 -1     35158    3    0    1
 -2      3613      3641      1821      1830
 -1     35159    3    0    1
 -2       866       910      3296      3298
 -1     35160    3    0    1
 -2      8624      7182      7205      6127
 -1     35161    3    0    1
 -2      4697      4696      5210      4980
 -1     35162    3    0    1
 -2      5474      7228      8667      7174
 -1     35163    3    0    1
 -2      4817      5516      5285      5042
 -1     35164    3    0    1
 -2      1663      1639      2319      1658
 -1     35165    3    0    1
 -2       624      1112      1161      1811
 -1     35166    3    0    1
 -2      6498      8726      7329      7894
 -1     35167    3    0    1
 -2      1350      3182      1334      1333
 -1     35168    3    0    1
 -2      6577      5572      5532      5915
 -1     35169    3    0    1
 -2      8889      8921      8499      8051
 -1     35170    3    0    1
 -2      3430      3518      1726      1725
 -1     35171    3    0    1
 -2      6557      7356      8713      8765
 -1     35172    3    0    1
 -2      6256      6255      7813      7165
 -1     35173    3    0    1
 -2      5816      5445      5210      5375
 -1     35174    3    0    1
 -2      3179      1349      3205      3212
 -1     35175    3    0    1
 -2      3684      3019      2004      4188
 -1     35176    3    0    1
 -2      2793       939       479      1595
 -1     35177    3    0    1
 -2      7180      9030      9001      5783
 -1     35178    3    0    1
 -2      7060      7647      8468      8065
 -1     35179    3    0    1
 -2      7862      8285      8733      8762
 -1     35180    3    0    1
 -2      6330      5854      6331      6332
 -1     35181    3    0    1
 -2      1716      3446       545      1667
 -1     35182    3    0    1
 -2      1331      1330      3205      2037
 -1     35183    3    0    1
 -2      2092      1357      2091      2577
 -1     35184    3    0    1
 -2      1751      2377      4003      2410
 -1     35185    3    0    1
 -2      7042      6940      6942      6941
 -1     35186    3    0    1
 -2      3582      1823      1858      2456
 -1     35187    3    0    1
 -2      6251      6250      7795      6274
 -1     35188    3    0    1
 -2      7773      8213      8661      9050
 -1     35189    3    0    1
 -2      4649      4924      4313      3830
 -1     35190    3    0    1
 -2      1766      4017      3518      1726
 -1     35191    3    0    1
 -2      2842      2814      3389      4409
 -1     35192    3    0    1
 -2      6619      6599      6637      6717
 -1     35193    3    0    1
 -2      1688      1644      2336      1645
 -1     35194    3    0    1
 -2      8912      7596      9265      6085
 -1     35195    3    0    1
 -2      2761      3859      3858      2703
 -1     35196    3    0    1
 -2      1376      3173      3199      1377
 -1     35197    3    0    1
 -2      6735      8349      7508      6770
 -1     35198    3    0    1
 -2      5691      5766      5339      6082
 -1     35199    3    0    1
 -2      2778       921       981      1576
 -1     35200    3    0    1
 -2      6388      7828      8219      5863
 -1     35201    3    0    1
 -2      6240      8177      7134      7136
 -1     35202    3    0    1
 -2      7013      5330      5362      5760
 -1     35203    3    0    1
 -2      7420      7912      5587      9148
 -1     35204    3    0    1
 -2      3656      4866      4539      4538
 -1     35205    3    0    1
 -2      4240      2059      2060      3135
 -1     35206    3    0    1
 -2      9642      9419      9475      9670
 -1     35207    3    0    1
 -2      9490      9221      8505      8042
 -1     35208    3    0    1
 -2      5040      5072      5534      4462
 -1     35209    3    0    1
 -2      1298      1299      2554      3189
 -1     35210    3    0    1
 -2      4656      3161      3832      4672
 -1     35211    3    0    1
 -2      3987      1690      1650      3977
 -1     35212    3    0    1
 -2      7214      7783      7145      7164
 -1     35213    3    0    1
 -2      1115      1675      2932      3492
 -1     35214    3    0    1
 -2      2781       946      1530      1581
 -1     35215    3    0    1
 -2      3317      4358      3381      2768
 -1     35216    3    0    1
 -2      6705      7938      8387      6703
 -1     35217    3    0    1
 -2      5477      6336      7235      7236
 -1     35218    3    0    1
 -2      1163      1115      1870      3024
 -1     35219    3    0    1
 -2      6935      6889      6828      6890
 -1     35220    3    0    1
 -2      3336       885      2272      1596
 -1     35221    3    0    1
 -2      4654      4655      4891      4892
 -1     35222    3    0    1
 -2      7515      7995      6026      6024
 -1     35223    3    0    1
 -2      6991      5693      5331      5744
 -1     35224    3    0    1
 -2      2957      3581      3622      3562
 -1     35225    3    0    1
 -2      1961      1962      1963      3058
 -1     35226    3    0    1
 -2      3036      2981      2495      1883
 -1     35227    3    0    1
 -2      9571      8118      8569      9318
 -1     35228    3    0    1
 -2      3454      1028      1081      2343
 -1     35229    3    0    1
 -2      6339      7267      8209      6379
 -1     35230    3    0    1
 -2      3205      3791      4288      3259
 -1     35231    3    0    1
 -2      2270       882       910      3296
 -1     35232    3    0    1
 -2      2706      1558       863      2239
 -1     35233    3    0    1
 -2      6894      8446      7596      5701
 -1     35234    3    0    1
 -2      3474      2937      3473      3472
 -1     35235    3    0    1
 -2      7520      7946      7519      6018
 -1     35236    3    0    1
 -2      2960      1824      2443      3644
 -1     35237    3    0    1
 -2      8339      7906      7446      7445
 -1     35238    3    0    1
 -2      1246      1957      1932      2539
 -1     35239    3    0    1
 -2      2306      1623      2283      2315
 -1     35240    3    0    1
 -2      4757      3924      3294      3863
 -1     35241    3    0    1
 -2      5232      5372      5839      5411
 -1     35242    3    0    1
 -2      3269      4397      4704      2761
 -1     35243    3    0    1
 -2      7345      6518      7871      8744
 -1     35244    3    0    1
 -2      4722      5462      4752      5475
 -1     35245    3    0    1
 -2      8958      8534      7692      9518
 -1     35246    3    0    1
 -2      2950      4455      4087      2854
 -1     35247    3    0    1
 -2      1970      3105      2542      1971
 -1     35248    3    0    1
 -2      2330      2858      3468      1670
 -1     35249    3    0    1
 -2      7047      6091      6971      6093
 -1     35250    3    0    1
 -2      5913      5571      5253      5261
 -1     35251    3    0    1
 -2      3561      3622      2442      4170
 -1     35252    3    0    1
 -2      5658      8422      7983      8800
 -1     35253    3    0    1
 -2      4282      2607      2625      1405
 -1     35254    3    0    1
 -2      5081      4518      4844      4164
 -1     35255    3    0    1
 -2      2096      3197      2597      2043
 -1     35256    3    0    1
 -2      6457      7324      5916      5881
 -1     35257    3    0    1
 -2      4488      4487      4446      4033
 -1     35258    3    0    1
 -2      8786      8384      7462      6769
 -1     35259    3    0    1
 -2      3017      1235      1236      3659
 -1     35260    3    0    1
 -2      2339      3444      1715      3464
 -1     35261    3    0    1
 -2      8408      7565      6793      6895
 -1     35262    3    0    1
 -2      5015      5272      5016      5488
 -1     35263    3    0    1
 -2      7036      6934      7037      8026
 -1     35264    3    0    1
 -2      6304      5445      7808      6303
 -1     35265    3    0    1
 -2      1396      2042      3237      2588
 -1     35266    3    0    1
 -2      7583      6902      7567      6858
 -1     35267    3    0    1
 -2      1679      2841      3964      2811
 -1     35268    3    0    1
 -2      4679      4296      4632      5189
 -1     35269    3    0    1
 -2      4222      3683      4201      1980
 -1     35270    3    0    1
 -2      6891      6913      6830      8404
 -1     35271    3    0    1
 -2      1021      1802      2892      2408
 -1     35272    3    0    1
 -2      5551      4814      5050      6507
 -1     35273    3    0    1
 -2      6278      6267      8147      6234
 -1     35274    3    0    1
 -2      7306      7337      7338      5493
 -1     35275    3    0    1
 -2       556       211       181      9675
 -1     35276    3    0    1
 -2      5456      5814      5397      4344
 -1     35277    3    0    1
 -2      6274      6250      7795      6316
 -1     35278    3    0    1
 -2      1570      1569      3358      1568
 -1     35279    3    0    1
 -2      2831      1636      1637      3399
 -1     35280    3    0    1
 -2      3020      1133      2961      2960
 -1     35281    3    0    1
 -2      9377      7877      9378      9090
 -1     35282    3    0    1
 -2      3063      1171      1819      1887
 -1     35283    3    0    1
 -2      3780      4310      4684      4268
 -1     35284    3    0    1
 -2      4815      4068      4094      4502
 -1     35285    3    0    1
 -2      7517      8834      7567      6859
 -1     35286    3    0    1
 -2      3089      4185      4228      4205
 -1     35287    3    0    1
 -2      1214      1179      2995      1832
 -1     35288    3    0    1
 -2      5220      4758      4748      4337
 -1     35289    3    0    1
 -2      5025      4788      5024      4027
 -1     35290    3    0    1
 -2       142       140       246       247
 -1     35291    3    0    1
 -2      7220      7218      8652      6360
 -1     35292    3    0    1
 -2      5678      5627      5291      5140
 -1     35293    3    0    1
 -2      2880      1655      1665      3402
 -1     35294    3    0    1
 -2      4011      3533      3489      4805
 -1     35295    3    0    1
 -2      7916      6507      5551      7917
 -1     35296    3    0    1
 -2      3704      1904      2553      3720
 -1     35297    3    0    1
 -2      2789      2179      3294      2767
 -1     35298    3    0    1
 -2      5563      5545      4494      5274
 -1     35299    3    0    1
 -2      2825      3394      2295      1617
 -1     35300    3    0    1
 -2      7051      8032      7050      6946
 -1     35301    3    0    1
 -2      5551      5524      5948      6507
 -1     35302    3    0    1
 -2      3599      3035      2980      4506
 -1     35303    3    0    1
 -2      4206      2536      3111      2537
 -1     35304    3    0    1
 -2      3158      2006      1355      3225
 -1     35305    3    0    1
 -2      8837      8399      9169      7966
 -1     35306    3    0    1
 -2        52       823       425       426
 -1     35307    3    0    1
 -2      8642      5474      5801      7787
 -1     35308    3    0    1
 -2      7486      7521      6810      7544
 -1     35309    3    0    1
 -2      9069      9053      9358      8171
 -1     35310    3    0    1
 -2      8339      8820      6656      7482
 -1     35311    3    0    1
 -2      1404       754       782      2125
 -1     35312    3    0    1
 -2       862      2197      2702      3287
 -1     35313    3    0    1
 -2      2871      4063      1770      2367
 -1     35314    3    0    1
 -2      5573      5554      5510      6518
 -1     35315    3    0    1
 -2      7586      7600      6949      8462
 -1     35316    3    0    1
 -2      1122      1123      1079      2911
 -1     35317    3    0    1
 -2      6966      7655      7041      6065
 -1     35318    3    0    1
 -2      6620      5300      5976      5582
 -1     35319    3    0    1
 -2      2763      1557      3291      3328
 -1     35320    3    0    1
 -2      3228       771      2627      3161
 -1     35321    3    0    1
 -2      6684      6682      6683      6763
 -1     35322    3    0    1
 -2      6662      5963      6663      7467
 -1     35323    3    0    1
 -2      1405      2112      3749      1387
 -1     35324    3    0    1
 -2      8311      8720      7839      6530
 -1     35325    3    0    1
 -2      6855      8427      7998      6853
 -1     35326    3    0    1
 -2      4738      4370      4706      4335
 -1     35327    3    0    1
 -2      2026       694      2011      1310
 -1     35328    3    0    1
 -2      2435      3608      3654      1845
 -1     35329    3    0    1
 -2      3012      3037      2517      3651
 -1     35330    3    0    1
 -2       646       679      1909      1242
 -1     35331    3    0    1
 -2      8428      7567      8834      6859
 -1     35332    3    0    1
 -2      3729      4277      4299      3214
 -1     35333    3    0    1
 -2      6930      7645      8465      8894
 -1     35334    3    0    1
 -2      7613      8483      8509      6938
 -1     35335    3    0    1
 -2       836       856      2696      2697
 -1     35336    3    0    1
 -2      4873      5087      5079      5626
 -1     35337    3    0    1
 -2      9208      8037      8002      8000
 -1     35338    3    0    1
 -2      2915      2989      4502      2387
 -1     35339    3    0    1
 -2      1178      2441      3614      1822
 -1     35340    3    0    1
 -2      5654      6718      5582      5626
 -1     35341    3    0    1
 -2      5942      5933      5519      5269
 -1     35342    3    0    1
 -2      9028      8133      7757      8991
 -1     35343    3    0    1
 -2      3389      2814      2842      1684
 -1     35344    3    0    1
 -2      7288      7290      5864      7289
 -1     35345    3    0    1
 -2      6038      5691      8459      7591
 -1     35346    3    0    1
 -2      6702      5984      5605      5950
 -1     35347    3    0    1
 -2      6606      5911      5566      6593
 -1     35348    3    0    1
 -2      1731      2864      3996      3451
 -1     35349    3    0    1
 -2      3518      4059      4017      1766
 -1     35350    3    0    1
 -2      7512      8359      5665      6707
 -1     35351    3    0    1
 -2      6217      8616      7222      6218
 -1     35352    3    0    1
 -2      2508      3065      1925      1985
 -1     35353    3    0    1
 -2      8451      8498      7999      6881
 -1     35354    3    0    1
 -2      3849      4365      3369      2693
 -1     35355    3    0    1
 -2       866       910       882      3296
 -1     35356    3    0    1
 -2      5250      5014      5530      5487
 -1     35357    3    0    1
 -2      6618      6659      5960      7922
 -1     35358    3    0    1
 -2      1770      2870      2871      2367
 -1     35359    3    0    1
 -2      5372      6127      5839      5411
 -1     35360    3    0    1
 -2      4634      4274      3200      3807
 -1     35361    3    0    1
 -2      5814      6151      6150      5397
 -1     35362    3    0    1
 -2      1668       545      1716      1600
 -1     35363    3    0    1
 -2      8159      8184      7142      7738
 -1     35364    3    0    1
 -2      1900      3065      2992      1212
 -1     35365    3    0    1
 -2      6774      6773      5652      7532
 -1     35366    3    0    1
 -2      1972      2017      3081      1973
 -1     35367    3    0    1
 -2      5878      6489      6530      6456
 -1     35368    3    0    1
 -2      8670      8647      7804      9074
 -1     35369    3    0    1
 -2      8642      5474      8667      7174
 -1     35370    3    0    1
 -2      4348      3319      2687      3844
 -1     35371    3    0    1
 -2      4826      4173      4104      4852
 -1     35372    3    0    1
 -2      4808      3499      4484      4082
 -1     35373    3    0    1
 -2      2218      2201       847      1519
 -1     35374    3    0    1
 -2      3808      3243      2669      4312
 -1     35375    3    0    1
 -2      3940      1586      1628      2317
 -1     35376    3    0    1
 -2      7193      9025      7148      8192
 -1     35377    3    0    1
 -2      6801      7999      8414      6803
 -1     35378    3    0    1
 -2      7260      7848      8248      5027
 -1     35379    3    0    1
 -2      7145      5828      7214      7164
 -1     35380    3    0    1
 -2      6345      6307      6308      8169
 -1     35381    3    0    1
 -2      8398      6812      6815      8000
 -1     35382    3    0    1
 -2      9396      9131      9141      9423
 -1     35383    3    0    1
 -2       988       989      1644      1645
 -1     35384    3    0    1
 -2      1647      1705      3459      2337
 -1     35385    3    0    1
 -2      7263      7836      6430      8697
 -1     35386    3    0    1
 -2      3985      2308      2333      1635
 -1     35387    3    0    1
 -2      6343      6307      6345      6344
 -1     35388    3    0    1
 -2      6186      7207      8156      7208
 -1     35389    3    0    1
 -2      4010      3466      3446      3488
 -1     35390    3    0    1
 -2      3304      2272      3336      2227
 -1     35391    3    0    1
 -2      6944      7050      6946      6945
 -1     35392    3    0    1
 -2      2514      1914      1877      3031
 -1     35393    3    0    1
 -2      3403      1000      1001      1673
 -1     35394    3    0    1
 -2      6716      7414      6745      8330
 -1     35395    3    0    1
 -2      1238      1928      1237      3018
 -1     35396    3    0    1
 -2      6484      6552      6448      7852
 -1     35397    3    0    1
 -2      3685      1948      2534      3706
 -1     35398    3    0    1
 -2      1876      2419      2429      2998
 -1     35399    3    0    1
 -2      3167      3763      3168      2568
 -1     35400    3    0    1
 -2      2831      3973      3986      1637
 -1     35401    3    0    1
 -2      2028      1275      1276      3758
 -1     35402    3    0    1
 -2      8421      6817      6818      7546
 -1     35403    3    0    1
 -2      1729      1728      2360      1781
 -1     35404    3    0    1
 -2      2877      3460      4067      2411
 -1     35405    3    0    1
 -2      1912      2513      1959      1960
 -1     35406    3    0    1
 -2      4551      4570      4512      3617
 -1     35407    3    0    1
 -2      3077      2461      3650      2490
 -1     35408    3    0    1
 -2      2021      3150      3748      1978
 -1     35409    3    0    1
 -2      8205      6289      7234      7766
 -1     35410    3    0    1
 -2      6664      6744      6759      8368
 -1     35411    3    0    1
 -2      3198      3745      3836      2644
 -1     35412    3    0    1
 -2      3745      2558      3697      2542
 -1     35413    3    0    1
 -2      7179      8617      8173      6182
 -1     35414    3    0    1
 -2      4049      2903      4073      2928
 -1     35415    3    0    1
 -2      7148      8151      6211      6209
 -1     35416    3    0    1
 -2      5277      5278      5924      5495
 -1     35417    3    0    1
 -2      2928      2903      1132      1694
 -1     35418    3    0    1
 -2      5586      5979      5679      5587
 -1     35419    3    0    1
 -2      4528      4578      4874      4875
 -1     35420    3    0    1
 -2      7874      6553      7347      8302
 -1     35421    3    0    1
 -2      6506      8691      7880      7260
 -1     35422    3    0    1
 -2      2738      3862      2739      3900
 -1     35423    3    0    1
 -2      6710      5666      6756      7975
 -1     35424    3    0    1
 -2      2887      1112      1002      2931
 -1     35425    3    0    1
 -2      6919      6920      7554      6850
 -1     35426    3    0    1
 -2      1649      1648       976      1614
 -1     35427    3    0    1
 -2      4842      4140      3567      4823
 -1     35428    3    0    1
 -2      1972      1973      1254      1255
 -1     35429    3    0    1
 -2      3637      1175      3609      1895
 -1     35430    3    0    1
 -2      5489      6503      6463      7845
 -1     35431    3    0    1
 -2      3029      3630      3568      3552
 -1     35432    3    0    1
 -2      1342      1958      2526      3123
 -1     35433    3    0    1
 -2      8857      8849      8055      9213
 -1     35434    3    0    1
 -2      9111      8767      9404      7897
 -1     35435    3    0    1
 -2      7360      7392      5911      6593
 -1     35436    3    0    1
 -2      5365      5364      5209      4915
 -1     35437    3    0    1
 -2      3560      4466      4817      4810
 -1     35438    3    0    1
 -2      6320      6362      6319      6409
 -1     35439    3    0    1
 -2      8745      7381      7345      8744
 -1     35440    3    0    1
 -2      4846      5083      5098      4125
 -1     35441    3    0    1
 -2      3801      2067      2620      2584
 -1     35442    3    0    1
 -2      3198      2644      1441      1430
 -1     35443    3    0    1
 -2      1679      1609      2811      3374
 -1     35444    3    0    1
 -2      6920      6919      6901      6850
 -1     35445    3    0    1
 -2      4250      2608      3181      3827
 -1     35446    3    0    1
 -2      6361      6427      6429      5494
 -1     35447    3    0    1
 -2      6719      6671      5977      7924
 -1     35448    3    0    1
 -2      2629      2069      1368      2106
 -1     35449    3    0    1
 -2      2185      3870      3303      2793
 -1     35450    3    0    1
 -2      2002      2038      1293      1292
 -1     35451    3    0    1
 -2      2257       899      2696       898
 -1     35452    3    0    1
 -2      3017      1859       638      2958
 -1     35453    3    0    1
 -2      3211      4280      4668      3842
 -1     35454    3    0    1
 -2      7480      8787      8350      8389
 -1     35455    3    0    1
 -2      2501      2949      2986      4127
 -1     35456    3    0    1
 -2      7377      5551      6507      7917
 -1     35457    3    0    1
 -2      8183      8184      7142      8159
 -1     35458    3    0    1
 -2      6274      7215      6316      5856
 -1     35459    3    0    1
 -2      7636      7089      6110      7685
 -1     35460    3    0    1
 -2      2222      3308      1507      1578
 -1     35461    3    0    1
 -2      1800       654       612      2974
 -1     35462    3    0    1
 -2      4703      4334      3921      4341
 -1     35463    3    0    1
 -2      2777      3952      3392      2778
 -1     35464    3    0    1
 -2      3064      1231      1982      1898
 -1     35465    3    0    1
 -2      3624      1906      1863      2474
 -1     35466    3    0    1
 -2      2107      1370      2070      3761
 -1     35467    3    0    1
 -2      6667      7487      8777      6746
 -1     35468    3    0    1
 -2      3828      3220      1425      2090
 -1     35469    3    0    1
 -2       587      1131       595       586
 -1     35470    3    0    1
 -2      7386      5918      8725      7328
 -1     35471    3    0    1
 -2      8280      6565      7370      7858
 -1     35472    3    0    1
 -2      4128      4848      3657      3617
 -1     35473    3    0    1
 -2      1989      2546      4217      4224
 -1     35474    3    0    1
 -2      6195      6193      6194      7733
 -1     35475    3    0    1
 -2      4990      5455      4989      4948
 -1     35476    3    0    1
 -2      3773      3739      3164      4263
 -1     35477    3    0    1
 -2      6179      7127      6233      6180
 -1     35478    3    0    1
 -2      6226      6227      6228      6289
 -1     35479    3    0    1
 -2      7999      6801      6881      6803
 -1     35480    3    0    1
 -2      5036      5037      5070      5898
 -1     35481    3    0    1
 -2      8225      8235      7231      7279
 -1     35482    3    0    1
 -2      7130      7169      6183      7129
 -1     35483    3    0    1
 -2      8185      7190      6200      8159
 -1     35484    3    0    1
 -2      4325      4968      5001      4406
 -1     35485    3    0    1
 -2      2544      4215      4232      1982
 -1     35486    3    0    1
 -2      4918      4264      4658      4884
 -1     35487    3    0    1
 -2      8513      7634      7662      9271
 -1     35488    3    0    1
 -2      1728      1729      1047      1781
 -1     35489    3    0    1
 -2      2514      3113      1997      3712
 -1     35490    3    0    1
 -2      3782      1397      1418      2031
 -1     35491    3    0    1
 -2      5574      5071      6519      6579
 -1     35492    3    0    1
 -2      7254      8255      8677      9082
 -1     35493    3    0    1
 -2      1280      1961      1962      2556
 -1     35494    3    0    1
 -2      1359      1358      1305      3139
 -1     35495    3    0    1
 -2      4837      4155      4838      4113
 -1     35496    3    0    1
 -2      4175      3041      4566      4585
 -1     35497    3    0    1
 -2      1673      1797       600      1724
 -1     35498    3    0    1
 -2      2524      3624      3685      2474
 -1     35499    3    0    1
 -2      7444      7446      7445      6757
 -1     35500    3    0    1
 -2      8893      7644      8465      8020
 -1     35501    3    0    1
 -2      3417      2850      3473      3474
 -1     35502    3    0    1
 -2      6949      7642      8892      8462
 -1     35503    3    0    1
 -2      8793      5652      7459      7978
 -1     35504    3    0    1
 -2      8688      7285      6499      8307
 -1     35505    3    0    1
 -2      5113      5681      6004      5099
 -1     35506    3    0    1
 -2      5853      8162      8200      5832
 -1     35507    3    0    1
 -2      3520      4080      3471      2935
 -1     35508    3    0    1
 -2      3357       916      1567      2791
 -1     35509    3    0    1
 -2      1371      1397      4269      2031
 -1     35510    3    0    1
 -2      1306      1994      1995      1308
 -1     35511    3    0    1
 -2      6902      6903      7567      6859
 -1     35512    3    0    1
 -2      6484      6448      7347      7852
 -1     35513    3    0    1
 -2      7181      7128      5849      7169
 -1     35514    3    0    1
 -2      1963      1962      1961      2556
 -1     35515    3    0    1
 -2      3761      2070      2630      3144
 -1     35516    3    0    1
 -2      7046      8081      6089      7068
 -1     35517    3    0    1
 -2      3022      1864       622      3021
 -1     35518    3    0    1
 -2      4390      4742      4697      4979
 -1     35519    3    0    1
 -2      5803      5462      5475      6372
 -1     35520    3    0    1
 -2      1504      1565      1518      2226
 -1     35521    3    0    1
 -2      7294      6416      5502      8243
 -1     35522    3    0    1
 -2      6890      6889      6828      7563
 -1     35523    3    0    1
 -2       906      1502      1485      2200
 -1     35524    3    0    1
 -2      4216      3122      3189      3693
 -1     35525    3    0    1
 -2      7189      8632      6198      9022
 -1     35526    3    0    1
 -2      4005      4455      2950      2854
 -1     35527    3    0    1
 -2      3252      3234      3235      4309
 -1     35528    3    0    1
 -2      2402      3490      1064      2886
 -1     35529    3    0    1
 -2      6813      6815      7558      8398
 -1     35530    3    0    1
 -2      6809      6774      6808      7532
 -1     35531    3    0    1
 -2      3873      4385      3887      4690
 -1     35532    3    0    1
 -2      4890      4599      4600      5688
 -1     35533    3    0    1
 -2      5961      5579      6715      6581
 -1     35534    3    0    1
 -2      3934      2822      1616      1666
 -1     35535    3    0    1
 -2      7344      6478      8295      8318
 -1     35536    3    0    1
 -2      4825      4851      5107      5124
 -1     35537    3    0    1
 -2      1831      3616      2510      1855
 -1     35538    3    0    1
 -2      1078      2872      2912      2335
 -1     35539    3    0    1
 -2      2990      4155      3064      4113
 -1     35540    3    0    1
 -2      2536      3111      3699      4206
 -1     35541    3    0    1
 -2      4928      4265      4658      4918
 -1     35542    3    0    1
 -2       459       854       817      1472
 -1     35543    3    0    1
 -2      4659      4308      3774      3759
 -1     35544    3    0    1
 -2      5989      6758      5987      7411
 -1     35545    3    0    1
 -2      6907      6811      6884      7570
 -1     35546    3    0    1
 -2       280       704       282      1303
 -1     35547    3    0    1
 -2      2866      3998      2392      4433
 -1     35548    3    0    1
 -2      1076      1770      2407      1742
 -1     35549    3    0    1
 -2      1810      1825      3586      2997
 -1     35550    3    0    1
 -2      6812      6815      6813      8398
 -1     35551    3    0    1
 -2      3452      4432      3496      4431
 -1     35552    3    0    1
 -2      6027      7482      7986      6806
 -1     35553    3    0    1
 -2      8239      7273      8681      7827
 -1     35554    3    0    1
 -2      2043      3197      2597      2044
 -1     35555    3    0    1
 -2      5176      5155      5154      5691
 -1     35556    3    0    1
 -2      7602      7025      6986      8466
 -1     35557    3    0    1
 -2      2730      2731      2686      3882
 -1     35558    3    0    1
 -2      8012      6830      6913      8404
 -1     35559    3    0    1
 -2      4539      4866      4881      4538
 -1     35560    3    0    1
 -2      9306      9004      8567      7135
 -1     35561    3    0    1
 -2      3964      3406      2841      1679
 -1     35562    3    0    1
 -2      4002      2374      3438      2373
 -1     35563    3    0    1
 -2      7300      5906      5485      5505
 -1     35564    3    0    1
 -2      9178      9419      6627      9673
 -1     35565    3    0    1
 -2      3874      4692      4726      4387
 -1     35566    3    0    1
 -2      8647      7804      6231      8670
 -1     35567    3    0    1
 -2      8624      8148      7758      6185
 -1     35568    3    0    1
 -2      2911      1122      1123      2409
 -1     35569    3    0    1
 -2      7989      6039      6778      7573
 -1     35570    3    0    1
 -2      2535      1950      1929      3050
 -1     35571    3    0    1
 -2      1653      2917      2900      1708
 -1     35572    3    0    1
 -2      9082      9120      9108      7857
 -1     35573    3    0    1
 -2      2919      3535      2357      9675
 -1     35574    3    0    1
 -2      8160      7776      6276      7146
 -1     35575    3    0    1
 -2      3913       912      3299      3381
 -1     35576    3    0    1
 -2      5953      5502      5503      5283
 -1     35577    3    0    1
 -2      2737      2239      3352      4357
 -1     35578    3    0    1
 -2      2432      3674      3080      1885
 -1     35579    3    0    1
 -2        16        18      1453      1452
 -1     35580    3    0    1
 -2      7665      7050      8500      6945
 -1     35581    3    0    1
 -2      5924      5526      5277      5495
 -1     35582    3    0    1
 -2      4269      1397      1371      1398
 -1     35583    3    0    1
 -2      2402      2390      3993      2886
 -1     35584    3    0    1
 -2      8830      7994      7553      8028
 -1     35585    3    0    1
 -2      8741      7868      7900      6572
 -1     35586    3    0    1
 -2      7251      6329      7228      8234
 -1     35587    3    0    1
 -2      6734      6650      5682      5634
 -1     35588    3    0    1
 -2      7492      6749      5657      8356
 -1     35589    3    0    1
 -2      4315      3226      3734      3190
 -1     35590    3    0    1
 -2      4440      4486      4439      3479
 -1     35591    3    0    1
 -2      8440      7555      6864      7533
 -1     35592    3    0    1
 -2      6134      6167      7116      5450
 -1     35593    3    0    1
 -2      2389      1717      1719      2348
 -1     35594    3    0    1
 -2      8469      7029      8067      8068
 -1     35595    3    0    1
 -2      4137      5120      5119      5090
 -1     35596    3    0    1
 -2      5464      6341      6164      6269
 -1     35597    3    0    1
 -2      5359      5775      5334      5189
 -1     35598    3    0    1
 -2      2734      3343      4352      3323
 -1     35599    3    0    1
 -2      4274      3747      3200      3807
 -1     35600    3    0    1
 -2      5471      7785      8221      6389
 -1     35601    3    0    1
 -2      3303       479      2185      2793
 -1     35602    3    0    1
 -2      6401      6382      6381      7241
 -1     35603    3    0    1
 -2      5436      5455      5227      4757
 -1     35604    3    0    1
 -2      7905      7874      8757      8302
 -1     35605    3    0    1
 -2      2346      4057      3465      1778
 -1     35606    3    0    1
 -2      9065      7186      7819      7257
 -1     35607    3    0    1
 -2      5172      4923      4648      3750
 -1     35608    3    0    1
 -2      2303      3979      3413      1618
 -1     35609    3    0    1
 -2      2780      2205      1528      1529
 -1     35610    3    0    1
 -2      3226      1392      2626      2058
 -1     35611    3    0    1
 -2      8485      8911      8076      7005
 -1     35612    3    0    1
 -2      8412      7540      6800      6878
 -1     35613    3    0    1
 -2      2067      2068      2620      2584
 -1     35614    3    0    1
 -2      9011      9026      8143      8608
 -1     35615    3    0    1
 -2      9608      9366      9615      9671
 -1     35616    3    0    1
 -2      7442      9162      7443      8394
 -1     35617    3    0    1
 -2       890       947      1582      2745
 -1     35618    3    0    1
 -2      5898      6392      7314      7315
 -1     35619    3    0    1
 -2      4063      2871      3435      2367
 -1     35620    3    0    1
 -2       762      2667      2135      1447
 -1     35621    3    0    1
 -2      1993      1992      3089      4205
 -1     35622    3    0    1
 -2      2501      1207       668      1921
 -1     35623    3    0    1
 -2      7224      8224      7822      8223
 -1     35624    3    0    1
 -2      9536      8529      9283      9504
 -1     35625    3    0    1
 -2      5491      5944      5490      5275
 -1     35626    3    0    1
 -2      1668      2745      1582       947
 -1     35627    3    0    1
 -2      6515      6574      6513      6514
 -1     35628    3    0    1
 -2      5399      6154      6174      6222
 -1     35629    3    0    1
 -2      6049      5692      5177      5208
 -1     35630    3    0    1
 -2      6404      7284      8246      7246
 -1     35631    3    0    1
 -2      5015      4426      4786      4020
 -1     35632    3    0    1
 -2      8121      6170      8170      9024
 -1     35633    3    0    1
 -2      3871      2712      3335      2187
 -1     35634    3    0    1
 -2      1821      2440      3613      1830
 -1     35635    3    0    1
 -2      5085      5104      5297      5635
 -1     35636    3    0    1
 -2      5259      7338      5910      5493
 -1     35637    3    0    1
 -2      3957      2306      2283      2315
 -1     35638    3    0    1
 -2      3738      1270      2009      3700
 -1     35639    3    0    1
 -2      4453      4499      4454      3422
 -1     35640    3    0    1
 -2      7256      6498      6344      8229
 -1     35641    3    0    1
 -2      1397      3819      3217      1398
 -1     35642    3    0    1
 -2      3763      4666      4318      3783
 -1     35643    3    0    1
 -2      5315      4829      4828      5126
 -1     35644    3    0    1
 -2      5152      4927      4601      5191
 -1     35645    3    0    1
 -2      3139      2040      3138      3736
 -1     35646    3    0    1
 -2      1329      3130      1328      1979
 -1     35647    3    0    1
 -2      5342      4918      4928      5341
 -1     35648    3    0    1
 -2      6416      7294      7279      8243
 -1     35649    3    0    1
 -2      3736      3832      4290      4656
 -1     35650    3    0    1
 -2      2266      3329      2178      2737
 -1     35651    3    0    1
 -2      8442      6870      5694      7536
 -1     35652    3    0    1
 -2      4903      5159      5716      5196
 -1     35653    3    0    1
 -2      1982      3681      3064      1898
 -1     35654    3    0    1
 -2      1725      1726      3430      2354
 -1     35655    3    0    1
 -2      2930      3619      4100      3564
 -1     35656    3    0    1
 -2      4698      3909      4391      4735
 -1     35657    3    0    1
 -2      6602      6622      5991      6720
 -1     35658    3    0    1
 -2      8853      8039      7575      8443
 -1     35659    3    0    1
 -2      3168      4285      4623      4676
 -1     35660    3    0    1
 -2      5446      5376      6242      7792
 -1     35661    3    0    1
 -2      5399      5400      5237      5458
 -1     35662    3    0    1
 -2      3032      4163      3633      3031
 -1     35663    3    0    1
 -2      4380      4381      2793      3882
 -1     35664    3    0    1
 -2      6803      6881      7999      6802
 -1     35665    3    0    1
 -2      1772      1053      1792      1749
 -1     35666    3    0    1
 -2      1530      2249       850      3320
 -1     35667    3    0    1
 -2      7463      8832      8413      6754
 -1     35668    3    0    1
 -2      1078      1123      2912      2911
 -1     35669    3    0    1
 -2      3599      4506      4520      4535
 -1     35670    3    0    1
 -2       917      1567      2791      1490
 -1     35671    3    0    1
 -2      4339      4698      4340      4953
 -1     35672    3    0    1
 -2      3937      2744      2278      2824
 -1     35673    3    0    1
 -2      5532      7314      5915      5898
 -1     35674    3    0    1
 -2      4170      3561      3622      3562
 -1     35675    3    0    1
 -2      7158      6179      8147      6234
 -1     35676    3    0    1
 -2      7428      5972      6628      6608
 -1     35677    3    0    1
 -2      1823      1184      1858      2456
 -1     35678    3    0    1
 -2      5432      4968      5001      4325
 -1     35679    3    0    1
 -2      5232      4726      4692      4975
 -1     35680    3    0    1
 -2      7981      6672      9147      8796
 -1     35681    3    0    1
 -2      5501      6521      5512      7873
 -1     35682    3    0    1
 -2      8379      8424      7499      7475
 -1     35683    3    0    1
 -2      3042      4152      3577      3041
 -1     35684    3    0    1
 -2      2780      2248      3312      3918
 -1     35685    3    0    1
 -2      7257      6311      6310      8214
 -1     35686    3    0    1
 -2      4569      4869      4522      3642
 -1     35687    3    0    1
 -2      5897      7313      6513      5253
 -1     35688    3    0    1
 -2      2141      3250      3229      3208
 -1     35689    3    0    1
 -2      3718      4203      3717      2551
 -1     35690    3    0    1
 -2      3139      2008      3111      3699
 -1     35691    3    0    1
 -2      7946      7443      8394      7519
 -1     35692    3    0    1
 -2      1739      2393      3522      1740
 -1     35693    3    0    1
 -2      6500      7303      7330      8728
 -1     35694    3    0    1
 -2      7781      5378      7773      7139
 -1     35695    3    0    1
 -2      6285      6245      7190      8183
 -1     35696    3    0    1
 -2      8158      7211      6284      7811
 -1     35697    3    0    1
 -2       501       479       939      1595
 -1     35698    3    0    1
 -2      3338      3339      3927      3903
 -1     35699    3    0    1
 -2      5028      5029      5552      5494
 -1     35700    3    0    1
 -2      6278      8147      7779      6233
 -1     35701    3    0    1
 -2      1079      1078      3480      2409
 -1     35702    3    0    1
 -2      5613      5307      5665      6707
 -1     35703    3    0    1
 -2      4172      4161      4545      4527
 -1     35704    3    0    1
 -2      5963      7964      7910      8342
 -1     35705    3    0    1
 -2      6947      6902      6948      7583
 -1     35706    3    0    1
 -2      3708      1342      3232      3755
 -1     35707    3    0    1
 -2      3539      3453      3501      4025
 -1     35708    3    0    1
 -2      8906      9263      8072      8905
 -1     35709    3    0    1
 -2      4362      3887      4385      4690
 -1     35710    3    0    1
 -2      9254      8895      8520      9506
 -1     35711    3    0    1
 -2      3639      2988      2989      4167
 -1     35712    3    0    1
 -2      8482      8481      6936      6938
 -1     35713    3    0    1
 -2      6188      5841      7791      6189
 -1     35714    3    0    1
 -2      1511       838       859      1545
 -1     35715    3    0    1
 -2      6647      5601      5981      6010
 -1     35716    3    0    1
 -2      4476      5277      4487      5278
 -1     35717    3    0    1
 -2      8238      6407      5490      7335
 -1     35718    3    0    1
 -2      7469      7451      6676      8371
 -1     35719    3    0    1
 -2      2742      3386       979      3364
 -1     35720    3    0    1
 -2      8356      7547      7492      9187
 -1     35721    3    0    1
 -2      8720      7839      6530      6456
 -1     35722    3    0    1
 -2      6145      7117      7712      6143
 -1     35723    3    0    1
 -2      7860      8314      6501      7388
 -1     35724    3    0    1
 -2      4848      4570      3657      3617
 -1     35725    3    0    1
 -2      3226      2059      2058      2626
 -1     35726    3    0    1
 -2      4743      4395      4396      4354
 -1     35727    3    0    1
 -2      4629      3146      4270      2623
 -1     35728    3    0    1
 -2      4774      5052      5509      5248
 -1     35729    3    0    1
 -2      1412      1355      2006      3225
 -1     35730    3    0    1
 -2      4220      3652      3105      1970
 -1     35731    3    0    1
 -2      4000      2370      2873      3524
 -1     35732    3    0    1
 -2      5375      5815      5445      4951
 -1     35733    3    0    1
 -2      1369       760      2042      1312
 -1     35734    3    0    1
 -2      9381      9116      7837      7872
 -1     35735    3    0    1
 -2      8096      8952      7096      9282
 -1     35736    3    0    1
 -2      4329      4696      4697      3908
 -1     35737    3    0    1
 -2      4498      3545      3557      4054
 -1     35738    3    0    1
 -2      4334      4369      4341      2757
 -1     35739    3    0    1
 -2      5720      6097      5737      5203
 -1     35740    3    0    1
 -2      5773      5199      5702      6069
 -1     35741    3    0    1
 -2      4272      3745      4271      4295
 -1     35742    3    0    1
 -2      4430      4024      3472      4081
 -1     35743    3    0    1
 -2      6619      7364      6637      9671
 -1     35744    3    0    1
 -2      3345      3894      2257      1500
 -1     35745    3    0    1
 -2      3996      1732      1731      2404
 -1     35746    3    0    1
 -2      4434      4435      3499      4484
 -1     35747    3    0    1
 -2      2600      2559       338      1283
 -1     35748    3    0    1
 -2      3678      3044      1979      2530
 -1     35749    3    0    1
 -2      3368      2280      2827      1620
 -1     35750    3    0    1
 -2       715      3199      1321      1377
 -1     35751    3    0    1
 -2      5834      5832      6261      7153
 -1     35752    3    0    1
 -2      7541      8818      9160      5957
 -1     35753    3    0    1
 -2      4181      3030      4516      4556
 -1     35754    3    0    1
 -2      3127      3714      3725      2031
 -1     35755    3    0    1
 -2      1591       964      1608      2764
 -1     35756    3    0    1
 -2      8166      9336      9047      8176
 -1     35757    3    0    1
 -2      8287      7391      8286      8734
 -1     35758    3    0    1
 -2      3522      2393      1739      2890
 -1     35759    3    0    1
 -2      8129      8128      9325      7119
 -1     35760    3    0    1
 -2      1235      1236       638      3017
 -1     35761    3    0    1
 -2       107        70       833       832
 -1     35762    3    0    1
 -2      6798      6797      5607      7530
 -1     35763    3    0    1
 -2      3474      2937      3472      4090
 -1     35764    3    0    1
 -2      2277      3935      1581      2294
 -1     35765    3    0    1
 -2      6067      6066      5772      6068
 -1     35766    3    0    1
 -2      5169      5168      5190      4943
 -1     35767    3    0    1
 -2      5455      8218      6320      6319
 -1     35768    3    0    1
 -2      6649      7462      5607      6769
 -1     35769    3    0    1
 -2      7510      7463      8413      6754
 -1     35770    3    0    1
 -2      8398      6815      7558      8000
 -1     35771    3    0    1
 -2       612      1815      1800      2974
 -1     35772    3    0    1
 -2      2018      2035      3747      1322
 -1     35773    3    0    1
 -2      5136      5308      4855      4837
 -1     35774    3    0    1
 -2      6906      6809      6808      7532
 -1     35775    3    0    1
 -2      8701      9108      9360      7857
 -1     35776    3    0    1
 -2      3858      3269      2761      2703
 -1     35777    3    0    1
 -2      5793      7706      6138      9672
 -1     35778    3    0    1
 -2      9121      8726      6498      7894
 -1     35779    3    0    1
 -2      6023      5635      5085      5666
 -1     35780    3    0    1
 -2      7775      7769      7143      9672
 -1     35781    3    0    1
 -2      2602      3729      4299      2601
 -1     35782    3    0    1
 -2      6248      7214      7783      7145
 -1     35783    3    0    1
 -2      4737      4744      4321      4342
 -1     35784    3    0    1
 -2      5928      5896      5568      5076
 -1     35785    3    0    1
 -2      6684      7421      6683      6685
 -1     35786    3    0    1
 -2      8339      6656      7445      6757
 -1     35787    3    0    1
 -2      5331      4895      4916      5156
 -1     35788    3    0    1
 -2      8691      8248      7821      7260
 -1     35789    3    0    1
 -2      2311      3976      3441      2325
 -1     35790    3    0    1
 -2      7243      7190      6200      8185
 -1     35791    3    0    1
 -2      3967      2324      1647      3410
 -1     35792    3    0    1
 -2      2816      3356      1594      2741
 -1     35793    3    0    1
 -2      5363      7013      6105      5759
 -1     35794    3    0    1
 -2      1679      1609      2841      2811
 -1     35795    3    0    1
 -2      1955      1931      1245      1956
 -1     35796    3    0    1
 -2      3849      3369      2234      2693
 -1     35797    3    0    1
 -2      8310      9362      8751      7838
 -1     35798    3    0    1
 -2      8289      8736      7377      7339
 -1     35799    3    0    1
 -2      3091      3109      2004      4188
 -1     35800    3    0    1
 -2      4165      4508      3062      3651
 -1     35801    3    0    1
 -2      7563      6889      6828      8423
 -1     35802    3    0    1
 -2      6186      8156      6187      7208
 -1     35803    3    0    1
 -2      5740      8061      7074      7683
 -1     35804    3    0    1
 -2      7414      6636      6716      6745
 -1     35805    3    0    1
 -2      3319      3318      2687      3917
 -1     35806    3    0    1
 -2      2706      3292      1558      3375
 -1     35807    3    0    1
 -2      7696      7112      6128      6126
 -1     35808    3    0    1
 -2      1984      1985      2508      1945
 -1     35809    3    0    1
 -2      3118      3088      4233      1988
 -1     35810    3    0    1
 -2      7532      6809      7485      8366
 -1     35811    3    0    1
 -2      3044      2501      2986      4127
 -1     35812    3    0    1
 -2      7881      9095      6434      7265
 -1     35813    3    0    1
 -2      9126      7378      5924      7936
 -1     35814    3    0    1
 -2      6380      8209      6379      6340
 -1     35815    3    0    1
 -2      8391      8427      6852      7975
 -1     35816    3    0    1
 -2      8768      6571      7341      6570
 -1     35817    3    0    1
 -2      5920      5891      5892      5890
 -1     35818    3    0    1
 -2      5663      8407      7502      6791
 -1     35819    3    0    1
 -2      6741      8394      7443      6740
 -1     35820    3    0    1
 -2      7868      8741      7312      5936
 -1     35821    3    0    1
 -2       669      1208      1130      2987
 -1     35822    3    0    1
 -2      1982      1983      2544      1944
 -1     35823    3    0    1
 -2      1827      2429      1815      3593
 -1     35824    3    0    1
 -2      1694       996      2347      2328
 -1     35825    3    0    1
 -2      7165      8151      8161      6211
 -1     35826    3    0    1
 -2      3477      1738      1739      2890
 -1     35827    3    0    1
 -2      7499      7956      8379      6729
 -1     35828    3    0    1
 -2      2219      3303      3361      2202
 -1     35829    3    0    1
 -2      4375      4343      4989      4948
 -1     35830    3    0    1
 -2      7343      8739      7899      6474
 -1     35831    3    0    1
 -2      4462      4461      5040      4781
 -1     35832    3    0    1
 -2      2406      1791      1070      3476
 -1     35833    3    0    1
 -2      9238      9478      8865      8049
 -1     35834    3    0    1
 -2      7590      6885      6048      8037
 -1     35835    3    0    1
 -2      3992      2349      2857      1718
 -1     35836    3    0    1
 -2      8007      8054      8891      9211
 -1     35837    3    0    1
 -2      8646      8235      7802      9059
 -1     35838    3    0    1
 -2      1943      3639      3683      1922
 -1     35839    3    0    1
 -2      3580      1856      1155      3581
 -1     35840    3    0    1
 -2      8157      6196      7210      8618
 -1     35841    3    0    1
 -2      7286      6352      5871      5506
 -1     35842    3    0    1
 -2      5949      5526      5277      5924
 -1     35843    3    0    1
 -2      3575       614      3556      3603
 -1     35844    3    0    1
 -2      9017      8168      7779      6161
 -1     35845    3    0    1
 -2      1906      1863      2524      3624
 -1     35846    3    0    1
 -2      4690      4385      4734      4972
 -1     35847    3    0    1
 -2      8652      7823      7261      7219
 -1     35848    3    0    1
 -2      5459      4719      4959      4750
 -1     35849    3    0    1
 -2      4016      2887      2860      4471
 -1     35850    3    0    1
 -2      8274      8722      8312      7855
 -1     35851    3    0    1
 -2      9143      8792      6618      9414
 -1     35852    3    0    1
 -2      1654      2301      2777      1576
 -1     35853    3    0    1
 -2      6866      6815      6813      6814
 -1     35854    3    0    1
 -2      6416      7279      7348      8243
 -1     35855    3    0    1
 -2      7255      6345      6344      8229
 -1     35856    3    0    1
 -2      2887      1002      1798      1725
 -1     35857    3    0    1
 -2       578      1052      1053      1030
 -1     35858    3    0    1
 -2      4558      4173      4852      4877
 -1     35859    3    0    1
 -2      3841      3765      3130      2667
 -1     35860    3    0    1
 -2      5865      5864      7290      7289
 -1     35861    3    0    1
 -2      7353      5950      6594      9670
 -1     35862    3    0    1
 -2      7383      6555      6524      6451
 -1     35863    3    0    1
 -2      4869      4542      4522      4883
 -1     35864    3    0    1
 -2      3485      1760      2383      2901
 -1     35865    3    0    1
 -2      2933      3566      3006      4101
 -1     35866    3    0    1
 -2      4808      4475      5547      5022
 -1     35867    3    0    1
 -2      5150      4651      5763      5338
 -1     35868    3    0    1
 -2      8149      8185      6201      8159
 -1     35869    3    0    1
 -2      9136      7930      8755      9123
 -1     35870    3    0    1
 -2      3937      1668      3445      2838
 -1     35871    3    0    1
 -2      7243      5418      5793      7761
 -1     35872    3    0    1
 -2      4962      4389      4945      4976
 -1     35873    3    0    1
 -2      3872      4719      3871      4338
 -1     35874    3    0    1
 -2      8231      8651      6356      7272
 -1     35875    3    0    1
 -2      7153      7752      8201      8610
 -1     35876    3    0    1
 -2      7783      6249      6248      7145
 -1     35877    3    0    1
 -2      3024      2479      1870      3587
 -1     35878    3    0    1
 -2      4711      4956      4992      4376
 -1     35879    3    0    1
 -2      7531      6709      6771      6756
 -1     35880    3    0    1
 -2      2637      3823      2605      2110
 -1     35881    3    0    1
 -2      2670      4302      3791      3259
 -1     35882    3    0    1
 -2      4682      5351      5738      5346
 -1     35883    3    0    1
 -2      6793      7565      6896      6895
 -1     35884    3    0    1
 -2       473        31       435       436
 -1     35885    3    0    1
 -2      3415      3471      4080      2935
 -1     35886    3    0    1
 -2      6379      8209      6339      6340
 -1     35887    3    0    1
 -2      7090      7637      7686      8092
 -1     35888    3    0    1
 -2      5182      5199      5205      4662
 -1     35889    3    0    1
 -2      4690      4349      4385      5231
 -1     35890    3    0    1
 -2      8494      8919      7632      6073
 -1     35891    3    0    1
 -2       567      1076       568      1802
 -1     35892    3    0    1
 -2      7316      6519      8298      8764
 -1     35893    3    0    1
 -2      5297      5085      5635      5666
 -1     35894    3    0    1
 -2      3833      3230      3163      3753
 -1     35895    3    0    1
 -2       989       987       533       988
 -1     35896    3    0    1
 -2      5663      5632      6731      7453
 -1     35897    3    0    1
 -2      4332      4368      3855      4701
 -1     35898    3    0    1
 -2      4798      4767      5018      5258
 -1     35899    3    0    1
 -2      4821      4574      4841      4850
 -1     35900    3    0    1
 -2      7296      6337      6417      7265
 -1     35901    3    0    1
 -2      8033      6097      5720      6922
 -1     35902    3    0    1
 -2      5657      5320      5590      5124
 -1     35903    3    0    1
 -2      7773      7139      8618      7781
 -1     35904    3    0    1
 -2      1066      1788      1766      1767
 -1     35905    3    0    1
 -2      7187      6166      7734      9005
 -1     35906    3    0    1
 -2      8935      8922      8501      6947
 -1     35907    3    0    1
 -2      5918      6560      7328      7386
 -1     35908    3    0    1
 -2      2498      2433      4149      2448
 -1     35909    3    0    1
 -2      4451      4479      4498      4450
 -1     35910    3    0    1
 -2      2366      2852      4062      2942
 -1     35911    3    0    1
 -2      4036      4035      3505      4447
 -1     35912    3    0    1
 -2      5058      5494      5565      5552
 -1     35913    3    0    1
 -2      4745      4987      4371      4709
 -1     35914    3    0    1
 -2      3724      2567      3126      3712
 -1     35915    3    0    1
 -2       814        89       404      2166
 -1     35916    3    0    1
 -2      2744      3393      3937      1668
 -1     35917    3    0    1
 -2      3414      4426      4020      2934
 -1     35918    3    0    1
 -2      6070      7101      5773      6069
 -1     35919    3    0    1
 -2      6423      5889      7303      5888
 -1     35920    3    0    1
 -2      6819      6871      6820      8432
 -1     35921    3    0    1
 -2      4733      4384      3319      4348
 -1     35922    3    0    1
 -2      6790      5663      6791      6789
 -1     35923    3    0    1
 -2      8793      7459      5961      8365
 -1     35924    3    0    1
 -2      3952      3392      1655      2777
 -1     35925    3    0    1
 -2      5029      5494      5058      5552
 -1     35926    3    0    1
 -2      3127      1314      1315      2031
 -1     35927    3    0    1
 -2      5138      5312      4512      4848
 -1     35928    3    0    1
 -2      6484      6553      6552      8302
 -1     35929    3    0    1
 -2      8508      6113      7649      8071
 -1     35930    3    0    1
 -2      3182      3118      3751      2039
 -1     35931    3    0    1
 -2      4084      4446      4487      3504
 -1     35932    3    0    1
 -2      4381      2793      3303      4380
 -1     35933    3    0    1
 -2      8152      5829      6218      6215
 -1     35934    3    0    1
 -2      5607      6649      5606      5648
 -1     35935    3    0    1
 -2      2852      4800      4438      4062
 -1     35936    3    0    1
 -2       899       898       856      2696
 -1     35937    3    0    1
 -2      7860      6501      6536      7388
 -1     35938    3    0    1
 -2       370       371       772      2151
 -1     35939    3    0    1
 -2      7844      5890      5892      6462
 -1     35940    3    0    1
 -2      5891      5920      7372      8282
 -1     35941    3    0    1
 -2      6418      8253      7252      6399
 -1     35942    3    0    1
 -2       724       756      2114      1335
 -1     35943    3    0    1
 -2      3139      3138      3832      3736
 -1     35944    3    0    1
 -2      5776      5756      5335      4932
 -1     35945    3    0    1
 -2      6361      7823      7219      6360
 -1     35946    3    0    1
 -2      5455      5227      4757      4948
 -1     35947    3    0    1
 -2      2746      3344      4328      2748
 -1     35948    3    0    1
 -2      3876      3347      2752      3853
 -1     35949    3    0    1
 -2      1932       650      1246      3073
 -1     35950    3    0    1
 -2      3298       866      1488      2708
 -1     35951    3    0    1
 -2      4860      5118      4859      5088
 -1     35952    3    0    1
 -2      6577      6576      7904      7918
 -1     35953    3    0    1
 -2      8725      7891      6560      7328
 -1     35954    3    0    1
 -2      5988      5989      7447      8341
 -1     35955    3    0    1
 -2      7459      8793      7978      8417
 -1     35956    3    0    1
 -2      7563      8444      6889      8423
 -1     35957    3    0    1
 -2      3104      3738      2009      3700
 -1     35958    3    0    1
 -2      4954      4699      5377      5416
 -1     35959    3    0    1
 -2      2696       856       899      2697
 -1     35960    3    0    1
 -2      1534      3343      2782      3323
 -1     35961    3    0    1
 -2      3205      3179      3718      2037
 -1     35962    3    0    1
 -2      6186      8156      7731      7161
 -1     35963    3    0    1
 -2      9061      9062      9580      9317
 -1     35964    3    0    1
 -2      3489      4420      4011      4797
 -1     35965    3    0    1
 -2      4343      4990      4989      4948
 -1     35966    3    0    1
 -2      5145      5104      5085      6023
 -1     35967    3    0    1
 -2      7317      7251      8698      8234
 -1     35968    3    0    1
 -2      5825      5824      5823      6284
 -1     35969    3    0    1
 -2      6803      8017      8414      6856
 -1     35970    3    0    1
 -2      4472      5045      4016      4471
 -1     35971    3    0    1
 -2      8051      7582      7013      5330
 -1     35972    3    0    1
 -2      6018      6713      6017      6016
 -1     35973    3    0    1
 -2      5103      5610      5649      5683
 -1     35974    3    0    1
 -2      5671      5118      4860      5088
 -1     35975    3    0    1
 -2      4535      4520      3599      4561
 -1     35976    3    0    1
 -2      5078      5579      5309      5580
 -1     35977    3    0    1
 -2      7826      5486      5918      8677
 -1     35978    3    0    1
 -2      8769      8364      8365      7412
 -1     35979    3    0    1
 -2      4363      2745      2690      4327
 -1     35980    3    0    1
 -2      2623      3197      4629      2096
 -1     35981    3    0    1
 -2      9109      7861      7833      9371
 -1     35982    3    0    1
 -2      5552      5565      6543      5494
 -1     35983    3    0    1
 -2      4271      5205      4295      4678
 -1     35984    3    0    1
 -2      5675      5647      5971      7476
 -1     35985    3    0    1
 -2      5322      4827      4862      5646
 -1     35986    3    0    1
 -2      3731      4248      3151      2083
 -1     35987    3    0    1
 -2      5792      5381      5212      5467
 -1     35988    3    0    1
 -2      8475      6959      6960      8476
 -1     35989    3    0    1
 -2       838       837       424       859
 -1     35990    3    0    1
 -2      4715      5217      4966      4716
 -1     35991    3    0    1
 -2      5938      5504      5480      5479
 -1     35992    3    0    1
 -2      5947      6730      5598      6646
 -1     35993    3    0    1
 -2      3283      3350      3284      2211
 -1     35994    3    0    1
 -2      4959      5459      5438      5474
 -1     35995    3    0    1
 -2      9150      5970      8802      7915
 -1     35996    3    0    1
 -2      3523      4814      4092      4485
 -1     35997    3    0    1
 -2      7079      7078      5751      7614
 -1     35998    3    0    1
 -2      6462      6536      7844      7860
 -1     35999    3    0    1
 -2      7397      7437      9158      5986
 -1     36000    3    0    1
 -2      6602      5906      7300      5917
 -1     36001    3    0    1
 -2      3719      3812      2052      2573
 -1     36002    3    0    1
 -2      1479      3307      2192      2203
 -1     36003    3    0    1
 -2      7259      8188      7215      6316
 -1     36004    3    0    1
 -2      3361      3303      2219      3902
 -1     36005    3    0    1
 -2      3857      2728      2175      3261
 -1     36006    3    0    1
 -2      8509      8483      7613      7654
 -1     36007    3    0    1
 -2      2207      3365      3888      3889
 -1     36008    3    0    1
 -2       622      1134      1810      3022
 -1     36009    3    0    1
 -2      2311      3976      3950      3949
 -1     36010    3    0    1
 -2      1738      1016      1015      3453
 -1     36011    3    0    1
 -2      5680      5128      5129      5082
 -1     36012    3    0    1
 -2      5728      5704      5206      5329
 -1     36013    3    0    1
 -2      1948      3685      3693      3706
 -1     36014    3    0    1
 -2      7499      5674      6729      7475
 -1     36015    3    0    1
 -2      7247      8248      7848      6426
 -1     36016    3    0    1
 -2      4370      4738      3911      4335
 -1     36017    3    0    1
 -2      5901      5930      6548      7382
 -1     36018    3    0    1
 -2      1236       638       268      1235
 -1     36019    3    0    1
 -2      6905      6772      6030      7996
 -1     36020    3    0    1
 -2       952       951      2281      2304
 -1     36021    3    0    1
 -2      4275      4636      3174      4932
 -1     36022    3    0    1
 -2      7657      7044      8078      7043
 -1     36023    3    0    1
 -2      4827      4517      5293      5629
 -1     36024    3    0    1
 -2      1731      1068      1097      1732
 -1     36025    3    0    1
 -2      5057      5050      5026      4439
 -1     36026    3    0    1
 -2      8803      9152      6687      8377
 -1     36027    3    0    1
 -2      7330      7351      7371      7387
 -1     36028    3    0    1
 -2      8687      8264      7269      7268
 -1     36029    3    0    1
 -2      5821      5820      5822      6283
 -1     36030    3    0    1
 -2      1996      2540      1964      1311
 -1     36031    3    0    1
 -2      5569      5497      5508      5260
 -1     36032    3    0    1
 -2      5683      5649      5103      4866
 -1     36033    3    0    1
 -2      5918      6560      6496      7328
 -1     36034    3    0    1
 -2      7471      6642      9165      8801
 -1     36035    3    0    1
 -2      3232      3233      4307      3835
 -1     36036    3    0    1
 -2      8314      7389      6501      7388
 -1     36037    3    0    1
 -2      6698      8380      7501      6697
 -1     36038    3    0    1
 -2      8339      7444      6757      7446
 -1     36039    3    0    1
 -2      6448      6552      6484      6447
 -1     36040    3    0    1
 -2      2318      1634      2287      3962
 -1     36041    3    0    1
 -2       561      1699      2941      3452
 -1     36042    3    0    1
 -2      5542      5543      6500      5888
 -1     36043    3    0    1
 -2      8212      6346      6404      7246
 -1     36044    3    0    1
 -2      2900      2917      3509      4794
 -1     36045    3    0    1
 -2      1254      1973      3675      1887
 -1     36046    3    0    1
 -2      4503      5262      5054      4794
 -1     36047    3    0    1
 -2      6689      6001      7425      6002
 -1     36048    3    0    1
 -2      1683      3437      2842      1682
 -1     36049    3    0    1
 -2      7577      7615      7552      7564
 -1     36050    3    0    1
 -2      6704      6770      7507      6705
 -1     36051    3    0    1
 -2      3648       650      1246      3029
 -1     36052    3    0    1
 -2      2457      1238      1158      3018
 -1     36053    3    0    1
 -2      6538      7333      7862      8285
 -1     36054    3    0    1
 -2      3957      3431      2306      2315
 -1     36055    3    0    1
 -2      5666      5297      5085      5636
 -1     36056    3    0    1
 -2      3976      2311      3441      3423
 -1     36057    3    0    1
 -2      6903      7625      6075      6948
 -1     36058    3    0    1
 -2      1923      1943      1262      1922
 -1     36059    3    0    1
 -2      6220      7815      8198      7152
 -1     36060    3    0    1
 -2      3675      3081      1887      1973
 -1     36061    3    0    1
 -2      3741      3802      1400      2615
 -1     36062    3    0    1
 -2      4184      2436      3653      1893
 -1     36063    3    0    1
 -2      1408       726      1351      2126
 -1     36064    3    0    1
 -2      4851      4181      5124      4876
 -1     36065    3    0    1
 -2      3088      2533      3657      1926
 -1     36066    3    0    1
 -2      4465      4464      5041      4795
 -1     36067    3    0    1
 -2      5268      5499      5060      5511
 -1     36068    3    0    1
 -2      4732      4325      5001      4406
 -1     36069    3    0    1
 -2      6242      6165      5807      7163
 -1     36070    3    0    1
 -2      5488      6403      6383      7284
 -1     36071    3    0    1
 -2      6231      6266      5477      7236
 -1     36072    3    0    1
 -2       763      2137      2112      1387
 -1     36073    3    0    1
 -2      5467      5792      8630      7782
 -1     36074    3    0    1
 -2      5513      6521      5937      5282
 -1     36075    3    0    1
 -2      6233      6278      7127      6179
 -1     36076    3    0    1
 -2      2149      2140      3207      3249
 -1     36077    3    0    1
 -2      2755       875       874      1547
 -1     36078    3    0    1
 -2      5692      6049      5767      5208
 -1     36079    3    0    1
 -2      5406      5405      5238      5477
 -1     36080    3    0    1
 -2      2792      2793      2730      1595
 -1     36081    3    0    1
 -2      5094      5658      5968      5292
 -1     36082    3    0    1
 -2      7477      6696      8380      8346
 -1     36083    3    0    1
 -2      6710      6756      6709      7436
 -1     36084    3    0    1
 -2      9135      7928      7927      8781
 -1     36085    3    0    1
 -2      3244      2670      3791      2137
 -1     36086    3    0    1
 -2      7556      7602      7570      7544
 -1     36087    3    0    1
 -2      5727      5754      6085      5701
 -1     36088    3    0    1
 -2       351       386       764      1448
 -1     36089    3    0    1
 -2      3807      3200      2633      2134
 -1     36090    3    0    1
 -2      7186      7819      6270      9065
 -1     36091    3    0    1
 -2      6330      6331      6395      7264
 -1     36092    3    0    1
 -2      7426      7425      8784      6689
 -1     36093    3    0    1
 -2      1769      4026      3999      1740
 -1     36094    3    0    1
 -2      4987      5389      4708      4709
 -1     36095    3    0    1
 -2       763      2137      1387      1348
 -1     36096    3    0    1
 -2      3613      4157      2507      2440
 -1     36097    3    0    1
 -2      5468      5418      5793      9672
 -1     36098    3    0    1
 -2      4963      4330      4755      5378
 -1     36099    3    0    1
 -2      6912      6888      8433      7548
 -1     36100    3    0    1
 -2      1104      1750      1751      1773
 -1     36101    3    0    1
 -2       570      1139      1100      2893
 -1     36102    3    0    1
 -2      7651      7036      8480      8026
 -1     36103    3    0    1
 -2      4062      2852      4061      2942
 -1     36104    3    0    1
 -2      2566      3780      3724      9668
 -1     36105    3    0    1
 -2      3519      2355      1766      1767
 -1     36106    3    0    1
 -2      9523      9546      8983      9499
 -1     36107    3    0    1
 -2      7218      5845      6253      6172
 -1     36108    3    0    1
 -2      7791      8613      6188      6189
 -1     36109    3    0    1
 -2      8499      8051      6979      7624
 -1     36110    3    0    1
 -2      2855      2955      3560      2902
 -1     36111    3    0    1
 -2      4833      5131      5295      4834
 -1     36112    3    0    1
 -2      4325      5477      5432      5238
 -1     36113    3    0    1
 -2      2328      4009      4413      2903
 -1     36114    3    0    1
 -2      8258      9090      8250      7249
 -1     36115    3    0    1
 -2      7842      5485      7268      7300
 -1     36116    3    0    1
 -2      1425      1426       785      1406
 -1     36117    3    0    1
 -2      1292      3132      1332      2552
 -1     36118    3    0    1
 -2      4856      5298      5667      4838
 -1     36119    3    0    1
 -2      8412      7540      6878      7566
 -1     36120    3    0    1
 -2      2478      4139      3053      2426
 -1     36121    3    0    1
 -2      4635      4634      4274      3747
 -1     36122    3    0    1
 -2      2913      3407      1683      1685
 -1     36123    3    0    1
 -2      3791      3205      2670      3259
 -1     36124    3    0    1
 -2      4085      4064      4809      4447
 -1     36125    3    0    1
 -2      7274      8249      8693      7248
 -1     36126    3    0    1
 -2      3519      2355      1767      2356
 -1     36127    3    0    1
 -2      6057      5757      6973      5336
 -1     36128    3    0    1
 -2      6374      6416      6415      7279
 -1     36129    3    0    1
 -2      1375      2078      2077      1345
 -1     36130    3    0    1
 -2      1616      1056       511      2339
 -1     36131    3    0    1
 -2      4619      3762      4284      4620
 -1     36132    3    0    1
 -2      6348      6404      6346      7246
 -1     36133    3    0    1
 -2      3142      2063      3817      4242
 -1     36134    3    0    1
 -2      4330      4754      4393      4963
 -1     36135    3    0    1
 -2      6012      6701      6011      6013
 -1     36136    3    0    1
 -2      1115      3565      2933      3024
 -1     36137    3    0    1
 -2      3785      3170      4626      3820
 -1     36138    3    0    1
 -2      5233      5791      6133      6197
 -1     36139    3    0    1
 -2      6337      7296      8260      7265
 -1     36140    3    0    1
 -2      3824      2648      3789      2125
 -1     36141    3    0    1
 -2      3610      2466      3679      2420
 -1     36142    3    0    1
 -2      3203      3766      4280      3202
 -1     36143    3    0    1
 -2      7087      7646      8090      8102
 -1     36144    3    0    1
 -2      8185      6201      6200      8149
 -1     36145    3    0    1
 -2       686       685      1205       261
 -1     36146    3    0    1
 -2      3004      2959      3018      4096
 -1     36147    3    0    1
 -2      1072      1073      2393      3477
 -1     36148    3    0    1
 -2      7511      9206      7463      6755
 -1     36149    3    0    1
 -2      9152      6687      6645      8803
 -1     36150    3    0    1
 -2      4487      4476      5031      4033
 -1     36151    3    0    1
 -2      1592       964       863      2239
 -1     36152    3    0    1
 -2      4166      4834      4833      3575
 -1     36153    3    0    1
 -2      6749      6680      5657      8356
 -1     36154    3    0    1
 -2      7004      7594      5699      6065
 -1     36155    3    0    1
 -2      7180      8657      7789      6295
 -1     36156    3    0    1
 -2      1478      3303      2185      2202
 -1     36157    3    0    1
 -2      3621      4549      4833      3575
 -1     36158    3    0    1
 -2      6891      6830      6832      8404
 -1     36159    3    0    1
 -2      4744      4737      4756      4342
 -1     36160    3    0    1
 -2      4162      4875      4514      4824
 -1     36161    3    0    1
 -2      3334      4402      4361      3302
 -1     36162    3    0    1
 -2      7439      6738      6026      6025
 -1     36163    3    0    1
 -2      6648      5676      7504      6751
 -1     36164    3    0    1
 -2      4634      4274      3747      3200
 -1     36165    3    0    1
 -2      5362      6095      6096      5759
 -1     36166    3    0    1
 -2      2042      3166      3711      2029
 -1     36167    3    0    1
 -2      8022      6908      7571      8441
 -1     36168    3    0    1
 -2      4060      4785      4425      4018
 -1     36169    3    0    1
 -2      5445      5816      5815      5375
 -1     36170    3    0    1
 -2      4585      5317      5084      5144
 -1     36171    3    0    1
 -2      5387      5794      6171      5388
 -1     36172    3    0    1
 -2      7495      8376      8375      8335
 -1     36173    3    0    1
 -2      1631      2298      2808      3397
 -1     36174    3    0    1
 -2      8319      6576      6546      7904
 -1     36175    3    0    1
 -2      1985      4203      2551      1984
 -1     36176    3    0    1
 -2      7203      7252      8657      6295
 -1     36177    3    0    1
 -2      8251      7277      7822      8223
 -1     36178    3    0    1
 -2      4520      5599      5304      5095
 -1     36179    3    0    1
 -2      4624      4625      4938      4931
 -1     36180    3    0    1
 -2      8500      8499      6979      7624
 -1     36181    3    0    1
 -2      9266      7658      6917      7618
 -1     36182    3    0    1
 -2      4359      4714      4400      4360
 -1     36183    3    0    1
 -2      3477      1739      2393      2890
 -1     36184    3    0    1
 -2       201      2338      1039      2345
 -1     36185    3    0    1
 -2      6032      6031      6033      6864
 -1     36186    3    0    1
 -2      8827      8423      6826      7526
 -1     36187    3    0    1
 -2      7995      8351      7942      7439
 -1     36188    3    0    1
 -2      4952      4735      4981      5446
 -1     36189    3    0    1
 -2      6923      8430      8453      6862
 -1     36190    3    0    1
 -2      8342      6663      5963      7467
 -1     36191    3    0    1
 -2      6687      6645      6688      7932
 -1     36192    3    0    1
 -2      7050      8032      8501      7665
 -1     36193    3    0    1
 -2      4145      3596      2430      2446
 -1     36194    3    0    1
 -2      5374      5787      4694      5239
 -1     36195    3    0    1
 -2      7831      8236      8244      8674
 -1     36196    3    0    1
 -2      5382      4946      5224      5383
 -1     36197    3    0    1
 -2      1078      1079      3480      1745
 -1     36198    3    0    1
 -2      2777      2844      2301      3952
 -1     36199    3    0    1
 -2      6427      7261      7307      6429
 -1     36200    3    0    1
 -2      6202      5828      7164      5827
 -1     36201    3    0    1
 -2      7205      7805      9045      6238
 -1     36202    3    0    1
 -2      7311      8739      7343      6474
 -1     36203    3    0    1
 -2      1419      2121      3168      2568
 -1     36204    3    0    1
 -2      8626      7818      7253      7206
 -1     36205    3    0    1
 -2      6523      6555      6485      6451
 -1     36206    3    0    1
 -2      6618      5960      8792      9143
 -1     36207    3    0    1
 -2      2175       903      2757      1550
 -1     36208    3    0    1
 -2      6254      6210      6211      6209
 -1     36209    3    0    1
 -2      5253      5571      5570      5261
 -1     36210    3    0    1
 -2      4135      2475      1835      2425
 -1     36211    3    0    1
 -2      1315      1314       710      1343
 -1     36212    3    0    1
 -2      6233      7127      7779      6180
 -1     36213    3    0    1
 -2      7284      5488      5908      7859
 -1     36214    3    0    1
 -2      3696      2496      4231      1967
 -1     36215    3    0    1
 -2      4284      3762      3782      4675
 -1     36216    3    0    1
 -2      5030      5031      4476      4033
 -1     36217    3    0    1
 -2      2852      1049      3478      2942
 -1     36218    3    0    1
 -2      6767      8384      6768      7506
 -1     36219    3    0    1
 -2      7987      6668      6670      7416
 -1     36220    3    0    1
 -2      6647      5600      5601      6010
 -1     36221    3    0    1
 -2      1063      2349      1780      1718
 -1     36222    3    0    1
 -2      6330      7175      5854      7799
 -1     36223    3    0    1
 -2      2083      2636      4248      2084
 -1     36224    3    0    1
 -2      8733      9151      7915      8762
 -1     36225    3    0    1
 -2      4476      4487      4488      4033
 -1     36226    3    0    1
 -2      6423      8690      7832      7257
 -1     36227    3    0    1
 -2      1660      1008      1046      1661
 -1     36228    3    0    1
 -2      8812      7972      8410      7530
 -1     36229    3    0    1
 -2      8624      7758      8175      7182
 -1     36230    3    0    1
 -2      6429      7261      6361      6360
 -1     36231    3    0    1
 -2      3407      2913      4064      4447
 -1     36232    3    0    1
 -2      4381      3303      2793      3360
 -1     36233    3    0    1
 -2      6404      6347      6403      7246
 -1     36234    3    0    1
 -2      6383      6403      6347      7246
 -1     36235    3    0    1
 -2      4293      4937      4665      3778
 -1     36236    3    0    1
 -2      5081      4845      4164      4560
 -1     36237    3    0    1
 -2      5760      7013      6105      5363
 -1     36238    3    0    1
 -2      2911      3480      1078      2409
 -1     36239    3    0    1
 -2      8687      8263      9081      7300
 -1     36240    3    0    1
 -2      4344      3866      4714      3925
 -1     36241    3    0    1
 -2      1698       986       591      1735
 -1     36242    3    0    1
 -2      4757      4989      5455      4948
 -1     36243    3    0    1
 -2      3614      3615      3067      1901
 -1     36244    3    0    1
 -2      2555      3735      4256      4257
 -1     36245    3    0    1
 -2       933       932       467       903
 -1     36246    3    0    1
 -2      5743      4927      4940      5191
 -1     36247    3    0    1
 -2      3739      4941      3194      4608
 -1     36248    3    0    1
 -2       338      2600       717      2045
 -1     36249    3    0    1
 -2      3341      2714      2713      1575
 -1     36250    3    0    1
 -2      1207      1979      3044      2530
 -1     36251    3    0    1
 -2      7652      8929      8908      8909
 -1     36252    3    0    1
 -2      3899      3929      2267      3375
 -1     36253    3    0    1
 -2      5845      7218      7220      6360
 -1     36254    3    0    1
 -2      3029      3056      3648      4162
 -1     36255    3    0    1
 -2      1342      1273      1274      3708
 -1     36256    3    0    1
 -2      4535      3599      3035      4561
 -1     36257    3    0    1
 -2      8276      9105      7856      8766
 -1     36258    3    0    1
 -2      3029       650      1135      3588
 -1     36259    3    0    1
 -2      2503      3680      4154      1922
 -1     36260    3    0    1
 -2      3126      3113      4195      3712
 -1     36261    3    0    1
 -2      3276       816       835      1482
 -1     36262    3    0    1
 -2      8004      6891      6832      8404
 -1     36263    3    0    1
 -2      5575      5937      6521      5282
 -1     36264    3    0    1
 -2      9271      7662      8537      6120
 -1     36265    3    0    1
 -2      3013      3040      3084      1920
 -1     36266    3    0    1
 -2      6316      5856      7259      5855
 -1     36267    3    0    1
 -2      3533      4011      4051      4805
 -1     36268    3    0    1
 -2      6584      9399      8766      9105
 -1     36269    3    0    1
 -2      6933      6932      6934      7036
 -1     36270    3    0    1
 -2      8885      7631      7613      8932
 -1     36271    3    0    1
 -2      8635      7820      7795      6250
 -1     36272    3    0    1
 -2      2231      2263      2809      1552
 -1     36273    3    0    1
 -2      2197       428       862      2702
 -1     36274    3    0    1
 -2      1647      3459      3410      2337
 -1     36275    3    0    1
 -2      7645      6986      6930      7024
 -1     36276    3    0    1
 -2      4690      4385      4362      4734
 -1     36277    3    0    1
 -2      3829      3828      1407      2609
 -1     36278    3    0    1
 -2      8384      7506      7462      6769
 -1     36279    3    0    1
 -2      5060      5071      5268      4815
 -1     36280    3    0    1
 -2      5052      5279      4479      4498
 -1     36281    3    0    1
 -2      2336       989      1688      1645
 -1     36282    3    0    1
 -2      1502       907      1556      2238
 -1     36283    3    0    1
 -2      2858      3534      3468      2905
 -1     36284    3    0    1
 -2      1119      1118       591      1735
 -1     36285    3    0    1
 -2      1187      1837      1813      2427
 -1     36286    3    0    1
 -2      8375      7423      5996      8335
 -1     36287    3    0    1
 -2      8651      7243      7812      9051
 -1     36288    3    0    1
 -2      7727      8603      7728      5783
 -1     36289    3    0    1
 -2      3186      4283      2652      3185
 -1     36290    3    0    1
 -2      5206      5755      5728      4686
 -1     36291    3    0    1
 -2      7411      7447      5989      8341
 -1     36292    3    0    1
 -2      7541      8428      8834      5668
 -1     36293    3    0    1
 -2      2732      3875      3846      2733
 -1     36294    3    0    1
 -2      8316      8736      7377      8289
 -1     36295    3    0    1
 -2      3017      3046      1235      3659
 -1     36296    3    0    1
 -2      8618      6196      7210      7781
 -1     36297    3    0    1
 -2       925      3310      3364      2247
 -1     36298    3    0    1
 -2      6639      7451      5627      5678
 -1     36299    3    0    1
 -2      8342      8368      7413      7467
 -1     36300    3    0    1
 -2      1614      1596      2818      2292
 -1     36301    3    0    1
 -2      2911      1079      1122      2409
 -1     36302    3    0    1
 -2      8372      7470      6680      8356
 -1     36303    3    0    1
 -2      7047      8082      8511      7659
 -1     36304    3    0    1
 -2      1726      1766      2355      1767
 -1     36305    3    0    1
 -2      1967      2014      1318      2013
 -1     36306    3    0    1
 -2      8238      6406      6407      7272
 -1     36307    3    0    1
 -2      1375      1420       712      1345
 -1     36308    3    0    1
 -2      6886      5692      6049      8003
 -1     36309    3    0    1
 -2      2690      1531       890      2745
 -1     36310    3    0    1
 -2      3004      3531      3532      4096
 -1     36311    3    0    1
 -2      8364      6661      6660      7447
 -1     36312    3    0    1
 -2      7605      6061      6048      8037
 -1     36313    3    0    1
 -2      6775      6031      6032      7533
 -1     36314    3    0    1
 -2      1654      2301      1655      2777
 -1     36315    3    0    1
 -2      2577      3136      2091      2092
 -1     36316    3    0    1
 -2      7444      7445      6714      6757
 -1     36317    3    0    1
 -2      4516      3030      3570      4556
 -1     36318    3    0    1
 -2      2090      1407      3828      2609
 -1     36319    3    0    1
 -2      3183      3182      3133      3810
 -1     36320    3    0    1
 -2      8616      8152      7222      6218
 -1     36321    3    0    1
 -2      1750      1751      1773      2410
 -1     36322    3    0    1
 -2      1158      1809      2457      3584
 -1     36323    3    0    1
 -2      4959      4719      5459      5401
 -1     36324    3    0    1
 -2      4043      2878      1756      3461
 -1     36325    3    0    1
 -2      4968      4761      5001      4406
 -1     36326    3    0    1
 -2      5666      5635      5297      5986
 -1     36327    3    0    1
 -2      7145      7783      7144      9024
 -1     36328    3    0    1
 -2      6671      6719      7966      8778
 -1     36329    3    0    1
 -2      4035      3407      3505      4447
 -1     36330    3    0    1
 -2       206       234       233      1784
 -1     36331    3    0    1
 -2      6295      7789      7180      5443
 -1     36332    3    0    1
 -2      1532      1523      1498      1524
 -1     36333    3    0    1
 -2      7261      7823      7307      6361
 -1     36334    3    0    1
 -2      4785      4060      4501      4018
 -1     36335    3    0    1
 -2      4219      3697      2541      3715
 -1     36336    3    0    1
 -2      1721      1765      2351      1723
 -1     36337    3    0    1
 -2      1783      1706      3527      1086
 -1     36338    3    0    1
 -2      2368      1077      1100      2893
 -1     36339    3    0    1
 -2      7860      6501      6462      6536
 -1     36340    3    0    1
 -2      7620      8511      8494      6972
 -1     36341    3    0    1
 -2      5696      6045      6823      7575
 -1     36342    3    0    1
 -2      4343      4375      4757      4948
 -1     36343    3    0    1
 -2      1809      1158      1110      3584
 -1     36344    3    0    1
 -2      1226       258       664      2465
 -1     36345    3    0    1
 -2      6587      5588      5967      6749
 -1     36346    3    0    1
 -2      8067      8469      8068      8899
 -1     36347    3    0    1
 -2      1123      1078      1079      2911
 -1     36348    3    0    1
 -2      8221      5873      5471      6389
 -1     36349    3    0    1
 -2      5537      5062      6488      5482
 -1     36350    3    0    1
 -2      6920      7633      5706      6919
 -1     36351    3    0    1
 -2      1583      3344      2746      2748
 -1     36352    3    0    1
 -2      7335      8238      6407      7272
 -1     36353    3    0    1
 -2      3954       994      3443      1666
 -1     36354    3    0    1
 -2       963       934      2763      3373
 -1     36355    3    0    1
 -2      7769      6168      7143      9672
 -1     36356    3    0    1
 -2      9428      8781      9135      9174
 -1     36357    3    0    1
 -2      3790      3177      2649      3825
 -1     36358    3    0    1
 -2      8250      5498      6411      7312
 -1     36359    3    0    1
 -2      6507      6506      5524      5027
 -1     36360    3    0    1
 -2      2608      1407      2090      2609
 -1     36361    3    0    1
 -2      3483      1130      1783      2951
 -1     36362    3    0    1
 -2      8147      7127      6278      6179
 -1     36363    3    0    1
 -2      7852      7347      6552      8302
 -1     36364    3    0    1
 -2      6525      6557      5516      7356
 -1     36365    3    0    1
 -2       680       650       244      3029
 -1     36366    3    0    1
 -2      9601      9630      9440      9407
 -1     36367    3    0    1
 -2      2778      2776       978      2775
 -1     36368    3    0    1
 -2      1923      3639      1943      1922
 -1     36369    3    0    1
 -2      8438      6923      6882      6862
 -1     36370    3    0    1
 -2      3609      1175      1152      1895
 -1     36371    3    0    1
 -2      8342      7413      6663      7467
 -1     36372    3    0    1
 -2      7237      7206      7253      6300
 -1     36373    3    0    1
 -2      7180      6162      5443      6235
 -1     36374    3    0    1
 -2      1876      2490      2489      3076
 -1     36375    3    0    1
 -2      2248      3312      1528      2780
 -1     36376    3    0    1
 -2      6082      6953      7061      7606
 -1     36377    3    0    1
 -2      8314      6501      7389      8706
 -1     36378    3    0    1
 -2      3734      3226      2058      3190
 -1     36379    3    0    1
 -2      5313      6717      6020      5581
 -1     36380    3    0    1
 -2      4686      5185      5206      4634
 -1     36381    3    0    1
 -2      3728      4221      3698      3106
 -1     36382    3    0    1
 -2      5393      5455      5227      5436
 -1     36383    3    0    1
 -2      8064      7026      7028      8897
 -1     36384    3    0    1
 -2      4791      3458      3506      4040
 -1     36385    3    0    1
 -2      6071      8448      6898      5704
 -1     36386    3    0    1
 -2      6514      6478      6479      8295
 -1     36387    3    0    1
 -2      7811      7735      8182      5823
 -1     36388    3    0    1
 -2      5726      5771      7066      6065
 -1     36389    3    0    1
 -2      4843      4529      5094      5125
 -1     36390    3    0    1
 -2      6406      6407      5490      8238
 -1     36391    3    0    1
 -2      8730      7387      7330      8728
 -1     36392    3    0    1
 -2      1680      2368      1077      1743
 -1     36393    3    0    1
 -2      6696      6695      6765      6697
 -1     36394    3    0    1
 -2      1124      2944      3505      1683
 -1     36395    3    0    1
 -2      1744      1122      1079      1745
 -1     36396    3    0    1
 -2      2534      1948      3122      3706
 -1     36397    3    0    1
 -2      1754      1756      1755      2878
 -1     36398    3    0    1
 -2      7207      9018      7731      8156
 -1     36399    3    0    1
 -2      4851      4825      5320      5124
 -1     36400    3    0    1
 -2      2345      3462      3510      4046
 -1     36401    3    0    1
 -2      1635      3985      3963      3945
 -1     36402    3    0    1
 -2       990       991      1648      1706
 -1     36403    3    0    1
 -2      4827      4862      4534      4517
 -1     36404    3    0    1
 -2      7789      7180      5443      6235
 -1     36405    3    0    1
 -2      6299      7818      7253      6421
 -1     36406    3    0    1
 -2      7532      5652      7978      8417
 -1     36407    3    0    1
 -2      9255      8879      8870      9484
 -1     36408    3    0    1
 -2      5365      5364      5777      5209
 -1     36409    3    0    1
 -2      6384      6313      6385      7258
 -1     36410    3    0    1
 -2      3658      2423      1857      4130
 -1     36411    3    0    1
 -2      7367      7358      6601      5905
 -1     36412    3    0    1
 -2      6832      6830      6785      8404
 -1     36413    3    0    1
 -2      6162      5443      6235      5231
 -1     36414    3    0    1
 -2      6714      7946      8395      7520
 -1     36415    3    0    1
 -2      8636      9069      7218      8652
 -1     36416    3    0    1
 -2      6133      5791      7700      6197
 -1     36417    3    0    1
 -2      2277      3935      3936      1581
 -1     36418    3    0    1
 -2      4981      4340      4391      4952
 -1     36419    3    0    1
 -2       650       680      1246      3029
 -1     36420    3    0    1
 -2        88       488       945      2250
 -1     36421    3    0    1
 -2      4229      1958      3701      3094
 -1     36422    3    0    1
 -2      6991      6909      5693      8460
 -1     36423    3    0    1
 -2      5320      4825      4851      5590
 -1     36424    3    0    1
 -2      3057      1193      1875      3592
 -1     36425    3    0    1
 -2      2864      1732      1731      3996
 -1     36426    3    0    1
 -2      4572      4849      4523      3623
 -1     36427    3    0    1
 -2      2207      2208      1524      3889
 -1     36428    3    0    1
 -2      6627      6608      6648      9673
 -1     36429    3    0    1
 -2      5680      5128      5082      4832
 -1     36430    3    0    1
 -2      8026      8480      7651      8479
 -1     36431    3    0    1
 -2      5647      5599      5598      5095
 -1     36432    3    0    1
 -2      9164      9436      7893      9415
 -1     36433    3    0    1
 -2      4349      4385      3873      4690
 -1     36434    3    0    1
 -2      7050      8032      8500      6944
 -1     36435    3    0    1
 -2      4269      3819      1397      1398
 -1     36436    3    0    1
 -2      5044      5484      5010      5011
 -1     36437    3    0    1
 -2      6446      6552      6483      7399
 -1     36438    3    0    1
 -2      1018       528      1049      1017
 -1     36439    3    0    1
 -2      5332      6911      6997      5348
 -1     36440    3    0    1
 -2        85        86       416       813
 -1     36441    3    0    1
 -2      8342      7413      8368      8330
 -1     36442    3    0    1
 -2      1941      3035      1200      1881
 -1     36443    3    0    1
 -2      1986      1292      2002      1987
 -1     36444    3    0    1
 -2      7206      7818      7253      6300
 -1     36445    3    0    1
 -2      4128      4848      4570      3657
 -1     36446    3    0    1
 -2      2818      3949      2773      1596
 -1     36447    3    0    1
 -2      1268       733       703      2058
 -1     36448    3    0    1
 -2      3339      3927      3340      4404
 -1     36449    3    0    1
 -2      2599      2633      3200      1378
 -1     36450    3    0    1
 -2      8205      6230      6229      7766
 -1     36451    3    0    1
 -2      3892      2256      2693      2692
 -1     36452    3    0    1
 -2      8538      8085      7664      6105
 -1     36453    3    0    1
 -2      6923      6882      6862      6807
 -1     36454    3    0    1
 -2      6576      8319      7869      7904
 -1     36455    3    0    1
 -2      8347      7454      8381      7478
 -1     36456    3    0    1
 -2      1291      1290      2048      1983
 -1     36457    3    0    1
 -2      8431      8823      6780      8420
 -1     36458    3    0    1
 -2      4871      4820      5623      5105
 -1     36459    3    0    1
 -2      6731      5632      5663      5602
 -1     36460    3    0    1
 -2      5105      5623      4871      5653
 -1     36461    3    0    1
 -2      8899      7606      8469      8898
 -1     36462    3    0    1
 -2      6608      6648      5972      5603
 -1     36463    3    0    1
 -2      2562      3130      1347      1979
 -1     36464    3    0    1
 -2      3430      3518      4017      1726
 -1     36465    3    0    1
 -2      8156      7731      7207      6186
 -1     36466    3    0    1
 -2      2630      2107      2070      3761
 -1     36467    3    0    1
 -2      9179      7959      8383      7461
 -1     36468    3    0    1
 -2      5063      5906      5485      5012
 -1     36469    3    0    1
 -2      3549      3462      3511      4046
 -1     36470    3    0    1
 -2      6645      6687      4829      5594
 -1     36471    3    0    1
 -2      4854      4835      4583      4584
 -1     36472    3    0    1
 -2      7658      6917      8914      9266
 -1     36473    3    0    1
 -2       638      1184       639      1859
 -1     36474    3    0    1
 -2      7925      7981      9147      8779
 -1     36475    3    0    1
 -2      2758      3285      2175      2196
 -1     36476    3    0    1
 -2      6273      8186      7164      6202
 -1     36477    3    0    1
 -2      9189      9202      7992      7949
 -1     36478    3    0    1
 -2      9246      9537      9265      8531
 -1     36479    3    0    1
 -2      8829      8809      7504      9193
 -1     36480    3    0    1
 -2      2604      2635      3764      1381
 -1     36481    3    0    1
 -2      6307      7809      8169      7255
 -1     36482    3    0    1
 -2      3225      2654      3813      3189
 -1     36483    3    0    1
 -2      6202      8186      7164      6203
 -1     36484    3    0    1
 -2      7540      8449      9210      8030
 -1     36485    3    0    1
 -2      6434      6417      6336      7265
 -1     36486    3    0    1
 -2      3276       835      1536      1482
 -1     36487    3    0    1
 -2      3247      2610      3184      4251
 -1     36488    3    0    1
 -2      4611      4942      4674      5179
 -1     36489    3    0    1
 -2      4168      5115      4840      4587
 -1     36490    3    0    1
 -2      4155      4586      3064      4177
 -1     36491    3    0    1
 -2      6441      7334      5490      5944
 -1     36492    3    0    1
 -2      3364       982       925      2247
 -1     36493    3    0    1
 -2      4149      4150      2433      2498
 -1     36494    3    0    1
 -2      9087      7863      7259      7306
 -1     36495    3    0    1
 -2       616       669      1208      1130
 -1     36496    3    0    1
 -2      2071      2072      3217      1398
 -1     36497    3    0    1
 -2      5291      4823      4576      5140
 -1     36498    3    0    1
 -2      7550      8862      8875      7576
 -1     36499    3    0    1
 -2      7487      6034      5654      7545
 -1     36500    3    0    1
 -2      1141       582       633      1153
 -1     36501    3    0    1
 -2      7532      8008      6809      8366
 -1     36502    3    0    1
 -2       531       162      2875      1711
 -1     36503    3    0    1
 -2      3631      4529      4530      2972
 -1     36504    3    0    1
 -2      9407      9440      9168      7429
 -1     36505    3    0    1
 -2      4249      4667      4688      3789
 -1     36506    3    0    1
 -2      2195       873       875      1513
 -1     36507    3    0    1
 -2      8432      6910      6820      7547
 -1     36508    3    0    1
 -2      3418      3419      3497      2889
 -1     36509    3    0    1
 -2      5432      5238      5406      4325
 -1     36510    3    0    1
 -2      4361      4402      4758      4337
 -1     36511    3    0    1
 -2      8162      8199      5832      7751
 -1     36512    3    0    1
 -2      4897      4608      4896      5712
 -1     36513    3    0    1
 -2      2352      1797      3491      1673
 -1     36514    3    0    1
 -2      3603      3621      3575      3675
 -1     36515    3    0    1
 -2      6483      6552      6446      6447
 -1     36516    3    0    1
 -2      5749      4937      4660      5357
 -1     36517    3    0    1
 -2      3746      3172      4632      4296
 -1     36518    3    0    1
 -2      6362      5495      6319      6409
 -1     36519    3    0    1
 -2      7507      8387      6734      6703
 -1     36520    3    0    1
 -2      7936      7406      6731      5602
 -1     36521    3    0    1
 -2      7766      8204      8203      7157
 -1     36522    3    0    1
 -2      2697      2257       899      2696
 -1     36523    3    0    1
 -2      1531      1600       890       947
 -1     36524    3    0    1
 -2      6244      7211      8619      7782
 -1     36525    3    0    1
 -2       862       450       878       904
 -1     36526    3    0    1
 -2      4714      4359      4965      4360
 -1     36527    3    0    1
 -2       518       136       519      2386
 -1     36528    3    0    1
 -2      3123      1958      2526      3094
 -1     36529    3    0    1
 -2      6858      8437      8428      7567
 -1     36530    3    0    1
 -2      8255      6402      7254      8677
 -1     36531    3    0    1
 -2      3705      3188      3187      4652
 -1     36532    3    0    1
 -2      8392      8788      8390      7975
 -1     36533    3    0    1
 -2      2743      2250       945      2781
 -1     36534    3    0    1
 -2      1963      1962      1875      3058
 -1     36535    3    0    1
 -2      1645      1688      1644      2299
 -1     36536    3    0    1
 -2      3153      2607      4282      3749
 -1     36537    3    0    1
 -2      4246      3147      3173      2081
 -1     36538    3    0    1
 -2      5015      4426      5016      4786
 -1     36539    3    0    1
 -2      2426      4139      3053      4138
 -1     36540    3    0    1
 -2      2836      3975      1688      2299
 -1     36541    3    0    1
 -2      2111      4645      2625      3825
 -1     36542    3    0    1
 -2      4518      5081      4845      4164
 -1     36543    3    0    1
 -2      7161      6239      6186      5373
 -1     36544    3    0    1
 -2      2947      4152      4110      2946
 -1     36545    3    0    1
 -2      7335      6441      8238      8733
 -1     36546    3    0    1
 -2      5988      6758      5989      8341
 -1     36547    3    0    1
 -2      3133      3182      3183      1333
 -1     36548    3    0    1
 -2      5791      5790      7699      5809
 -1     36549    3    0    1
 -2      3818      2630      2072      3144
 -1     36550    3    0    1
 -2      6935      6998      6889      8444
 -1     36551    3    0    1
 -2      5111      5138      5618      4512
 -1     36552    3    0    1
 -2       432       451        57       410
 -1     36553    3    0    1
 -2      2855      2955      1055      3486
 -1     36554    3    0    1
 -2      2883      3467      1717      2348
 -1     36555    3    0    1
 -2      8048      8916      6071      7007
 -1     36556    3    0    1
 -2      2022      4232      4215      1982
 -1     36557    3    0    1
 -2      2105      2066      2067      4243
 -1     36558    3    0    1
 -2      3700      2525      3027      1955
 -1     36559    3    0    1
 -2      3347      2752      3895      3876
 -1     36560    3    0    1
 -2      5718      6085      5754      5701
 -1     36561    3    0    1
 -2      5160      4905      5350      5700
 -1     36562    3    0    1
 -2      6717      6020      6009      7965
 -1     36563    3    0    1
 -2      5566      5058      5494      5565
 -1     36564    3    0    1
 -2      7227      5832      5853      8200
 -1     36565    3    0    1
 -2      7205      7206      7237      6300
 -1     36566    3    0    1
 -2      7249      8222      8665      6323
 -1     36567    3    0    1
 -2      7541      8834      8429      7517
 -1     36568    3    0    1
 -2      2200      3290      2199      3328
 -1     36569    3    0    1
 -2      3035      3010      4506      4535
 -1     36570    3    0    1
 -2      6299      7253      7818      6300
 -1     36571    3    0    1
 -2      3188      3705      3121      3134
 -1     36572    3    0    1
 -2      6701      8347      7454      7455
 -1     36573    3    0    1
 -2      5671      6747      5990      5314
 -1     36574    3    0    1
 -2      2984      4846      4125      4564
 -1     36575    3    0    1
 -2      1417      2067      2068      2620
 -1     36576    3    0    1
 -2      9034      9337      8649      9048
 -1     36577    3    0    1
 -2      7257      6310      7271      8214
 -1     36578    3    0    1
 -2      5670      6020      5624      5313
 -1     36579    3    0    1
 -2      6299      7253      7283      6421
 -1     36580    3    0    1
 -2      5377      6193      7114      7732
 -1     36581    3    0    1
 -2      5598      5599      5647      5971
 -1     36582    3    0    1
 -2      8761      7886      9134      9397
 -1     36583    3    0    1
 -2      1980      1943      1262      1923
 -1     36584    3    0    1
 -2      5064      4060      5014      5530
 -1     36585    3    0    1
 -2      7186      6311      6309      7257
 -1     36586    3    0    1
 -2      3537      1710      1120      3498
 -1     36587    3    0    1
 -2      7326      5906      7368      6458
 -1     36588    3    0    1
 -2      2373      3438      4038      1747
 -1     36589    3    0    1
 -2      4185      1856      3622      1992
 -1     36590    3    0    1
 -2      9214      7556      8454      7544
 -1     36591    3    0    1
 -2      8633      8149      7761      9023
 -1     36592    3    0    1
 -2      4457      5513      4779      4069
 -1     36593    3    0    1
 -2      8012      6786      6830      8404
 -1     36594    3    0    1
 -2      1141      1207      2986      3610
 -1     36595    3    0    1
 -2      6009      6745      6636      8794
 -1     36596    3    0    1
 -2      4695      4727      3919      2693
 -1     36597    3    0    1
 -2      6643      7460      8357      7526
 -1     36598    3    0    1
 -2      6948      8437      6947      7583
 -1     36599    3    0    1
 -2      7218      8191      6253      7220
 -1     36600    3    0    1
 -2      1729      1728      2358      2360
 -1     36601    3    0    1
 -2      4501      4785      4018      2888
 -1     36602    3    0    1
 -2      1420       778       712      1440
 -1     36603    3    0    1
 -2      3934      1527      3318      1666
 -1     36604    3    0    1
 -2      7367      6602      7300      5917
 -1     36605    3    0    1
 -2      8387      7507      6705      6703
 -1     36606    3    0    1
 -2      5216      5215      4957      4712
 -1     36607    3    0    1
 -2      3472      3474      4090      4081
 -1     36608    3    0    1
 -2      4922      4688      4668      4641
 -1     36609    3    0    1
 -2      1956      1955      2010      3700
 -1     36610    3    0    1
 -2      5156      5178      5733      5693
 -1     36611    3    0    1
 -2      5936      7312      7868      6510
 -1     36612    3    0    1
 -2      5257      5014      4060      5530
 -1     36613    3    0    1
 -2      3472      3417      3474      4024
 -1     36614    3    0    1
 -2      2895      3526      3556      1051
 -1     36615    3    0    1
 -2      8045      8913      8486      8078
 -1     36616    3    0    1
 -2      6780      8823      8400      8420
 -1     36617    3    0    1
 -2      1770      2870      2367      1743
 -1     36618    3    0    1
 -2      3094      4229      1958      3665
 -1     36619    3    0    1
 -2      1692      1055      1041      2855
 -1     36620    3    0    1
 -2      4283      3185      4651      4289
 -1     36621    3    0    1
 -2      8630      8619      7782      8606
 -1     36622    3    0    1
 -2      2900      4055      2917      4794
 -1     36623    3    0    1
 -2      6870      7562      5694      7536
 -1     36624    3    0    1
 -2      4734      4385      4362      4972
 -1     36625    3    0    1
 -2      5694      7562      6994      8024
 -1     36626    3    0    1
 -2       773       707       758      2142
 -1     36627    3    0    1
 -2      3675      3603      3038      1887
 -1     36628    3    0    1
 -2      2666      3200      3807      2134
 -1     36629    3    0    1
 -2      4485      4814      5057      4486
 -1     36630    3    0    1
 -2      7279      6371      6374      8226
 -1     36631    3    0    1
 -2      5369      6162      5783      5368
 -1     36632    3    0    1
 -2      5292      5658      5968      5302
 -1     36633    3    0    1
 -2      4292      4309      3235      3775
 -1     36634    3    0    1
 -2      9407      9127      9115      7429
 -1     36635    3    0    1
 -2      8258      9090      7877      7354
 -1     36636    3    0    1
 -2      1819      3603      3063      1887
 -1     36637    3    0    1
 -2      9045      8625      8626      7205
 -1     36638    3    0    1
 -2      4344      4714      4997      4400
 -1     36639    3    0    1
 -2      8432      6819      6821      7547
 -1     36640    3    0    1
 -2      7351      7371      6500      7330
 -1     36641    3    0    1
 -2      3596      2978      1150      3634
 -1     36642    3    0    1
 -2      2059      2060      2618      4240
 -1     36643    3    0    1
 -2      3684      3018      3019      4188
 -1     36644    3    0    1
 -2      4560      3033      4164      4559
 -1     36645    3    0    1
 -2      9456      7950      8815      9471
 -1     36646    3    0    1
 -2      1755      1754      2877      2411
 -1     36647    3    0    1
 -2      7243      7812      6356      8651
 -1     36648    3    0    1
 -2      7220      8652      7261      6360
 -1     36649    3    0    1
 -2      1329      1347      3130      1979
 -1     36650    3    0    1
 -2      4499      4093      4454      2948
 -1     36651    3    0    1
 -2      9265      8531      7657      6085
 -1     36652    3    0    1
 -2      6622      6720      5655      5642
 -1     36653    3    0    1
 -2      4468      3490      4012      4483
 -1     36654    3    0    1
 -2      7986      6742      6027      6806
 -1     36655    3    0    1
 -2      6373      8243      8226      7279
 -1     36656    3    0    1
 -2      3724      4268      3780      2566
 -1     36657    3    0    1
 -2      8450      8877      8866      8005
 -1     36658    3    0    1
 -2      4170      3622      3581      3562
 -1     36659    3    0    1
 -2      3170      3239      3784      3820
 -1     36660    3    0    1
 -2      9057      9029      9325      8129
 -1     36661    3    0    1
 -2      6762      6748      7990      8343
 -1     36662    3    0    1
 -2      5520      6492      5933      5269
 -1     36663    3    0    1
 -2      5444      6239      5373      5412
 -1     36664    3    0    1
 -2      6071      8492      8448      5704
 -1     36665    3    0    1
 -2      6242      5414      5807      5446
 -1     36666    3    0    1
 -2      6700      7478      7454      6699
 -1     36667    3    0    1
 -2      6705      7507      6704      6703
 -1     36668    3    0    1
 -2      7567      8429      8834      7517
 -1     36669    3    0    1
 -2      1824      1862      1834      2443
 -1     36670    3    0    1
 -2      2342      1609      2841      1679
 -1     36671    3    0    1
 -2      2533      3657      1926      1232
 -1     36672    3    0    1
 -2      2501      3003      2949      4127
 -1     36673    3    0    1
 -2      5301      4824      4875      5679
 -1     36674    3    0    1
 -2      6117      6085      6102      5754
 -1     36675    3    0    1
 -2      7532      7485      6773      8366
 -1     36676    3    0    1
 -2      6142      7192      7741      5844
 -1     36677    3    0    1
 -2      1551       960      1588      1589
 -1     36678    3    0    1
 -2      7302      8279      8280      8313
 -1     36679    3    0    1
 -2      7053      5761      6075      7085
 -1     36680    3    0    1
 -2      2745      2744      3393      3937
 -1     36681    3    0    1
 -2      6858      7567      8428      6857
 -1     36682    3    0    1
 -2      6826      5646      6829      7496
 -1     36683    3    0    1
 -2      9052      9051      9038      9340
 -1     36684    3    0    1
 -2      3570      4516      4556      4825
 -1     36685    3    0    1
 -2      7815      5848      6220      8198
 -1     36686    3    0    1
 -2      1223      1193      1875      3057
 -1     36687    3    0    1
 -2      6570      8292      7379      5925
 -1     36688    3    0    1
 -2      7587      8055      8849      8440
 -1     36689    3    0    1
 -2       491        93       492       928
 -1     36690    3    0    1
 -2      1006       555      1066      1675
 -1     36691    3    0    1
 -2      3807      4274      3747      4287
 -1     36692    3    0    1
 -2      4666      5349      4622      4676
 -1     36693    3    0    1
 -2      4967      4361      4758      4337
 -1     36694    3    0    1
 -2      9192      9405      7936      9167
 -1     36695    3    0    1
 -2      8355      9185      9463      8353
 -1     36696    3    0    1
 -2      7805      8626      7237      6238
 -1     36697    3    0    1
 -2      4391      4698      4735      4953
 -1     36698    3    0    1
 -2      7552      7615      9222      7564
 -1     36699    3    0    1
 -2       570      1100      1077      2893
 -1     36700    3    0    1
 -2      4649      4934      4924      5173
 -1     36701    3    0    1
 -2      4708      4371      4987      4709
 -1     36702    3    0    1
 -2      1754      1755      1774      2411
 -1     36703    3    0    1
 -2      1755      1754      2878      2877
 -1     36704    3    0    1
 -2      3619      4544      3052      3023
 -1     36705    3    0    1
 -2      7766      8154      6229      8205
 -1     36706    3    0    1
 -2      8785      8337      7937      7479
 -1     36707    3    0    1
 -2      7808      6342      7269      7301
 -1     36708    3    0    1
 -2      1021      1802      2891      2892
 -1     36709    3    0    1
 -2      5422      5454      5844      5390
 -1     36710    3    0    1
 -2      7779      7127      9017      6180
 -1     36711    3    0    1
 -2       574      1124      3505      1683
 -1     36712    3    0    1
 -2      2572      3719      2616      4594
 -1     36713    3    0    1
 -2      7615      7005      8485      6066
 -1     36714    3    0    1
 -2      8566      9306      8567      9581
 -1     36715    3    0    1
 -2      7848      8736      8289      7339
 -1     36716    3    0    1
 -2      4947      4708      4357      3861
 -1     36717    3    0    1
 -2      7237      8626      7205      6238
 -1     36718    3    0    1
 -2      5378      5808      4755      5478
 -1     36719    3    0    1
 -2      3846      3265      2166      1452
 -1     36720    3    0    1
 -2      7206      7205      5839      6300
 -1     36721    3    0    1
 -2      5561      5257      5250      5562
 -1     36722    3    0    1
 -2      4274      4634      4686      3807
 -1     36723    3    0    1
 -2      6305      6381      6382      7241
 -1     36724    3    0    1
 -2      7128      7130      7129      7169
 -1     36725    3    0    1
 -2      5056      5539      5073      5011
 -1     36726    3    0    1
 -2      3465      1094      2346      1778
 -1     36727    3    0    1
 -2      6671      6670      7924      8331
 -1     36728    3    0    1
 -2      8217      6358      6314      8239
 -1     36729    3    0    1
 -2       520      1009       139      2908
 -1     36730    3    0    1
 -2      6902      7567      6858      6857
 -1     36731    3    0    1
 -2      4522      5325      4870      4869
 -1     36732    3    0    1
 -2      3037      3012      4165      3651
 -1     36733    3    0    1
 -2      3413      3534      3468      2858
 -1     36734    3    0    1
 -2      3097      2491      2527      3670
 -1     36735    3    0    1
 -2      5971      5598      5599      5947
 -1     36736    3    0    1
 -2      2370      2873      1744      1745
 -1     36737    3    0    1
 -2      4680      3206      3245      3246
 -1     36738    3    0    1
 -2      2988      3639       669      1922
 -1     36739    3    0    1
 -2      3491      4075      4015      2967
 -1     36740    3    0    1
 -2       528       151      1019       152
 -1     36741    3    0    1
 -2      1810      1145      1159      1825
 -1     36742    3    0    1
 -2      3042      3577      4153      4175
 -1     36743    3    0    1
 -2      8758      9131      9141      6634
 -1     36744    3    0    1
 -2      4875      4514      4824      5301
 -1     36745    3    0    1
 -2      1892      3653      3607      1893
 -1     36746    3    0    1
 -2      1666      2847      3954      2313
 -1     36747    3    0    1
 -2      3236      2660      4683      3779
 -1     36748    3    0    1
 -2      1906      1948      2524      1216
 -1     36749    3    0    1
 -2      9031      7790      8207      8208
 -1     36750    3    0    1
 -2      6890      6828      6829      7563
 -1     36751    3    0    1
 -2      5679      5301      5586      5587
 -1     36752    3    0    1
 -2      4002      4038      2395      3438
 -1     36753    3    0    1
 -2      5428      5219      5398      5473
 -1     36754    3    0    1
 -2      3631      4531      4529      2972
 -1     36755    3    0    1
 -2      2587      1396      2069      2106
 -1     36756    3    0    1
 -2      5566      5565      6592      6606
 -1     36757    3    0    1
 -2      1534       816       835      3276
 -1     36758    3    0    1
 -2      6967      5162      6066      6068
 -1     36759    3    0    1
 -2      7808      5445      6304      5816
 -1     36760    3    0    1
 -2      6584      6719      5977      8771
 -1     36761    3    0    1
 -2      6000      5999      6001      6764
 -1     36762    3    0    1
 -2      9153      7970      8806      8807
 -1     36763    3    0    1
 -2      3560      4048      2855      2902
 -1     36764    3    0    1
 -2      6302      7207      7806      5444
 -1     36765    3    0    1
 -2      5045      4492      4016      4471
 -1     36766    3    0    1
 -2      5128      5129      5082      4537
 -1     36767    3    0    1
 -2      8357      8802      5970      7526
 -1     36768    3    0    1
 -2      2507      3641      3613      1830
 -1     36769    3    0    1
 -2       249       653      1913      2488
 -1     36770    3    0    1
 -2       571      1024      1050      1681
 -1     36771    3    0    1
 -2      1894      3653      1892      1893
 -1     36772    3    0    1
 -2      4487      5031      4446      4033
 -1     36773    3    0    1
 -2      5158      4898      5696      5734
 -1     36774    3    0    1
 -2      9579      9350      9334      7772
 -1     36775    3    0    1
 -2      2018      2599      3200      1378
 -1     36776    3    0    1
 -2      5388      6250      6171      6274
 -1     36777    3    0    1
 -2      4004      4003      2377      2410
 -1     36778    3    0    1
 -2      7858      7895      7370      8280
 -1     36779    3    0    1
 -2      6769      8384      7506      6007
 -1     36780    3    0    1
 -2      6923      8438      8430      6862
 -1     36781    3    0    1
 -2      3810      3183      3182      2673
 -1     36782    3    0    1
 -2      8870      7557      8441      7534
 -1     36783    3    0    1
 -2      6294      8657      7203      7252
 -1     36784    3    0    1
 -2      8005      7998      5707      6855
 -1     36785    3    0    1
 -2      8472      7607      8507      8473
 -1     36786    3    0    1
 -2      6299      7206      7818      6421
 -1     36787    3    0    1
 -2      3138      3161      3832      4656
 -1     36788    3    0    1
 -2      1764      1763      1059      1715
 -1     36789    3    0    1
 -2      9078      7853      7252      7297
 -1     36790    3    0    1
 -2      6289      6228      6226      7234
 -1     36791    3    0    1
 -2      1567      2791      1490      3332
 -1     36792    3    0    1
 -2      2484      2969      3588      3629
 -1     36793    3    0    1
 -2      5490      7334      6441      7335
 -1     36794    3    0    1
 -2      4250      2608      3828      2609
 -1     36795    3    0    1
 -2      2834      2327      1652      1597
 -1     36796    3    0    1
 -2      3724      3761      2567      3781
 -1     36797    3    0    1
 -2      3532      2959      3004      4096
 -1     36798    3    0    1
 -2      5343      5358      4904      4675
 -1     36799    3    0    1
 -2      2008      1304      1952      2547
 -1     36800    3    0    1
 -2      4853      4533      4879      4517
 -1     36801    3    0    1
 -2      3716      4275      4636      3174
 -1     36802    3    0    1
 -2      3282      4729      4368      4332
 -1     36803    3    0    1
 -2      3647      3026      3028      4102
 -1     36804    3    0    1
 -2      7547      6821      8432      8402
 -1     36805    3    0    1
 -2      1805      4114      2954      2992
 -1     36806    3    0    1
 -2      4817      5528      5516      5042
 -1     36807    3    0    1
 -2      3051      4191      3071      3052
 -1     36808    3    0    1
 -2      6061      6048      5743      7088
 -1     36809    3    0    1
 -2      6166      7187      7186      9005
 -1     36810    3    0    1
 -2      3979      2303      3938      1618
 -1     36811    3    0    1
 -2      3343      1618      2782      3938
 -1     36812    3    0    1
 -2      4938      4625      5188      4931
 -1     36813    3    0    1
 -2      5057      4440      4485      4486
 -1     36814    3    0    1
 -2      3064      2990      1210      1898
 -1     36815    3    0    1
 -2      7335      7334      8702      7375
 -1     36816    3    0    1
 -2      5289      4822      5089      5290
 -1     36817    3    0    1
 -2      8433      8461      6912      7548
 -1     36818    3    0    1
 -2      5727      6085      7616      5701
 -1     36819    3    0    1
 -2      7253      7323      9080      7266
 -1     36820    3    0    1
 -2      4616      4615      4665      3778
 -1     36821    3    0    1
 -2      5792      5213      5448      5467
 -1     36822    3    0    1
 -2      4217      1989      4224      3686
 -1     36823    3    0    1
 -2      8864      9495      9238      8049
 -1     36824    3    0    1
 -2      1179      1849      1831      1832
 -1     36825    3    0    1
 -2      7969      6750      6685      8374
 -1     36826    3    0    1
 -2      5929      5569      5260      5950
 -1     36827    3    0    1
 -2      3736      3138      4656      4603
 -1     36828    3    0    1
 -2      5016      4786      5272      5015
 -1     36829    3    0    1
 -2      3472      3417      3473      3474
 -1     36830    3    0    1
 -2      9102      8267      7314      6547
 -1     36831    3    0    1
 -2      3449      3432      3405      2316
 -1     36832    3    0    1
 -2      7879      9079      9364      8685
 -1     36833    3    0    1
 -2      4748      4758      4402      4337
 -1     36834    3    0    1
 -2      1979      2561      3678      2530
 -1     36835    3    0    1
 -2      6968      8079      8488      6069
 -1     36836    3    0    1
 -2      6709      6708      6710      7436
 -1     36837    3    0    1
 -2      3670      3097      3710      4194
 -1     36838    3    0    1
 -2      1625       929      1603      1624
 -1     36839    3    0    1
 -2      7821      9068      7796      7216
 -1     36840    3    0    1
 -2      1625      1603      3396      1624
 -1     36841    3    0    1
 -2      1769      3522      2393      1740
 -1     36842    3    0    1
 -2       425       823       861      2175
 -1     36843    3    0    1
 -2      5238      5432      5406      5477
 -1     36844    3    0    1
 -2      1898      3681      2504      1944
 -1     36845    3    0    1
 -2      8339      7444      8395      6757
 -1     36846    3    0    1
 -2      1261      1978      1260      1977
 -1     36847    3    0    1
 -2      8169      7809      9049      7255
 -1     36848    3    0    1
 -2      8032      7050      6946      6944
 -1     36849    3    0    1
 -2      1702      2852      2333      1635
 -1     36850    3    0    1
 -2      1021       567      1020      2891
 -1     36851    3    0    1
 -2      7661      7071      7048      6976
 -1     36852    3    0    1
 -2      5485      7301      7269      6342
 -1     36853    3    0    1
 -2      9210      9239      9240      7641
 -1     36854    3    0    1
 -2      6140      5385      6169      6141
 -1     36855    3    0    1
 -2      6569      7898      6543      7897
 -1     36856    3    0    1
 -2      5288      5314      5080      5287
 -1     36857    3    0    1
 -2      5578      5960      6598      6618
 -1     36858    3    0    1
 -2      4732      5477      4325      5238
 -1     36859    3    0    1
 -2      2791      3357      2299      1567
 -1     36860    3    0    1
 -2      8064      7028      7647      8897
 -1     36861    3    0    1
 -2      4498      4479      5052      4450
 -1     36862    3    0    1
 -2      2822      3934      3954      1666
 -1     36863    3    0    1
 -2      6777      6778      5655      6040
 -1     36864    3    0    1
 -2      5980      6605      7405      5593
 -1     36865    3    0    1
 -2      4879      4546      4533      4853
 -1     36866    3    0    1
 -2      1915      3035      1200      1940
 -1     36867    3    0    1
 -2       240       239       177      9669
 -1     36868    3    0    1
 -2      4506      3599      3035      4535
 -1     36869    3    0    1
 -2      4363      2690      2745      4386
 -1     36870    3    0    1
 -2      3451      3415      4080      2935
 -1     36871    3    0    1
 -2      7888      8275      8276      8766
 -1     36872    3    0    1
 -2      1254      3675      3038      1887
 -1     36873    3    0    1
 -2      3185      4283      2652      4289
 -1     36874    3    0    1
 -2      8661      8213      7242      7246
 -1     36875    3    0    1
 -2      8192      7148      7193      6209
 -1     36876    3    0    1
 -2      7805      9045      8626      7205
 -1     36877    3    0    1
 -2      1941      1940      1990      1966
 -1     36878    3    0    1
 -2      6501      5506      5273      5544
 -1     36879    3    0    1
 -2      8876      8446      7538      6916
 -1     36880    3    0    1
 -2      7533      6775      6031      8397
 -1     36881    3    0    1
 -2      1850      2475      3660      2997
 -1     36882    3    0    1
 -2      7856      6493      8276      6494
 -1     36883    3    0    1
 -2      6647      8806      7970      6698
 -1     36884    3    0    1
 -2      4247      4639      3765      3130
 -1     36885    3    0    1
 -2      6252      8190      7762      7147
 -1     36886    3    0    1
 -2      5608      5606      5633      4835
 -1     36887    3    0    1
 -2       152       566      1019      1703
 -1     36888    3    0    1
 -2      8463      8892      7642      8462
 -1     36889    3    0    1
 -2      7034      6960      6959      8476
 -1     36890    3    0    1
 -2      6096      7013      7582      5330
 -1     36891    3    0    1
 -2       904       878       862      1551
 -1     36892    3    0    1
 -2      7884      9144      8753      8700
 -1     36893    3    0    1
 -2      1941      1990      2515      1966
 -1     36894    3    0    1
 -2      6622      6720      6672      5655
 -1     36895    3    0    1
 -2      2440      2507      3613      1830
 -1     36896    3    0    1
 -2      7138      6196      8618      7139
 -1     36897    3    0    1
 -2      1426      3830      2673      1425
 -1     36898    3    0    1
 -2      7235      6231      5477      7236
 -1     36899    3    0    1
 -2      4692      5372      5371      5232
 -1     36900    3    0    1
 -2      6445      6444      6505      6467
 -1     36901    3    0    1
 -2      5073      5883      5539      5044
 -1     36902    3    0    1
 -2      5239      4365      4694      4978
 -1     36903    3    0    1
 -2      6264      6225      6226      6289
 -1     36904    3    0    1
 -2      2585      1277       317      1278
 -1     36905    3    0    1
 -2      4870      5639      5637      4522
 -1     36906    3    0    1
 -2      3492      2932      1115      1788
 -1     36907    3    0    1
 -2      5671      5977      5287      5288
 -1     36908    3    0    1
 -2      4368      4701      5242      5233
 -1     36909    3    0    1
 -2      9259      9216      8038      9230
 -1     36910    3    0    1
 -2      2988       669      1130      2987
 -1     36911    3    0    1
 -2      3746      4273      3199      3787
 -1     36912    3    0    1
 -2      2895      3454      4478      4449
 -1     36913    3    0    1
 -2      4646      4914      4669      3792
 -1     36914    3    0    1
 -2      7221      5455      7784      7244
 -1     36915    3    0    1
 -2      4757      4375      4989      4948
 -1     36916    3    0    1
 -2      5889      6500      7303      5888
 -1     36917    3    0    1
 -2      5364      7052      5736      5777
 -1     36918    3    0    1
 -2      5882      7324      6457      5881
 -1     36919    3    0    1
 -2      9069      8191      7218      8652
 -1     36920    3    0    1
 -2      3356      4359      4360      2770
 -1     36921    3    0    1
 -2      5594      5660      6687      4829
 -1     36922    3    0    1
 -2      8280      7370      7369      7895
 -1     36923    3    0    1
 -2      1797       600       601      1673
 -1     36924    3    0    1
 -2      6636      6009      6599      5581
 -1     36925    3    0    1
 -2       239       210       177      9669
 -1     36926    3    0    1
 -2      2098      1423      2633      1378
 -1     36927    3    0    1
 -2      8723      7890      8278      7327
 -1     36928    3    0    1
 -2      1967      1916      2496      2013
 -1     36929    3    0    1
 -2      2852      1018      1017      1635
 -1     36930    3    0    1
 -2       404        16        89       814
 -1     36931    3    0    1
 -2      8097      8077      5772      6066
 -1     36932    3    0    1
 -2      4185      3089      1992      4205
 -1     36933    3    0    1
 -2      7450      5978      6721      7982
 -1     36934    3    0    1
 -2       810        38        61       413
 -1     36935    3    0    1
 -2      5329      4635      4686      4274
 -1     36936    3    0    1
 -2      1123       573       661      1151
 -1     36937    3    0    1
 -2      4714      4997      4965      4344
 -1     36938    3    0    1
 -2      3460      2877      1754      2411
 -1     36939    3    0    1
 -2      6873      5701      6894      6841
 -1     36940    3    0    1
 -2      8491      8490      8914      8080
 -1     36941    3    0    1
 -2      4086      3506      4791      4066
 -1     36942    3    0    1
 -2      7899      8294      8739      7343
 -1     36943    3    0    1
 -2      2885       547       998      1669
 -1     36944    3    0    1
 -2      5306      5676      6648      5316
 -1     36945    3    0    1
 -2      6309      7819      7186      7257
 -1     36946    3    0    1
 -2      4391      4735      4952      4953
 -1     36947    3    0    1
 -2      1197      1877      1250      3031
 -1     36948    3    0    1
 -2      8542      8925      8515      7668
 -1     36949    3    0    1
 -2      7330      7371      6500      8728
 -1     36950    3    0    1
 -2      1635      1607      3373      3945
 -1     36951    3    0    1
 -2      8008      6809      6906      7532
 -1     36952    3    0    1
 -2      5107      4556      4579      4825
 -1     36953    3    0    1
 -2      4167      3639      2988      4540
 -1     36954    3    0    1
 -2      3847      3323      3276      2678
 -1     36955    3    0    1
 -2      2558       290       714      2016
 -1     36956    3    0    1
 -2      2273      2274      3904      1505
 -1     36957    3    0    1
 -2      9122      7858      7859      8727
 -1     36958    3    0    1
 -2      6912      6911      5332      6888
 -1     36959    3    0    1
 -2      6907      6811      7570      7544
 -1     36960    3    0    1
 -2      1172      3605      3606      1890
 -1     36961    3    0    1
 -2        59        30        82        29
 -1     36962    3    0    1
 -2      6912      5332      6911      8041
 -1     36963    3    0    1
 -2      6355      6407      6406      7272
 -1     36964    3    0    1
 -2      1990       743      2557      1966
 -1     36965    3    0    1
 -2      5475      5229      5803      6372
 -1     36966    3    0    1
 -2      1614      1596       976      1649
 -1     36967    3    0    1
 -2      4460      2900      3509      4794
 -1     36968    3    0    1
 -2      2459      1912      3075      3631
 -1     36969    3    0    1
 -2      4529      4843      4557      5125
 -1     36970    3    0    1
 -2      4154      3611      3680      2503
 -1     36971    3    0    1
 -2      3624      1239      2524      3000
 -1     36972    3    0    1
 -2      8188      7259      7820      6316
 -1     36973    3    0    1
 -2      2147       756       765      2114
 -1     36974    3    0    1
 -2       555       519       179       222
 -1     36975    3    0    1
 -2      5391      5392      5236      4710
 -1     36976    3    0    1
 -2      2042      1369      3237      3777
 -1     36977    3    0    1
 -2      6139      7143      6168      9672
 -1     36978    3    0    1
 -2       934       963      1635      3373
 -1     36979    3    0    1
 -2      8844      8370      9172      9200
 -1     36980    3    0    1
 -2      2578      1307      1361      3191
 -1     36981    3    0    1
 -2      7517      6739      7541      5668
 -1     36982    3    0    1
 -2      2500      3654      3608      1845
 -1     36983    3    0    1
 -2      6064      5157      6994      5694
 -1     36984    3    0    1
 -2      5806      7133      7132      6131
 -1     36985    3    0    1
 -2      7058      7021      6059      8060
 -1     36986    3    0    1
 -2      6179      8147      7127      7158
 -1     36987    3    0    1
 -2      6882      7986      8438      6806
 -1     36988    3    0    1
 -2      1137       590      1148       248
 -1     36989    3    0    1
 -2      5203      4680      4681      4648
 -1     36990    3    0    1
 -2      1268      1356       733      2058
 -1     36991    3    0    1
 -2      8738      9126      7378      8737
 -1     36992    3    0    1
 -2      6348      6347      6404      7246
 -1     36993    3    0    1
 -2      5854      7176      6332      8172
 -1     36994    3    0    1
 -2      3704      2553      2523      3090
 -1     36995    3    0    1
 -2      2604      3764      1324      1381
 -1     36996    3    0    1
 -2      3038      4549      3621      3675
 -1     36997    3    0    1
 -2      5406      6231      5477      5432
 -1     36998    3    0    1
 -2      6961      6960      6959      7034
 -1     36999    3    0    1
 -2      1403      2635      2109      1381
 -1     37000    3    0    1
 -2       821      2698      2194      2752
 -1     37001    3    0    1
 -2      1652      1653      2327      3951
 -1     37002    3    0    1
 -2      5683      6014      5649      6754
 -1     37003    3    0    1
 -2      2688       889      1530      2743
 -1     37004    3    0    1
 -2      2781       945       946      1581
 -1     37005    3    0    1
 -2      3342      4324      4346      2714
 -1     37006    3    0    1
 -2      3979      1064      2303      3413
 -1     37007    3    0    1
 -2      1958      2526      3094      3665
 -1     37008    3    0    1
 -2      1857      3069      3658      4130
 -1     37009    3    0    1
 -2      2466      1176      1207      1897
 -1     37010    3    0    1
 -2      6530      7839      5878      6456
 -1     37011    3    0    1
 -2      8153      7765      8623      8611
 -1     37012    3    0    1
 -2      3217      3818      4236      3819
 -1     37013    3    0    1
 -2      7291      6392      6391      5898
 -1     37014    3    0    1
 -2      3257      3242      3839      4298
 -1     37015    3    0    1
 -2      5343      5358      5180      4904
 -1     37016    3    0    1
 -2      1653      2327      3951      3425
 -1     37017    3    0    1
 -2      1210      1231      3064      1898
 -1     37018    3    0    1
 -2      1235      1904      1236      3659
 -1     37019    3    0    1
 -2      3932      2723      3301      3358
 -1     37020    3    0    1
 -2      6605      6645      5594      5593
 -1     37021    3    0    1
 -2      4568      5104      4176      4540
 -1     37022    3    0    1
 -2      5666      8392      7514      7975
 -1     37023    3    0    1
 -2      6230      6228      6229      7766
 -1     37024    3    0    1
 -2      2242       868      3333      1571
 -1     37025    3    0    1
 -2      6170      7783      8170      9024
 -1     37026    3    0    1
 -2      1565      1564      1518      2226
 -1     37027    3    0    1
 -2      6424      7259      8240      6359
 -1     37028    3    0    1
 -2      7964      5963      7467      8342
 -1     37029    3    0    1
 -2      5823      6284      6271      7811
 -1     37030    3    0    1
 -2      1070       563      1069      1791
 -1     37031    3    0    1
 -2      1432       732       768      1413
 -1     37032    3    0    1
 -2      5224      4946      3921      4984
 -1     37033    3    0    1
 -2      7990      6748      6724      8343
 -1     37034    3    0    1
 -2      6426      5858      7260      5027
 -1     37035    3    0    1
 -2      1935      1248      1964      1936
 -1     37036    3    0    1
 -2      7517      7541      8834      5668
 -1     37037    3    0    1
 -2      7231      8235      7802      7279
 -1     37038    3    0    1
 -2      1297       699       727      1337
 -1     37039    3    0    1
 -2      3400      4410      2309      2816
 -1     37040    3    0    1
 -2      3312      1528      2205      2204
 -1     37041    3    0    1
 -2      2301      1665      1654      1655
 -1     37042    3    0    1
 -2      5618      5138      5312      4512
 -1     37043    3    0    1
 -2      4713      4336      4712      3913
 -1     37044    3    0    1
 -2      2161      2170      3267      2229
 -1     37045    3    0    1
 -2      1871       649       648      1245
 -1     37046    3    0    1
 -2      4149      3674      4182      3080
 -1     37047    3    0    1
 -2      7758      7159      8155      8175
 -1     37048    3    0    1
 -2      7611      6935      6890      7612
 -1     37049    3    0    1
 -2      8883      7630      8903      7608
 -1     37050    3    0    1
 -2      2441      3616      1831      1855
 -1     37051    3    0    1
 -2      2855      4048      3560      4466
 -1     37052    3    0    1
 -2      4034      3524      3525      1771
 -1     37053    3    0    1
 -2      7528      7970      8406      6010
 -1     37054    3    0    1
 -2      1699       561      1010      3452
 -1     37055    3    0    1
 -2      8907      8931      6998      8480
 -1     37056    3    0    1
 -2      2985      3608      3654      2435
 -1     37057    3    0    1
 -2      9642      9630      9601      9670
 -1     37058    3    0    1
 -2      7832      8690      8689      7257
 -1     37059    3    0    1
 -2      5249      5897      5914      5035
 -1     37060    3    0    1
 -2      1776      1777      4047      2384
 -1     37061    3    0    1
 -2      1634      2318      2867      3962
 -1     37062    3    0    1
 -2      4820      2959      3584      4513
 -1     37063    3    0    1
 -2      8503      8502      7626      6980
 -1     37064    3    0    1
 -2      3657      2533      1266      1232
 -1     37065    3    0    1
 -2      4362      3887      2743      4385
 -1     37066    3    0    1
 -2      8338      8350      8788      8390
 -1     37067    3    0    1
 -2      5542      4798      5258      5541
 -1     37068    3    0    1
 -2      8248      8232      7821      7247
 -1     37069    3    0    1
 -2      1859       638      1236      3017
 -1     37070    3    0    1
 -2      2761       905       962      1553
 -1     37071    3    0    1
 -2      1231      1983      1982      1944
 -1     37072    3    0    1
 -2      3479      2892      2891      3523
 -1     37073    3    0    1
 -2      5416      5447      6193      6308
 -1     37074    3    0    1
 -2       996      1694      1581      2328
 -1     37075    3    0    1
 -2      4265      4928      4658      5355
 -1     37076    3    0    1
 -2      5076      5896      5496      5247
 -1     37077    3    0    1
 -2      4406      4968      4761      4407
 -1     37078    3    0    1
 -2      4486      5057      4440      4439
 -1     37079    3    0    1
 -2      1060      1042       589      1694
 -1     37080    3    0    1
 -2      5475      5462      7231      6372
 -1     37081    3    0    1
 -2      3935      2277      2823      2294
 -1     37082    3    0    1
 -2       380       746       747      1441
 -1     37083    3    0    1
 -2      8510      7655      7656      7041
 -1     37084    3    0    1
 -2      2625      3244      4282      2112
 -1     37085    3    0    1
 -2      2630      3818      3761      3144
 -1     37086    3    0    1
 -2      3917      3311      3318      3844
 -1     37087    3    0    1
 -2      7247      5859      5858      6426
 -1     37088    3    0    1
 -2      5400      5399      6174      5458
 -1     37089    3    0    1
 -2      1175      1182      1152      1895
 -1     37090    3    0    1
 -2      1094      2346      1778      1764
 -1     37091    3    0    1
 -2      6559      5916      6493      6457
 -1     37092    3    0    1
 -2      8316      8317      7849      6470
 -1     37093    3    0    1
 -2      6270      6309      7819      7186
 -1     37094    3    0    1
 -2      3202      3203      3766      3131
 -1     37095    3    0    1
 -2      9103      9393      9605      7872
 -1     37096    3    0    1
 -2      1530       889       946      2743
 -1     37097    3    0    1
 -2      3570      3030      2970      4120
 -1     37098    3    0    1
 -2      5467      5792      5381      5450
 -1     37099    3    0    1
 -2      6380      8210      8659      7239
 -1     37100    3    0    1
 -2      3631      4530      4557      2972
 -1     37101    3    0    1
 -2      6014      5610      5296      5683
 -1     37102    3    0    1
 -2      7004      5699      5726      6065
 -1     37103    3    0    1
 -2      6181      6162      7179      6182
 -1     37104    3    0    1
 -2      6810      7556      6884      7544
 -1     37105    3    0    1
 -2      6345      7256      6344      8229
 -1     37106    3    0    1
 -2      1344      3170      2014      1318
 -1     37107    3    0    1
 -2      3334       975       499      2242
 -1     37108    3    0    1
 -2      1960      1275      1276      2028
 -1     37109    3    0    1
 -2      7564      7552      7577      6068
 -1     37110    3    0    1
 -2      6383      6347      6348      7246
 -1     37111    3    0    1
 -2      1347      3130       720      1329
 -1     37112    3    0    1
 -2      9419      9178      9475      9673
 -1     37113    3    0    1
 -2      5839      7205      7237      6300
 -1     37114    3    0    1
 -2      3949      2773      1596      1649
 -1     37115    3    0    1
 -2      6636      7414      7886      8770
 -1     37116    3    0    1
 -2      6910      7630      5695      6958
 -1     37117    3    0    1
 -2      3044      4567      4511      4111
 -1     37118    3    0    1
 -2      5399      5237      5400      4717
 -1     37119    3    0    1
 -2      8209      6380      6339      6340
 -1     37120    3    0    1
 -2      2051      2050      2053      2612
 -1     37121    3    0    1
 -2      3647      1871      1931      3027
 -1     37122    3    0    1
 -2      8238      5490      6441      7335
 -1     37123    3    0    1
 -2      8370      8844      7523      7546
 -1     37124    3    0    1
 -2      5659      6782      6726      7984
 -1     37125    3    0    1
 -2      1925      2469      3065      1263
 -1     37126    3    0    1
 -2      3466      3445      4010      3446
 -1     37127    3    0    1
 -2      7001      7654      7613      7003
 -1     37128    3    0    1
 -2      6173      5798      5799      7119
 -1     37129    3    0    1
 -2      7036      6932      6934      8026
 -1     37130    3    0    1
 -2      6008      5144      5682      5317
 -1     37131    3    0    1
 -2      3498      4484      3499      4082
 -1     37132    3    0    1
 -2      6161      6233      7779      6180
 -1     37133    3    0    1
 -2      6672      6673      6674      7981
 -1     37134    3    0    1
 -2      8965      9522      9278      8539
 -1     37135    3    0    1
 -2      1841      2463      1198      1879
 -1     37136    3    0    1
 -2      2987      2988       669      1922
 -1     37137    3    0    1
 -2       748       338      2035      1322
 -1     37138    3    0    1
 -2      7540      8412      8449      7566
 -1     37139    3    0    1
 -2      2554      1299      2006      3189
 -1     37140    3    0    1
 -2      2372      4034      1771      1746
 -1     37141    3    0    1
 -2      1853      2431      1167      1842
 -1     37142    3    0    1
 -2      1772      2374      1748      1749
 -1     37143    3    0    1
 -2      4701      4729      4368      4983
 -1     37144    3    0    1
 -2      1716       545      1061      1600
 -1     37145    3    0    1
 -2      4662      4908      5182      4630
 -1     37146    3    0    1
 -2      4974      4975      5839      5411
 -1     37147    3    0    1
 -2      3062      3037      4165      3651
 -1     37148    3    0    1
 -2      3570      2970      2935      4120
 -1     37149    3    0    1
 -2      7158      6181      6179      6234
 -1     37150    3    0    1
 -2      7000      6965      6964      8056
 -1     37151    3    0    1
 -2      6374      6415      6371      7279
 -1     37152    3    0    1
 -2      4062      4061      2979      2942
 -1     37153    3    0    1
 -2      4195      2514      1997      3712
 -1     37154    3    0    1
 -2      4115      4819      3562      4818
 -1     37155    3    0    1
 -2      1359      1305      1304      3139
 -1     37156    3    0    1
 -2      7989      6039      7573      7591
 -1     37157    3    0    1
 -2      7023      5687      5740      8055
 -1     37158    3    0    1
 -2      4286      4624      3170      3784
 -1     37159    3    0    1
 -2      8172      7176      8643      9073
 -1     37160    3    0    1
 -2      3505      2913      3407      1683
 -1     37161    3    0    1
 -2      8911      8485      6942      7005
 -1     37162    3    0    1
 -2      3653      3607      2436      4184
 -1     37163    3    0    1
 -2      6648      5603      5306      5316
 -1     37164    3    0    1
 -2      3623      3622      3581      4170
 -1     37165    3    0    1
 -2      7946      8339      7444      8395
 -1     37166    3    0    1
 -2      5014      5013      5048      5487
 -1     37167    3    0    1
 -2      6082      5339      5691      6988
 -1     37168    3    0    1
 -2      7613      8509      7654      7001
 -1     37169    3    0    1
 -2      5291      5995      5678      5140
 -1     37170    3    0    1
 -2      2280      2304      1621      1620
 -1     37171    3    0    1
 -2       733       732       703      1413
 -1     37172    3    0    1
 -2      1142      1154       674       217
 -1     37173    3    0    1
 -2      3737      3192      1307      3722
 -1     37174    3    0    1
 -2      5764      5732      5721      7074
 -1     37175    3    0    1
 -2        52       823       426       804
 -1     37176    3    0    1
 -2      6059      8928      8464      8869
 -1     37177    3    0    1
 -2      4883      4869      4542      4569
 -1     37178    3    0    1
 -2      4176      2988      3639      4541
 -1     37179    3    0    1
 -2      5493      7306      7337      6425
 -1     37180    3    0    1
 -2      3446       545      1061      1716
 -1     37181    3    0    1
 -2      4651      4289      5347      5763
 -1     37182    3    0    1
 -2      4342      4737      4756      3326
 -1     37183    3    0    1
 -2      2686      2731      1466      1465
 -1     37184    3    0    1
 -2       392        76         3       401
 -1     37185    3    0    1
 -2      8161      8151      8192      6254
 -1     37186    3    0    1
 -2      6126      6128      7696      7113
 -1     37187    3    0    1
 -2       916       439       438       917
 -1     37188    3    0    1
 -2      8635      7820      9067      7795
 -1     37189    3    0    1
 -2      1850      2475      2997      2425
 -1     37190    3    0    1
 -2      1234      1183      1903      1856
 -1     37191    3    0    1
 -2      1771      3524      2394      1744
 -1     37192    3    0    1
 -2      4820      2959      4096      3584
 -1     37193    3    0    1
 -2      6202      7164      5828      6203
 -1     37194    3    0    1
 -2       954       953      1601      1622
 -1     37195    3    0    1
 -2      2507      3641      4157      3613
 -1     37196    3    0    1
 -2      3485      1091      1760      3511
 -1     37197    3    0    1
 -2      7708      8579      8996      9320
 -1     37198    3    0    1
 -2      1642      1687      1028      1686
 -1     37199    3    0    1
 -2      7797      7262      8195      8655
 -1     37200    3    0    1
 -2      5826      5851      6248      7214
 -1     37201    3    0    1
 -2      7550      8425      8405      6788
 -1     37202    3    0    1
 -2      2734      2782      3343      3323
 -1     37203    3    0    1
 -2      4457      4459      3508      4069
 -1     37204    3    0    1
 -2       131       132       999       513
 -1     37205    3    0    1
 -2      2720      3282      2755      2195
 -1     37206    3    0    1
 -2      6169      5385      5420      6247
 -1     37207    3    0    1
 -2      6929      6930      6928      7024
 -1     37208    3    0    1
 -2      2372      3525      1771      4034
 -1     37209    3    0    1
 -2      7329      6562      6564      6498
 -1     37210    3    0    1
 -2      6418      7252      8253      6294
 -1     37211    3    0    1
 -2      5527      5268      5060      5511
 -1     37212    3    0    1
 -2      4468      4467      4012      4765
 -1     37213    3    0    1
 -2       344       762       343      1447
 -1     37214    3    0    1
 -2      8409      7959      9475      9673
 -1     37215    3    0    1
 -2      7424      5970      6643      7944
 -1     37216    3    0    1
 -2      6227      6229      6228      7766
 -1     37217    3    0    1
 -2      8488      8487      8079      6968
 -1     37218    3    0    1
 -2      4346      4740      4760      3342
 -1     37219    3    0    1
 -2      1239      2524      1863      3624
 -1     37220    3    0    1
 -2      5872      6352      5871      7304
 -1     37221    3    0    1
 -2      5206      5755      6071      5728
 -1     37222    3    0    1
 -2      6337      6336      6417      7265
 -1     37223    3    0    1
 -2      6661      5988      6660      7447
 -1     37224    3    0    1
 -2      2996      3617      1142      2995
 -1     37225    3    0    1
 -2      1308      1309       691      3162
 -1     37226    3    0    1
 -2      5995      7523      7968      5678
 -1     37227    3    0    1
 -2      8748      8757      7874      8302
 -1     37228    3    0    1
 -2      3288      2703      3289      2198
 -1     37229    3    0    1
 -2      2765      2740      2767      3354
 -1     37230    3    0    1
 -2      3225      2006      1339      3189
 -1     37231    3    0    1
 -2      1342      1364      3216      3755
 -1     37232    3    0    1
 -2      6886      6887      6867      5692
 -1     37233    3    0    1
 -2      6415      7294      5502      6449
 -1     37234    3    0    1
 -2      6864      6032      6031      7533
 -1     37235    3    0    1
 -2      6712      6617      6633      5615
 -1     37236    3    0    1
 -2      4403      4759      3337      4749
 -1     37237    3    0    1
 -2      4529      4843      4531      3631
 -1     37238    3    0    1
 -2      6250      8188      7820      6316
 -1     37239    3    0    1
 -2      1474      3282      2699      2195
 -1     37240    3    0    1
 -2      5474      7154      5801      7787
 -1     37241    3    0    1
 -2      4195      2514      1877      3031
 -1     37242    3    0    1
 -2      8362      8394      9162      6655
 -1     37243    3    0    1
 -2      6307      5447      6308      8169
 -1     37244    3    0    1
 -2      2228      3884      2742      3274
 -1     37245    3    0    1
 -2       835       457       458      1534
 -1     37246    3    0    1
 -2      3480      4000      2394      2409
 -1     37247    3    0    1
 -2      3915      3273      2246      2191
 -1     37248    3    0    1
 -2      7399      8747      8756      7398
 -1     37249    3    0    1
 -2      2042      3166      3710      3711
 -1     37250    3    0    1
 -2      7519      7443      8394      6740
 -1     37251    3    0    1
 -2      6294      8657      7252      8253
 -1     37252    3    0    1
 -2      1913      3668      2488      3057
 -1     37253    3    0    1
 -2      8458      8865      8029      7579
 -1     37254    3    0    1
 -2      8667      7228      8668      7174
 -1     37255    3    0    1
 -2      2342      2841      1609      2811
 -1     37256    3    0    1
 -2      3519      4059      3518      1766
 -1     37257    3    0    1
 -2      2348      1719      2857      1718
 -1     37258    3    0    1
 -2      2566      1997      3724      3712
 -1     37259    3    0    1
 -2      8166      9047      9033      8660
 -1     37260    3    0    1
 -2      5297      5104      5085      4540
 -1     37261    3    0    1
 -2      3533      3489      4797      2904
 -1     37262    3    0    1
 -2      8245      8675      7817      8208
 -1     37263    3    0    1
 -2      6253      5845      7218      7220
 -1     37264    3    0    1
 -2      1951      2535      1929      1241
 -1     37265    3    0    1
 -2      5081      4519      4518      4845
 -1     37266    3    0    1
 -2      2892      4441      4486      3479
 -1     37267    3    0    1
 -2      7813      6255      6256      7194
 -1     37268    3    0    1
 -2      2287      1634      3944      3962
 -1     37269    3    0    1
 -2      4427      4021      3415      3451
 -1     37270    3    0    1
 -2      4983      4368      4701      5242
 -1     37271    3    0    1
 -2      6684      6750      6763      7525
 -1     37272    3    0    1
 -2      7839      8271      8311      7322
 -1     37273    3    0    1
 -2      6835      6833      6914      6834
 -1     37274    3    0    1
 -2      4634      4686      4635      4274
 -1     37275    3    0    1
 -2       697      1295      2049      3184
 -1     37276    3    0    1
 -2      7011      7662      6120      7049
 -1     37277    3    0    1
 -2      5538      5263      4797      5077
 -1     37278    3    0    1
 -2      1777      1776      1109      2384
 -1     37279    3    0    1
 -2      2434      2999      3604      1888
 -1     37280    3    0    1
 -2      4134      4574      4872      4850
 -1     37281    3    0    1
 -2      6757      6714      8395      7520
 -1     37282    3    0    1
 -2      6973      6073      5757      6057
 -1     37283    3    0    1
 -2      5018      5258      5889      5888
 -1     37284    3    0    1
 -2      1049      1018      1017      2852
 -1     37285    3    0    1
 -2       601      3491      1797      1673
 -1     37286    3    0    1
 -2      8147      6182      8173      8617
 -1     37287    3    0    1
 -2      1869      1836      1163      2479
 -1     37288    3    0    1
 -2      6250      7215      8188      6316
 -1     37289    3    0    1
 -2      8313      8280      7369      7895
 -1     37290    3    0    1
 -2      2228      3274      2164      1469
 -1     37291    3    0    1
 -2      8151      7148      8192      6209
 -1     37292    3    0    1
 -2      4866      3656      3655      4521
 -1     37293    3    0    1
 -2      3025      2480      3054      3627
 -1     37294    3    0    1
 -2      6909      5693      5331      6991
 -1     37295    3    0    1
 -2      6801      5324      7976      6737
 -1     37296    3    0    1
 -2      3839      4275      3174      4932
 -1     37297    3    0    1
 -2      1802      2891      2892      3523
 -1     37298    3    0    1
 -2      7573      6039      6778      6038
 -1     37299    3    0    1
 -2      8393      8351      7995      7516
 -1     37300    3    0    1
 -2      3657      4128      3617      2996
 -1     37301    3    0    1
 -2      2027      4193      1959      4218
 -1     37302    3    0    1
 -2       824        53       101       429
 -1     37303    3    0    1
 -2      5799      6277      5852      5472
 -1     37304    3    0    1
 -2      4637      4638      4943      3764
 -1     37305    3    0    1
 -2      6714      8395      7946      7444
 -1     37306    3    0    1
 -2      5138      6027      6019      5312
 -1     37307    3    0    1
 -2      6731      5663      5129      5602
 -1     37308    3    0    1
 -2      6489      7323      8272      6456
 -1     37309    3    0    1
 -2      3696      3128      1967      2013
 -1     37310    3    0    1
 -2      4333      3856      2736      2680
 -1     37311    3    0    1
 -2      7347      6552      6484      7852
 -1     37312    3    0    1
 -2       104       938       500       478
 -1     37313    3    0    1
 -2      3937      2838      2824      1668
 -1     37314    3    0    1
 -2      5083      5098      5306      4864
 -1     37315    3    0    1
 -2      3711      3710      2540      4194
 -1     37316    3    0    1
 -2      3832      3228      3161      3139
 -1     37317    3    0    1
 -2      9376      9600      9642      9670
 -1     37318    3    0    1
 -2      1229      1207      3044      1921
 -1     37319    3    0    1
 -2      6361      7823      7307      6428
 -1     37320    3    0    1
 -2      2904      3533      2885      2961
 -1     37321    3    0    1
 -2      7371      7330      7387      8728
 -1     37322    3    0    1
 -2      1206       632      1174      1891
 -1     37323    3    0    1
 -2      6595      5571      5913      6612
 -1     37324    3    0    1
 -2      5910      7338      7337      5493
 -1     37325    3    0    1
 -2      5114      5135      5307      4847
 -1     37326    3    0    1
 -2      8132      8154      7767      9016
 -1     37327    3    0    1
 -2      4176      5145      5104      4568
 -1     37328    3    0    1
 -2      6029      6030      6863      6028
 -1     37329    3    0    1
 -2      3885      3312      2248      3918
 -1     37330    3    0    1
 -2      3637      3609      3655      3656
 -1     37331    3    0    1
 -2      1234      1183      1856      3622
 -1     37332    3    0    1
 -2      2804      2259      1511      1545
 -1     37333    3    0    1
 -2      7235      6336      6337      7265
 -1     37334    3    0    1
 -2      1962      1963      1280      2556
 -1     37335    3    0    1
 -2      4735      4981      4391      4952
 -1     37336    3    0    1
 -2       867       914      1565      1566
 -1     37337    3    0    1
 -2      5977      6601      6719      6584
 -1     37338    3    0    1
 -2      8507      7030      8069      8473
 -1     37339    3    0    1
 -2      7159      6279      8175      6237
 -1     37340    3    0    1
 -2      5378      5790      5808      5478
 -1     37341    3    0    1
 -2      7261      7823      6361      6360
 -1     37342    3    0    1
 -2      6313      6384      6312      7258
 -1     37343    3    0    1
 -2      1379      2101      2634      2099
 -1     37344    3    0    1
 -2      3505      2944      1124      1803
 -1     37345    3    0    1
 -2      1118      1119      1782      1790
 -1     37346    3    0    1
 -2      6299      7206      5839      6300
 -1     37347    3    0    1
 -2      5877      5878      6529      6530
 -1     37348    3    0    1
 -2      3127      3762      3782      2031
 -1     37349    3    0    1
 -2      2328      3988      3428      3412
 -1     37350    3    0    1
 -2      5324      6801      6803      6802
 -1     37351    3    0    1
 -2      2393      1739      1073      1740
 -1     37352    3    0    1
 -2      7050      8500      8032      7665
 -1     37353    3    0    1
 -2      6549      6482      6519      8298
 -1     37354    3    0    1
 -2      8256      7332      8706      9084
 -1     37355    3    0    1
 -2      1052      2875      3457      1711
 -1     37356    3    0    1
 -2      3204      3790      3243      4312
 -1     37357    3    0    1
 -2      6059      6047      5686      7058
 -1     37358    3    0    1
 -2      3568      4515      4514      4824
 -1     37359    3    0    1
 -2      3738      3163      4261      4260
 -1     37360    3    0    1
 -2      2929      3531      2450      3583
 -1     37361    3    0    1
 -2      1086      1756      1706      3461
 -1     37362    3    0    1
 -2      8382      8808      8336      7971
 -1     37363    3    0    1
 -2      4006      3424      3484      3483
 -1     37364    3    0    1
 -2      3014      3639      3015      4167
 -1     37365    3    0    1
 -2      3551      4786      4020      4474
 -1     37366    3    0    1
 -2      3434      4029      2891      2869
 -1     37367    3    0    1
 -2      6757      8395      8339      7482
 -1     37368    3    0    1
 -2      8898      8899      8066      9258
 -1     37369    3    0    1
 -2      6207      5844      7146      6276
 -1     37370    3    0    1
 -2      7629      7592      8038      9216
 -1     37371    3    0    1
 -2      3703      3130      2562      1979
 -1     37372    3    0    1
 -2      6719      6747      5671      7966
 -1     37373    3    0    1
 -2      6364      5897      6412      6363
 -1     37374    3    0    1
 -2      3610      2986      1141      2420
 -1     37375    3    0    1
 -2      5437      5400      6174      5458
 -1     37376    3    0    1
 -2      5389      4987      4745      4709
 -1     37377    3    0    1
 -2      5652      5580      5579      5961
 -1     37378    3    0    1
 -2      2919      2862      3493      2933
 -1     37379    3    0    1
 -2      7147      7762      6252      6208
 -1     37380    3    0    1
 -2        86        85       394       813
 -1     37381    3    0    1
 -2      6248      6170      6249      7783
 -1     37382    3    0    1
 -2      8077      7615      9264      6066
 -1     37383    3    0    1
 -2       884       883      2219      2202
 -1     37384    3    0    1
 -2      2621      2588      1396      4267
 -1     37385    3    0    1
 -2       883       884      2219      1520
 -1     37386    3    0    1
 -2      2297      1626      1660      1661
 -1     37387    3    0    1
 -2      8812      8811      7972      9204
 -1     37388    3    0    1
 -2      1136       558       625      1147
 -1     37389    3    0    1
 -2       543       544      1040      1762
 -1     37390    3    0    1
 -2      1604       902       959      2235
 -1     37391    3    0    1
 -2      7269      7808      5445      6303
 -1     37392    3    0    1
 -2      3953      3411      2312      2821
 -1     37393    3    0    1
 -2      4608      4607      4897      4896
 -1     37394    3    0    1
 -2      7465      8792      5960      9143
 -1     37395    3    0    1
 -2      1018      2852      1702      1635
 -1     37396    3    0    1
 -2      6352      5872      6351      7304
 -1     37397    3    0    1
 -2      7413      7414      6716      8330
 -1     37398    3    0    1
 -2      6068      7564      7552      6839
 -1     37399    3    0    1
 -2      5624      4821      5670      5313
 -1     37400    3    0    1
 -2      8091      7670      8522      8943
 -1     37401    3    0    1
 -2      5628      4875      4824      5679
 -1     37402    3    0    1
 -2      3851      3909      4698      3314
 -1     37403    3    0    1
 -2      4268      4684      3780      4902
 -1     37404    3    0    1
 -2      5468      7243      5418      9672
 -1     37405    3    0    1
 -2      7978      5652      7459      8417
 -1     37406    3    0    1
 -2      2367      1742      1770      1743
 -1     37407    3    0    1
 -2      1751      1750      2377      2410
 -1     37408    3    0    1
 -2      4073      4764      4072      2903
 -1     37409    3    0    1
 -2      6552      7347      6484      8302
 -1     37410    3    0    1
 -2       489       111        91       927
 -1     37411    3    0    1
 -2      3256      3210      2666      2146
 -1     37412    3    0    1
 -2      4011      2885      3533      4051
 -1     37413    3    0    1
 -2      3660      2475      4180      4135
 -1     37414    3    0    1
 -2      2763      2787       963      3373
 -1     37415    3    0    1
 -2      4157      3613      2439      2440
 -1     37416    3    0    1
 -2      4100      3619      4822      4544
 -1     37417    3    0    1
 -2      7616      6085      7596      5701
 -1     37418    3    0    1
 -2      2138      2639      3826      2113
 -1     37419    3    0    1
 -2      6407      6355      6356      7272
 -1     37420    3    0    1
 -2      7412      8769      8364      7447
 -1     37421    3    0    1
 -2      6775      7533      8396      8397
 -1     37422    3    0    1
 -2      6161      8134      7726      6180
 -1     37423    3    0    1
 -2      1687      2343      1028      1686
 -1     37424    3    0    1
 -2      4218      1959      2027      3709
 -1     37425    3    0    1
 -2      6165      6132      5415      7698
 -1     37426    3    0    1
 -2      8524      8547      9510      8092
 -1     37427    3    0    1
 -2      5518      6583      6599      5558
 -1     37428    3    0    1
 -2      2568      2121      3168      2073
 -1     37429    3    0    1
 -2      4568      5085      5104      4540
 -1     37430    3    0    1
 -2      5977      6584      8771      7924
 -1     37431    3    0    1
 -2      5801      6155      5401      5474
 -1     37432    3    0    1
 -2       320       321       761      1436
 -1     37433    3    0    1
 -2      3310      4406      4382      3364
 -1     37434    3    0    1
 -2      5054      2900      4460      4794
 -1     37435    3    0    1
 -2      8768      7341      8292      6570
 -1     37436    3    0    1
 -2      1668      2278       947      1600
 -1     37437    3    0    1
 -2      5608      6611      6649      5606
 -1     37438    3    0    1
 -2      8925      8504      8514      8515
 -1     37439    3    0    1
 -2      2006      1299      1339      3189
 -1     37440    3    0    1
 -2      1078      1079      2911      2409
 -1     37441    3    0    1
 -2      4363      2724      2745      4327
 -1     37442    3    0    1
 -2      8493      7047      6971      6093
 -1     37443    3    0    1
 -2      4982      4728      4367      4970
 -1     37444    3    0    1
 -2      4438      2366      2852      4062
 -1     37445    3    0    1
 -2      5586      4824      5301      5679
 -1     37446    3    0    1
 -2      6820      6819      8432      7547
 -1     37447    3    0    1
 -2      2470      4129      2423      3658
 -1     37448    3    0    1
 -2      2852      3478      4061      2942
 -1     37449    3    0    1
 -2      8827      9202      8802      7526
 -1     37450    3    0    1
 -2      4263      4316      4941      4897
 -1     37451    3    0    1
 -2      1298      1299      1948      2554
 -1     37452    3    0    1
 -2      1564       867      1565      1518
 -1     37453    3    0    1
 -2      4950      5374      4694      5413
 -1     37454    3    0    1
 -2      1158      2457      3018      3584
 -1     37455    3    0    1
 -2      6937      7040      7653      7002
 -1     37456    3    0    1
 -2      7269      5485      6303      7268
 -1     37457    3    0    1
 -2      1771      4034      2371      1746
 -1     37458    3    0    1
 -2      4090      2937      3472      4081
 -1     37459    3    0    1
 -2      7485      5652      6773      8366
 -1     37460    3    0    1
 -2      5530      5014      5048      5487
 -1     37461    3    0    1
 -2      7169      8155      7130      8174
 -1     37462    3    0    1
 -2      3294      4757      3863      4948
 -1     37463    3    0    1
 -2      7758      6184      7182      6185
 -1     37464    3    0    1
 -2      6554      6416      5502      5514
 -1     37465    3    0    1
 -2      7337      6424      5493      6425
 -1     37466    3    0    1
 -2      5070      5572      6577      5915
 -1     37467    3    0    1
 -2      1372      1373      2568      2073
 -1     37468    3    0    1
 -2      1348      1330      3205      1331
 -1     37469    3    0    1
 -2      8670      7804      7236      7265
 -1     37470    3    0    1
 -2      5474      6261      7154      7787
 -1     37471    3    0    1
 -2      4365      3849      3369      2234
 -1     37472    3    0    1
 -2      2737      2239      2764      3352
 -1     37473    3    0    1
 -2      6745      6009      7965      8794
 -1     37474    3    0    1
 -2      2219      3902      1520      1573
 -1     37475    3    0    1
 -2      3445      4010      3446      2882
 -1     37476    3    0    1
 -2      1708      1037      2917      2900
 -1     37477    3    0    1
 -2       114       900       504       462
 -1     37478    3    0    1
 -2      1921       668      2501      1228
 -1     37479    3    0    1
 -2      7459      8793      8417      8366
 -1     37480    3    0    1
 -2      4779      4459      4457      4069
 -1     37481    3    0    1
 -2      5066      5507      5935      5276
 -1     37482    3    0    1
 -2      3551      4786      4812      4020
 -1     37483    3    0    1
 -2      6361      7219      5845      6360
 -1     37484    3    0    1
 -2      3584      1158      1110      2959
 -1     37485    3    0    1
 -2      6882      8430      8438      6862
 -1     37486    3    0    1
 -2      8239      8217      6358      7827
 -1     37487    3    0    1
 -2      6485      6523      5932      7878
 -1     37488    3    0    1
 -2      6918      5705      7579      6877
 -1     37489    3    0    1
 -2      3486      2855      3560      4466
 -1     37490    3    0    1
 -2      8413      8412      7540      7510
 -1     37491    3    0    1
 -2      2091      3795      2618      4240
 -1     37492    3    0    1
 -2      7452      8380      7935      6698
 -1     37493    3    0    1
 -2      1529      1497       850      2249
 -1     37494    3    0    1
 -2      7592      8882      8850      9216
 -1     37495    3    0    1
 -2      1762      1040      1692      2902
 -1     37496    3    0    1
 -2      2749      2748       896      3277
 -1     37497    3    0    1
 -2      9230      8871      8038      9477
 -1     37498    3    0    1
 -2      2855      1055      1709      3486
 -1     37499    3    0    1
 -2      5764      5732      5187      5721
 -1     37500    3    0    1
 -2      3402      3392      1655      3952
 -1     37501    3    0    1
 -2      1700      1012      1013      1710
 -1     37502    3    0    1
 -2      8794      8368      6745      8330
 -1     37503    3    0    1
 -2      3234      2611      2152      3252
 -1     37504    3    0    1
 -2      1780      1719      1063      1718
 -1     37505    3    0    1
 -2      2365      4026      1769      1740
 -1     37506    3    0    1
 -2      6757      8339      6656      7482
 -1     37507    3    0    1
 -2      4866      4881      3656      4539
 -1     37508    3    0    1
 -2      9032      9046      9336      8176
 -1     37509    3    0    1
 -2      6179      6278      8147      6234
 -1     37510    3    0    1
 -2      4381      4971      4380      4717
 -1     37511    3    0    1
 -2      4111      4567      4511      4836
 -1     37512    3    0    1
 -2      1917      3635      2497      2516
 -1     37513    3    0    1
 -2      7260      7821      6317      5858
 -1     37514    3    0    1
 -2      3917      3319      3318      4383
 -1     37515    3    0    1
 -2      6533      6560      7891      6495
 -1     37516    3    0    1
 -2      8500      8501      8032      7665
 -1     37517    3    0    1
 -2      2931      2887      1112      1798
 -1     37518    3    0    1
 -2      2084      2636      2124      1383
 -1     37519    3    0    1
 -2      2470      2423      1857      3658
 -1     37520    3    0    1
 -2      3653      2436      3607      1893
 -1     37521    3    0    1
 -2      5145      5085      5104      4568
 -1     37522    3    0    1
 -2      6638      6602      5991      6720
 -1     37523    3    0    1
 -2      6309      5843      6311      7186
 -1     37524    3    0    1
 -2      1791      1070      1768      2406
 -1     37525    3    0    1
 -2      5218      5799      5472      4958
 -1     37526    3    0    1
 -2      3933      3304      2272      3336
 -1     37527    3    0    1
 -2      8429      7567      7985      7517
 -1     37528    3    0    1
 -2      5906      5485      7842      7300
 -1     37529    3    0    1
 -2      5655      6672      6778      7989
 -1     37530    3    0    1
 -2      7900      6545      6572      6509
 -1     37531    3    0    1
 -2      3482      4093      4454      3507
 -1     37532    3    0    1
 -2      7080      7045      7691      5774
 -1     37533    3    0    1
 -2      5822      7210      6283      8157
 -1     37534    3    0    1
 -2      1239      2524      1948      1216
 -1     37535    3    0    1
 -2      7445      6656      6714      6757
 -1     37536    3    0    1
 -2      3161      3228       771      3139
 -1     37537    3    0    1
 -2      4308      4317      4942      4674
 -1     37538    3    0    1
 -2       529      1139       227       570
 -1     37539    3    0    1
 -2      8735      8708      7337      5910
 -1     37540    3    0    1
 -2      4167      4568      3639      4540
 -1     37541    3    0    1
 -2      8385      8001      8831      6846
 -1     37542    3    0    1
 -2      3484      3424      1707      2915
 -1     37543    3    0    1
 -2      3118      1333      3182      3133
 -1     37544    3    0    1
 -2      6786      6785      6830      8404
 -1     37545    3    0    1
 -2      8943      8522      8091      9508
 -1     37546    3    0    1
 -2      6186      6187      8156      7161
 -1     37547    3    0    1
 -2      6069      8488      6968      7617
 -1     37548    3    0    1
 -2      6238      7205      7237      5839
 -1     37549    3    0    1
 -2      4012      3490      3413      4483
 -1     37550    3    0    1
 -2      2958      3017      1859      2456
 -1     37551    3    0    1
 -2      4625      5188      4626      4938
 -1     37552    3    0    1
 -2      8733      6441      7862      8762
 -1     37553    3    0    1
 -2      6268      8175      6279      6237
 -1     37554    3    0    1
 -2      5691      6038      6039      7591
 -1     37555    3    0    1
 -2      2950      4087      2949      2854
 -1     37556    3    0    1
 -2      3306      2192      3307      2203
 -1     37557    3    0    1
 -2      4174      3013      3040      3084
 -1     37558    3    0    1
 -2      9222      8457      7552      7564
 -1     37559    3    0    1
 -2      7573      6039      6038      7591
 -1     37560    3    0    1
 -2      1610      2320      1642      2815
 -1     37561    3    0    1
 -2      7444      6714      8395      6757
 -1     37562    3    0    1
 -2      7613      8483      8885      8932
 -1     37563    3    0    1
 -2      4254      2059      2618      4240
 -1     37564    3    0    1
 -2      2666      3256      3807      4287
 -1     37565    3    0    1
 -2      4012      4483      4467      4468
 -1     37566    3    0    1
 -2      3607      3608      2436      4184
 -1     37567    3    0    1
 -2      5484      6494      5286      5539
 -1     37568    3    0    1
 -2      5330      6096      7013      5362
 -1     37569    3    0    1
 -2      8766      7888      6584      7385
 -1     37570    3    0    1
 -2      5568      5567      6609      6608
 -1     37571    3    0    1
 -2      7533      6031      6864      8397
 -1     37572    3    0    1
 -2      5265      5053      5070      4499
 -1     37573    3    0    1
 -2      3749      2607      1405      1387
 -1     37574    3    0    1
 -2      5580      5579      5309      5652
 -1     37575    3    0    1
 -2      4524      3004      3018      4096
 -1     37576    3    0    1
 -2      2472      1862      1834      2471
 -1     37577    3    0    1
 -2      9290      8943      8546      9291
 -1     37578    3    0    1
 -2      6936      6964      7040      6937
 -1     37579    3    0    1
 -2      3341      2797      2714      1575
 -1     37580    3    0    1
 -2      1763      1094      1778      1764
 -1     37581    3    0    1
 -2      7826      7241      7254      8677
 -1     37582    3    0    1
 -2      7220      6253      5845      6360
 -1     37583    3    0    1
 -2       623       624      1112       554
 -1     37584    3    0    1
 -2      5704      6071      5206      5184
 -1     37585    3    0    1
 -2      1665      1090      1039      1760
 -1     37586    3    0    1
 -2      7060      7088      7670      8065
 -1     37587    3    0    1
 -2       938       120       104       501
 -1     37588    3    0    1
 -2      2998      4143      2429      3649
 -1     37589    3    0    1
 -2       547      2885      2904      1669
 -1     37590    3    0    1
 -2      2904      1133      3533      2961
 -1     37591    3    0    1
 -2      4331      4755      4394      4330
 -1     37592    3    0    1
 -2      6694      7477      6693      6692
 -1     37593    3    0    1
 -2      3896      3286      2213      2214
 -1     37594    3    0    1
 -2      2408      2892      1021      1741
 -1     37595    3    0    1
 -2      3512      4782      4071      3530
 -1     37596    3    0    1
 -2      7706      6138      6139      7705
 -1     37597    3    0    1
 -2      8164      8202      8623      8153
 -1     37598    3    0    1
 -2      8083      7659      5757      6073
 -1     37599    3    0    1
 -2      3042      1128      3577      2946
 -1     37600    3    0    1
 -2      7180      7203      6295      5443
 -1     37601    3    0    1
 -2      9137      6625      8763      9124
 -1     37602    3    0    1
 -2      7572      8859      8858      7573
 -1     37603    3    0    1
 -2       701      1299      1298      1339
 -1     37604    3    0    1
 -2      8667      7250      7798      8642
 -1     37605    3    0    1
 -2      5474      6155      5401      5439
 -1     37606    3    0    1
 -2      8459      6038      7591      7573
 -1     37607    3    0    1
 -2      1039      2338      1665      1760
 -1     37608    3    0    1
 -2      5671      6812      6815      6814
 -1     37609    3    0    1
 -2        75       109       400       834
 -1     37610    3    0    1
 -2      5312      6027      6019      5618
 -1     37611    3    0    1
 -2      4004      2377      1750      2410
 -1     37612    3    0    1
 -2      4081      3474      4090      4813
 -1     37613    3    0    1
 -2      7856      5484      7299      6494
 -1     37614    3    0    1
 -2      4186      1904      3704      4187
 -1     37615    3    0    1
 -2      8924      8923      8936      7666
 -1     37616    3    0    1
 -2      4511      4567      3044      4127
 -1     37617    3    0    1
 -2      3608      2435      2436      1845
 -1     37618    3    0    1
 -2      3584      3018      1158      2959
 -1     37619    3    0    1
 -2      8171      9053      9054      8653
 -1     37620    3    0    1
 -2      4057      3513      1778      1763
 -1     37621    3    0    1
 -2      6373      6371      7279      8226
 -1     37622    3    0    1
 -2      4707      5235      5453      4706
 -1     37623    3    0    1
 -2      9443      9442      8340      9435
 -1     37624    3    0    1
 -2      7189      8184      8632      9022
 -1     37625    3    0    1
 -2      7670      8522      8065      9257
 -1     37626    3    0    1
 -2      6371      6415      6373      7279
 -1     37627    3    0    1
 -2      7874      6449      8757      8748
 -1     37628    3    0    1
 -2      1132       639       207      1143
 -1     37629    3    0    1
 -2      5225      4321      4730      5384
 -1     37630    3    0    1
 -2      5879      5878      7839      6456
 -1     37631    3    0    1
 -2      5769      4928      5342      5746
 -1     37632    3    0    1
 -2      7485      5652      8366      7459
 -1     37633    3    0    1
 -2       506       476       119       915
 -1     37634    3    0    1
 -2      5206      5728      5329      4686
 -1     37635    3    0    1
 -2      3999      3522      4026      1769
 -1     37636    3    0    1
 -2      3917      3318      2687      3844
 -1     37637    3    0    1
 -2      4507      4508      4165      4832
 -1     37638    3    0    1
 -2      2511      1904      4186      4187
 -1     37639    3    0    1
 -2      4611      4609      5158      5179
 -1     37640    3    0    1
 -2      4120      3570      3030      4556
 -1     37641    3    0    1
 -2      3339      2189       919      2774
 -1     37642    3    0    1
 -2      2095      2064      2065      2628
 -1     37643    3    0    1
 -2      7221      5455      6209      5393
 -1     37644    3    0    1
 -2      6541      7377      8316      6542
 -1     37645    3    0    1
 -2      5317      5100      5609      5084
 -1     37646    3    0    1
 -2      6406      5490      6407      6355
 -1     37647    3    0    1
 -2      5573      5266      5554      4802
 -1     37648    3    0    1
 -2      2246      2775      3915      2191
 -1     37649    3    0    1
 -2      6289      7201      6264      8203
 -1     37650    3    0    1
 -2      7407      6649      6611      5606
 -1     37651    3    0    1
 -2      3179      3205      1330      2037
 -1     37652    3    0    1
 -2      8651      7812      6356      7272
 -1     37653    3    0    1
 -2      5900      6482      5902      7851
 -1     37654    3    0    1
 -2      7113      5779      6128      6129
 -1     37655    3    0    1
 -2      7363      8311      6529      6530
 -1     37656    3    0    1
 -2      6303      5485      7269      6342
 -1     37657    3    0    1
 -2      7130      7128      8155      7169
 -1     37658    3    0    1
 -2       798       384       343       292
 -1     37659    3    0    1
 -2      4772      5507      5066      5023
 -1     37660    3    0    1
 -2      5001      4761      4968      5432
 -1     37661    3    0    1
 -2      5460      7175      5854      6330
 -1     37662    3    0    1
 -2      6738      7464      7441      6654
 -1     37663    3    0    1
 -2      3311      3917      4347      3844
 -1     37664    3    0    1
 -2      7958      7428      7959      9673
 -1     37665    3    0    1
 -2       388       390      2160      2147
 -1     37666    3    0    1
 -2      8651      8634      7243      9051
 -1     37667    3    0    1
 -2      5006      5480      5504      5479
 -1     37668    3    0    1
 -2      7610      6932      8479      8478
 -1     37669    3    0    1
 -2       581      1104      1103      1082
 -1     37670    3    0    1
 -2        96       467       932      1549
 -1     37671    3    0    1
 -2      4148      3036      2981      2495
 -1     37672    3    0    1
 -2      6758      5988      7484      8341
 -1     37673    3    0    1
 -2      9133      7889      9119      9107
 -1     37674    3    0    1
 -2      2962      3534      2905      2965
 -1     37675    3    0    1
 -2      4120      3030      3664      4556
 -1     37676    3    0    1
 -2      8191      7218      8652      7220
 -1     37677    3    0    1
 -2      2679      2727      1458      1457
 -1     37678    3    0    1
 -2       567      1075      1021      1741
 -1     37679    3    0    1
 -2      5755      7640      7639      5728
 -1     37680    3    0    1
 -2      7323      7266      5245      6490
 -1     37681    3    0    1
 -2      5552      5565      5058      4801
 -1     37682    3    0    1
 -2      5695      6820      6910      6958
 -1     37683    3    0    1
 -2      5849      7128      7129      7169
 -1     37684    3    0    1
 -2      6291      7816      8236      6376
 -1     37685    3    0    1
 -2      3594      3650      2461      2974
 -1     37686    3    0    1
 -2      6023      5085      5145      4568
 -1     37687    3    0    1
 -2       537      1705      2950      2854
 -1     37688    3    0    1
 -2      1377      1376      3173      2081
 -1     37689    3    0    1
 -2      5670      4821      4574      5313
 -1     37690    3    0    1
 -2      3581      1856      1183      3622
 -1     37691    3    0    1
 -2       977      1653      1652      1597
 -1     37692    3    0    1
 -2      4544      3619      4822      5089
 -1     37693    3    0    1
 -2      6449      7294      5502      8243
 -1     37694    3    0    1
 -2      5459      4959      5401      5474
 -1     37695    3    0    1
 -2      4571      3622      3623      4170
 -1     37696    3    0    1
 -2      1590       962       905      1553
 -1     37697    3    0    1
 -2      4125      4548      5083      3574
 -1     37698    3    0    1
 -2      3436      3421      3973      2853
 -1     37699    3    0    1
 -2      6040      6038      6777      7573
 -1     37700    3    0    1
 -2      3051      4191      4206      2537
 -1     37701    3    0    1
 -2      2994      3510      3549      4046
 -1     37702    3    0    1
 -2      6655      8362      8394      6740
 -1     37703    3    0    1
 -2        58       411       433       412
 -1     37704    3    0    1
 -2      3634      3033      3597      1880
 -1     37705    3    0    1
 -2      5418      7243      5793      9672
 -1     37706    3    0    1
 -2      2070      2072      2630      3144
 -1     37707    3    0    1
 -2      1197      1877      1914      1250
 -1     37708    3    0    1
 -2      3617      3657       673      1926
 -1     37709    3    0    1
 -2       520      1008      1046       521
 -1     37710    3    0    1
 -2      1255       664       631      1887
 -1     37711    3    0    1
 -2      1409      2127      2652      3185
 -1     37712    3    0    1
 -2      7602      8466      8895      9254
 -1     37713    3    0    1
 -2      2243       976      3335      1649
 -1     37714    3    0    1
 -2      4925      4599      4600      4890
 -1     37715    3    0    1
 -2      1816      3595      3032      2977
 -1     37716    3    0    1
 -2      4827      4106      4517      4534
 -1     37717    3    0    1
 -2      9328      8592      9563      9578
 -1     37718    3    0    1
 -2      2757      4334      3857      2175
 -1     37719    3    0    1
 -2       952       951      2304      1621
 -1     37720    3    0    1
 -2      6604      6586      5967      9674
 -1     37721    3    0    1
 -2      3833      4916      4306      3753
 -1     37722    3    0    1
 -2      5056      5484      5539      5011
 -1     37723    3    0    1
 -2      1207      2501      3044      1921
 -1     37724    3    0    1
 -2      7575      5696      6996      8039
 -1     37725    3    0    1
 -2       176       241       240      9669
 -1     37726    3    0    1
 -2      2884      2885      4011      4051
 -1     37727    3    0    1
 -2      4869      4870      4522      3642
 -1     37728    3    0    1
 -2      1926      3657       673      1232
 -1     37729    3    0    1
 -2      2305      1601       953      1622
 -1     37730    3    0    1
 -2      5920      5892      6536      6462
 -1     37731    3    0    1
 -2      1925      1985      1263      1945
 -1     37732    3    0    1
 -2      5808      5790      5791      5809
 -1     37733    3    0    1
 -2      5704      5206      6071      5728
 -1     37734    3    0    1
 -2      7479      6732      7456      6752
 -1     37735    3    0    1
 -2      1550       903       933      1587
 -1     37736    3    0    1
 -2      6305      5376      5446      7792
 -1     37737    3    0    1
 -2      8752      6618      9117      7883
 -1     37738    3    0    1
 -2      7959      9476      9179      8383
 -1     37739    3    0    1
 -2      5145      5635      5104      6023
 -1     37740    3    0    1
 -2      5014      4060      4425      5257
 -1     37741    3    0    1
 -2      9642      9601      9376      9670
 -1     37742    3    0    1
 -2      5843      6309      6270      7186
 -1     37743    3    0    1
 -2      4420      3489      4419      4797
 -1     37744    3    0    1
 -2      1225      1916      2516      1967
 -1     37745    3    0    1
 -2      7042      7656      7041      6940
 -1     37746    3    0    1
 -2      6985      5740      6951      8035
 -1     37747    3    0    1
 -2      4567      3044      3610      4111
 -1     37748    3    0    1
 -2      7533      6864      8440      8397
 -1     37749    3    0    1
 -2      3883      4722      4324      3272
 -1     37750    3    0    1
 -2      7215      6274      6316      6250
 -1     37751    3    0    1
 -2      3631      4843      4531      3632
 -1     37752    3    0    1
 -2      2996      1833      2449      3579
 -1     37753    3    0    1
 -2      5934      5943      6604      6586
 -1     37754    3    0    1
 -2      2087      1388      1293      2038
 -1     37755    3    0    1
 -2      9052      7775      9353      9340
 -1     37756    3    0    1
 -2      4708      3329      4357      3861
 -1     37757    3    0    1
 -2      8956      8553      9295      9296
 -1     37758    3    0    1
 -2      5950      5984      5605      5294
 -1     37759    3    0    1
 -2      1814      2971      3591      3590
 -1     37760    3    0    1
 -2       514       548      1133       220
 -1     37761    3    0    1
 -2      5316      5603      5306      5083
 -1     37762    3    0    1
 -2      8626      7805      7205      6238
 -1     37763    3    0    1
 -2      3447      3517      4058      2353
 -1     37764    3    0    1
 -2      5526      5949      7360      6508
 -1     37765    3    0    1
 -2      3532      2450      3531      3004
 -1     37766    3    0    1
 -2      1248      2461       654      3594
 -1     37767    3    0    1
 -2      9246      9537      8531      8552
 -1     37768    3    0    1
 -2      1699      2941      3452      3476
 -1     37769    3    0    1
 -2      2435      1182      1152      1845
 -1     37770    3    0    1
 -2      4486      2892      3479      3523
 -1     37771    3    0    1
 -2      3678      4214      2561      1979
 -1     37772    3    0    1
 -2      5440      4949      4721      5802
 -1     37773    3    0    1
 -2      2475      1850      1835      2425
 -1     37774    3    0    1
 -2      4522      4542      4869      4569
 -1     37775    3    0    1
 -2      5136      5137      4586      4177
 -1     37776    3    0    1
 -2      1827      1876      2429      2490
 -1     37777    3    0    1
 -2      3028      3535      1116      3567
 -1     37778    3    0    1
 -2      3454      3456      3455      3408
 -1     37779    3    0    1
 -2      9216      8850      7592      8420
 -1     37780    3    0    1
 -2      4991      4992      4956      4376
 -1     37781    3    0    1
 -2      1489      3299       829      2709
 -1     37782    3    0    1
 -2      4983      5242      5234      5843
 -1     37783    3    0    1
 -2      1482      3276       816      2678
 -1     37784    3    0    1
 -2      2964      1810      1134      3022
 -1     37785    3    0    1
 -2      6540      5946      6568      5910
 -1     37786    3    0    1
 -2      5423      5796      5797      5214
 -1     37787    3    0    1
 -2      5864      7287      5497      5508
 -1     37788    3    0    1
 -2      5679      6781      6042      7491
 -1     37789    3    0    1
 -2      3491      3403      4014      1673
 -1     37790    3    0    1
 -2      2855      3486      4465      4466
 -1     37791    3    0    1
 -2      2694      1483       820      3277
 -1     37792    3    0    1
 -2      1341      3195      2026      3164
 -1     37793    3    0    1
 -2      1877      1197      3032      3031
 -1     37794    3    0    1
 -2      4747      4991      4956      4376
 -1     37795    3    0    1
 -2      8263      8687      7268      7300
 -1     37796    3    0    1
 -2      8951      8094      8095      9281
 -1     37797    3    0    1
 -2      4011      3489      3533      2904
 -1     37798    3    0    1
 -2      7465      8363      8792      9143
 -1     37799    3    0    1
 -2      6401      5486      5918      7826
 -1     37800    3    0    1
 -2      4573      3018      3584      4524
 -1     37801    3    0    1
 -2       177       176       240      9669
 -1     37802    3    0    1
 -2      9486      7032      9209      9231
 -1     37803    3    0    1
 -2      7137      7162      8179      6192
 -1     37804    3    0    1
 -2      3282       465      2699      2754
 -1     37805    3    0    1
 -2      4460      3509      4780      4490
 -1     37806    3    0    1
 -2      4875      4162      4515      4824
 -1     37807    3    0    1
 -2      1755      1085      1754      1774
 -1     37808    3    0    1
 -2       947       890      1531      2745
 -1     37809    3    0    1
 -2      5783      7727      6162      6182
 -1     37810    3    0    1
 -2      3658      4129      2423      4130
 -1     37811    3    0    1
 -2      6931      7589      7603      8467
 -1     37812    3    0    1
 -2      5824      5823      6284      6271
 -1     37813    3    0    1
 -2      9229      9215      9243      9485
 -1     37814    3    0    1
 -2      1937      1936      1248      3594
 -1     37815    3    0    1
 -2      1760      1090      1039      3462
 -1     37816    3    0    1
 -2      3705      3187      3188      3121
 -1     37817    3    0    1
 -2      3138      3832      3161      3139
 -1     37818    3    0    1
 -2      5145      5104      5635      4868
 -1     37819    3    0    1
 -2      4160      4821      4117      4097
 -1     37820    3    0    1
 -2      4820      4524      3584      4096
 -1     37821    3    0    1
 -2      2179      1487       827      2789
 -1     37822    3    0    1
 -2      5338      7601      7073      7072
 -1     37823    3    0    1
 -2      4286      4906      4624      4931
 -1     37824    3    0    1
 -2      2663      3209      3783      2155
 -1     37825    3    0    1
 -2      9566      9315      8992      8559
 -1     37826    3    0    1
 -2      3873      3264      4349      4690
 -1     37827    3    0    1
 -2      4193      1959      4218      3688
 -1     37828    3    0    1
 -2      1709      1041      1055      2855
 -1     37829    3    0    1
 -2      7387      7927      7371      8728
 -1     37830    3    0    1
 -2      5844      7776      7146      6276
 -1     37831    3    0    1
 -2      6208      8189      6286      6206
 -1     37832    3    0    1
 -2      6968      7101      8079      6069
 -1     37833    3    0    1
 -2      3807      4686      4274      4287
 -1     37834    3    0    1
 -2      1321       715       714      2034
 -1     37835    3    0    1
 -2      4786      4812      4020      4426
 -1     37836    3    0    1
 -2      4543      4098      5087      3625
 -1     37837    3    0    1
 -2      3410      3459      3967      2337
 -1     37838    3    0    1
 -2      4036      3505      4035      1683
 -1     37839    3    0    1
 -2      1099      2365      1769      1740
 -1     37840    3    0    1
 -2      5586      5628      4824      5679
 -1     37841    3    0    1
 -2       338       748      2035      2045
 -1     37842    3    0    1
 -2      2421      1130      1208      2987
 -1     37843    3    0    1
 -2      5504      5938      5904      5479
 -1     37844    3    0    1
 -2      3855      3282      4368      4332
 -1     37845    3    0    1
 -2      2541      3105      1970      1971
 -1     37846    3    0    1
 -2      5238      5405      5406      4325
 -1     37847    3    0    1
 -2      5445      7240      7269      6303
 -1     37848    3    0    1
 -2      6799      6800      7509      5683
 -1     37849    3    0    1
 -2      5984      6004      5294      5099
 -1     37850    3    0    1
 -2      3584      1110      1809      2959
 -1     37851    3    0    1
 -2      5561      5257      4060      5530
 -1     37852    3    0    1
 -2      9061      9062      8165      8648
 -1     37853    3    0    1
 -2      7412      8364      6660      7447
 -1     37854    3    0    1
 -2      1892      3085      3653      1894
 -1     37855    3    0    1
 -2      6027      6656      6019      5618
 -1     37856    3    0    1
 -2      6554      6416      7348      5502
 -1     37857    3    0    1
 -2      8631      6353      7188      8230
 -1     37858    3    0    1
 -2      7159      6268      6184      6237
 -1     37859    3    0    1
 -2      1912      2513      2459      3075
 -1     37860    3    0    1
 -2      4271      5205      5200      4295
 -1     37861    3    0    1
 -2      7820      8635      8188      6250
 -1     37862    3    0    1
 -2      3468      2858      2330      3413
 -1     37863    3    0    1
 -2      6201      5793      5418      7761
 -1     37864    3    0    1
 -2      5989      6660      5988      7447
 -1     37865    3    0    1
 -2      9030      8657      7789      7180
 -1     37866    3    0    1
 -2      2225      1517      1516      2217
 -1     37867    3    0    1
 -2      4056      3485      2413      2901
 -1     37868    3    0    1
 -2      1862      1834      1144      1824
 -1     37869    3    0    1
 -2      2831      3986      3973      2853
 -1     37870    3    0    1
 -2      5652      7459      8417      8366
 -1     37871    3    0    1
 -2      1929      1950      2535      1951
 -1     37872    3    0    1
 -2      3791      3205      3178      1348
 -1     37873    3    0    1
 -2      5853      5833      5832      7227
 -1     37874    3    0    1
 -2      6996      6962      7649      6113
 -1     37875    3    0    1
 -2      3335       976       918      1596
 -1     37876    3    0    1
 -2      9161      8748      8757      7920
 -1     37877    3    0    1
 -2      6187      7731      8156      7161
 -1     37878    3    0    1
 -2      7501      8806      8380      6698
 -1     37879    3    0    1
 -2      3566      3535      2919      9675
 -1     37880    3    0    1
 -2      6301      6302      5444      5867
 -1     37881    3    0    1
 -2      3069      2470      1857      3658
 -1     37882    3    0    1
 -2      5801      5401      4959      5474
 -1     37883    3    0    1
 -2      2070      2072      2107      2630
 -1     37884    3    0    1
 -2      1039      1655      1665      2338
 -1     37885    3    0    1
 -2       536       166       164      1034
 -1     37886    3    0    1
 -2      3749      3791      3178      3244
 -1     37887    3    0    1
 -2      7640      8109      7081      7104
 -1     37888    3    0    1
 -2      4143      2429      3593      2998
 -1     37889    3    0    1
 -2      5960      5319      5620      5650
 -1     37890    3    0    1
 -2      2835      1665      2301      2844
 -1     37891    3    0    1
 -2      8225      8645      6372      9059
 -1     37892    3    0    1
 -2      1744      1771      2371      1746
 -1     37893    3    0    1
 -2      3769      4595      4670      4887
 -1     37894    3    0    1
 -2      1985      1984      1263      1945
 -1     37895    3    0    1
 -2      7839      8720      8272      6456
 -1     37896    3    0    1
 -2      3693      3685      4216      3706
 -1     37897    3    0    1
 -2      6541      5893      5894      6542
 -1     37898    3    0    1
 -2      6494      5484      5883      5539
 -1     37899    3    0    1
 -2      3383      2772      3334      1612
 -1     37900    3    0    1
 -2      8201      6261      7199      7787
 -1     37901    3    0    1
 -2      6048      6061      7590      8037
 -1     37902    3    0    1
 -2      1878      2492      3671      3078
 -1     37903    3    0    1
 -2      5587      5679      5301      5656
 -1     37904    3    0    1
 -2      3651      2518      3037      1884
 -1     37905    3    0    1
 -2      1653       977      1598      1597
 -1     37906    3    0    1
 -2      6629      6611      5985      5608
 -1     37907    3    0    1
 -2      1760      1039      2338      3462
 -1     37908    3    0    1
 -2      8175      6268      7159      6237
 -1     37909    3    0    1
 -2      7190      8185      8183      8159
 -1     37910    3    0    1
 -2      3759      3758      3124      3757
 -1     37911    3    0    1
 -2      4341      2175      4334      2757
 -1     37912    3    0    1
 -2      3860      2266      2787      3878
 -1     37913    3    0    1
 -2      5540      5943      6604      6566
 -1     37914    3    0    1
 -2      7972      6649      7462      5607
 -1     37915    3    0    1
 -2      5282      5281      5575      4069
 -1     37916    3    0    1
 -2      2072      3217      2630      3818
 -1     37917    3    0    1
 -2      1536      1534       835      3276
 -1     37918    3    0    1
 -2      5617      5618      5312      4512
 -1     37919    3    0    1
 -2      5539      5286      5484      5056
 -1     37920    3    0    1
 -2      1248       654      2461      1935
 -1     37921    3    0    1
 -2      4028      4438      4027      2852
 -1     37922    3    0    1
 -2      8409      7958      7959      9673
 -1     37923    3    0    1
 -2      6315      6387      7273      8239
 -1     37924    3    0    1
 -2      2246      3272      2796      2190
 -1     37925    3    0    1
 -2      7452      7935      8380      6696
 -1     37926    3    0    1
 -2      7468      6672      6674      7981
 -1     37927    3    0    1
 -2      5555      5575      5281      4069
 -1     37928    3    0    1
 -2        53        54        81        55
 -1     37929    3    0    1
 -2      3469      4060      4079      4078
 -1     37930    3    0    1
 -2       700       699       300      1338
 -1     37931    3    0    1
 -2      6602      5991      6621      6638
 -1     37932    3    0    1
 -2      2917      2952      1054      1759
 -1     37933    3    0    1
 -2      3902      2219      3361      1573
 -1     37934    3    0    1
 -2      4035      3505      3407      1683
 -1     37935    3    0    1
 -2      6020      5624      6009      5670
 -1     37936    3    0    1
 -2      3348      3371      2806      2284
 -1     37937    3    0    1
 -2      3337      2712      3872      4345
 -1     37938    3    0    1
 -2      4521      5103      4866      4538
 -1     37939    3    0    1
 -2      2687      1527       888      3318
 -1     37940    3    0    1
 -2      6594      7353      5929      5950
 -1     37941    3    0    1
 -2      8965      9522      8539      8100
 -1     37942    3    0    1
 -2      5273      4813      4081      5544
 -1     37943    3    0    1
 -2      3282      2699      3855      2754
 -1     37944    3    0    1
 -2      1370      2070      2567      1282
 -1     37945    3    0    1
 -2      1596      2773      3335      1649
 -1     37946    3    0    1
 -2      4181      3664      3030      4556
 -1     37947    3    0    1
 -2      6826      6643      5646      7526
 -1     37948    3    0    1
 -2      1208       669       616      1209
 -1     37949    3    0    1
 -2      3895      4728      4700      3876
 -1     37950    3    0    1
 -2      4770      4434      3499      4484
 -1     37951    3    0    1
 -2      8818      8834      8429      7541
 -1     37952    3    0    1
 -2      4688      4668      5207      4922
 -1     37953    3    0    1
 -2      2187      2244      3362      3871
 -1     37954    3    0    1
 -2      2852      3478      1049      1702
 -1     37955    3    0    1
 -2      3828      4250      3827      3220
 -1     37956    3    0    1
 -2      4897      4941      4607      4608
 -1     37957    3    0    1
 -2      3347      2751      2752      1543
 -1     37958    3    0    1
 -2      2607      3749      3178      1387
 -1     37959    3    0    1
 -2      4755      4754      4330      4963
 -1     37960    3    0    1
 -2       888       944      1527      1580
 -1     37961    3    0    1
 -2      2990      3064      3612      1898
 -1     37962    3    0    1
 -2       662      1202      1203      1886
 -1     37963    3    0    1
 -2      3467      4050      2883      2401
 -1     37964    3    0    1
 -2      3599      2980      1802      1817
 -1     37965    3    0    1
 -2      6602      6621      5991      5289
 -1     37966    3    0    1
 -2      3035      1168      1200      1881
 -1     37967    3    0    1
 -2      5190      5336      6094      6118
 -1     37968    3    0    1
 -2      7632      7580      6073      6057
 -1     37969    3    0    1
 -2      2727      2679      2726      3877
 -1     37970    3    0    1
 -2       267       675       690      1233
 -1     37971    3    0    1
 -2      3311      3318      1508      3917
 -1     37972    3    0    1
 -2       537      1085       583      1705
 -1     37973    3    0    1
 -2      6990      6957      6049      8471
 -1     37974    3    0    1
 -2      4509      3576      4109      3557
 -1     37975    3    0    1
 -2      5470      5425      7167      6149
 -1     37976    3    0    1
 -2      5011      4470      4014      5010
 -1     37977    3    0    1
 -2      6185      6184      7182      6127
 -1     37978    3    0    1
 -2      5307      5135      5114      5665
 -1     37979    3    0    1
 -2      4202      4203      3102      3717
 -1     37980    3    0    1
 -2      6489      8272      7323      6531
 -1     37981    3    0    1
 -2      4696      4742      4328      4951
 -1     37982    3    0    1
 -2      2687      3311      3844      3318
 -1     37983    3    0    1
 -2      7252      7789      8657      6295
 -1     37984    3    0    1
 -2      5401      5459      5474      5439
 -1     37985    3    0    1
 -2      8230      6353      8662      7304
 -1     37986    3    0    1
 -2      4482      4417      3466      3488
 -1     37987    3    0    1
 -2      1049      1018      2852      1702
 -1     37988    3    0    1
 -2       542      2345       201      1039
 -1     37989    3    0    1
 -2      2982      3062      3601      1818
 -1     37990    3    0    1
 -2      3446      2329      3445      2882
 -1     37991    3    0    1
 -2      5375      5806      5815      4951
 -1     37992    3    0    1
 -2      2885      3489      4011      2904
 -1     37993    3    0    1
 -2      4893      4936      4259      5177
 -1     37994    3    0    1
 -2      9224      9249      9237      9494
 -1     37995    3    0    1
 -2      2951      1783      3483      3527
 -1     37996    3    0    1
 -2      9040      9055      9343      8220
 -1     37997    3    0    1
 -2      5930      6482      5902      6549
 -1     37998    3    0    1
 -2      5391      6143      6144      5392
 -1     37999    3    0    1
 -2       944       888      1527      3318
 -1     38000    3    0    1
 -2      1039      2338      3462      2345
 -1     38001    3    0    1
 -2      5793      5384      5225      5418
 -1     38002    3    0    1
 -2      3671      2492      1878      4144
 -1     38003    3    0    1
 -2      2903      4072      4073      2928
 -1     38004    3    0    1
 -2      8463      7600      6924      8462
 -1     38005    3    0    1
 -2      1898      1210      1231      1944
 -1     38006    3    0    1
 -2       744       329      1439      1419
 -1     38007    3    0    1
 -2      3282       874       465      2754
 -1     38008    3    0    1
 -2      4570      4551      3657      3617
 -1     38009    3    0    1
 -2      1596      3335       976      1649
 -1     38010    3    0    1
 -2      7014      6097      5720      5730
 -1     38011    3    0    1
 -2      7701      6135      6167      7704
 -1     38012    3    0    1
 -2      2959      3584      3018      4096
 -1     38013    3    0    1
 -2      2070      2072      1370      2107
 -1     38014    3    0    1
 -2      5720      6097      7014      6922
 -1     38015    3    0    1
 -2      3703      4214      3678      1979
 -1     38016    3    0    1
 -2      6014      5649      5610      5683
 -1     38017    3    0    1
 -2      3650      3593      1815      2974
 -1     38018    3    0    1
 -2      6821      6871      8432      8402
 -1     38019    3    0    1
 -2      3539      3500      4025      2975
 -1     38020    3    0    1
 -2      3855      3282      2754      4368
 -1     38021    3    0    1
 -2      3152      2563      2047      2036
 -1     38022    3    0    1
 -2      3065      2992      3641      1900
 -1     38023    3    0    1
 -2      6912      6100      5332      8041
 -1     38024    3    0    1
 -2      8908      8909      8481      8056
 -1     38025    3    0    1
 -2      7186      7187      8629      9005
 -1     38026    3    0    1
 -2      1107       609       541      1806
 -1     38027    3    0    1
 -2      1941      2515      3034      1881
 -1     38028    3    0    1
 -2      4418      4050      3992      3514
 -1     38029    3    0    1
 -2      1597       920       977      1575
 -1     38030    3    0    1
 -2      6344      6343      7256      6345
 -1     38031    3    0    1
 -2       697      1295      1993      2049
 -1     38032    3    0    1
 -2      2072      2070      2071      3144
 -1     38033    3    0    1
 -2      6112      6099      5157      5354
 -1     38034    3    0    1
 -2      8619      7211      8158      7811
 -1     38035    3    0    1
 -2      6069      8046      8488      7617
 -1     38036    3    0    1
 -2      3741      3802      3218      1400
 -1     38037    3    0    1
 -2      8502      8059      8923      8924
 -1     38038    3    0    1
 -2       147       564       565       605
 -1     38039    3    0    1
 -2      5740      5764      5721      7074
 -1     38040    3    0    1
 -2      7690      7100      6102      6117
 -1     38041    3    0    1
 -2      1120      1013       603      1710
 -1     38042    3    0    1
 -2      2855      3560      2955      3486
 -1     38043    3    0    1
 -2      2190       812      2246      1468
 -1     38044    3    0    1
 -2      1509      1535      2223      2209
 -1     38045    3    0    1
 -2      2788      1560      3376      3377
 -1     38046    3    0    1
 -2      5605      5950      7429      6702
 -1     38047    3    0    1
 -2      4415      4414      3445      3466
 -1     38048    3    0    1
 -2      2141      2674      3250      3208
 -1     38049    3    0    1
 -2      8429      8819      9207      7985
 -1     38050    3    0    1
 -2      4567      5114      4511      4836
 -1     38051    3    0    1
 -2      6314      6315      8217      8239
 -1     38052    3    0    1
 -2      5915      7291      5898      7870
 -1     38053    3    0    1
 -2      3272      2796      3883      2246
 -1     38054    3    0    1
 -2      1588       904       960      1551
 -1     38055    3    0    1
 -2      5312      5619      5617      4512
 -1     38056    3    0    1
 -2      6361      7219      7823      6428
 -1     38057    3    0    1
 -2      4245      2621      2106      4244
 -1     38058    3    0    1
 -2      4952      4339      4340      4953
 -1     38059    3    0    1
 -2      8272      7323      8761      8721
 -1     38060    3    0    1
 -2      5197      4906      4286      4931
 -1     38061    3    0    1
 -2      1705       537      1036      2854
 -1     38062    3    0    1
 -2      1421       746      1430      1402
 -1     38063    3    0    1
 -2      2670      3791      4302      3244
 -1     38064    3    0    1
 -2      7544      8418      7521      7979
 -1     38065    3    0    1
 -2      1324       751       719      1381
 -1     38066    3    0    1
 -2      1296       300       699      1338
 -1     38067    3    0    1
 -2      2175       823       861      2196
 -1     38068    3    0    1
 -2      1312      2042      1996      1311
 -1     38069    3    0    1
 -2      1397      2662      3782      1418
 -1     38070    3    0    1
 -2      7159      6184      7758      6185
 -1     38071    3    0    1
 -2      1212      1900      1263      1945
 -1     38072    3    0    1
 -2      3664      4181      4579      4556
 -1     38073    3    0    1
 -2      1530      2688      2743      3320
 -1     38074    3    0    1
 -2      2799      3343      1534      3323
 -1     38075    3    0    1
 -2       605       565      1072      1801
 -1     38076    3    0    1
 -2       375       360      1437      2153
 -1     38077    3    0    1
 -2      9446      9184      8822      7952
 -1     38078    3    0    1
 -2      5085      4568      4167      4540
 -1     38079    3    0    1
 -2      4011      3533      2885      2904
 -1     38080    3    0    1
 -2      6073      7632      8494      6972
 -1     38081    3    0    1
 -2      9245      9235      8057      9493
 -1     38082    3    0    1
 -2      6441      6406      5490      8238
 -1     38083    3    0    1
 -2      5834      5833      5832      5853
 -1     38084    3    0    1
 -2      6628      5984      5950      5294
 -1     38085    3    0    1
 -2      4611      4659      4942      5179
 -1     38086    3    0    1
 -2      2937      3521      1790      3472
 -1     38087    3    0    1
 -2      4524      3018      3584      4096
 -1     38088    3    0    1
 -2      5987      5988      6758      5989
 -1     38089    3    0    1
 -2      2997      1825      1850      2425
 -1     38090    3    0    1
 -2      5455      6320      8218      7221
 -1     38091    3    0    1
 -2      8418      9199      8795      7965
 -1     38092    3    0    1
 -2      3349      2754      3282      4368
 -1     38093    3    0    1
 -2      7634      8513      8888      9271
 -1     38094    3    0    1
 -2      6010      6647      7970      6698
 -1     38095    3    0    1
 -2      1308      3162      3737      3707
 -1     38096    3    0    1
 -2      3335      2773      2243      1649
 -1     38097    3    0    1
 -2      3029      2484       650      3588
 -1     38098    3    0    1
 -2      5682      7974      6846      6008
 -1     38099    3    0    1
 -2      2908      1697      1009      2863
 -1     38100    3    0    1
 -2      7901      7407      7432      6649
 -1     38101    3    0    1
 -2      3735      2007      3137      3160
 -1     38102    3    0    1
 -2      4901      4665      4615      3778
 -1     38103    3    0    1
 -2      8590      7717      8609      9314
 -1     38104    3    0    1
 -2      5265      5070      5572      4499
 -1     38105    3    0    1
 -2      1912      2459      1192      1247
 -1     38106    3    0    1
 -2      5768      7637      7686      7090
 -1     38107    3    0    1
 -2      7477      6694      8346      6692
 -1     38108    3    0    1
 -2      2309      1664      1031      1643
 -1     38109    3    0    1
 -2      5482      6488      7876      6419
 -1     38110    3    0    1
 -2      7367      7300      7358      5917
 -1     38111    3    0    1
 -2      4799      4788      4028      4027
 -1     38112    3    0    1
 -2      8499      8500      6944      7624
 -1     38113    3    0    1
 -2      3847      4693      4352      3322
 -1     38114    3    0    1
 -2      3610      1207      2986      3044
 -1     38115    3    0    1
 -2      4438      4028      3478      2852
 -1     38116    3    0    1
 -2      5713      5696      6823      7593
 -1     38117    3    0    1
 -2      8806      7935      8380      6698
 -1     38118    3    0    1
 -2      6146      7118      6145      5780
 -1     38119    3    0    1
 -2      4244      2106      4245      2587
 -1     38120    3    0    1
 -2      3784      3169      3741      3218
 -1     38121    3    0    1
 -2      1657      2846      3953      2302
 -1     38122    3    0    1
 -2      5687      7587      5740      8055
 -1     38123    3    0    1
 -2      1662      1016      1015      1738
 -1     38124    3    0    1
 -2      1101      1771      1744      1746
 -1     38125    3    0    1
 -2      6014      5296      5664      5683
 -1     38126    3    0    1
 -2      7334      5490      6407      7335
 -1     38127    3    0    1
 -2      4867      5307      5135      4847
 -1     38128    3    0    1
 -2      2401      3514      4050      2389
 -1     38129    3    0    1
 -2      3614      2993      3615      1822
 -1     38130    3    0    1
 -2       727       728      1352      1337
 -1     38131    3    0    1
 -2      9098      9112      9375      7864
 -1     38132    3    0    1
 -2      6626      6607      7392      5983
 -1     38133    3    0    1
 -2      4166      1887      3603      3675
 -1     38134    3    0    1
 -2      1007      1623      2306      1659
 -1     38135    3    0    1
 -2      2057      2545      3734      3190
 -1     38136    3    0    1
 -2      7641      9240      9210      8030
 -1     38137    3    0    1
 -2      3523      2892      1802      2408
 -1     38138    3    0    1
 -2      4245      2106      2621      2587
 -1     38139    3    0    1
 -2      5568      5928      6594      6608
 -1     38140    3    0    1
 -2      7506      6768      6769      6007
 -1     38141    3    0    1
 -2      3170      3169      3784      2014
 -1     38142    3    0    1
 -2       244       270       680      1220
 -1     38143    3    0    1
 -2      4669      4302      5364      5209
 -1     38144    3    0    1
 -2      8048      8916      8492      6071
 -1     38145    3    0    1
 -2      5740      5721      5687      7023
 -1     38146    3    0    1
 -2      4909      4943      5190      4663
 -1     38147    3    0    1
 -2      6603      5584      6623      5964
 -1     38148    3    0    1
 -2      1189      3665      3664      3030
 -1     38149    3    0    1
 -2      8980      9520      9654      8963
 -1     38150    3    0    1
 -2      4815      5268      5060      4502
 -1     38151    3    0    1
 -2      6910      6819      6820      5695
 -1     38152    3    0    1
 -2      6020      7486      6009      7965
 -1     38153    3    0    1
 -2      3510      3548      2994      2388
 -1     38154    3    0    1
 -2      3647      4577      4576      4555
 -1     38155    3    0    1
 -2      1204       665      1257      1227
 -1     38156    3    0    1
 -2      1738      1662      2318      2867
 -1     38157    3    0    1
 -2      6629      5553      6573      6611
 -1     38158    3    0    1
 -2      7699      7115      5790      5791
 -1     38159    3    0    1
 -2      1874      1189      3589      3030
 -1     38160    3    0    1
 -2      3056      3648      3055      3029
 -1     38161    3    0    1
 -2      3027      3647      1871      3028
 -1     38162    3    0    1
 -2      1905      1238      1158      2457
 -1     38163    3    0    1
 -2      1551      2760      1588      2286
 -1     38164    3    0    1
 -2      3325      3324      3281      1546
 -1     38165    3    0    1
 -2      5869      5009      7840      6492
 -1     38166    3    0    1
 -2      3237      3236      4293      3777
 -1     38167    3    0    1
 -2      3436      2853      2893      1680
 -1     38168    3    0    1
 -2      8263      8277      7358      7300
 -1     38169    3    0    1
 -2      6745      6636      6716      6009
 -1     38170    3    0    1
 -2      5320      4876      4851      5124
 -1     38171    3    0    1
 -2      6426      7848      6507      5027
 -1     38172    3    0    1
 -2      3751      3133      3118      3182
 -1     38173    3    0    1
 -2      4641      4668      4922      4280
 -1     38174    3    0    1
 -2      8652      7261      8191      7220
 -1     38175    3    0    1
 -2      4306      3833      3230      3251
 -1     38176    3    0    1
 -2      1362      3193      3739      3194
 -1     38177    3    0    1
 -2      3177      3204      3790      2048
 -1     38178    3    0    1
 -2       951      2280      1621      1620
 -1     38179    3    0    1
 -2      4380      4971      5237      4717
 -1     38180    3    0    1
 -2      4363      4327      4691      4960
 -1     38181    3    0    1
 -2      4275      3839      4298      4932
 -1     38182    3    0    1
 -2      2595      3743      3742      1999
 -1     38183    3    0    1
 -2      7176      7229      8172      8643
 -1     38184    3    0    1
 -2      5073      5286      5539      5056
 -1     38185    3    0    1
 -2      1205       686       665      1227
 -1     38186    3    0    1
 -2      7013      6921      8051      5330
 -1     38187    3    0    1
 -2      2757      2758      2175      1550
 -1     38188    3    0    1
 -2      7060      6061      6952      7088
 -1     38189    3    0    1
 -2      6521      5501      6431      7873
 -1     38190    3    0    1
 -2      8440      8849      7533      8397
 -1     38191    3    0    1
 -2      4440      4439      3434      3479
 -1     38192    3    0    1
 -2       695       287       285      9668
 -1     38193    3    0    1
 -2      2712      3335      3337      2773
 -1     38194    3    0    1
 -2      2899      3508      1714      2916
 -1     38195    3    0    1
 -2      6449      7874      8243      8748
 -1     38196    3    0    1
 -2      3610      2466      1207      3044
 -1     38197    3    0    1
 -2      2778      2779      3307      1576
 -1     38198    3    0    1
 -2      3225      3158      2006      3189
 -1     38199    3    0    1
 -2      3155      3768      2049      3184
 -1     38200    3    0    1
 -2      7862      8238      6441      8733
 -1     38201    3    0    1
 -2      2761      2762      3289      1553
 -1     38202    3    0    1
 -2      2754      3282       874      2755
 -1     38203    3    0    1
 -2      1459      2175      2729      3261
 -1     38204    3    0    1
 -2        85       944       487       888
 -1     38205    3    0    1
 -2        24       821       421       422
 -1     38206    3    0    1
 -2       856      1500      1501       898
 -1     38207    3    0    1
 -2      1070       562       563      1791
 -1     38208    3    0    1
 -2      2701      4395      4354      4396
 -1     38209    3    0    1
 -2      1531      1600       947      2278
 -1     38210    3    0    1
 -2       125      1060      1042       589
 -1     38211    3    0    1
 -2      2142       371       796       773
 -1     38212    3    0    1
 -2      1240       269       643      1907
 -1     38213    3    0    1
 -2      2135       343       762      1447
 -1     38214    3    0    1
 -2      1201      1225       659      1917
 -1     38215    3    0    1
 -2       331      1344      1318       711
 -1     38216    3    0    1
 -2       665       161       686       229
 -1     38217    3    0    1
 -2      5951      5572      5532      6613
 -1     38218    3    0    1
 -2      5618      5955      5617      6656
 -1     38219    3    0    1
 -2       163       261       260       161
 -1     38220    3    0    1
 -2      1084      1083       535      1129
 -1     38221    3    0    1
 -2      2900       201      1037      2917
 -1     38222    3    0    1
 -2       205      1055      1041       544
 -1     38223    3    0    1
 -2       850      1530      1529      2249
 -1     38224    3    0    1
 -2      2919      4060      3469      4078
 -1     38225    3    0    1
 -2      1629      2784      3971      3942
 -1     38226    3    0    1
 -2      2081      2599      2097      3148
 -1     38227    3    0    1
 -2      1715      2346      1764      2856
 -1     38228    3    0    1
 -2      2142       371       773      2676
 -1     38229    3    0    1
 -2       320       760      1369      1312
 -1     38230    3    0    1
 -2      3227      3795      2129      3752
 -1     38231    3    0    1
 -2       790      3833      3251      3230
 -1     38232    3    0    1
 -2      3216      2142      2131      3232
 -1     38233    3    0    1
 -2      3631      4218      3688      4193
 -1     38234    3    0    1
 -2      1959      3631      3688      1912
 -1     38235    3    0    1
 -2      4851      4181      4876      3030
 -1     38236    3    0    1
 -2      5963      4871      5623      5653
 -1     38237    3    0    1
 -2      4206      3139      3111      3699
 -1     38238    3    0    1
 -2      1810      2425      1825      2997
 -1     38239    3    0    1
 -2      3706      3624      2474      3685
 -1     38240    3    0    1
 -2      4523      3581      4115      3623
 -1     38241    3    0    1
 -2      5288      6584      6601      5977
 -1     38242    3    0    1
 -2      4414      5482      5062      5255
 -1     38243    3    0    1
 -2      6638      5288      6601      5990
 -1     38244    3    0    1
 -2      4260      5156      4657      4895
 -1     38245    3    0    1
 -2      6959      6962      6961      7609
 -1     38246    3    0    1
 -2      6828      6998      6889      6935
 -1     38247    3    0    1
 -2      8065      8522      8468      9257
 -1     38248    3    0    1
 -2      9292      9662      9531      8945
 -1     38249    3    0    1
 -2      6991      8421      8460      5693
 -1     38250    3    0    1
 -2      4782      5904      5504      5535
 -1     38251    3    0    1
 -2      8579      8996      9320      9556
 -1     38252    3    0    1
 -2      8168      8236      8206      7816
 -1     38253    3    0    1
 -2      8599      7137      8179      9019
 -1     38254    3    0    1
 -2      7205      8175      7182      8624
 -1     38255    3    0    1
 -2      6602      6601      7367      6638
 -1     38256    3    0    1
 -2      6184      6183      7159      6237
 -1     38257    3    0    1
 -2      7300      6303      5485      7268
 -1     38258    3    0    1
 -2      5891      7387      7371      7351
 -1     38259    3    0    1
 -2      6355      6441      6406      5490
 -1     38260    3    0    1
 -2      6688      6625      7932      6645
 -1     38261    3    0    1
 -2      5273      6588      6501      5544
 -1     38262    3    0    1
 -2      5478      6347      6346      6348
 -1     38263    3    0    1
 -2      8192      7743      9025      7148
 -1     38264    3    0    1
 -2      8630      7211      7782      8619
 -1     38265    3    0    1
 -2      8185      6285      7190      8183
 -1     38266    3    0    1
 -2      8728      8281      7330      8730
 -1     38267    3    0    1
 -2      8128      9325      9029      8129
 -1     38268    3    0    1
 -2      9342      9008      9322      9039
 -1     38269    3    0    1
 -2      9300      8143      9324      8585
 -1     38270    3    0    1
 -2      8586      7119      8127      8128
 -1     38271    3    0    1
 -2      5470      4995      5425      4993
 -1     38272    3    0    1
 -2      8152      7151      6218      8616
 -1     38273    3    0    1
 -2       411        28       799      1461
 -1     38274    3    0    1
 -2      6478      6481      6480      7344
 -1     38275    3    0    1
 -2      1131      3508      4069      3559
 -1     38276    3    0    1
 -2      7264      7800      7799      9073
 -1     38277    3    0    1
 -2      7835      7263      7278      8696
 -1     38278    3    0    1
 -2      9411      7316      9393      9394
 -1     38279    3    0    1
 -2      6552      8757      8302      7905
 -1     38280    3    0    1
 -2      9613      7921      9624      7400
 -1     38281    3    0    1
 -2      9624      7921      9457      7400
 -1     38282    3    0    1
 -2      5982      6606      5600      6626
 -1     38283    3    0    1
 -2      4863      4164      4559      4844
 -1     38284    3    0    1
 -2      9239      9539      9649      8961
 -1     38285    3    0    1
 -2      3840      4663      4943      4320
 -1     38286    3    0    1
 -2      8978      9518      8958      9647
 -1     38287    3    0    1
 -2      9271      9521      8537      8558
 -1     38288    3    0    1
 -2      9523      8936      8541      8966
 -1     38289    3    0    1
 -2      1442      3838      3255      3241
 -1     38290    3    0    1
 -2      5699      5160      5161      5700
 -1     38291    3    0    1
 -2      6969      7658      7619      7067
 -1     38292    3    0    1
 -2      5950      6608      7428      6628
 -1     38293    3    0    1
 -2      5571      6573      5913      6612
 -1     38294    3    0    1
 -2      5666      7437      5986      7975
 -1     38295    3    0    1
 -2      3639      5145      4176      4568
 -1     38296    3    0    1
 -2      3205      4203      3717      3718
 -1     38297    3    0    1
 -2      2953      4503      4088      4095
 -1     38298    3    0    1
 -2      1567      3358      3332      1568
 -1     38299    3    0    1
 -2      4499      3507      4454      4093
 -1     38300    3    0    1
 -2      4219      3652      3105      4220
 -1     38301    3    0    1
 -2      3242       780      3257      3839
 -1     38302    3    0    1
 -2      4621      5161      5160      4622
 -1     38303    3    0    1
 -2      3254      4296      3172      4297
 -1     38304    3    0    1
 -2      4648      3206      3750      4681
 -1     38305    3    0    1
 -2      3117      3182      3751      2039
 -1     38306    3    0    1
 -2      2672      3245      3246      2650
 -1     38307    3    0    1
 -2      1288       346       753       721
 -1     38308    3    0    1
 -2      2614       744      3783      1316
 -1     38309    3    0    1
 -2      2034      3702      2570      3746
 -1     38310    3    0    1
 -2      2034      1972      1321      2570
 -1     38311    3    0    1
 -2      1971      2016      1320      2542
 -1     38312    3    0    1
 -2      1969      1991      1968      1884
 -1     38313    3    0    1
 -2      2383      2384      1776      2881
 -1     38314    3    0    1
 -2      3953      2855      2846      3463
 -1     38315    3    0    1
 -2      2952      4490      3509      4088
 -1     38316    3    0    1
 -2      1081      3455      3454      3456
 -1     38317    3    0    1
 -2      1078      4000      1745      3480
 -1     38318    3    0    1
 -2      2893      4801      4032      4083
 -1     38319    3    0    1
 -2      4357      4987      4708      4371
 -1     38320    3    0    1
 -2      3411      3364      2821      3953
 -1     38321    3    0    1
 -2      2345       541      2388      1090
 -1     38322    3    0    1
 -2      2189      3904      3305      2774
 -1     38323    3    0    1
 -2      1646      2242       975      2291
 -1     38324    3    0    1
 -2      2244      2773      3335      3362
 -1     38325    3    0    1
 -2      1089       199       607      1054
 -1     38326    3    0    1
 -2      1737      1710      1120      2364
 -1     38327    3    0    1
 -2       295      1387      1348       763
 -1     38328    3    0    1
 -2      7664      9272      9285      8538
 -1     38329    3    0    1
 -2      2662      4284      3782      4675
 -1     38330    3    0    1
 -2      8364      6758      7484      8341
 -1     38331    3    0    1
 -2      4544      5655      5089      5119
 -1     38332    3    0    1
 -2      6585      6603      6561      7417
 -1     38333    3    0    1
 -2      1649      3976      2311      3949
 -1     38334    3    0    1
 -2      5649      7463      6754      6631
 -1     38335    3    0    1
 -2       764      3259      2670      2671
 -1     38336    3    0    1
 -2      3629      3029      3588      2484
 -1     38337    3    0    1
 -2      6979      6944      6945      7624
 -1     38338    3    0    1
 -2      4416      3466      4414      4417
 -1     38339    3    0    1
 -2       105       976       481      2243
 -1     38340    3    0    1
 -2      1981      3107      2522      2563
 -1     38341    3    0    1
 -2      8207      7772      7204      8658
 -1     38342    3    0    1
 -2      7839      7323      6456      8272
 -1     38343    3    0    1
 -2      7550      7500      6788      8405
 -1     38344    3    0    1
 -2      1008      1009       520      1697
 -1     38345    3    0    1
 -2      6602      6601      6638      6621
 -1     38346    3    0    1
 -2      9411      9612      9394      9393
 -1     38347    3    0    1
 -2      1871      1851      1180      1872
 -1     38348    3    0    1
 -2      8903      8475      7608      8904
 -1     38349    3    0    1
 -2      8578      7706      5793      9672
 -1     38350    3    0    1
 -2      2175      2728      2729      3261
 -1     38351    3    0    1
 -2      9451      9202      9151      8802
 -1     38352    3    0    1
 -2      9451      9151      9202      9466
 -1     38353    3    0    1
 -2      9151      9202      7915      8802
 -1     38354    3    0    1
 -2      7915      9202      7949      8802
 -1     38355    3    0    1
 -2      7996      7465      6863      8416
 -1     38356    3    0    1
 -2      7996      6863      7465      6029
 -1     38357    3    0    1
 -2      1902      3614      1178      2441
 -1     38358    3    0    1
 -2      1902      1178      3614      3067
 -1     38359    3    0    1
 -2      2948      4453      4499      4452
 -1     38360    3    0    1
 -2      2948      4499      4453      3422
 -1     38361    3    0    1
 -2      1231       265      1230       671
 -1     38362    3    0    1
 -2      1231      1230       265      1210
 -1     38363    3    0    1
 -2      2468       265      1230      1210
 -1     38364    3    0    1
 -2      6296      5463      7817      7204
 -1     38365    3    0    1
 -2      6296      7817      5463      6297
 -1     38366    3    0    1
 -2      7817      5463      8207      7204
 -1     38367    3    0    1
 -2      7817      8207      5463      6297
 -1     38368    3    0    1
 -2      8207      5463      7790      7204
 -1     38369    3    0    1
 -2      8207      7790      5463      6297
 -1     38370    3    0    1
 -2      2596      2043      2096      2597
 -1     38371    3    0    1
 -2      2596      2096      2043      2080
 -1     38372    3    0    1
 -2       775      1397      1343      1418
 -1     38373    3    0    1
 -2       775      1343      1397      1371
 -1     38374    3    0    1
 -2      2031      1343      1397      1418
 -1     38375    3    0    1
 -2      2031      1397      1343      1371
 -1     38376    3    0    1
 -2      3088      3657      3118      4233
 -1     38377    3    0    1
 -2      3088      3118      3657      2533
 -1     38378    3    0    1
 -2      1505      3305      1493      2220
 -1     38379    3    0    1
 -2      2774      3305      1505      2220
 -1     38380    3    0    1
 -2      2273      1505      2774       886
 -1     38381    3    0    1
 -2      3497       185       146       527
 -1     38382    3    0    1
 -2      3497       146       185      3538
 -1     38383    3    0    1
 -2       264      1923       669      1924
 -1     38384    3    0    1
 -2       264       669      1923      1262
 -1     38385    3    0    1
 -2      3474      4081      5019      5049
 -1     38386    3    0    1
 -2      5065      4081      5019      4430
 -1     38387    3    0    1
 -2      5462      4722      5402      5475
 -1     38388    3    0    1
 -2      5462      5402      4722      5430
 -1     38389    3    0    1
 -2        90       816       457       815
 -1     38390    3    0    1
 -2        90       457       816       458
 -1     38391    3    0    1
 -2      4241      3161      2062      3140
 -1     38392    3    0    1
 -2      4241      2062      3161      3815
 -1     38393    3    0    1
 -2      9376      9100      9670      9114
 -1     38394    3    0    1
 -2      9376      9670      9100      9600
 -1     38395    3    0    1
 -2      5916      8274      6559      7366
 -1     38396    3    0    1
 -2      5916      6559      8274      8275
 -1     38397    3    0    1
 -2      7888      6559      8274      7366
 -1     38398    3    0    1
 -2      7888      8274      6559      8275
 -1     38399    3    0    1
 -2       744      2568      3783      1372
 -1     38400    3    0    1
 -2      5135      3610      5114      4567
 -1     38401    3    0    1
 -2      5135      5114      3610      4847
 -1     38402    3    0    1
 -2      4836      5114      4111      4567
 -1     38403    3    0    1
 -2      4836      4111      5114      4847
 -1     38404    3    0    1
 -2      5114      3610      4111      4567
 -1     38405    3    0    1
 -2      5114      4111      3610      4847
 -1     38406    3    0    1
 -2       741      1276      2611      3758
 -1     38407    3    0    1
 -2       741      2611      1276       740
 -1     38408    3    0    1
 -2      1277      2611      1276      3758
 -1     38409    3    0    1
 -2      1277      1276      2611       740
 -1     38410    3    0    1
 -2       809      2682       117      1463
 -1     38411    3    0    1
 -2       809       117      2682      2241
 -1     38412    3    0    1
 -2       808       117      2682      1463
 -1     38413    3    0    1
 -2      9639      9368      7358      7367
 -1     38414    3    0    1
 -2      7358      9587      9639      7367
 -1     38415    3    0    1
 -2      1446       375       285       323
 -1     38416    3    0    1
 -2      1446       285       375      2153
 -1     38417    3    0    1
 -2       286       285       375       323
 -1     38418    3    0    1
 -2      5945      8345      9451      7405
 -1     38419    3    0    1
 -2       449       897       896       448
 -1     38420    3    0    1
 -2       896       897       449       895
 -1     38421    3    0    1
 -2       896      2694       449       448
 -1     38422    3    0    1
 -2      4249      4910      4667      4911
 -1     38423    3    0    1
 -2      4249      4667      4910      4640
 -1     38424    3    0    1
 -2      4922      4910      4667      4640
 -1     38425    3    0    1
 -2      5119      5090      4544      4137
 -1     38426    3    0    1
 -2      4100      4544      5090      4137
 -1     38427    3    0    1
 -2      4100      5090      4544      4822
 -1     38428    3    0    1
 -2        88        13       488        87
 -1     38429    3    0    1
 -2        88       488        13        78
 -1     38430    3    0    1
 -2      5455      7193      6209      6254
 -1     38431    3    0    1
 -2      5455      6209      7193      7221
 -1     38432    3    0    1
 -2      2181      2771       476      2180
 -1     38433    3    0    1
 -2      2181       476      2771      2232
 -1     38434    3    0    1
 -2      7915      8345      9151      5945
 -1     38435    3    0    1
 -2      9451      9151      8345      5945
 -1     38436    3    0    1
 -2      9451      8345      9151      9466
 -1     38437    3    0    1
 -2      9456      7409      9471      9623
 -1     38438    3    0    1
 -2      9471      7409      9456      7950
 -1     38439    3    0    1
 -2      9638      7402      7919      9422
 -1     38440    3    0    1
 -2      7919      7402      9638      7409
 -1     38441    3    0    1
 -2      6128      9580      8165      8565
 -1     38442    3    0    1
 -2      6128      8165      9580      9061
 -1     38443    3    0    1
 -2      9335      8165      9568      8565
 -1     38444    3    0    1
 -2      9335      9568      8165      9061
 -1     38445    3    0    1
 -2      8165      9580      9568      8565
 -1     38446    3    0    1
 -2      8165      9568      9580      9061
 -1     38447    3    0    1
 -2      9447      7417      9171      9448
 -1     38448    3    0    1
 -2      9447      9171      7417      7911
 -1     38449    3    0    1
 -2      8384      7479      8348      8785
 -1     38450    3    0    1
 -2      8384      8348      7479      6767
 -1     38451    3    0    1
 -2      8348      6752      7479      6767
 -1     38452    3    0    1
 -2      2975      3500       564      2909
 -1     38453    3    0    1
 -2      2975       564      3500      2920
 -1     38454    3    0    1
 -2       146       564      3500      2909
 -1     38455    3    0    1
 -2       146      3500       564      2920
 -1     38456    3    0    1
 -2      9581      7133      9570      9047
 -1     38457    3    0    1
 -2      9423      7400      6633      6617
 -1     38458    3    0    1
 -2      9423      6633      7400      9634
 -1     38459    3    0    1
 -2      6090      9478      6918      8886
 -1     38460    3    0    1
 -2      6090      6918      9478      8049
 -1     38461    3    0    1
 -2      8029      6918      9478      8886
 -1     38462    3    0    1
 -2      8029      9478      6918      8049
 -1     38463    3    0    1
 -2       382       337       338       339
 -1     38464    3    0    1
 -2       338       362       382       339
 -1     38465    3    0    1
 -2       568      3009      3555      3540
 -1     38466    3    0    1
 -2      3555      3009       568       213
 -1     38467    3    0    1
 -2      2391      3521      1734      2405
 -1     38468    3    0    1
 -2      2391      1734      3521      4023
 -1     38469    3    0    1
 -2      1733      1734      3521      2405
 -1     38470    3    0    1
 -2      1733      3521      1734      4023
 -1     38471    3    0    1
 -2      9639      9588      7367      9627
 -1     38472    3    0    1
 -2      7367      9588      9639      9368
 -1     38473    3    0    1
 -2       590      2940       143      2460
 -1     38474    3    0    1
 -2       143      2940       590      2938
 -1     38475    3    0    1
 -2      2940       183       143      2460
 -1     38476    3    0    1
 -2       143       183      2940      2938
 -1     38477    3    0    1
 -2      2940       224       183      2460
 -1     38478    3    0    1
 -2      7149      7171      9343      7150
 -1     38479    3    0    1
 -2      9343      7171      7149      7713
 -1     38480    3    0    1
 -2      9343      9355      7149      7150
 -1     38481    3    0    1
 -2      7149      9355      9343      7713
 -1     38482    3    0    1
 -2      3573       255       154       188
 -1     38483    3    0    1
 -2      2789      2269      3295      1561
 -1     38484    3    0    1
 -2      2789      3295      2269      3378
 -1     38485    3    0    1
 -2      5086      4871      4513      4820
 -1     38486    3    0    1
 -2       559      1048      2936       523
 -1     38487    3    0    1
 -2      3415      2936      1048       523
 -1     38488    3    0    1
 -2      3415      1048      2936      2341
 -1     38489    3    0    1
 -2       654       254      3594      3620
 -1     38490    3    0    1
 -2      1937      3594       254      3620
 -1     38491    3    0    1
 -2       683      1200      3010       656
 -1     38492    3    0    1
 -2       683      3010      1200      1915
 -1     38493    3    0    1
 -2      3035      3010      1200       656
 -1     38494    3    0    1
 -2      3035      1200      3010      1915
 -1     38495    3    0    1
 -2      2568      2663       744      3783
 -1     38496    3    0    1
 -2      2568       744      2663      1439
 -1     38497    3    0    1
 -2      2614       744      2663      3783
 -1     38498    3    0    1
 -2      7417      9640      7953      9448
 -1     38499    3    0    1
 -2      7417      7953      9640      9617
 -1     38500    3    0    1
 -2      9200      7953      9640      9448
 -1     38501    3    0    1
 -2      9200      9640      7953      9617
 -1     38502    3    0    1
 -2      7171      7149      5797      7150
 -1     38503    3    0    1
 -2      5797      7149      7171      5796
 -1     38504    3    0    1
 -2      6617      9141      9094      6634
 -1     38505    3    0    1
 -2      3159      2140      3249      3207
 -1     38506    3    0    1
 -2      9039      6142      6275      7192
 -1     38507    3    0    1
 -2      1101      1771      1683      1803
 -1     38508    3    0    1
 -2      3505      1683      1771      1803
 -1     38509    3    0    1
 -2      3505      1771      1683      2372
 -1     38510    3    0    1
 -2       405        93        19        43
 -1     38511    3    0    1
 -2       405        19        93      1454
 -1     38512    3    0    1
 -2      7150      9577      9312      9356
 -1     38513    3    0    1
 -2      2740       935      2179      2739
 -1     38514    3    0    1
 -2      2989       670       216       594
 -1     38515    3    0    1
 -2      9617      7953      6585      7417
 -1     38516    3    0    1
 -2      9617      6585      7953      9200
 -1     38517    3    0    1
 -2       224      2940      2939      2460
 -1     38518    3    0    1
 -2      2939      2940       224       144
 -1     38519    3    0    1
 -2      2939       250       224      2460
 -1     38520    3    0    1
 -2       224       250      2939       144
 -1     38521    3    0    1
 -2      7360      9637      9621      7392
 -1     38522    3    0    1
 -2      9621      9599      7360      7392
 -1     38523    3    0    1
 -2      2717       485       110       444
 -1     38524    3    0    1
 -2      2717       110       485       486
 -1     38525    3    0    1
 -2      5019      4081      4429      4430
 -1     38526    3    0    1
 -2      5019      4429      4081      3474
 -1     38527    3    0    1
 -2      4024      4429      4081      4430
 -1     38528    3    0    1
 -2      4024      4081      4429      3474
 -1     38529    3    0    1
 -2      6008      6612      6734      9180
 -1     38530    3    0    1
 -2      6650      6734      6612      9180
 -1     38531    3    0    1
 -2      7132      6131      8567      8566
 -1     38532    3    0    1
 -2      8567      6131      7132      7133
 -1     38533    3    0    1
 -2      8567      9581      7132      8566
 -1     38534    3    0    1
 -2      7132      9581      8567      7133
 -1     38535    3    0    1
 -2      9423      7400      9141      9396
 -1     38536    3    0    1
 -2      9423      9141      7400      6617
 -1     38537    3    0    1
 -2      9094      9141      7400      9396
 -1     38538    3    0    1
 -2      9094      7400      9141      6617
 -1     38539    3    0    1
 -2      9222      7100      9245      8057
 -1     38540    3    0    1
 -2       516      2353      1000       515
 -1     38541    3    0    1
 -2      1000      2353       516      2906
 -1     38542    3    0    1
 -2      6743      5653      8367      7466
 -1     38543    3    0    1
 -2      6743      8367      5653      6775
 -1     38544    3    0    1
 -2       229      2947       686      2451
 -1     38545    3    0    1
 -2       229       686      2947       161
 -1     38546    3    0    1
 -2       261       686      2947      2451
 -1     38547    3    0    1
 -2       261      2947       686       161
 -1     38548    3    0    1
 -2      2245      2188      2189      3338
 -1     38549    3    0    1
 -2      2245      2189      2188       107
 -1     38550    3    0    1
 -2       946        88      2250       503
 -1     38551    3    0    1
 -2      2250        88       946       945
 -1     38552    3    0    1
 -2      2250      2743       946       503
 -1     38553    3    0    1
 -2       946      2743      2250       945
 -1     38554    3    0    1
 -2      9035      7163      9049      7780
 -1     38555    3    0    1
 -2      9035      9049      7163      9063
 -1     38556    3    0    1
 -2      7809      9049      7163      7780
 -1     38557    3    0    1
 -2      7809      7163      9049      9063
 -1     38558    3    0    1
 -2      3253      2664      1429      2144
 -1     38559    3    0    1
 -2      1344      2664      1429      3239
 -1     38560    3    0    1
 -2      9297      9498      8964      9540
 -1     38561    3    0    1
 -2      9297      8964      9498      8111
 -1     38562    3    0    1
 -2      8988      8581      9354      9557
 -1     38563    3    0    1
 -2      8988      9354      8581      8580
 -1     38564    3    0    1
 -2      3011      3037      3636      2983
 -1     38565    3    0    1
 -2      3011      3636      3037      3012
 -1     38566    3    0    1
 -2      8896      9255      8022      8880
 -1     38567    3    0    1
 -2       189       154      2910      3573
 -1     38568    3    0    1
 -2      6128      9045      9335      8165
 -1     38569    3    0    1
 -2      6128      9335      9045      8625
 -1     38570    3    0    1
 -2       261      2947      2946      2451
 -1     38571    3    0    1
 -2      2946      2947       261       163
 -1     38572    3    0    1
 -2      2946       260       261      2451
 -1     38573    3    0    1
 -2       261       260      2946       163
 -1     38574    3    0    1
 -2      3013      1204      3557      3040
 -1     38575    3    0    1
 -2      1228       230       194       262
 -1     38576    3    0    1
 -2       194       230      1228      3003
 -1     38577    3    0    1
 -2       194       215      1228       262
 -1     38578    3    0    1
 -2      1228       215       194      3003
 -1     38579    3    0    1
 -2      9599      7360      9099      9375
 -1     38580    3    0    1
 -2      9099      7360      9599      7406
 -1     38581    3    0    1
 -2       766      3186      2127       727
 -1     38582    3    0    1
 -2      2127      3186       766      2652
 -1     38583    3    0    1
 -2      9637      6626      9469      9621
 -1     38584    3    0    1
 -2      9000      7124      9074      7724
 -1     38585    3    0    1
 -2      9000      9074      7124      8647
 -1     38586    3    0    1
 -2      6232      9074      7124      7724
 -1     38587    3    0    1
 -2      6232      7124      9074      8647
 -1     38588    3    0    1
 -2      9340      9006      9672      9299
 -1     38589    3    0    1
 -2      9340      9672      9006      9038
 -1     38590    3    0    1
 -2      8022      9255      7588      8880
 -1     38591    3    0    1
 -2      7588      9255      8022      6987
 -1     38592    3    0    1
 -2      6633      9473      7962      7921
 -1     38593    3    0    1
 -2      6633      7962      9473      7977
 -1     38594    3    0    1
 -2      2917       201       540       199
 -1     38595    3    0    1
 -2      2917       540       201      1037
 -1     38596    3    0    1
 -2      4092      1802      2891      3540
 -1     38597    3    0    1
 -2      4092      2891      1802      3523
 -1     38598    3    0    1
 -2       914      2180       476      2771
 -1     38599    3    0    1
 -2       476      2180       914       437
 -1     38600    3    0    1
 -2      5730      4680      5203      4923
 -1     38601    3    0    1
 -2      5730      5203      4680      5778
 -1     38602    3    0    1
 -2      1755      1783      1756      1086
 -1     38603    3    0    1
 -2      1755      1756      1783      2397
 -1     38604    3    0    1
 -2      3461      1756      3527      1086
 -1     38605    3    0    1
 -2      3461      3527      1756      2397
 -1     38606    3    0    1
 -2      1756      1783      3527      1086
 -1     38607    3    0    1
 -2      1756      3527      1783      2397
 -1     38608    3    0    1
 -2      7635      9483      9484      8102
 -1     38609    3    0    1
 -2      9484      9483      7635      8879
 -1     38610    3    0    1
 -2       189       572      2910       571
 -1     38611    3    0    1
 -2      2910       572       189       573
 -1     38612    3    0    1
 -2      5750      7096      7039      6114
 -1     38613    3    0    1
 -2      5750      7039      7096      7095
 -1     38614    3    0    1
 -2      1284      1976      2559      1285
 -1     38615    3    0    1
 -2      1284      2559      1976      3716
 -1     38616    3    0    1
 -2      6352      5467      7304      6351
 -1     38617    3    0    1
 -2      6352      7304      5467      6353
 -1     38618    3    0    1
 -2      7793      7304      5467      6351
 -1     38619    3    0    1
 -2      7793      5467      7304      6353
 -1     38620    3    0    1
 -2      9039      7770      6142      9342
 -1     38621    3    0    1
 -2      9039      6142      7770      6275
 -1     38622    3    0    1
 -2      9200      9436      6585      9172
 -1     38623    3    0    1
 -2      9200      6585      9436      9415
 -1     38624    3    0    1
 -2      7893      6585      9436      9172
 -1     38625    3    0    1
 -2      7893      9436      6585      9415
 -1     38626    3    0    1
 -2      6823      5658      7997      6822
 -1     38627    3    0    1
 -2      6823      7997      5658      6824
 -1     38628    3    0    1
 -2      7983      7997      5658      6822
 -1     38629    3    0    1
 -2      7983      5658      7997      6824
 -1     38630    3    0    1
 -2       308       310      2674       311
 -1     38631    3    0    1
 -2      2674       310       308       359
 -1     38632    3    0    1
 -2      5579      6635      6715      6581
 -1     38633    3    0    1
 -2      5579      6715      6635      5309
 -1     38634    3    0    1
 -2      6623      9171      8798      7911
 -1     38635    3    0    1
 -2      8798      9171      6623      5978
 -1     38636    3    0    1
 -2      8798      7892      6623      7911
 -1     38637    3    0    1
 -2      6623      7892      8798      5978
 -1     38638    3    0    1
 -2      9534      8104      9489      9502
 -1     38639    3    0    1
 -2      9534      9489      8104      8950
 -1     38640    3    0    1
 -2      2717      1469       110       486
 -1     38641    3    0    1
 -2      3201       718      3150       719
 -1     38642    3    0    1
 -2      3201      3150       718      1327
 -1     38643    3    0    1
 -2      1326       718      3150      1327
 -1     38644    3    0    1
 -2      1867      4099      2967      3550
 -1     38645    3    0    1
 -2      1867      2967      4099      2458
 -1     38646    3    0    1
 -2      6494      6601      5484      5286
 -1     38647    3    0    1
 -2      6494      5484      6601      5905
 -1     38648    3    0    1
 -2      5056      5484      6601      5286
 -1     38649    3    0    1
 -2      5056      6601      5484      5905
 -1     38650    3    0    1
 -2       255       659      2497       272
 -1     38651    3    0    1
 -2       255      2497       659       630
 -1     38652    3    0    1
 -2      7402      9605      9411      9393
 -1     38653    3    0    1
 -2      9612      9411      9605      9393
 -1     38654    3    0    1
 -2      1200       629      3035       656
 -1     38655    3    0    1
 -2      1200      3035       629      1168
 -1     38656    3    0    1
 -2      6634      6617      8362      7410
 -1     38657    3    0    1
 -2      6712      6617      8362      9423
 -1     38658    3    0    1
 -2      6712      8362      6617      7410
 -1     38659    3    0    1
 -2      2656      1303       280      2040
 -1     38660    3    0    1
 -2      2656       280      1303       704
 -1     38661    3    0    1
 -2      5803      9044      9014      7721
 -1     38662    3    0    1
 -2      9014      9044      5803      8645
 -1     38663    3    0    1
 -2      9014      8145      5803      7721
 -1     38664    3    0    1
 -2      5803      8145      9014      8645
 -1     38665    3    0    1
 -2      5697      4665      4615      4901
 -1     38666    3    0    1
 -2      5697      4615      4665      4937
 -1     38667    3    0    1
 -2      1465       478      2184       938
 -1     38668    3    0    1
 -2      1465      2184       478       414
 -1     38669    3    0    1
 -2      9672      5419      5793      6246
 -1     38670    3    0    1
 -2      7991      9201      7947      8825
 -1     38671    3    0    1
 -2      7991      7947      9201      9173
 -1     38672    3    0    1
 -2      9464      7947      9201      8825
 -1     38673    3    0    1
 -2      9464      9201      7947      9173
 -1     38674    3    0    1
 -2      5653      7964      8367      7466
 -1     38675    3    0    1
 -2      2557      2032       743      2012
 -1     38676    3    0    1
 -2      2650       353      1349       784
 -1     38677    3    0    1
 -2      2650      1349       353       298
 -1     38678    3    0    1
 -2      5845      4955      5236      5811
 -1     38679    3    0    1
 -2      5845      5236      4955      4988
 -1     38680    3    0    1
 -2      4710      5236      4955      5811
 -1     38681    3    0    1
 -2      4710      4955      5236      4988
 -1     38682    3    0    1
 -2       256      3573       272       154
 -1     38683    3    0    1
 -2       256       272      3573      3011
 -1     38684    3    0    1
 -2       255       272      3573       154
 -1     38685    3    0    1
 -2      9317      6239      6129      9062
 -1     38686    3    0    1
 -2      9317      6129      6239      7730
 -1     38687    3    0    1
 -2      1319      1440       712       330
 -1     38688    3    0    1
 -2      1319       712      1440      2595
 -1     38689    3    0    1
 -2      1345       712      1319      2595
 -1     38690    3    0    1
 -2       713      1345      1319      2595
 -1     38691    3    0    1
 -2      9245      7615      7100      9222
 -1     38692    3    0    1
 -2      9245      7100      7615      8097
 -1     38693    3    0    1
 -2      6067      7615      7100      8097
 -1     38694    3    0    1
 -2      3758      2659      4308      3774
 -1     38695    3    0    1
 -2      3758      4308      2659      2641
 -1     38696    3    0    1
 -2      5472      5217      5799      5218
 -1     38697    3    0    1
 -2      5472      5799      5217      5426
 -1     38698    3    0    1
 -2      7045      8098      9236      8553
 -1     38699    3    0    1
 -2      7045      9236      8098      7638
 -1     38700    3    0    1
 -2      1045       601      2967       552
 -1     38701    3    0    1
 -2      2967       601      1045      1673
 -1     38702    3    0    1
 -2      2967      2906      1045       552
 -1     38703    3    0    1
 -2      1045      2906      2967      1673
 -1     38704    3    0    1
 -2      7875      9396      9624      9382
 -1     38705    3    0    1
 -2      9624      9396      7875      7400
 -1     38706    3    0    1
 -2      9035      8117      7163      7114
 -1     38707    3    0    1
 -2      9035      7163      8117      9063
 -1     38708    3    0    1
 -2      9040      8583      9343      9311
 -1     38709    3    0    1
 -2      9343      8583      9040      7713
 -1     38710    3    0    1
 -2      1218       645       644       678
 -1     38711    3    0    1
 -2       644       645      1218      2458
 -1     38712    3    0    1
 -2       644      1217      1218       678
 -1     38713    3    0    1
 -2      1218      1217       644      2458
 -1     38714    3    0    1
 -2      3021      2965      3625      3005
 -1     38715    3    0    1
 -2      3021      3625      2965      2964
 -1     38716    3    0    1
 -2      7179      6182      8603      8617
 -1     38717    3    0    1
 -2      8147      6182      8603      7727
 -1     38718    3    0    1
 -2      8147      8603      6182      8617
 -1     38719    3    0    1
 -2       497      2239      1591      2737
 -1     38720    3    0    1
 -2      7911      8705      7359      9120
 -1     38721    3    0    1
 -2      7359      8705      7911      5918
 -1     38722    3    0    1
 -2      8592      9328      7718      9578
 -1     38723    3    0    1
 -2      8592      7718      9328      8998
 -1     38724    3    0    1
 -2      2841      2891      2342      3434
 -1     38725    3    0    1
 -2      2841      2342      2891      1021
 -1     38726    3    0    1
 -2      2334      2342      2891      3434
 -1     38727    3    0    1
 -2      2334      2891      2342      1021
 -1     38728    3    0    1
 -2      3160      1427       704      1340
 -1     38729    3    0    1
 -2      3160       704      1427       769
 -1     38730    3    0    1
 -2       306       704      1427      1340
 -1     38731    3    0    1
 -2       306      1427       704       769
 -1     38732    3    0    1
 -2      4728      5465      4982      4969
 -1     38733    3    0    1
 -2      4728      4982      5465      4970
 -1     38734    3    0    1
 -2      3017      2929       638      3046
 -1     38735    3    0    1
 -2      3234      3760      2611      3252
 -1     38736    3    0    1
 -2      3234      2611      3760      3165
 -1     38737    3    0    1
 -2      7892      5918      8725      7386
 -1     38738    3    0    1
 -2      7892      8725      5918      8705
 -1     38739    3    0    1
 -2      9312      6148      6149      8125
 -1     38740    3    0    1
 -2      6149      6148      9312      9041
 -1     38741    3    0    1
 -2      6641      7914      5968      6588
 -1     38742    3    0    1
 -2      5968      7914      6641      6725
 -1     38743    3    0    1
 -2      6994      8872      7091      6064
 -1     38744    3    0    1
 -2      6994      7091      8872      9231
 -1     38745    3    0    1
 -2      7375      9086      6605      9390
 -1     38746    3    0    1
 -2       904      2785       960      1589
 -1     38747    3    0    1
 -2       100      2785       960       468
 -1     38748    3    0    1
 -2       100       960      2785      1589
 -1     38749    3    0    1
 -2      7720      9347      9044      8594
 -1     38750    3    0    1
 -2      9044      9347      7720      7156
 -1     38751    3    0    1
 -2      9643      9455      7463      9206
 -1     38752    3    0    1
 -2      6646      9439      6729      6590
 -1     38753    3    0    1
 -2      6646      6729      9439      7956
 -1     38754    3    0    1
 -2      9491      8953      9545      8551
 -1     38755    3    0    1
 -2      9545      8953      9491      9515
 -1     38756    3    0    1
 -2      7133      7697      9581      9570
 -1     38757    3    0    1
 -2      7133      9581      7697      7132
 -1     38758    3    0    1
 -2      1867      3619      2930      3023
 -1     38759    3    0    1
 -2      1867      2930      3619      3550
 -1     38760    3    0    1
 -2      9674      5979      9173      7947
 -1     38761    3    0    1
 -2      9674      9173      5979      7913
 -1     38762    3    0    1
 -2      7974      9196      6008      9180
 -1     38763    3    0    1
 -2      7974      6008      9196      7960
 -1     38764    3    0    1
 -2      7457      6008      9196      9180
 -1     38765    3    0    1
 -2      7457      9196      6008      7960
 -1     38766    3    0    1
 -2       313      2151       772      3195
 -1     38767    3    0    1
 -2       772      2151       313       370
 -1     38768    3    0    1
 -2      7913      8307      9674      9361
 -1     38769    3    0    1
 -2      9674      8307      7913      6535
 -1     38770    3    0    1
 -2      9647      9648      7640      8109
 -1     38771    3    0    1
 -2      9478      9648      7640      8049
 -1     38772    3    0    1
 -2      9478      7640      9648      8109
 -1     38773    3    0    1
 -2      5360      5337      6104      5344
 -1     38774    3    0    1
 -2      2455       672      2454       266
 -1     38775    3    0    1
 -2      2455      2454       672       636
 -1     38776    3    0    1
 -2       232      2454       672       266
 -1     38777    3    0    1
 -2       232       672      2454       636
 -1     38778    3    0    1
 -2      9391      6506      8691      7880
 -1     38779    3    0    1
 -2      8691      6506      9391      9110
 -1     38780    3    0    1
 -2      3001      2973      2460      2488
 -1     38781    3    0    1
 -2      3001      2460      2973      2939
 -1     38782    3    0    1
 -2      9324      6173      6150      9042
 -1     38783    3    0    1
 -2      6150      6173      9324      7714
 -1     38784    3    0    1
 -2      6664      6663      6759      6662
 -1     38785    3    0    1
 -2      7467      6759      6663      6662
 -1     38786    3    0    1
 -2      7467      6663      6759      7413
 -1     38787    3    0    1
 -2      2739       411       471        58
 -1     38788    3    0    1
 -2      2739       471       411      1461
 -1     38789    3    0    1
 -2      9031      6125      6236      7181
 -1     38790    3    0    1
 -2      6236      6125      9031      9334
 -1     38791    3    0    1
 -2       175       550      2905       549
 -1     38792    3    0    1
 -2       175      2905       550       599
 -1     38793    3    0    1
 -2      8895      7025      6060      7602
 -1     38794    3    0    1
 -2      8895      6060      7025      8089
 -1     38795    3    0    1
 -2      9344      9056      7777      9042
 -1     38796    3    0    1
 -2      9344      7777      9056      9070
 -1     38797    3    0    1
 -2      7786      7777      9056      9042
 -1     38798    3    0    1
 -2      7786      9056      7777      9070
 -1     38799    3    0    1
 -2       442        71       108       812
 -1     38800    3    0    1
 -2       442       108        71        72
 -1     38801    3    0    1
 -2        73       108        71       812
 -1     38802    3    0    1
 -2        73        71       108        72
 -1     38803    3    0    1
 -2      9622      6573      9378      9602
 -1     38804    3    0    1
 -2      9622      9378      6573      9603
 -1     38805    3    0    1
 -2      2664      3785      3239      3171
 -1     38806    3    0    1
 -2      9353      9341      7707      7775
 -1     38807    3    0    1
 -2      1199      3008      1251      3033
 -1     38808    3    0    1
 -2      1251      3008      1199       682
 -1     38809    3    0    1
 -2      9354      8582      7710      7711
 -1     38810    3    0    1
 -2      9354      7710      8582      9558
 -1     38811    3    0    1
 -2      8050      7106      8558      7663
 -1     38812    3    0    1
 -2      8558      7106      8050      9250
 -1     38813    3    0    1
 -2         6      1456         5        22
 -1     38814    3    0    1
 -2        79         5      1456        22
 -1     38815    3    0    1
 -2      8548      9511      9230      9645
 -1     38816    3    0    1
 -2      9230      9511      8548      7686
 -1     38817    3    0    1
 -2      7105      8961      7641      7660
 -1     38818    3    0    1
 -2      8556      8961      7641      9649
 -1     38819    3    0    1
 -2      8556      7641      8961      7660
 -1     38820    3    0    1
 -2      8927      8054      9480      8891
 -1     38821    3    0    1
 -2      8927      9480      8054      8101
 -1     38822    3    0    1
 -2      2989      1130       539      2951
 -1     38823    3    0    1
 -2      9365      9671      6599      9586
 -1     38824    3    0    1
 -2      6599      9671      9365      7357
 -1     38825    3    0    1
 -2      1711      1031       531       162
 -1     38826    3    0    1
 -2      1711       531      1031      1029
 -1     38827    3    0    1
 -2       194       195      2923       215
 -1     38828    3    0    1
 -2      2229      2169        80      2170
 -1     38829    3    0    1
 -2      2229        80      2169       462
 -1     38830    3    0    1
 -2      7684      9228      9242      8546
 -1     38831    3    0    1
 -2      9242      9228      7684      7636
 -1     38832    3    0    1
 -2      9242      7685      7684      8546
 -1     38833    3    0    1
 -2      7684      7685      9242      7636
 -1     38834    3    0    1
 -2      2772      2183       478       938
 -1     38835    3    0    1
 -2      2675       308       790      1309
 -1     38836    3    0    1
 -2      2675       790       308       311
 -1     38837    3    0    1
 -2       705       790       308      1309
 -1     38838    3    0    1
 -2       705       308       790       311
 -1     38839    3    0    1
 -2      7722      9348      9564      8595
 -1     38840    3    0    1
 -2      9564      9348      7722      7156
 -1     38841    3    0    1
 -2      1214       674      1154      1179
 -1     38842    3    0    1
 -2      1214      1154       674       673
 -1     38843    3    0    1
 -2      1142      1214      1154      1179
 -1     38844    3    0    1
 -2      1142      1154      1214       673
 -1     38845    3    0    1
 -2      2995      1214      1142      1179
 -1     38846    3    0    1
 -2      2995      1142      1214       673
 -1     38847    3    0    1
 -2       911      2241       936       474
 -1     38848    3    0    1
 -2       936      2241       911      2768
 -1     38849    3    0    1
 -2      2497       272      2943       255
 -1     38850    3    0    1
 -2      9132      9383      7907      8750
 -1     38851    3    0    1
 -2      9132      7907      9383      9606
 -1     38852    3    0    1
 -2      7882      7907      9383      8750
 -1     38853    3    0    1
 -2      7882      9383      7907      9606
 -1     38854    3    0    1
 -2      2173      3324      3854      3268
 -1     38855    3    0    1
 -2      3854      3324      2173      2172
 -1     38856    3    0    1
 -2      1896       666      1228      3637
 -1     38857    3    0    1
 -2      1896      1228       666       667
 -1     38858    3    0    1
 -2      9674      8307      9429      9370
 -1     38859    3    0    1
 -2      9674      9429      8307      6535
 -1     38860    3    0    1
 -2      6587      9429      8307      9370
 -1     38861    3    0    1
 -2      6587      8307      9429      6535
 -1     38862    3    0    1
 -2      6605      6625      8345      9438
 -1     38863    3    0    1
 -2      6605      8345      6625      6645
 -1     38864    3    0    1
 -2      8803      8345      6625      9438
 -1     38865    3    0    1
 -2      8803      6625      8345      6645
 -1     38866    3    0    1
 -2      1602      3346      1584      2802
 -1     38867    3    0    1
 -2      1602      1584      3346      2750
 -1     38868    3    0    1
 -2      2735      1584      3346      2802
 -1     38869    3    0    1
 -2      2735      3346      1584      2750
 -1     38870    3    0    1
 -2      2917      1038       540      1037
 -1     38871    3    0    1
 -2      3238       709      9668      2642
 -1     38872    3    0    1
 -2      3238      9668       709      1282
 -1     38873    3    0    1
 -2      1263      2469       266      1925
 -1     38874    3    0    1
 -2      2862       519      2932      2386
 -1     38875    3    0    1
 -2      2862      2932       519      1006
 -1     38876    3    0    1
 -2      1942      3040      3677      1256
 -1     38877    3    0    1
 -2      3677      3040      1942      3691
 -1     38878    3    0    1
 -2      1443       721      2159      3211
 -1     38879    3    0    1
 -2      1443      2159       721       347
 -1     38880    3    0    1
 -2       935      2179      2767      2740
 -1     38881    3    0    1
 -2      9109      9136      9371      9402
 -1     38882    3    0    1
 -2      9109      9371      9136      6589
 -1     38883    3    0    1
 -2      9594      9371      9136      9402
 -1     38884    3    0    1
 -2      9594      9136      9371      6589
 -1     38885    3    0    1
 -2      9583      7914      7861      9388
 -1     38886    3    0    1
 -2      9583      7861      7914      6537
 -1     38887    3    0    1
 -2       126       208      3531       173
 -1     38888    3    0    1
 -2       126      3531       208       219
 -1     38889    3    0    1
 -2      8707      7833      7845      9085
 -1     38890    3    0    1
 -2      8707      7845      7833      6463
 -1     38891    3    0    1
 -2       116      1460       496      2705
 -1     38892    3    0    1
 -2       116       496      1460      2266
 -1     38893    3    0    1
 -2      2787       496      1460      2705
 -1     38894    3    0    1
 -2      2787      1460       496      2266
 -1     38895    3    0    1
 -2      5027      4439      5057      5026
 -1     38896    3    0    1
 -2      5027      5057      4439      4440
 -1     38897    3    0    1
 -2      2366       528       149      1019
 -1     38898    3    0    1
 -2      2366       149       528      1049
 -1     38899    3    0    1
 -2      1228      3558       215      3003
 -1     38900    3    0    1
 -2      1228       215      3558       606
 -1     38901    3    0    1
 -2      7505      9193      8409      8841
 -1     38902    3    0    1
 -2      7505      8409      9193      7958
 -1     38903    3    0    1
 -2      1539      3313      2695      2746
 -1     38904    3    0    1
 -2      1539      2695      3313      3266
 -1     38905    3    0    1
 -2        59      2179      2739       807
 -1     38906    3    0    1
 -2       539       594      2989       197
 -1     38907    3    0    1
 -2       539      2989       594      1130
 -1     38908    3    0    1
 -2      2388       609      3548      2994
 -1     38909    3    0    1
 -2      2388      3548       609       203
 -1     38910    3    0    1
 -2      3797      2627      1360      3815
 -1     38911    3    0    1
 -2      7953      9171      7967      6722
 -1     38912    3    0    1
 -2      7967      9171      7953      8824
 -1     38913    3    0    1
 -2       348       794       346       721
 -1     38914    3    0    1
 -2      9443      6658      8792      9414
 -1     38915    3    0    1
 -2      2710      2233       916      2182
 -1     38916    3    0    1
 -2      2710       916      2233      2791
 -1     38917    3    0    1
 -2      6734      8385      8813      8831
 -1     38918    3    0    1
 -2      8385      5682      6734      7974
 -1     38919    3    0    1
 -2      6734      5682      8385      8831
 -1     38920    3    0    1
 -2      8385      6846      5682      7974
 -1     38921    3    0    1
 -2      5682      6846      8385      8831
 -1     38922    3    0    1
 -2      7104      7639      8555      7692
 -1     38923    3    0    1
 -2      7104      8555      7639      7640
 -1     38924    3    0    1
 -2      9495      8555      7639      7692
 -1     38925    3    0    1
 -2      9495      7639      8555      7640
 -1     38926    3    0    1
 -2      3640      2990      2453      2468
 -1     38927    3    0    1
 -2       265      2453      2990      2468
 -1     38928    3    0    1
 -2       265      2990      2453      2991
 -1     38929    3    0    1
 -2      2949      1228       230      3003
 -1     38930    3    0    1
 -2       230      1228      2949       263
 -1     38931    3    0    1
 -2      7316      5511      7317      6414
 -1     38932    3    0    1
 -2      7316      7317      5511      7355
 -1     38933    3    0    1
 -2      5853      8201      5834      7199
 -1     38934    3    0    1
 -2      5853      5834      8201      7153
 -1     38935    3    0    1
 -2      6261      5834      8201      7199
 -1     38936    3    0    1
 -2      6261      8201      5834      7153
 -1     38937    3    0    1
 -2      8106      9490      9221      8952
 -1     38938    3    0    1
 -2      9221      9490      8106      8042
 -1     38939    3    0    1
 -2      8709      7407      7354      5936
 -1     38940    3    0    1
 -2      7354      7407      8709      9377
 -1     38941    3    0    1
 -2      6066      6067      8097      6967
 -1     38942    3    0    1
 -2       604      3554       654      1800
 -1     38943    3    0    1
 -2       654      3554       604       251
 -1     38944    3    0    1
 -2        56      2266       102       116
 -1     38945    3    0    1
 -2       102      2266        56        25
 -1     38946    3    0    1
 -2      6665      6663      6759      6664
 -1     38947    3    0    1
 -2      6665      6759      6663      7413
 -1     38948    3    0    1
 -2      8368      6665      6759      6664
 -1     38949    3    0    1
 -2      8368      6759      6665      7413
 -1     38950    3    0    1
 -2      6744      6665      8368      6664
 -1     38951    3    0    1
 -2      6744      8368      6665      7413
 -1     38952    3    0    1
 -2      9250      7012      7623      7622
 -1     38953    3    0    1
 -2      7623      7012      9250      8050
 -1     38954    3    0    1
 -2      6521      6551      5555      5512
 -1     38955    3    0    1
 -2      6521      5555      6551      5937
 -1     38956    3    0    1
 -2      9587      9368      7358      9639
 -1     38957    3    0    1
 -2      9587      7358      9368      9106
 -1     38958    3    0    1
 -2       522      2908      3415       523
 -1     38959    3    0    1
 -2      3415      2908       522      1009
 -1     38960    3    0    1
 -2      9503      7688      7611      8095
 -1     38961    3    0    1
 -2      7611      7688      9503      8042
 -1     38962    3    0    1
 -2      6106      9227      8541      7693
 -1     38963    3    0    1
 -2      6617      9141      8362      9423
 -1     38964    3    0    1
 -2      6617      8362      9141      6634
 -1     38965    3    0    1
 -2      2994      3643       636      2455
 -1     38966    3    0    1
 -2       636      3643      2994      2993
 -1     38967    3    0    1
 -2      6488      5962      6487      7909
 -1     38968    3    0    1
 -2      6488      6487      5962      5941
 -1     38969    3    0    1
 -2      6582      6487      5962      7909
 -1     38970    3    0    1
 -2      6582      5962      6487      5941
 -1     38971    3    0    1
 -2      8936      6106      9227      8541
 -1     38972    3    0    1
 -2      9227      6106      8936      8878
 -1     38973    3    0    1
 -2      1233      2996      1833      2449
 -1     38974    3    0    1
 -2      1233      1833      2996       267
 -1     38975    3    0    1
 -2      6714      6713      6018      6016
 -1     38976    3    0    1
 -2      6018      6713      6714      7520
 -1     38977    3    0    1
 -2      6018      6757      6714      6016
 -1     38978    3    0    1
 -2      6714      6757      6018      7520
 -1     38979    3    0    1
 -2      7057      8926      7110      8053
 -1     38980    3    0    1
 -2      7057      7110      8926      8113
 -1     38981    3    0    1
 -2      8362      7518      7977      8843
 -1     38982    3    0    1
 -2      8362      7977      7518      6712
 -1     38983    3    0    1
 -2      7840      6620      6491      9096
 -1     38984    3    0    1
 -2      5745      4608      5354      5712
 -1     38985    3    0    1
 -2      5745      5354      4608      4941
 -1     38986    3    0    1
 -2      4897      5354      4608      5712
 -1     38987    3    0    1
 -2      4897      4608      5354      4941
 -1     38988    3    0    1
 -2      2973      2488      4104      3057
 -1     38989    3    0    1
 -2      2973      4104      2488      3001
 -1     38990    3    0    1
 -2      9473      6633      9474      9457
 -1     38991    3    0    1
 -2      9474      6633      9473      7977
 -1     38992    3    0    1
 -2      3532       598      2959      1110
 -1     38993    3    0    1
 -2      3532      2959       598       620
 -1     38994    3    0    1
 -2      1158      2959       598      1110
 -1     38995    3    0    1
 -2      1158       598      2959       620
 -1     38996    3    0    1
 -2      5756      5705      4932      6072
 -1     38997    3    0    1
 -2      5756      4932      5705      5335
 -1     38998    3    0    1
 -2      5167      4932      5705      6072
 -1     38999    3    0    1
 -2      5167      5705      4932      5335
 -1     39000    3    0    1
 -2      7008      7678      9267      7069
 -1     39001    3    0    1
 -2      7008      9267      7678      8886
 -1     39002    3    0    1
 -2       246       244      1220       270
 -1     39003    3    0    1
 -2       246      1220       244       182
 -1     39004    3    0    1
 -2      6755      6652      8359      6614
 -1     39005    3    0    1
 -2      8359      6652      6755      6707
 -1     39006    3    0    1
 -2      3538      2920      4053      3497
 -1     39007    3    0    1
 -2      3538      4053      2920      3554
 -1     39008    3    0    1
 -2      2674       310      2675       311
 -1     39009    3    0    1
 -2      2674      2675       310       369
 -1     39010    3    0    1
 -2       790      2675       310       311
 -1     39011    3    0    1
 -2       790       310      2675       369
 -1     39012    3    0    1
 -2       449      2748       896       895
 -1     39013    3    0    1
 -2       449       896      2748      2694
 -1     39014    3    0    1
 -2      7372      7844      7860      8282
 -1     39015    3    0    1
 -2      7860      8314      7372      8282
 -1     39016    3    0    1
 -2      7372      8314      7860      7388
 -1     39017    3    0    1
 -2      1319      2144       711      2664
 -1     39018    3    0    1
 -2      8099      6104      9496      7641
 -1     39019    3    0    1
 -2      8099      9496      6104      8887
 -1     39020    3    0    1
 -2      9225      9496      6104      7641
 -1     39021    3    0    1
 -2      9225      6104      9496      8887
 -1     39022    3    0    1
 -2      2891       566      3540       567
 -1     39023    3    0    1
 -2      2891      3540       566      1019
 -1     39024    3    0    1
 -2       187      3540       566       567
 -1     39025    3    0    1
 -2       187       566      3540      1019
 -1     39026    3    0    1
 -2      1460        56      2705       116
 -1     39027    3    0    1
 -2      1460      2705        56       408
 -1     39028    3    0    1
 -2       430      2705        56       116
 -1     39029    3    0    1
 -2       430        56      2705       408
 -1     39030    3    0    1
 -2      4485      3540      4029      3502
 -1     39031    3    0    1
 -2      4485      4029      3540      4092
 -1     39032    3    0    1
 -2      2891      4029      3540      3502
 -1     39033    3    0    1
 -2      2891      3540      4029      4092
 -1     39034    3    0    1
 -2      6616      7349      6617      6522
 -1     39035    3    0    1
 -2      6616      6617      7349      6597
 -1     39036    3    0    1
 -2      7124      9016      8154      8132
 -1     39037    3    0    1
 -2      8154      9016      7124      8647
 -1     39038    3    0    1
 -2      8154      6177      7124      8132
 -1     39039    3    0    1
 -2      7124      6177      8154      8647
 -1     39040    3    0    1
 -2      6272      6135      7703      6167
 -1     39041    3    0    1
 -2      6272      7703      6135      6136
 -1     39042    3    0    1
 -2       606       535      3558      1140
 -1     39043    3    0    1
 -2       658       227      2943      1139
 -1     39044    3    0    1
 -2       658      2943       227       630
 -1     39045    3    0    1
 -2      5396      4344      5395      5456
 -1     39046    3    0    1
 -2      5396      5395      4344      4714
 -1     39047    3    0    1
 -2      4965      5395      4344      5456
 -1     39048    3    0    1
 -2      4965      4344      5395      4714
 -1     39049    3    0    1
 -2      3554       253       185       251
 -1     39050    3    0    1
 -2      3554       185       253      2920
 -1     39051    3    0    1
 -2       627       605      2975       225
 -1     39052    3    0    1
 -2      2975       605       627      1801
 -1     39053    3    0    1
 -2      2684      2233      2182      2232
 -1     39054    3    0    1
 -2      2684      2182      2233      2685
 -1     39055    3    0    1
 -2      1538      2692      2693      2256
 -1     39056    3    0    1
 -2      2693      2692      1538       854
 -1     39057    3    0    1
 -2      2693       893      1538      2256
 -1     39058    3    0    1
 -2      1538       893      2693       854
 -1     39059    3    0    1
 -2      4588      5115      5677      5146
 -1     39060    3    0    1
 -2       814      1452        89      2166
 -1     39061    3    0    1
 -2        89      1452       814        16
 -1     39062    3    0    1
 -2      8814      8791      6014      7433
 -1     39063    3    0    1
 -2      8814      6014      8791      7508
 -1     39064    3    0    1
 -2      6753      6014      8791      7433
 -1     39065    3    0    1
 -2      6753      8791      6014      7508
 -1     39066    3    0    1
 -2      2763      2705       430      2787
 -1     39067    3    0    1
 -2       430       496      2763      2787
 -1     39068    3    0    1
 -2      2763       496       430       908
 -1     39069    3    0    1
 -2      5909      8309      6442      7305
 -1     39070    3    0    1
 -2      6442      8309      5909      7847
 -1     39071    3    0    1
 -2       244       182      3569       245
 -1     39072    3    0    1
 -2       244      3569       182      1220
 -1     39073    3    0    1
 -2      1112      2930       517      2931
 -1     39074    3    0    1
 -2       517      2930      1112       554
 -1     39075    3    0    1
 -2      5706      5360      6104      6119
 -1     39076    3    0    1
 -2      6104      5360      5706      5337
 -1     39077    3    0    1
 -2      5911      6427      9076      9111
 -1     39078    3    0    1
 -2      5911      9076      6427      5494
 -1     39079    3    0    1
 -2      7834      9076      7864      5494
 -1     39080    3    0    1
 -2      7864      5911      9076      9111
 -1     39081    3    0    1
 -2      7864      9076      5911      5494
 -1     39082    3    0    1
 -2      6582      6487      9079      7879
 -1     39083    3    0    1
 -2      9079      6487      6582      7909
 -1     39084    3    0    1
 -2      9079      9385      6582      7879
 -1     39085    3    0    1
 -2      6582      9385      9079      7909
 -1     39086    3    0    1
 -2      7725      8559      9330      8560
 -1     39087    3    0    1
 -2      9547      9330      8559      8560
 -1     39088    3    0    1
 -2      9547      8559      9330      9566
 -1     39089    3    0    1
 -2       192      3556       259      3526
 -1     39090    3    0    1
 -2       259      3556       192       576
 -1     39091    3    0    1
 -2      6646      9453      6730      7956
 -1     39092    3    0    1
 -2      6646      6730      9453      7916
 -1     39093    3    0    1
 -2      2739        59      1462        82
 -1     39094    3    0    1
 -2      2739      1462        59       807
 -1     39095    3    0    1
 -2      8070      8946      9231      7091
 -1     39096    3    0    1
 -2      8070      9231      8946      8947
 -1     39097    3    0    1
 -2      9252      7110      8890      9286
 -1     39098    3    0    1
 -2      2921      3502      2891      3540
 -1     39099    3    0    1
 -2      2040      4257      2656      2555
 -1     39100    3    0    1
 -2      2040      2656      4257      3796
 -1     39101    3    0    1
 -2      9414      9584      7908      9384
 -1     39102    3    0    1
 -2      8872      7031      7574      8474
 -1     39103    3    0    1
 -2      8872      7574      7031      6064
 -1     39104    3    0    1
 -2      5493      4788      5024      5025
 -1     39105    3    0    1
 -2      5493      5024      4788      5549
 -1     39106    3    0    1
 -2       115       803         6        24
 -1     39107    3    0    1
 -2       115         6       803      1456
 -1     39108    3    0    1
 -2        23         6       803        24
 -1     39109    3    0    1
 -2        23       803         6      1456
 -1     39110    3    0    1
 -2      3545      4498      2875      4054
 -1     39111    3    0    1
 -2      4479      4498      2875      3457
 -1     39112    3    0    1
 -2      4479      2875      4498      4054
 -1     39113    3    0    1
 -2      2767       472      2179       935
 -1     39114    3    0    1
 -2      2179       472      2767       453
 -1     39115    3    0    1
 -2       130      2905       175      2962
 -1     39116    3    0    1
 -2       175      2905       130       132
 -1     39117    3    0    1
 -2      9668       709      1437      2642
 -1     39118    3    0    1
 -2      8632      7736      6272      6137
 -1     39119    3    0    1
 -2      8632      6272      7736      7703
 -1     39120    3    0    1
 -2      6136      6272      7736      6137
 -1     39121    3    0    1
 -2      6136      7736      6272      7703
 -1     39122    3    0    1
 -2      5934      5015      5540      5943
 -1     39123    3    0    1
 -2      5540      6566      5934      5943
 -1     39124    3    0    1
 -2      5934      6566      5540      5908
 -1     39125    3    0    1
 -2      5343      4929      4619      5333
 -1     39126    3    0    1
 -2      5343      4619      4929      4930
 -1     39127    3    0    1
 -2      7955      5658      7914      9175
 -1     39128    3    0    1
 -2      7955      7914      5658      6725
 -1     39129    3    0    1
 -2      1220      2935       142       247
 -1     39130    3    0    1
 -2      1220       142      2935      3569
 -1     39131    3    0    1
 -2      2388       202       200      3548
 -1     39132    3    0    1
 -2      2388       200       202       198
 -1     39133    3    0    1
 -2      2762      3289       879      2198
 -1     39134    3    0    1
 -2      2762       879      3289      1553
 -1     39135    3    0    1
 -2      3013       665      3557      1204
 -1     39136    3    0    1
 -2      3013      3557       665      2451
 -1     39137    3    0    1
 -2      2928      2918       125      2929
 -1     39138    3    0    1
 -2      2928       125      2918      1043
 -1     39139    3    0    1
 -2      4713      5425      4993      4712
 -1     39140    3    0    1
 -2      4713      4993      5425      4995
 -1     39141    3    0    1
 -2      9674      9449      5967      7947
 -1     39142    3    0    1
 -2      9674      5967      9449      9629
 -1     39143    3    0    1
 -2      6587      9449      5967      9629
 -1     39144    3    0    1
 -2      8830      9179      7456      8810
 -1     39145    3    0    1
 -2       560      2939       145       526
 -1     39146    3    0    1
 -2      2875      3457      2309      3400
 -1     39147    3    0    1
 -2      1664      3457      2309      1031
 -1     39148    3    0    1
 -2      7720      7156      8593      7122
 -1     39149    3    0    1
 -2      8593      7156      7720      9347
 -1     39150    3    0    1
 -2      5665      6849      7511      6848
 -1     39151    3    0    1
 -2      5665      7511      6849      6850
 -1     39152    3    0    1
 -2      7554      7511      6849      6848
 -1     39153    3    0    1
 -2      7554      6849      7511      6850
 -1     39154    3    0    1
 -2      8558      8050      8557      9527
 -1     39155    3    0    1
 -2      8557      8050      8558      7663
 -1     39156    3    0    1
 -2      1458        94        48        46
 -1     39157    3    0    1
 -2      1458        48        94       930
 -1     39158    3    0    1
 -2       274       697      2610       698
 -1     39159    3    0    1
 -2       274      2610       697       786
 -1     39160    3    0    1
 -2      2157       336      1442       289
 -1     39161    3    0    1
 -2       318       791       314       319
 -1     39162    3    0    1
 -2       318       314       791       797
 -1     39163    3    0    1
 -2      2611       791       314       797
 -1     39164    3    0    1
 -2       609       636      2994      1806
 -1     39165    3    0    1
 -2      3552      4474      3450      3494
 -1     39166    3    0    1
 -2      3552      3450      4474      3551
 -1     39167    3    0    1
 -2      2053      2616      3812      1391
 -1     39168    3    0    1
 -2      3812      2616      2053      2573
 -1     39169    3    0    1
 -2      3812      2052      2053      1391
 -1     39170    3    0    1
 -2      2053      2052      3812      2573
 -1     39171    3    0    1
 -2      4293      3776      3236      4683
 -1     39172    3    0    1
 -2      4293      3236      3776      3777
 -1     39173    3    0    1
 -2      5463      7790      6298      6297
 -1     39174    3    0    1
 -2      6298      7790      5463      7181
 -1     39175    3    0    1
 -2       257      2465       684       663
 -1     39176    3    0    1
 -2      3586      1850      2997      1825
 -1     39177    3    0    1
 -2      3586      2997      1850      3660
 -1     39178    3    0    1
 -2       654      3620       252       254
 -1     39179    3    0    1
 -2       654       252      3620       251
 -1     39180    3    0    1
 -2      9607      9364      6582      9664
 -1     39181    3    0    1
 -2      9607      6582      9364      7879
 -1     39182    3    0    1
 -2       354       390       357       356
 -1     39183    3    0    1
 -2      9002      7181      9316      9031
 -1     39184    3    0    1
 -2      2479      3587      2444      1836
 -1     39185    3    0    1
 -2      2444      3587      2479      3646
 -1     39186    3    0    1
 -2      5946      7338      8708      5910
 -1     39187    3    0    1
 -2      5946      8708      7338      6590
 -1     39188    3    0    1
 -2      4721      4751      3927      5005
 -1     39189    3    0    1
 -2      4999      4751      3927      4404
 -1     39190    3    0    1
 -2      4999      3927      4751      5005
 -1     39191    3    0    1
 -2      6732      7429      7479      6702
 -1     39192    3    0    1
 -2      6732      7479      7429      7937
 -1     39193    3    0    1
 -2      2460       590      1137       248
 -1     39194    3    0    1
 -2      1137       590      2460      3553
 -1     39195    3    0    1
 -2      1137      3007      2460       248
 -1     39196    3    0    1
 -2      2460      3007      1137      3553
 -1     39197    3    0    1
 -2      9670      9476      9642      9630
 -1     39198    3    0    1
 -2      9670      9642      9476      7959
 -1     39199    3    0    1
 -2      9364      6582      9385      7879
 -1     39200    3    0    1
 -2      9385      6582      9364      9585
 -1     39201    3    0    1
 -2      7959      9670      5950      9476
 -1     39202    3    0    1
 -2      5950      9670      7959      7428
 -1     39203    3    0    1
 -2       124      1785       122       171
 -1     39204    3    0    1
 -2       122      1785       124       123
 -1     39205    3    0    1
 -2      2918       125       127      1043
 -1     39206    3    0    1
 -2      2918       127       126      1043
 -1     39207    3    0    1
 -2      2918       126       173      1043
 -1     39208    3    0    1
 -2       173       126      2918      3531
 -1     39209    3    0    1
 -2      5933      7840      6491      6492
 -1     39210    3    0    1
 -2      5933      6491      7840      6620
 -1     39211    3    0    1
 -2      1345      2643      1440      2077
 -1     39212    3    0    1
 -2      1345      1440      2643      1420
 -1     39213    3    0    1
 -2      8109      9648      9268      8959
 -1     39214    3    0    1
 -2      9268      9648      8109      9478
 -1     39215    3    0    1
 -2      2726       494      1473       930
 -1     39216    3    0    1
 -2      2726      1473       494       465
 -1     39217    3    0    1
 -2      5727      5754      4661      5753
 -1     39218    3    0    1
 -2      5727      4661      5754      5701
 -1     39219    3    0    1
 -2      6163      9334      9579      7695
 -1     39220    3    0    1
 -2      6163      9579      9334      7772
 -1     39221    3    0    1
 -2      4716      4715      5241      4966
 -1     39222    3    0    1
 -2      3926      4715      5241      5243
 -1     39223    3    0    1
 -2      3926      5241      4715      4966
 -1     39224    3    0    1
 -2      2216      1554      2215      3316
 -1     39225    3    0    1
 -2      2216      2215      1554      1555
 -1     39226    3    0    1
 -2      1465        63       478       104
 -1     39227    3    0    1
 -2      1465       478        63       414
 -1     39228    3    0    1
 -2      1034       195       194       164
 -1     39229    3    0    1
 -2       194       195      1034      2923
 -1     39230    3    0    1
 -2       194       165      1034       164
 -1     39231    3    0    1
 -2      1034       165       194      2923
 -1     39232    3    0    1
 -2      9675       222      2919      2933
 -1     39233    3    0    1
 -2      9675      2919       222       179
 -1     39234    3    0    1
 -2      2919       222      2386      2933
 -1     39235    3    0    1
 -2      2919      2386       222       179
 -1     39236    3    0    1
 -2      2386       222       519      2933
 -1     39237    3    0    1
 -2      2386       519       222       179
 -1     39238    3    0    1
 -2      8073      8884      6997      7650
 -1     39239    3    0    1
 -2      6997      8884      8073      9244
 -1     39240    3    0    1
 -2      9034      6165      6242      7163
 -1     39241    3    0    1
 -2      9034      6242      6165      6132
 -1     39242    3    0    1
 -2      2976       147      2975      2920
 -1     39243    3    0    1
 -2      2976      2975       147       225
 -1     39244    3    0    1
 -2      9107      7367      7300      7358
 -1     39245    3    0    1
 -2      7300      7367      9107      6602
 -1     39246    3    0    1
 -2      3449      4501      4018      2888
 -1     39247    3    0    1
 -2      7337      7259      6424      6425
 -1     39248    3    0    1
 -2      7337      6424      7259      8240
 -1     39249    3    0    1
 -2      8960      9267      7678      8535
 -1     39250    3    0    1
 -2      8960      7678      9267      9268
 -1     39251    3    0    1
 -2      6056      6054      7598      6055
 -1     39252    3    0    1
 -2      6056      7598      6054      6970
 -1     39253    3    0    1
 -2      8491      6089      7598      6055
 -1     39254    3    0    1
 -2      8491      7598      6089      6970
 -1     39255    3    0    1
 -2      6089      6056      7598      6055
 -1     39256    3    0    1
 -2      6089      7598      6056      6970
 -1     39257    3    0    1
 -2      1496        39        40       800
 -1     39258    3    0    1
 -2        40       394      1496       800
 -1     39259    3    0    1
 -2      1496       394        40        84
 -1     39260    3    0    1
 -2      2454       232       202       266
 -1     39261    3    0    1
 -2      2454       202       232      3548
 -1     39262    3    0    1
 -2       415       392       110         1
 -1     39263    3    0    1
 -2       110       392       415      1469
 -1     39264    3    0    1
 -2      9591      9108      6561      7857
 -1     39265    3    0    1
 -2      9591      6561      9108      9590
 -1     39266    3    0    1
 -2      1866      1241      3661      1217
 -1     39267    3    0    1
 -2      4423      4469      5011      5073
 -1     39268    3    0    1
 -2      5011      4469      4423      4014
 -1     39269    3    0    1
 -2      5037      4499      5070      5053
 -1     39270    3    0    1
 -2      8559      8146      7126      7725
 -1     39271    3    0    1
 -2      7126      8146      8559      9332
 -1     39272    3    0    1
 -2      7112      8993      6127      8135
 -1     39273    3    0    1
 -2      7112      6127      8993      8625
 -1     39274    3    0    1
 -2      1464        60      2232       119
 -1     39275    3    0    1
 -2      1464      2232        60       398
 -1     39276    3    0    1
 -2       476      2232        60       119
 -1     39277    3    0    1
 -2       476        60      2232       398
 -1     39278    3    0    1
 -2      7407      9378      9377      6573
 -1     39279    3    0    1
 -2      7407      9377      9378      9408
 -1     39280    3    0    1
 -2      5970      6644      7949      5945
 -1     39281    3    0    1
 -2      7949      6644      5970      6728
 -1     39282    3    0    1
 -2      2480      1243       688       647
 -1     39283    3    0    1
 -2      2480       688      1243      1910
 -1     39284    3    0    1
 -2      9670      9113      7353      9100
 -1     39285    3    0    1
 -2      9670      7353      9113      6608
 -1     39286    3    0    1
 -2      7696      9568      7112      8564
 -1     39287    3    0    1
 -2      7696      7112      9568      9335
 -1     39288    3    0    1
 -2      9304      7112      9568      8564
 -1     39289    3    0    1
 -2      9304      9568      7112      9335
 -1     39290    3    0    1
 -2      9168      9179      7429      9440
 -1     39291    3    0    1
 -2      9168      7429      9179      8810
 -1     39292    3    0    1
 -2      6702      9179      7429      8810
 -1     39293    3    0    1
 -2      8885      7003      7614      7631
 -1     39294    3    0    1
 -2      7614      7003      8885      7676
 -1     39295    3    0    1
 -2      6131      9033      5815      7133
 -1     39296    3    0    1
 -2      1316       743      1372      2032
 -1     39297    3    0    1
 -2      1372       744      1316      2032
 -1     39298    3    0    1
 -2      9221      6114      6999      7096
 -1     39299    3    0    1
 -2      9221      6999      6114      7000
 -1     39300    3    0    1
 -2      4246      3821      2081      3173
 -1     39301    3    0    1
 -2      2199       908       842       431
 -1     39302    3    0    1
 -2      2199       842       908      3291
 -1     39303    3    0    1
 -2      7637      9230      9259      8038
 -1     39304    3    0    1
 -2      9259      9230      7637      9511
 -1     39305    3    0    1
 -2       472      2767       967       966
 -1     39306    3    0    1
 -2       967      2767       472       453
 -1     39307    3    0    1
 -2      9588      7367      9107      9368
 -1     39308    3    0    1
 -2      9107      7367      9588      6602
 -1     39309    3    0    1
 -2      5939      8753      7362      8716
 -1     39310    3    0    1
 -2      5939      7362      8753      8322
 -1     39311    3    0    1
 -2      8709      9408      7407      7901
 -1     39312    3    0    1
 -2      8709      7407      9408      9377
 -1     39313    3    0    1
 -2      6587      6640      8356      9174
 -1     39314    3    0    1
 -2      8356      6749      6587      9174
 -1     39315    3    0    1
 -2      6537      9109      6463      6589
 -1     39316    3    0    1
 -2      6463      9109      6537      7861
 -1     39317    3    0    1
 -2      6739      7921      8818      5957
 -1     39318    3    0    1
 -2      6739      8818      7921      7962
 -1     39319    3    0    1
 -2      9010      9041      8126      9312
 -1     39320    3    0    1
 -2      9010      8126      9041      8638
 -1     39321    3    0    1
 -2      6149      8126      9041      9312
 -1     39322    3    0    1
 -2      6149      9041      8126      8638
 -1     39323    3    0    1
 -2      9259      6049      8524      8092
 -1     39324    3    0    1
 -2      9259      8524      6049      8882
 -1     39325    3    0    1
 -2      9453      6730      8840      9177
 -1     39326    3    0    1
 -2      8840      6730      9453      7956
 -1     39327    3    0    1
 -2      6053      6115      7614      5751
 -1     39328    3    0    1
 -2      7614      6115      6053      7003
 -1     39329    3    0    1
 -2      7084      9522      9479      8100
 -1     39330    3    0    1
 -2      7084      9479      9522      8922
 -1     39331    3    0    1
 -2      2306      2862      3448      3431
 -1     39332    3    0    1
 -2      3448      2862      2306      1007
 -1     39333    3    0    1
 -2      3448      1659      2306      3431
 -1     39334    3    0    1
 -2      2306      1659      3448      1007
 -1     39335    3    0    1
 -2      8594      9347      8593      7720
 -1     39336    3    0    1
 -2      8593      9347      8594      9303
 -1     39337    3    0    1
 -2      6167      5224      6135      5382
 -1     39338    3    0    1
 -2      6167      6135      5224      6272
 -1     39339    3    0    1
 -2      6135      5224      6136      5382
 -1     39340    3    0    1
 -2      6135      6136      5224      6272
 -1     39341    3    0    1
 -2      6136      6137      5224      6272
 -1     39342    3    0    1
 -2      6435      8674      8699      7831
 -1     39343    3    0    1
 -2      6435      8699      8674      8261
 -1     39344    3    0    1
 -2      3260      2229      2161      3267
 -1     39345    3    0    1
 -2      2161      2229      3260      2171
 -1     39346    3    0    1
 -2      1440      1319       778       330
 -1     39347    3    0    1
 -2      1440       778      1319      2664
 -1     39348    3    0    1
 -2      2156       778      1319       330
 -1     39349    3    0    1
 -2      2156      1319       778      2664
 -1     39350    3    0    1
 -2      2838      3446      2340      3445
 -1     39351    3    0    1
 -2      2838      2340      3446      1716
 -1     39352    3    0    1
 -2      2340      3446      1668      3445
 -1     39353    3    0    1
 -2      2340      1668      3446      1716
 -1     39354    3    0    1
 -2      1668      3446      2329      3445
 -1     39355    3    0    1
 -2      5946      8708      8324      5910
 -1     39356    3    0    1
 -2      5946      8324      8708      7934
 -1     39357    3    0    1
 -2      8735      8324      8708      5910
 -1     39358    3    0    1
 -2      8735      8708      8324      7934
 -1     39359    3    0    1
 -2      8859      5691      7573      7572
 -1     39360    3    0    1
 -2      8859      7573      5691      8459
 -1     39361    3    0    1
 -2      6038      7573      5691      7572
 -1     39362    3    0    1
 -2      6038      5691      7573      8459
 -1     39363    3    0    1
 -2      9526      8949      8040      9488
 -1     39364    3    0    1
 -2      7092      8949      8040      7035
 -1     39365    3    0    1
 -2      7092      8040      8949      9488
 -1     39366    3    0    1
 -2      7914      9084      8706      7332
 -1     39367    3    0    1
 -2      8706      9084      7914      9388
 -1     39368    3    0    1
 -2       930        45      1457       396
 -1     39369    3    0    1
 -2       930      1457        45        94
 -1     39370    3    0    1
 -2      9675      1219       242      3006
 -1     39371    3    0    1
 -2      2908       522       139       141
 -1     39372    3    0    1
 -2      2908       139       522      1009
 -1     39373    3    0    1
 -2      1374      1344      3239      2014
 -1     39374    3    0    1
 -2      3239      1344      1374      2122
 -1     39375    3    0    1
 -2      3239      3784      1374      2014
 -1     39376    3    0    1
 -2      1374      3784      3239      2122
 -1     39377    3    0    1
 -2       643       599      2965       221
 -1     39378    3    0    1
 -2      2965       599       643      1134
 -1     39379    3    0    1
 -2      1386      1290      2136       755
 -1     39380    3    0    1
 -2      7185      8614      6194      8181
 -1     39381    3    0    1
 -2      6194      8614      7185      6195
 -1     39382    3    0    1
 -2      5072      5903      5932      5576
 -1     39383    3    0    1
 -2      5072      5932      5903      5534
 -1     39384    3    0    1
 -2      5756      7008      5335      5705
 -1     39385    3    0    1
 -2      5756      5335      7008      7069
 -1     39386    3    0    1
 -2      6918      5335      7008      5705
 -1     39387    3    0    1
 -2      6918      7008      5335      7069
 -1     39388    3    0    1
 -2      7948      9594      9136      9176
 -1     39389    3    0    1
 -2      9136      9594      7948      7404
 -1     39390    3    0    1
 -2      9136      6589      7948      9176
 -1     39391    3    0    1
 -2      7948      6589      9136      7404
 -1     39392    3    0    1
 -2      4589      3050      1950      4190
 -1     39393    3    0    1
 -2      4589      1950      3050      3092
 -1     39394    3    0    1
 -2      1434       737       790       757
 -1     39395    3    0    1
 -2       790       737      1434      3230
 -1     39396    3    0    1
 -2      2977      3571      3002      2975
 -1     39397    3    0    1
 -2      3002      2462      2977      2975
 -1     39398    3    0    1
 -2      2977      2462      3002      3031
 -1     39399    3    0    1
 -2      8397      7964      6775      5653
 -1     39400    3    0    1
 -2      8367      6775      7964      5653
 -1     39401    3    0    1
 -2      6169      7775      7708      6247
 -1     39402    3    0    1
 -2      7708      7775      6169      7143
 -1     39403    3    0    1
 -2      1500      1483      1541       897
 -1     39404    3    0    1
 -2      1500      1541      1483      2718
 -1     39405    3    0    1
 -2      6448      8301      6446      7852
 -1     39406    3    0    1
 -2      9243      9215      7636      6988
 -1     39407    3    0    1
 -2      9243      7636      9215      9229
 -1     39408    3    0    1
 -2      8023      7636      9215      6988
 -1     39409    3    0    1
 -2      8023      9215      7636      9229
 -1     39410    3    0    1
 -2      2973       626       250      1193
 -1     39411    3    0    1
 -2      2973       250       626      1149
 -1     39412    3    0    1
 -2      7252      7297      8700      9078
 -1     39413    3    0    1
 -2       461      2746       449       895
 -1     39414    3    0    1
 -2       449      2746       461      1539
 -1     39415    3    0    1
 -2      3760       742      2041      1279
 -1     39416    3    0    1
 -2      5221      5838      5002      4944
 -1     39417    3    0    1
 -2      5002      5838      5221      5408
 -1     39418    3    0    1
 -2      9620      9404      6606      9598
 -1     39419    3    0    1
 -2      6606      9404      9620      9418
 -1     39420    3    0    1
 -2      2045       793       382      2146
 -1     39421    3    0    1
 -2      8989      9559      7117      8600
 -1     39422    3    0    1
 -2      9310      9559      7117      9582
 -1     39423    3    0    1
 -2      9310      7117      9559      8600
 -1     39424    3    0    1
 -2      1374      2122      1400      3218
 -1     39425    3    0    1
 -2      1374      1400      2122      1401
 -1     39426    3    0    1
 -2      1399      3169      3741      2075
 -1     39427    3    0    1
 -2      1399      3741      3169      1400
 -1     39428    3    0    1
 -2      2594      1399      3741      2075
 -1     39429    3    0    1
 -2      2594      3741      1399      1400
 -1     39430    3    0    1
 -2      2076      1399      2594      2075
 -1     39431    3    0    1
 -2      2076      2594      1399      1400
 -1     39432    3    0    1
 -2      2642      2133       709      1438
 -1     39433    3    0    1
 -2      2642       709      2133      3238
 -1     39434    3    0    1
 -2      2714       442       454       920
 -1     39435    3    0    1
 -2      2714       454       442       443
 -1     39436    3    0    1
 -2       727      3156      1445      3186
 -1     39437    3    0    1
 -2      1445      3156       727      1338
 -1     39438    3    0    1
 -2      1290       794      2136       755
 -1     39439    3    0    1
 -2       821        24      2171       422
 -1     39440    3    0    1
 -2       821      2171        24       803
 -1     39441    3    0    1
 -2       417       395       488      1450
 -1     39442    3    0    1
 -2       417      2250       488        88
 -1     39443    3    0    1
 -2       488      2250       417      1450
 -1     39444    3    0    1
 -2       772       313       738       370
 -1     39445    3    0    1
 -2       738       313       772       693
 -1     39446    3    0    1
 -2       514      2884       997       513
 -1     39447    3    0    1
 -2       997      2884       514       547
 -1     39448    3    0    1
 -2       997       998       514       513
 -1     39449    3    0    1
 -2       514       998       997       547
 -1     39450    3    0    1
 -2      5356      5348      4900      5748
 -1     39451    3    0    1
 -2      5356      4900      5348      5195
 -1     39452    3    0    1
 -2      8681      7847      7273      8308
 -1     39453    3    0    1
 -2      7273      7847      8681      6442
 -1     39454    3    0    1
 -2      3778      3166      4660      4616
 -1     39455    3    0    1
 -2      4102      3006      3535      3566
 -1     39456    3    0    1
 -2      4102      3535      3006      3026
 -1     39457    3    0    1
 -2      8929      6114      9282      8096
 -1     39458    3    0    1
 -2      6751      7505      9193      7958
 -1     39459    3    0    1
 -2      1468       108      2246        83
 -1     39460    3    0    1
 -2      1468      2246       108       812
 -1     39461    3    0    1
 -2      9597      9417      7880      6591
 -1     39462    3    0    1
 -2      9391      7880      9417      6591
 -1     39463    3    0    1
 -2      7641      6094      7105      7660
 -1     39464    3    0    1
 -2      7641      7105      6094      6973
 -1     39465    3    0    1
 -2      3046      2929      4159      3017
 -1     39466    3    0    1
 -2      3046      4159      2929      3583
 -1     39467    3    0    1
 -2      8700      8253      7297      7252
 -1     39468    3    0    1
 -2      8700      7297      8253      7350
 -1     39469    3    0    1
 -2      6399      7297      8253      7252
 -1     39470    3    0    1
 -2      6399      8253      7297      7350
 -1     39471    3    0    1
 -2      5903      4816      4781      5515
 -1     39472    3    0    1
 -2      7964      5963      9424      7466
 -1     39473    3    0    1
 -2      7964      9424      5963      7910
 -1     39474    3    0    1
 -2      7909      9424      5963      7466
 -1     39475    3    0    1
 -2      7909      5963      9424      7910
 -1     39476    3    0    1
 -2      2189      1493      2774      3305
 -1     39477    3    0    1
 -2       628      2977       627      1801
 -1     39478    3    0    1
 -2       627      2977       628      1197
 -1     39479    3    0    1
 -2      7032      7091      8549      7064
 -1     39480    3    0    1
 -2      7176      7753      8622      9027
 -1     39481    3    0    1
 -2      7176      8643      8622      7229
 -1     39482    3    0    1
 -2      8622      8643      7176      9027
 -1     39483    3    0    1
 -2      7963      6657      9459      5955
 -1     39484    3    0    1
 -2      7963      9459      6657      8352
 -1     39485    3    0    1
 -2      9625      9459      6657      5955
 -1     39486    3    0    1
 -2      9625      6657      9459      8352
 -1     39487    3    0    1
 -2      7715      9562      9301      8588
 -1     39488    3    0    1
 -2      9301      9562      7715      9357
 -1     39489    3    0    1
 -2      6093      7009      8493      7010
 -1     39490    3    0    1
 -2      6093      8493      7009      6971
 -1     39491    3    0    1
 -2      9675      1116       211      3535
 -1     39492    3    0    1
 -2      9675       211      1116       556
 -1     39493    3    0    1
 -2       648       211      1116      3535
 -1     39494    3    0    1
 -2      7997      7537      7983      8403
 -1     39495    3    0    1
 -2      7997      7983      7537      6822
 -1     39496    3    0    1
 -2      1760      3462      1665      2880
 -1     39497    3    0    1
 -2      1760      1665      3462      2338
 -1     39498    3    0    1
 -2      1655      1665      3462      2880
 -1     39499    3    0    1
 -2      1655      3462      1665      2338
 -1     39500    3    0    1
 -2      3520      2908       602       182
 -1     39501    3    0    1
 -2      9670      8293      9101      9114
 -1     39502    3    0    1
 -2      9670      9101      8293      7353
 -1     39503    3    0    1
 -2      9129      7939      9409      9102
 -1     39504    3    0    1
 -2      9409      7939      9129      7918
 -1     39505    3    0    1
 -2      8042      8106      8105      9490
 -1     39506    3    0    1
 -2      8042      8105      8106      7688
 -1     39507    3    0    1
 -2      6203      8187      6250      7191
 -1     39508    3    0    1
 -2      2403      1068      1731      1730
 -1     39509    3    0    1
 -2      2403      1731      1068      1097
 -1     39510    3    0    1
 -2       965      2738       471      1593
 -1     39511    3    0    1
 -2       471      2738       965       434
 -1     39512    3    0    1
 -2      1653      2900      2327      3426
 -1     39513    3    0    1
 -2      1653      2327      2900      2917
 -1     39514    3    0    1
 -2      3425      2327      2900      3426
 -1     39515    3    0    1
 -2      3425      2900      2327      2917
 -1     39516    3    0    1
 -2      9334      6163      6236      6125
 -1     39517    3    0    1
 -2      6236      6163      9334      7772
 -1     39518    3    0    1
 -2       212       613      2979       271
 -1     39519    3    0    1
 -2       212      2979       613       593
 -1     39520    3    0    1
 -2       919      1574      2189       887
 -1     39521    3    0    1
 -2       919      2189      1574      2774
 -1     39522    3    0    1
 -2      1493      2189      1574       887
 -1     39523    3    0    1
 -2      1493      1574      2189      2774
 -1     39524    3    0    1
 -2      4954      4969      4728      4700
 -1     39525    3    0    1
 -2      8034      8940      8545      9482
 -1     39526    3    0    1
 -2      8545      8940      8034      7073
 -1     39527    3    0    1
 -2       149       150      2921       151
 -1     39528    3    0    1
 -2      2921       150       149       212
 -1     39529    3    0    1
 -2      1211      2990      1131      2422
 -1     39530    3    0    1
 -2      4345      4959      4750      4749
 -1     39531    3    0    1
 -2      4345      4750      4959      4720
 -1     39532    3    0    1
 -2      7545      6036      7571      6037
 -1     39533    3    0    1
 -2      7545      7571      6036      6865
 -1     39534    3    0    1
 -2      9588      9170      6602      9627
 -1     39535    3    0    1
 -2      9588      6602      9170      9133
 -1     39536    3    0    1
 -2      6749      6640      8356      6587
 -1     39537    3    0    1
 -2      6749      8356      6640      6680
 -1     39538    3    0    1
 -2       910      3880      3355      4376
 -1     39539    3    0    1
 -2       910      3355      3880      3298
 -1     39540    3    0    1
 -2      7640      9238      9648      9647
 -1     39541    3    0    1
 -2      7640      9648      9238      8049
 -1     39542    3    0    1
 -2      2611      3760       742       791
 -1     39543    3    0    1
 -2       742      3760      2611       317
 -1     39544    3    0    1
 -2      2082      3148      2081      2097
 -1     39545    3    0    1
 -2      2082      2081      3148      3147
 -1     39546    3    0    1
 -2      7705      7775      8577      7143
 -1     39547    3    0    1
 -2      7705      8577      7775      9353
 -1     39548    3    0    1
 -2      7707      8577      7775      7143
 -1     39549    3    0    1
 -2      7707      7775      8577      9353
 -1     39550    3    0    1
 -2      6574      6512      8710      6595
 -1     39551    3    0    1
 -2      8710      6512      6574      6513
 -1     39552    3    0    1
 -2      7436      8389      8390      7531
 -1     39553    3    0    1
 -2      7436      8390      8389      8350
 -1     39554    3    0    1
 -2        57      2162        27       409
 -1     39555    3    0    1
 -2        27      2162        57       102
 -1     39556    3    0    1
 -2        66        69       105      1467
 -1     39557    3    0    1
 -2       832        69       105       106
 -1     39558    3    0    1
 -2       832       105        69      1467
 -1     39559    3    0    1
 -2      9230      7637      9531      8038
 -1     39560    3    0    1
 -2      2152       315       373       314
 -1     39561    3    0    1
 -2      2152       373       315       372
 -1     39562    3    0    1
 -2      3252      2132      3760       791
 -1     39563    3    0    1
 -2      3252      3760      2132      3235
 -1     39564    3    0    1
 -2      9428      9429      6587      9135
 -1     39565    3    0    1
 -2      6587      9429      9428      9629
 -1     39566    3    0    1
 -2      9109      9123      9136      9402
 -1     39567    3    0    1
 -2      5879      6529      6530      5877
 -1     39568    3    0    1
 -2      5879      6530      6529      8311
 -1     39569    3    0    1
 -2       638      2958      2929      3017
 -1     39570    3    0    1
 -2      2929      2958       638      1132
 -1     39571    3    0    1
 -2      1764      3991      2346      4057
 -1     39572    3    0    1
 -2      1764      2346      3991      2856
 -1     39573    3    0    1
 -2      1386      1290      2649      2136
 -1     39574    3    0    1
 -2      3790      2649      1290      2136
 -1     39575    3    0    1
 -2      3790      1290      2649      2048
 -1     39576    3    0    1
 -2      9020      8614      8169      8181
 -1     39577    3    0    1
 -2      9020      8169      8614      6308
 -1     39578    3    0    1
 -2      7185      8169      8614      8181
 -1     39579    3    0    1
 -2      7185      8614      8169      6308
 -1     39580    3    0    1
 -2      9487      6995      8860      7032
 -1     39581    3    0    1
 -2      9487      8860      6995      8883
 -1     39582    3    0    1
 -2      8010      8860      6995      7032
 -1     39583    3    0    1
 -2      8010      6995      8860      8883
 -1     39584    3    0    1
 -2      4006      4776      4489      4777
 -1     39585    3    0    1
 -2      4489      4776      4006      4456
 -1     39586    3    0    1
 -2      2795       919       940       941
 -1     39587    3    0    1
 -2      2795       940       919      3339
 -1     39588    3    0    1
 -2      8040      8104      8550      9502
 -1     39589    3    0    1
 -2      8040      8550      8104      7035
 -1     39590    3    0    1
 -2      7463      7939      6613      7408
 -1     39591    3    0    1
 -2      6613      7939      7463      6754
 -1     39592    3    0    1
 -2      6613      6631      7463      7408
 -1     39593    3    0    1
 -2      7463      6631      6613      6754
 -1     39594    3    0    1
 -2      1051      1027      3556      1081
 -1     39595    3    0    1
 -2      1051      3556      1027       575
 -1     39596    3    0    1
 -2       614      3556      1027      1081
 -1     39597    3    0    1
 -2       614      1027      3556       575
 -1     39598    3    0    1
 -2      3040      3605      1890      3606
 -1     39599    3    0    1
 -2      3040      1890      3605      3039
 -1     39600    3    0    1
 -2      7118      9054      9053      8123
 -1     39601    3    0    1
 -2      7118      9053      9054      6145
 -1     39602    3    0    1
 -2      9582      7118      9053      8123
 -1     39603    3    0    1
 -2      9582      9053      7118      6145
 -1     39604    3    0    1
 -2      7117      7118      9582      8123
 -1     39605    3    0    1
 -2      7117      9582      7118      6145
 -1     39606    3    0    1
 -2      1680      2894      2893      3436
 -1     39607    3    0    1
 -2      1680      2893      2894       569
 -1     39608    3    0    1
 -2      1444      2115       275       786
 -1     39609    3    0    1
 -2       546      3532      2882      3446
 -1     39610    3    0    1
 -2       546      1061      2882      1043
 -1     39611    3    0    1
 -2      2882      1061       546      3446
 -1     39612    3    0    1
 -2      1538      2692      2223       855
 -1     39613    3    0    1
 -2      2223      2692      1538      2256
 -1     39614    3    0    1
 -2      6516      6518      8711      7871
 -1     39615    3    0    1
 -2      6516      8711      6518      6517
 -1     39616    3    0    1
 -2      5072      4781      5903      4816
 -1     39617    3    0    1
 -2      5903      4781      5072      5534
 -1     39618    3    0    1
 -2      2132      3760      2041      3235
 -1     39619    3    0    1
 -2      2041      3760      2132       742
 -1     39620    3    0    1
 -2      2041      1368      2132      3235
 -1     39621    3    0    1
 -2      2132      1368      2041       742
 -1     39622    3    0    1
 -2      3606       615      3040      1127
 -1     39623    3    0    1
 -2      3557      3040       615      1127
 -1     39624    3    0    1
 -2      3557       615      3040      1204
 -1     39625    3    0    1
 -2      7154      7717      7787      8609
 -1     39626    3    0    1
 -2      7154      7787      7717      5801
 -1     39627    3    0    1
 -2      8642      7787      7717      8609
 -1     39628    3    0    1
 -2      8642      7717      7787      5801
 -1     39629    3    0    1
 -2      2986       582      1207      1141
 -1     39630    3    0    1
 -2      2986      1207       582       263
 -1     39631    3    0    1
 -2       633      1207       582      1141
 -1     39632    3    0    1
 -2       633       582      1207       263
 -1     39633    3    0    1
 -2      1880      4196      3033      3672
 -1     39634    3    0    1
 -2      1880      3033      4196      3079
 -1     39635    3    0    1
 -2      8552      9659      7690      9493
 -1     39636    3    0    1
 -2      8552      7690      9659      8977
 -1     39637    3    0    1
 -2      8976      7690      9659      9493
 -1     39638    3    0    1
 -2      8976      9659      7690      8977
 -1     39639    3    0    1
 -2       989      1644      2322       988
 -1     39640    3    0    1
 -2      2322      1644       989      2336
 -1     39641    3    0    1
 -2        64      1465        63        62
 -1     39642    3    0    1
 -2        63      1465        64       104
 -1     39643    3    0    1
 -2      9175      7389      8800      7914
 -1     39644    3    0    1
 -2      8800      7389      9175      9149
 -1     39645    3    0    1
 -2      4257      3160      2555      3735
 -1     39646    3    0    1
 -2      4257      2555      3160      2656
 -1     39647    3    0    1
 -2      6137      5224      5417      5383
 -1     39648    3    0    1
 -2      6137      5417      5224      5850
 -1     39649    3    0    1
 -2        53       806       101       100
 -1     39650    3    0    1
 -2      1451        77       488       402
 -1     39651    3    0    1
 -2      1451       488        77        78
 -1     39652    3    0    1
 -2      2694      2746      3313      2748
 -1     39653    3    0    1
 -2      2694      3313      2746      2695
 -1     39654    3    0    1
 -2      4328      2694      3313      2748
 -1     39655    3    0    1
 -2      4328      3313      2694      2695
 -1     39656    3    0    1
 -2      3850      4328      2694      2695
 -1     39657    3    0    1
 -2      6582      7321      8700      6581
 -1     39658    3    0    1
 -2      8700      7321      6582      7879
 -1     39659    3    0    1
 -2      8700      9363      6582      6581
 -1     39660    3    0    1
 -2      6582      9363      8700      7879
 -1     39661    3    0    1
 -2      9414      7908      7403      6598
 -1     39662    3    0    1
 -2      7403      7908      9414      9443
 -1     39663    3    0    1
 -2      7403      6658      9414      6598
 -1     39664    3    0    1
 -2      9414      6658      7403      9443
 -1     39665    3    0    1
 -2      9449      6587      6749      9174
 -1     39666    3    0    1
 -2      9359      9578      6262      8163
 -1     39667    3    0    1
 -2       144       560      2939       145
 -1     39668    3    0    1
 -2      2939       560       144       562
 -1     39669    3    0    1
 -2      3679      1846      1847      2437
 -1     39670    3    0    1
 -2      1847      1846      3679      1897
 -1     39671    3    0    1
 -2      3056      3569      3029      1220
 -1     39672    3    0    1
 -2       244      3029      3569      1220
 -1     39673    3    0    1
 -2       244      3569      3029      3552
 -1     39674    3    0    1
 -2      1793      1082       581      1103
 -1     39675    3    0    1
 -2       581      1082      1793      1712
 -1     39676    3    0    1
 -2      2682       103       117       808
 -1     39677    3    0    1
 -2      2682       117       103      2241
 -1     39678    3    0    1
 -2      8492      9518      7677      8534
 -1     39679    3    0    1
 -2      8492      7677      9518      9495
 -1     39680    3    0    1
 -2      7692      7677      9518      8534
 -1     39681    3    0    1
 -2      7692      9518      7677      9495
 -1     39682    3    0    1
 -2      5971      4880      5647      5675
 -1     39683    3    0    1
 -2      5971      5647      4880      5304
 -1     39684    3    0    1
 -2      9000      8132      7124      7724
 -1     39685    3    0    1
 -2      9000      7124      8132      9016
 -1     39686    3    0    1
 -2      8746      5937      7398      6521
 -1     39687    3    0    1
 -2      8746      7398      5937      8756
 -1     39688    3    0    1
 -2       427      2702       450       428
 -1     39689    3    0    1
 -2       450      2702       427       904
 -1     39690    3    0    1
 -2      5196      5715      4902      5716
 -1     39691    3    0    1
 -2      5196      4902      5715      5725
 -1     39692    3    0    1
 -2      7880      6590      9595      6591
 -1     39693    3    0    1
 -2      9595      6590      7880      9373
 -1     39694    3    0    1
 -2      5367      5407      4944      5366
 -1     39695    3    0    1
 -2      4944      5407      5367      5442
 -1     39696    3    0    1
 -2      4290      2150      2040      3796
 -1     39697    3    0    1
 -2      4290      2040      2150      2657
 -1     39698    3    0    1
 -2        90      1453        17       801
 -1     39699    3    0    1
 -2        17      1453        90        91
 -1     39700    3    0    1
 -2      2216      1554      1556      1555
 -1     39701    3    0    1
 -2      2216      1556      1554      2265
 -1     39702    3    0    1
 -2      8275      6493      6457      6559
 -1     39703    3    0    1
 -2      6457      6493      8275      7325
 -1     39704    3    0    1
 -2      1936      3594      2491      1935
 -1     39705    3    0    1
 -2      2491      2540      1936      1935
 -1     39706    3    0    1
 -2      4088      2917      4095      4055
 -1     39707    3    0    1
 -2      4088      4095      2917      2952
 -1     39708    3    0    1
 -2      4528      3648      4514      3588
 -1     39709    3    0    1
 -2      4528      4514      3648      4578
 -1     39710    3    0    1
 -2      4162      4514      3648      3588
 -1     39711    3    0    1
 -2      4162      3648      4514      4578
 -1     39712    3    0    1
 -2      6794      7456      7994      8830
 -1     39713    3    0    1
 -2      7994      7456      6794      5681
 -1     39714    3    0    1
 -2      9499      8965      7053      8058
 -1     39715    3    0    1
 -2      9499      7053      8965      9667
 -1     39716    3    0    1
 -2      4660      3776      3778      4293
 -1     39717    3    0    1
 -2      4660      3778      3776      3166
 -1     39718    3    0    1
 -2      9352      9037      7702      8573
 -1     39719    3    0    1
 -2      7702      9037      9352      7774
 -1     39720    3    0    1
 -2      7702      6167      9352      8573
 -1     39721    3    0    1
 -2      9352      6167      7702      7774
 -1     39722    3    0    1
 -2      7448      6620      5976      6718
 -1     39723    3    0    1
 -2      5976      6620      7448      6637
 -1     39724    3    0    1
 -2      6733      7972      6649      8811
 -1     39725    3    0    1
 -2      6649      7972      6733      5607
 -1     39726    3    0    1
 -2      9487      8948      8970      9525
 -1     39727    3    0    1
 -2      9487      8970      8948      8093
 -1     39728    3    0    1
 -2      6999      8027      7000      8874
 -1     39729    3    0    1
 -2      7000      8027      6999      5715
 -1     39730    3    0    1
 -2       109      2246       484        83
 -1     39731    3    0    1
 -2       109       484      2246      2775
 -1     39732    3    0    1
 -2       978       484      2246        83
 -1     39733    3    0    1
 -2       978      2246       484      2775
 -1     39734    3    0    1
 -2      6107      5684      7586      7585
 -1     39735    3    0    1
 -2      6107      7586      5684      6984
 -1     39736    3    0    1
 -2      6148      8126      6149      8125
 -1     39737    3    0    1
 -2      6148      6149      8126      7746
 -1     39738    3    0    1
 -2      3049      1240      3645      3048
 -1     39739    3    0    1
 -2      8521      9255      8942      6109
 -1     39740    3    0    1
 -2      7375      5909      9086      7847
 -1     39741    3    0    1
 -2      7375      9086      5909      6605
 -1     39742    3    0    1
 -2      6293      6399      6294      6377
 -1     39743    3    0    1
 -2      6293      6294      6399      6418
 -1     39744    3    0    1
 -2      7252      6294      6399      6377
 -1     39745    3    0    1
 -2      7252      6399      6294      6418
 -1     39746    3    0    1
 -2      5472      5241      4958      5243
 -1     39747    3    0    1
 -2      4958      5241      5472      5426
 -1     39748    3    0    1
 -2      4510      3637      3558      3609
 -1     39749    3    0    1
 -2      4510      3558      3637      3638
 -1     39750    3    0    1
 -2      2822      2847      3954      3981
 -1     39751    3    0    1
 -2      2822      3954      2847      2313
 -1     39752    3    0    1
 -2      1469        76      2717       110
 -1     39753    3    0    1
 -2      1469      2717        76       401
 -1     39754    3    0    1
 -2       444      2717        76       110
 -1     39755    3    0    1
 -2       444        76      2717       401
 -1     39756    3    0    1
 -2      1526      1564      2790      1525
 -1     39757    3    0    1
 -2      2790      1564      1526      2271
 -1     39758    3    0    1
 -2      7939      7870      7314      9102
 -1     39759    3    0    1
 -2      7939      7314      7870      5915
 -1     39760    3    0    1
 -2       664      3038      3556      1887
 -1     39761    3    0    1
 -2       664      3556      3038      2465
 -1     39762    3    0    1
 -2      6614      6547      9611      5951
 -1     39763    3    0    1
 -2      6614      9611      6547      9380
 -1     39764    3    0    1
 -2      7402      6550      7355      5952
 -1     39765    3    0    1
 -2      6329      7798      5474      7228
 -1     39766    3    0    1
 -2      5474      7798      6329      6328
 -1     39767    3    0    1
 -2      6440      5921      5923      7374
 -1     39768    3    0    1
 -2      5923      5921      6440      5922
 -1     39769    3    0    1
 -2       816       457      1534       458
 -1     39770    3    0    1
 -2      1534       457       816      3323
 -1     39771    3    0    1
 -2      1415      2009      1434       737
 -1     39772    3    0    1
 -2      4702      3920      4743      4333
 -1     39773    3    0    1
 -2      4218      3124      2028      3757
 -1     39774    3    0    1
 -2       295      1348      1349      3205
 -1     39775    3    0    1
 -2      1330      1349      1348      3205
 -1     39776    3    0    1
 -2      9536      8107      9658      8975
 -1     39777    3    0    1
 -2      9658      8107      9536      9492
 -1     39778    3    0    1
 -2      3379      2289      1640      1684
 -1     39779    3    0    1
 -2      3379      1640      2289       968
 -1     39780    3    0    1
 -2      1325      3150       719      1324
 -1     39781    3    0    1
 -2      8559      8146      9330      9566
 -1     39782    3    0    1
 -2      9330      8146      8559      7725
 -1     39783    3    0    1
 -2      6075      7053      7108      8058
 -1     39784    3    0    1
 -2      6075      7108      7053      7085
 -1     39785    3    0    1
 -2      6532      5916      8274      5880
 -1     39786    3    0    1
 -2      6532      8274      5916      7366
 -1     39787    3    0    1
 -2      1081      1028      1051      1027
 -1     39788    3    0    1
 -2        85      1496        84       394
 -1     39789    3    0    1
 -2        84      1496        85       446
 -1     39790    3    0    1
 -2      1080       614      1027      1081
 -1     39791    3    0    1
 -2      4865      4585      5144      5143
 -1     39792    3    0    1
 -2      5144      4585      4865      5101
 -1     39793    3    0    1
 -2      5144      5318      4865      5143
 -1     39794    3    0    1
 -2      4865      5318      5144      5101
 -1     39795    3    0    1
 -2      7117      9310      7712      8600
 -1     39796    3    0    1
 -2      8997      7712      9310      8600
 -1     39797    3    0    1
 -2      8997      9310      7712      9358
 -1     39798    3    0    1
 -2      8373      6763      7421      7493
 -1     39799    3    0    1
 -2      6683      6763      7421      6684
 -1     39800    3    0    1
 -2      2733        90       457       815
 -1     39801    3    0    1
 -2      2733       457        90        91
 -1     39802    3    0    1
 -2       254       253      3620       252
 -1     39803    3    0    1
 -2       254      3620       253      2976
 -1     39804    3    0    1
 -2       251      3620       253       252
 -1     39805    3    0    1
 -2      1452      2732        89      2166
 -1     39806    3    0    1
 -2      1452        89      2732      2733
 -1     39807    3    0    1
 -2      2456      4130      1858      3582
 -1     39808    3    0    1
 -2      2456      1858      4130      3045
 -1     39809    3    0    1
 -2      2764      1592      3374      3352
 -1     39810    3    0    1
 -2      2303      2799      3938      1618
 -1     39811    3    0    1
 -2      2303      3938      2799      2826
 -1     39812    3    0    1
 -2      7709      5810      8635      6205
 -1     39813    3    0    1
 -2      7709      8635      5810      5794
 -1     39814    3    0    1
 -2      6251      8635      5810      6205
 -1     39815    3    0    1
 -2      6251      5810      8635      5794
 -1     39816    3    0    1
 -2      1883      2943      1139       658
 -1     39817    3    0    1
 -2      1883      1139      2943      3036
 -1     39818    3    0    1
 -2      2343      2895      1028      1051
 -1     39819    3    0    1
 -2      2343      1028      2895      3454
 -1     39820    3    0    1
 -2      1081      1028      2895      1051
 -1     39821    3    0    1
 -2      1081      2895      1028      3454
 -1     39822    3    0    1
 -2      1386      2085      2086      2638
 -1     39823    3    0    1
 -2      2086      2085      1386      1385
 -1     39824    3    0    1
 -2      3776      3779       285      1446
 -1     39825    3    0    1
 -2       712       713      1319       330
 -1     39826    3    0    1
 -2       712      1319       713      1345
 -1     39827    3    0    1
 -2      6105      8538      8889      9272
 -1     39828    3    0    1
 -2      9251      8889      8538      9272
 -1     39829    3    0    1
 -2      9035      6193      9020      7732
 -1     39830    3    0    1
 -2      1629      2807      3943      2285
 -1     39831    3    0    1
 -2      1629      3943      2807      3942
 -1     39832    3    0    1
 -2      4705      3327      4397      4356
 -1     39833    3    0    1
 -2      8105      9503      8095      7688
 -1     39834    3    0    1
 -2      8095      9503      8105      8951
 -1     39835    3    0    1
 -2      2151       283      2676      3195
 -1     39836    3    0    1
 -2      2151      2676       283       371
 -1     39837    3    0    1
 -2      9199      7965      6717      8795
 -1     39838    3    0    1
 -2      6717      7965      9199      7979
 -1     39839    3    0    1
 -2      6717      9183      9199      8795
 -1     39840    3    0    1
 -2      9199      9183      6717      7979
 -1     39841    3    0    1
 -2      4659      3757      3756      3758
 -1     39842    3    0    1
 -2      3756      3757      4659      4611
 -1     39843    3    0    1
 -2      6642      6624      9176      6726
 -1     39844    3    0    1
 -2      9176      6624      6642      6589
 -1     39845    3    0    1
 -2      2700       876       840       839
 -1     39846    3    0    1
 -2      2700       840       876      2235
 -1     39847    3    0    1
 -2      7003      8528      8885      7676
 -1     39848    3    0    1
 -2      7003      8885      8528      8932
 -1     39849    3    0    1
 -2      6005      8348      6752      7430
 -1     39850    3    0    1
 -2      6005      6752      8348      6767
 -1     39851    3    0    1
 -2      8007      7996      7585      8848
 -1     39852    3    0    1
 -2      7585      7996      8007      6905
 -1     39853    3    0    1
 -2      8439      7586      7585      8848
 -1     39854    3    0    1
 -2      7585      7586      8439      6905
 -1     39855    3    0    1
 -2      7996      8439      7585      8848
 -1     39856    3    0    1
 -2      7585      8439      7996      6905
 -1     39857    3    0    1
 -2      3470      2360      1781      1729
 -1     39858    3    0    1
 -2      3470      1781      2360      4019
 -1     39859    3    0    1
 -2      7468      8369      8332      6761
 -1     39860    3    0    1
 -2      8332      8369      7468      8779
 -1     39861    3    0    1
 -2      6636      4821      5313      5581
 -1     39862    3    0    1
 -2      5313      4821      6636      5624
 -1     39863    3    0    1
 -2      6919      7641      9225      6104
 -1     39864    3    0    1
 -2      6919      9225      7641      8015
 -1     39865    3    0    1
 -2      8194      6213      6149      7195
 -1     39866    3    0    1
 -2      6149      6213      8194      7763
 -1     39867    3    0    1
 -2      6149      8638      8194      7195
 -1     39868    3    0    1
 -2      8194      8638      6149      7763
 -1     39869    3    0    1
 -2      6173      9344      9071      7777
 -1     39870    3    0    1
 -2      6173      9071      9344      8127
 -1     39871    3    0    1
 -2      7828      5861      8219      5863
 -1     39872    3    0    1
 -2      8219      5861      7828      7829
 -1     39873    3    0    1
 -2      5861      7828      5496      5863
 -1     39874    3    0    1
 -2      7846      6439      5923      6440
 -1     39875    3    0    1
 -2      5923      6439      7846      8284
 -1     39876    3    0    1
 -2      5923      7374      7846      6440
 -1     39877    3    0    1
 -2      7846      7374      5923      8284
 -1     39878    3    0    1
 -2       222       647      2933       223
 -1     39879    3    0    1
 -2      2933       647       222      1115
 -1     39880    3    0    1
 -2      6736      8389      7480      8350
 -1     39881    3    0    1
 -2      6736      7480      8389      7513
 -1     39882    3    0    1
 -2      9465      9594      7404      7948
 -1     39883    3    0    1
 -2      9465      7404      9594      9609
 -1     39884    3    0    1
 -2      6195      7733      6308      6193
 -1     39885    3    0    1
 -2      6308      7733      6195      8614
 -1     39886    3    0    1
 -2      5101      5144      5100      5318
 -1     39887    3    0    1
 -2      8704      6634      9094      9131
 -1     39888    3    0    1
 -2      9094      6634      8704      7349
 -1     39889    3    0    1
 -2      3784      1374      3169      3218
 -1     39890    3    0    1
 -2      3169      1374      3784      2014
 -1     39891    3    0    1
 -2      4815      4456      4776      4489
 -1     39892    3    0    1
 -2      4776      4456      4815      5060
 -1     39893    3    0    1
 -2      4776      5071      4815      4489
 -1     39894    3    0    1
 -2      4815      5071      4776      5060
 -1     39895    3    0    1
 -2      5933      7840      7365      7887
 -1     39896    3    0    1
 -2      5933      7365      7840      6492
 -1     39897    3    0    1
 -2      7453      7529      7502      6731
 -1     39898    3    0    1
 -2      7502      7529      7453      7993
 -1     39899    3    0    1
 -2      8773      5956      7426      6691
 -1     39900    3    0    1
 -2      7426      5956      8773      7934
 -1     39901    3    0    1
 -2      8672      6315      5452      7213
 -1     39902    3    0    1
 -2      5452      6315      8672      8170
 -1     39903    3    0    1
 -2      5452      6247      8672      7213
 -1     39904    3    0    1
 -2      8672      6247      5452      8170
 -1     39905    3    0    1
 -2      3334      1491       846      2183
 -1     39906    3    0    1
 -2       846      1491      3334       499
 -1     39907    3    0    1
 -2       846       440      3334      2183
 -1     39908    3    0    1
 -2      3334       440       846       499
 -1     39909    3    0    1
 -2      1115      3025      1870      3024
 -1     39910    3    0    1
 -2      1870      3025      1115       647
 -1     39911    3    0    1
 -2      2094      2061      3798      2619
 -1     39912    3    0    1
 -2      3337      4345      4750      4403
 -1     39913    3    0    1
 -2      4750      4345      3337      4720
 -1     39914    3    0    1
 -2      4401      4958      4715      5243
 -1     39915    3    0    1
 -2      4401      4715      4958      4716
 -1     39916    3    0    1
 -2      5241      4715      4958      5243
 -1     39917    3    0    1
 -2      5241      4958      4715      4716
 -1     39918    3    0    1
 -2      1603      3347      1543      2751
 -1     39919    3    0    1
 -2      5900      8297      5901      7346
 -1     39920    3    0    1
 -2      5901      8297      5900      5930
 -1     39921    3    0    1
 -2      9403      9618      6590      9138
 -1     39922    3    0    1
 -2      6590      9618      9403      9595
 -1     39923    3    0    1
 -2       623      3564      2930      1112
 -1     39924    3    0    1
 -2      2930      3564       623      3052
 -1     39925    3    0    1
 -2      2917      2954       199      2953
 -1     39926    3    0    1
 -2      2917       199      2954      2388
 -1     39927    3    0    1
 -2      2297      2805       957      3371
 -1     39928    3    0    1
 -2      2297       957      2805      1626
 -1     39929    3    0    1
 -2      9555      9352      7704      7701
 -1     39930    3    0    1
 -2      9555      7704      9352      7774
 -1     39931    3    0    1
 -2      6167      7704      9352      7701
 -1     39932    3    0    1
 -2      6167      9352      7704      7774
 -1     39933    3    0    1
 -2      1578      1522      3308      1507
 -1     39934    3    0    1
 -2      1578      3308      1522      1579
 -1     39935    3    0    1
 -2      3309      3308      1522      1507
 -1     39936    3    0    1
 -2       203      2388       202       201
 -1     39937    3    0    1
 -2       202      2388       203      3548
 -1     39938    3    0    1
 -2      7113      9580      9061      6128
 -1     39939    3    0    1
 -2      9061      9580      7113      8597
 -1     39940    3    0    1
 -2      9061      9317      7113      6128
 -1     39941    3    0    1
 -2      7113      9317      9061      8597
 -1     39942    3    0    1
 -2      3139       734      1304      2040
 -1     39943    3    0    1
 -2      3139      1304       734      1305
 -1     39944    3    0    1
 -2      3568      4162      4514      4515
 -1     39945    3    0    1
 -2      4514      4162      3568      3588
 -1     39946    3    0    1
 -2      5998      8375      8335      7495
 -1     39947    3    0    1
 -2      8335      8375      5998      5996
 -1     39948    3    0    1
 -2      3756      4659      4308      4317
 -1     39949    3    0    1
 -2      3756      4308      4659      3758
 -1     39950    3    0    1
 -2      8790      6724      8799      7420
 -1     39951    3    0    1
 -2      8790      8799      6724      7990
 -1     39952    3    0    1
 -2      6171      8607      8635      8187
 -1     39953    3    0    1
 -2       245       182      3520       602
 -1     39954    3    0    1
 -2      3520       182       245      3569
 -1     39955    3    0    1
 -2      3520      3552       245       602
 -1     39956    3    0    1
 -2       245      3552      3520      3569
 -1     39957    3    0    1
 -2      3236       760       320      1312
 -1     39958    3    0    1
 -2      3604      1844      3605      2434
 -1     39959    3    0    1
 -2      3605      1844      3604      4126
 -1     39960    3    0    1
 -2      6097      8018      9227      7014
 -1     39961    3    0    1
 -2      6097      9227      8018      8878
 -1     39962    3    0    1
 -2      9177      7957      7916      7476
 -1     39963    3    0    1
 -2      9177      7916      7957      9166
 -1     39964    3    0    1
 -2      7465      5650      8836      6772
 -1     39965    3    0    1
 -2      2364      2392      2866      3998
 -1     39966    3    0    1
 -2      2364      2866      2392      1737
 -1     39967    3    0    1
 -2      8465      6951      7644      6985
 -1     39968    3    0    1
 -2      7644      6951      8465      8020
 -1     39969    3    0    1
 -2      5417      4984      4736      4946
 -1     39970    3    0    1
 -2      5417      4736      4984      5434
 -1     39971    3    0    1
 -2       894       928       893      2234
 -1     39972    3    0    1
 -2       894       893       928       952
 -1     39973    3    0    1
 -2      3369       893       928      2234
 -1     39974    3    0    1
 -2      3369       928       893       952
 -1     39975    3    0    1
 -2      6013      8347      6011      6766
 -1     39976    3    0    1
 -2      6013      6011      8347      6701
 -1     39977    3    0    1
 -2      9144      8793      6581      5961
 -1     39978    3    0    1
 -2      9144      6581      8793      9444
 -1     39979    3    0    1
 -2      5715      5196      7000      5716
 -1     39980    3    0    1
 -2      7000      5196      5715      5750
 -1     39981    3    0    1
 -2      5266      5510      4802      5280
 -1     39982    3    0    1
 -2      5267      5510      4802      5039
 -1     39983    3    0    1
 -2      5267      4802      5510      5280
 -1     39984    3    0    1
 -2      3695      3112      1957      2539
 -1     39985    3    0    1
 -2      1957      3112      3695      3193
 -1     39986    3    0    1
 -2      8679      7286      5506      6352
 -1     39987    3    0    1
 -2      8679      5506      7286      8256
 -1     39988    3    0    1
 -2      3311       813      1508      3318
 -1     39989    3    0    1
 -2      3311      1508       813      3262
 -1     39990    3    0    1
 -2      5709      5365      5777      5719
 -1     39991    3    0    1
 -2      5777      6948      5709      5719
 -1     39992    3    0    1
 -2      4852      5303      4878      5645
 -1     39993    3    0    1
 -2      4852      4878      5303      4826
 -1     39994    3    0    1
 -2      3417       986      1735      2850
 -1     39995    3    0    1
 -2      3417      1735       986      1698
 -1     39996    3    0    1
 -2      8506      9287      9542      8544
 -1     39997    3    0    1
 -2      9542      9287      8506      8927
 -1     39998    3    0    1
 -2      9542      8101      8506      8544
 -1     39999    3    0    1
 -2      8506      8101      9542      8927
 -1     40000    3    0    1
 -2      7980      6670      7416      7987
 -1     40001    3    0    1
 -2      7416      6670      7980      8331
 -1     40002    3    0    1
 -2      7416      8777      7980      7987
 -1     40003    3    0    1
 -2      7980      8777      7416      8331
 -1     40004    3    0    1
 -2       305       769       280       367
 -1     40005    3    0    1
 -2       280       769       305       306
 -1     40006    3    0    1
 -2      3186       728      3185      2127
 -1     40007    3    0    1
 -2      3186      3185       728      1337
 -1     40008    3    0    1
 -2      1352      3185       728      2127
 -1     40009    3    0    1
 -2      1352       728      3185      1337
 -1     40010    3    0    1
 -2      7618      6103      5334      7006
 -1     40011    3    0    1
 -2      7618      5334      6103      5775
 -1     40012    3    0    1
 -2      3449      4060      4018      4501
 -1     40013    3    0    1
 -2      4018      4060      3449      4425
 -1     40014    3    0    1
 -2       831       482       481       121
 -1     40015    3    0    1
 -2       831       481       482      2186
 -1     40016    3    0    1
 -2      5884      4807      5047      5271
 -1     40017    3    0    1
 -2      5884      5047      4807      5246
 -1     40018    3    0    1
 -2      3545      2875      2914      3557
 -1     40019    3    0    1
 -2      1052      2914      2875      3557
 -1     40020    3    0    1
 -2      1052      2875      2914      3457
 -1     40021    3    0    1
 -2      7628      8438      6923      6882
 -1     40022    3    0    1
 -2      7628      6923      8438      8453
 -1     40023    3    0    1
 -2      5895      6542      6470      5894
 -1     40024    3    0    1
 -2      5895      6470      6542      7849
 -1     40025    3    0    1
 -2      7796      9039      7776      9068
 -1     40026    3    0    1
 -2      7776      9039      7796      7192
 -1     40027    3    0    1
 -2      7776      7216      7796      9068
 -1     40028    3    0    1
 -2      7796      7216      7776      7192
 -1     40029    3    0    1
 -2      9166      8346      5971      7957
 -1     40030    3    0    1
 -2      7477      8346      5971      6692
 -1     40031    3    0    1
 -2      7477      5971      8346      7957
 -1     40032    3    0    1
 -2      7627      8514      8515      7016
 -1     40033    3    0    1
 -2      8515      8514      7627      8504
 -1     40034    3    0    1
 -2      8515      7668      7627      7016
 -1     40035    3    0    1
 -2      8896      6987      7026      8022
 -1     40036    3    0    1
 -2      8896      7026      6987      8064
 -1     40037    3    0    1
 -2      5696      8853      7997      7593
 -1     40038    3    0    1
 -2      7997      8853      5696      7575
 -1     40039    3    0    1
 -2      4427      4798      4021      4022
 -1     40040    3    0    1
 -2      4427      4021      4798      4767
 -1     40041    3    0    1
 -2      4787      4021      4798      4022
 -1     40042    3    0    1
 -2      4787      4798      4021      4767
 -1     40043    3    0    1
 -2      7328      6496      7891      6560
 -1     40044    3    0    1
 -2      9251      6105      8538      8889
 -1     40045    3    0    1
 -2      8538      6105      9251      8085
 -1     40046    3    0    1
 -2      3008      3597      1199      2979
 -1     40047    3    0    1
 -2      3008      1199      3597      3033
 -1     40048    3    0    1
 -2      3661      1218      1217      1241
 -1     40049    3    0    1
 -2      3661      1217      1218      2458
 -1     40050    3    0    1
 -2      7305      9124      6625      8309
 -1     40051    3    0    1
 -2      6625      5909      7305      8309
 -1     40052    3    0    1
 -2      7305      5909      6625      5935
 -1     40053    3    0    1
 -2      6771      6708      8389      7513
 -1     40054    3    0    1
 -2      8389      6708      6771      6709
 -1     40055    3    0    1
 -2      8389      7531      6771      7513
 -1     40056    3    0    1
 -2      6771      7531      8389      6709
 -1     40057    3    0    1
 -2      9172      6639      9164      7893
 -1     40058    3    0    1
 -2      9172      9164      6639      7451
 -1     40059    3    0    1
 -2      5079      4543      4098      5087
 -1     40060    3    0    1
 -2      5079      4098      4543      4118
 -1     40061    3    0    1
 -2      8565      9549      7113      9580
 -1     40062    3    0    1
 -2      8565      7113      9549      8986
 -1     40063    3    0    1
 -2      8597      7113      9549      9580
 -1     40064    3    0    1
 -2      8597      9549      7113      8986
 -1     40065    3    0    1
 -2      7429      8739      7342      7380
 -1     40066    3    0    1
 -2      7429      7342      8739      9127
 -1     40067    3    0    1
 -2      1108      3486      1055      1142
 -1     40068    3    0    1
 -2      1055      3486      1108      1092
 -1     40069    3    0    1
 -2      1055       596      1108      1142
 -1     40070    3    0    1
 -2      1108       596      1055      1092
 -1     40071    3    0    1
 -2      3894      2801      1500      3893
 -1     40072    3    0    1
 -2      1500      2801      3894      2783
 -1     40073    3    0    1
 -2      6583      7323      7886      6531
 -1     40074    3    0    1
 -2      6583      7886      7323      8721
 -1     40075    3    0    1
 -2      8761      7886      7323      6531
 -1     40076    3    0    1
 -2      8761      7323      7886      8721
 -1     40077    3    0    1
 -2       906      2199      2200      1485
 -1     40078    3    0    1
 -2      2200      2199       906       907
 -1     40079    3    0    1
 -2      5009      4012      4467      4765
 -1     40080    3    0    1
 -2      5009      4467      4012      4421
 -1     40081    3    0    1
 -2      6371      6372      6374      8226
 -1     40082    3    0    1
 -2      6371      6374      6372      5475
 -1     40083    3    0    1
 -2       500      3334       975       499
 -1     40084    3    0    1
 -2      1714      1757      2899      2380
 -1     40085    3    0    1
 -2      1714      2899      1757      1087
 -1     40086    3    0    1
 -2      1883      1828      2495      1169
 -1     40087    3    0    1
 -2      1883      2495      1828      2981
 -1     40088    3    0    1
 -2      7921      9160      5957      7920
 -1     40089    3    0    1
 -2      7921      5957      9160      8818
 -1     40090    3    0    1
 -2      5772      8097      6067      7099
 -1     40091    3    0    1
 -2      6067      8097      5772      6066
 -1     40092    3    0    1
 -2      9351      5791      7699      7768
 -1     40093    3    0    1
 -2      9351      7699      5791      7115
 -1     40094    3    0    1
 -2       302      1410      2653       731
 -1     40095    3    0    1
 -2      2653      1410       302       788
 -1     40096    3    0    1
 -2      2653      1338       302       731
 -1     40097    3    0    1
 -2      7524      8839      6781      7491
 -1     40098    3    0    1
 -2      7524      6781      8839      7536
 -1     40099    3    0    1
 -2      6298      8207      7817      6297
 -1     40100    3    0    1
 -2      6298      7817      8207      8208
 -1     40101    3    0    1
 -2      1886      2464      1919      3652
 -1     40102    3    0    1
 -2      1886      1919      2464      1202
 -1     40103    3    0    1
 -2      8157      5820      6194      8180
 -1     40104    3    0    1
 -2      8157      6194      5820      7138
 -1     40105    3    0    1
 -2      1845      1895      2435      1182
 -1     40106    3    0    1
 -2      1845      2435      1895      3654
 -1     40107    3    0    1
 -2      2985      2435      1895      1182
 -1     40108    3    0    1
 -2      2985      1895      2435      3654
 -1     40109    3    0    1
 -2      5357      7038      5714      5749
 -1     40110    3    0    1
 -2      7572      6082      8859      5691
 -1     40111    3    0    1
 -2      7572      8859      6082      8881
 -1     40112    3    0    1
 -2      3133      3830      3810      3182
 -1     40113    3    0    1
 -2      3133      3810      3830      4313
 -1     40114    3    0    1
 -2      2673      3810      3830      3182
 -1     40115    3    0    1
 -2      2673      3830      3810      4313
 -1     40116    3    0    1
 -2      3211      2648      3842      2668
 -1     40117    3    0    1
 -2      3211      3842      2648      3203
 -1     40118    3    0    1
 -2      6506      7848      7916      9110
 -1     40119    3    0    1
 -2      6506      7916      7848      6507
 -1     40120    3    0    1
 -2      7917      7916      7848      9110
 -1     40121    3    0    1
 -2      7917      7848      7916      6507
 -1     40122    3    0    1
 -2      3364      3310      4732      4382
 -1     40123    3    0    1
 -2      8461      6911      8011      8041
 -1     40124    3    0    1
 -2      8011      6911      8461      8455
 -1     40125    3    0    1
 -2      8011      9220      8461      8041
 -1     40126    3    0    1
 -2      8461      9220      8011      8455
 -1     40127    3    0    1
 -2      9599      9637      7360      9375
 -1     40128    3    0    1
 -2      9599      7360      9637      9621
 -1     40129    3    0    1
 -2      7701      6167      7702      8573
 -1     40130    3    0    1
 -2      1615      1650      2837      1651
 -1     40131    3    0    1
 -2      2326      2837      1650      1651
 -1     40132    3    0    1
 -2      2326      1650      2837      3977
 -1     40133    3    0    1
 -2      7389      8800      8328      9149
 -1     40134    3    0    1
 -2      7389      8328      8800      5968
 -1     40135    3    0    1
 -2      8533      7618      9249      7103
 -1     40136    3    0    1
 -2      9249      7618      8533      9266
 -1     40137    3    0    1
 -2      2946      2922      3506      4066
 -1     40138    3    0    1
 -2      8729      9429      6587      9370
 -1     40139    3    0    1
 -2      8729      6587      9429      9135
 -1     40140    3    0    1
 -2      5113      5131      5974      5295
 -1     40141    3    0    1
 -2      1883      1917       658      1225
 -1     40142    3    0    1
 -2      1883       658      1917      2497
 -1     40143    3    0    1
 -2       659       658      1917      1225
 -1     40144    3    0    1
 -2       659      1917       658      2497
 -1     40145    3    0    1
 -2      4914      5709      4915      5736
 -1     40146    3    0    1
 -2      4914      4915      5709      4646
 -1     40147    3    0    1
 -2      9244      8527      8950      9514
 -1     40148    3    0    1
 -2      9244      8950      8527      8073
 -1     40149    3    0    1
 -2      1539      2695      1455       819
 -1     40150    3    0    1
 -2      1455      2695      1539      3266
 -1     40151    3    0    1
 -2      8317      7340      7898      8290
 -1     40152    3    0    1
 -2      8022      8870      8021      7557
 -1     40153    3    0    1
 -2      8021      8870      8022      8880
 -1     40154    3    0    1
 -2      5521      4807      5486      5884
 -1     40155    3    0    1
 -2      5521      5486      4807      4766
 -1     40156    3    0    1
 -2      5246      5486      4807      5884
 -1     40157    3    0    1
 -2      5246      4807      5486      4766
 -1     40158    3    0    1
 -2      2899      2412      1088      3529
 -1     40159    3    0    1
 -2      2899      1088      2412      1758
 -1     40160    3    0    1
 -2      1683      1746      1771      1101
 -1     40161    3    0    1
 -2      1683      1771      1746      2372
 -1     40162    3    0    1
 -2       824      2761      3269      2703
 -1     40163    3    0    1
 -2       824      3269      2761      2237
 -1     40164    3    0    1
 -2      6579      5511      5527      7355
 -1     40165    3    0    1
 -2      5527      5511      6579      5574
 -1     40166    3    0    1
 -2      5967      5586      5979      5628
 -1     40167    3    0    1
 -2      5967      5979      5586      6604
 -1     40168    3    0    1
 -2      9494      9295      9296      9660
 -1     40169    3    0    1
 -2      1175      1895      1260      1261
 -1     40170    3    0    1
 -2      1175      1260      1895      3637
 -1     40171    3    0    1
 -2      2521      1260      1895      1261
 -1     40172    3    0    1
 -2      2521      1895      1260      3637
 -1     40173    3    0    1
 -2        14      1451        13        15
 -1     40174    3    0    1
 -2        13      1451        14        78
 -1     40175    3    0    1
 -2      1644      3439      2322      3409
 -1     40176    3    0    1
 -2      1644      2322      3439      2336
 -1     40177    3    0    1
 -2      9172      8370      7451      7968
 -1     40178    3    0    1
 -2      9172      7451      8370      8844
 -1     40179    3    0    1
 -2      5078      5651      5309      4858
 -1     40180    3    0    1
 -2      5309      5651      5078      5580
 -1     40181    3    0    1
 -2      6629      9622      6612      9632
 -1     40182    3    0    1
 -2      3297      2813      2270      1517
 -1     40183    3    0    1
 -2      3297      2270      2813      3930
 -1     40184    3    0    1
 -2      3157      3770      1354      2054
 -1     40185    3    0    1
 -2      1354      2102      3157      2054
 -1     40186    3    0    1
 -2      8529      9504      7594      9283
 -1     40187    3    0    1
 -2      8529      7594      9504      7689
 -1     40188    3    0    1
 -2      9637      9190      6626      9620
 -1     40189    3    0    1
 -2      6626      9190      9637      9469
 -1     40190    3    0    1
 -2      7461      8830      9179      7456
 -1     40191    3    0    1
 -2      7461      9179      8830      8383
 -1     40192    3    0    1
 -2      2291      2300      2310      1646
 -1     40193    3    0    1
 -2      2291      2310      2300      3948
 -1     40194    3    0    1
 -2      3401      2310      2300      1646
 -1     40195    3    0    1
 -2      3401      2300      2310      3948
 -1     40196    3    0    1
 -2      1220      3029       680       244
 -1     40197    3    0    1
 -2       680      3029      1220      3056
 -1     40198    3    0    1
 -2      7114      7698      7163      6165
 -1     40199    3    0    1
 -2      7114      7163      7698      8117
 -1     40200    3    0    1
 -2      4124      3036      4830      4563
 -1     40201    3    0    1
 -2      4124      4830      3036      4123
 -1     40202    3    0    1
 -2      4831      3036      4830      4123
 -1     40203    3    0    1
 -2      4406      3310      4325      4407
 -1     40204    3    0    1
 -2      3372      1513      3941      2720
 -1     40205    3    0    1
 -2      3941      1513      3372      1548
 -1     40206    3    0    1
 -2      1386      1290      2048      2649
 -1     40207    3    0    1
 -2      2048      1290      1386      1385
 -1     40208    3    0    1
 -2      2048      2085      1386      2649
 -1     40209    3    0    1
 -2      1386      2085      2048      1385
 -1     40210    3    0    1
 -2      1901      4204      3066      3643
 -1     40211    3    0    1
 -2      1901      3066      4204      2532
 -1     40212    3    0    1
 -2       117        33       103        32
 -1     40213    3    0    1
 -2       117       103        33       808
 -1     40214    3    0    1
 -2        31       103        33        32
 -1     40215    3    0    1
 -2        31        33       103       808
 -1     40216    3    0    1
 -2      4971      5458      5400      5244
 -1     40217    3    0    1
 -2      5400      5458      4971      5237
 -1     40218    3    0    1
 -2      8940      9500      8518      9524
 -1     40219    3    0    1
 -2      8940      8518      9500      7683
 -1     40220    3    0    1
 -2      1384      3823      1404      2110
 -1     40221    3    0    1
 -2      1384      1404      3823      3824
 -1     40222    3    0    1
 -2      7407      6629      6733      7457
 -1     40223    3    0    1
 -2      6733      6629      7407      6611
 -1     40224    3    0    1
 -2      2817      1569      1519      2218
 -1     40225    3    0    1
 -2      1519      1569      2817      1570
 -1     40226    3    0    1
 -2      1468        73        75        74
 -1     40227    3    0    1
 -2      1468        75        73        83
 -1     40228    3    0    1
 -2      1252      1991      3651      1884
 -1     40229    3    0    1
 -2      1969      3651      1991      1884
 -1     40230    3    0    1
 -2      5890      8282      5891      7331
 -1     40231    3    0    1
 -2      5891      8282      5890      5920
 -1     40232    3    0    1
 -2      2191      2778       400      2775
 -1     40233    3    0    1
 -2      2191       400      2778      2192
 -1     40234    3    0    1
 -2       109       400      2778      2775
 -1     40235    3    0    1
 -2       109      2778       400      2192
 -1     40236    3    0    1
 -2      5786      5374      6269      5787
 -1     40237    3    0    1
 -2      6269      5374      5786      6130
 -1     40238    3    0    1
 -2      6269      7170      5786      5787
 -1     40239    3    0    1
 -2      5786      7170      6269      6130
 -1     40240    3    0    1
 -2      8313      6563      5886      8279
 -1     40241    3    0    1
 -2      5886      6563      8313      6534
 -1     40242    3    0    1
 -2      5886      5885      8313      8279
 -1     40243    3    0    1
 -2      1475       905       824      2703
 -1     40244    3    0    1
 -2      1475       824       905       429
 -1     40245    3    0    1
 -2      2708       910      2163       473
 -1     40246    3    0    1
 -2       103      2163       910       473
 -1     40247    3    0    1
 -2       103       910      2163      2240
 -1     40248    3    0    1
 -2      9447      9640      7417      9448
 -1     40249    3    0    1
 -2      9447      7417      9640      9589
 -1     40250    3    0    1
 -2      2632      1376       779      1422
 -1     40251    3    0    1
 -2       779      1376      2632      3199
 -1     40252    3    0    1
 -2      3364      2717       444      2742
 -1     40253    3    0    1
 -2       444       942      3364      2742
 -1     40254    3    0    1
 -2      3364       942       444       925
 -1     40255    3    0    1
 -2      3419      1710      3418      3497
 -1     40256    3    0    1
 -2      3419      3418      1710      1700
 -1     40257    3    0    1
 -2      5222      4960      4961      4691
 -1     40258    3    0    1
 -2      4961      4960      5222      5410
 -1     40259    3    0    1
 -2      5116      5620      5650      4819
 -1     40260    3    0    1
 -2      5650      5620      5116      5319
 -1     40261    3    0    1
 -2      2789      4375      3294      4343
 -1     40262    3    0    1
 -2      2789      3294      4375      3354
 -1     40263    3    0    1
 -2      4757      3294      4375      4343
 -1     40264    3    0    1
 -2      2773      4338      2712      3335
 -1     40265    3    0    1
 -2      3871      4338      2712      3872
 -1     40266    3    0    1
 -2      3871      2712      4338      3335
 -1     40267    3    0    1
 -2      1553      2703      2761       905
 -1     40268    3    0    1
 -2      1553      2761      2703      3289
 -1     40269    3    0    1
 -2      3440      3401      1646      2310
 -1     40270    3    0    1
 -2      3440      1646      3401      2323
 -1     40271    3    0    1
 -2      5700      4676      5160      4622
 -1     40272    3    0    1
 -2      5700      5160      4676      5350
 -1     40273    3    0    1
 -2      7201      7756      7157      8204
 -1     40274    3    0    1
 -2      7157      7756      7201      6265
 -1     40275    3    0    1
 -2      5378      9036      5478      7773
 -1     40276    3    0    1
 -2      5478      9036      5378      7699
 -1     40277    3    0    1
 -2      8278      6460      6461      7843
 -1     40278    3    0    1
 -2      8278      6461      6460      6459
 -1     40279    3    0    1
 -2      8299      9093      7837      8259
 -1     40280    3    0    1
 -2      7837      9093      8299      7873
 -1     40281    3    0    1
 -2      7837      7293      8299      8259
 -1     40282    3    0    1
 -2      8299      7293      7837      7873
 -1     40283    3    0    1
 -2      9486      9231      7091      7032
 -1     40284    3    0    1
 -2      7091      9231      9486      9646
 -1     40285    3    0    1
 -2      7091      8549      9486      7032
 -1     40286    3    0    1
 -2      9486      8549      7091      9646
 -1     40287    3    0    1
 -2      7254      7241      7792      8671
 -1     40288    3    0    1
 -2       951      3369       952      2281
 -1     40289    3    0    1
 -2       952      3369       951       893
 -1     40290    3    0    1
 -2      5228      5005      5441      4949
 -1     40291    3    0    1
 -2      5441      5005      5228      5460
 -1     40292    3    0    1
 -2      5441      5440      5228      4949
 -1     40293    3    0    1
 -2      5228      5440      5441      5460
 -1     40294    3    0    1
 -2      7436      6736      8389      6708
 -1     40295    3    0    1
 -2      7436      8389      6736      8350
 -1     40296    3    0    1
 -2       837       464       396       424
 -1     40297    3    0    1
 -2       837       396       464      2172
 -1     40298    3    0    1
 -2       804      1459        52        49
 -1     40299    3    0    1
 -2        51        52      1459        49
 -1     40300    3    0    1
 -2        51      1459        52        97
 -1     40301    3    0    1
 -2      8075      8529      9283      8530
 -1     40302    3    0    1
 -2      9283      8529      8075      7594
 -1     40303    3    0    1
 -2      9283      8910      8075      8530
 -1     40304    3    0    1
 -2      8075      8910      9283      7594
 -1     40305    3    0    1
 -2      7410      5615      5640      5616
 -1     40306    3    0    1
 -2      5640      5615      7410      6712
 -1     40307    3    0    1
 -2      5640      5669      7410      5616
 -1     40308    3    0    1
 -2      7410      5669      5640      6712
 -1     40309    3    0    1
 -2      1898      1899      3612      1211
 -1     40310    3    0    1
 -2      3612      1899      1898      2505
 -1     40311    3    0    1
 -2      2649      2085      2638      3177
 -1     40312    3    0    1
 -2      2638      2085      2649      1386
 -1     40313    3    0    1
 -2      1032      1689      3440      2310
 -1     40314    3    0    1
 -2      1032      3440      1689      3422
 -1     40315    3    0    1
 -2      3401      3440      1689      2310
 -1     40316    3    0    1
 -2      3401      1689      3440      3422
 -1     40317    3    0    1
 -2      3661      2535      1929      3050
 -1     40318    3    0    1
 -2      3661      1929      2535      2512
 -1     40319    3    0    1
 -2      8040      8025      6996      5713
 -1     40320    3    0    1
 -2      8040      6996      8025      9218
 -1     40321    3    0    1
 -2      8039      6996      8025      5713
 -1     40322    3    0    1
 -2      8039      8025      6996      9218
 -1     40323    3    0    1
 -2      3688      2513      4193      1959
 -1     40324    3    0    1
 -2      3688      4193      2513      3075
 -1     40325    3    0    1
 -2      3297      2270      3296      2225
 -1     40326    3    0    1
 -2      3297      3296      2270      3912
 -1     40327    3    0    1
 -2      5835      8164      6263      5837
 -1     40328    3    0    1
 -2      6263      8164      5835      7155
 -1     40329    3    0    1
 -2      1376      3821      3199      3173
 -1     40330    3    0    1
 -2      1376      3199      3821      2632
 -1     40331    3    0    1
 -2      3787      3199      3821      3173
 -1     40332    3    0    1
 -2      3787      3821      3199      2632
 -1     40333    3    0    1
 -2      6198      7737      7141      7189
 -1     40334    3    0    1
 -2      7141      7737      6198      6137
 -1     40335    3    0    1
 -2      2666      2018      1424      1323
 -1     40336    3    0    1
 -2      2666      1424      2018      2134
 -1     40337    3    0    1
 -2      3652      1267      1970      2519
 -1     40338    3    0    1
 -2      2542      1970      1267      2519
 -1     40339    3    0    1
 -2       448      2694      3277       896
 -1     40340    3    0    1
 -2      3277      2694       448       820
 -1     40341    3    0    1
 -2      3277       897       448       896
 -1     40342    3    0    1
 -2       448       897      3277       820
 -1     40343    3    0    1
 -2      8318      6480      8319      7344
 -1     40344    3    0    1
 -2      8318      8319      6480      6546
 -1     40345    3    0    1
 -2      6576      8319      6480      7344
 -1     40346    3    0    1
 -2      6576      6480      8319      6546
 -1     40347    3    0    1
 -2      3679      1848      1847      2502
 -1     40348    3    0    1
 -2      1847      1848      3679      2437
 -1     40349    3    0    1
 -2      7798      8234      8667      7228
 -1     40350    3    0    1
 -2      8667      8234      7798      7250
 -1     40351    3    0    1
 -2      2217      1561       881      3295
 -1     40352    3    0    1
 -2      2217       881      1561      1516
 -1     40353    3    0    1
 -2      6634      7349      8758      8704
 -1     40354    3    0    1
 -2      6634      8758      7349      6597
 -1     40355    3    0    1
 -2      8717      8719      6455      7363
 -1     40356    3    0    1
 -2      8717      6455      8719      7322
 -1     40357    3    0    1
 -2      8654      7172      9041      8193
 -1     40358    3    0    1
 -2      9041      7172      8654      7167
 -1     40359    3    0    1
 -2      8851      6909      9217      8460
 -1     40360    3    0    1
 -2      8851      9217      6909      7559
 -1     40361    3    0    1
 -2      4802      5038      4455      4793
 -1     40362    3    0    1
 -2      4802      4455      5038      5039
 -1     40363    3    0    1
 -2      7559      6063      8871      6909
 -1     40364    3    0    1
 -2      8871      6063      7559      8038
 -1     40365    3    0    1
 -2      2158      1447      3201       798
 -1     40366    3    0    1
 -2      2158      3201      1447      3215
 -1     40367    3    0    1
 -2      1212      1821      1900      1177
 -1     40368    3    0    1
 -2      1212      1900      1821      2992
 -1     40369    3    0    1
 -2      2000      2001      3747      3129
 -1     40370    3    0    1
 -2      5563      5021      5545      5274
 -1     40371    3    0    1
 -2      5545      5021      5563      5489
 -1     40372    3    0    1
 -2      7611      7094      5749      7077
 -1     40373    3    0    1
 -2      5749      7094      7611      6101
 -1     40374    3    0    1
 -2      8304      6555      6450      6485
 -1     40375    3    0    1
 -2      8304      6450      6555      8305
 -1     40376    3    0    1
 -2      5816      6131      9033      5815
 -1     40377    3    0    1
 -2      9033      6131      5816      7135
 -1     40378    3    0    1
 -2      2011      3739      2026      1310
 -1     40379    3    0    1
 -2      2026      3739      2011      3143
 -1     40380    3    0    1
 -2      9532      9486      8970      9525
 -1     40381    3    0    1
 -2      8284      6504      8732      7373
 -1     40382    3    0    1
 -2      8759      8751      7908      9584
 -1     40383    3    0    1
 -2      8759      7908      8751      8310
 -1     40384    3    0    1
 -2      9384      7908      8751      9584
 -1     40385    3    0    1
 -2      9384      8751      7908      8310
 -1     40386    3    0    1
 -2      6236      9334      8658      7772
 -1     40387    3    0    1
 -2      6236      8658      9334      9031
 -1     40388    3    0    1
 -2      2774      1493      1505      3305
 -1     40389    3    0    1
 -2      1505      1493      2774       886
 -1     40390    3    0    1
 -2      5783      5231      6124      5368
 -1     40391    3    0    1
 -2      6124      5231      5783      6235
 -1     40392    3    0    1
 -2       217      1055      2996      1142
 -1     40393    3    0    1
 -2      2996      1055       217       205
 -1     40394    3    0    1
 -2      8481      8056      6964      6965
 -1     40395    3    0    1
 -2      3642      4522      3065      4114
 -1     40396    3    0    1
 -2      3642      3065      4522      4569
 -1     40397    3    0    1
 -2      2992      3065      4522      4114
 -1     40398    3    0    1
 -2      3238      3781      3780      3724
 -1     40399    3    0    1
 -2      3238      3780      3781      4310
 -1     40400    3    0    1
 -2      4268      3780      3781      3724
 -1     40401    3    0    1
 -2      4268      3781      3780      4310
 -1     40402    3    0    1
 -2      8711      9140      6614      9410
 -1     40403    3    0    1
 -2      8711      6614      9140      7395
 -1     40404    3    0    1
 -2      2592      2622      2593      2615
 -1     40405    3    0    1
 -2      3802      2593      2622      2615
 -1     40406    3    0    1
 -2      8234      6369      7250      6368
 -1     40407    3    0    1
 -2      8234      7250      6369      6329
 -1     40408    3    0    1
 -2      6328      7250      6369      6368
 -1     40409    3    0    1
 -2      6328      6369      7250      6329
 -1     40410    3    0    1
 -2      3553      3473      3474      2937
 -1     40411    3    0    1
 -2      3553      3474      3473      3495
 -1     40412    3    0    1
 -2       682       226      3009       271
 -1     40413    3    0    1
 -2       682      3009       226       683
 -1     40414    3    0    1
 -2      8305      6451      6555      7383
 -1     40415    3    0    1
 -2      8305      6555      6451      6450
 -1     40416    3    0    1
 -2      1446       323       320      2143
 -1     40417    3    0    1
 -2      1446       320       323       285
 -1     40418    3    0    1
 -2      3018      2004      3019      1905
 -1     40419    3    0    1
 -2      3018      3019      2004      3684
 -1     40420    3    0    1
 -2      5609      6008      6612      6630
 -1     40421    3    0    1
 -2      5609      6612      6008      5975
 -1     40422    3    0    1
 -2      1793      1712      1750      2897
 -1     40423    3    0    1
 -2      1750      1712      1793      1082
 -1     40424    3    0    1
 -2      2970       625       558      1188
 -1     40425    3    0    1
 -2      2970       558       625      1136
 -1     40426    3    0    1
 -2      9643      9421      7408      9604
 -1     40427    3    0    1
 -2      9643      7408      9421      9470
 -1     40428    3    0    1
 -2      4781      4463      4046      4500
 -1     40429    3    0    1
 -2      3511      4046      4463      4500
 -1     40430    3    0    1
 -2      9668      2153      2661      1437
 -1     40431    3    0    1
 -2      9668      2661      2153      1446
 -1     40432    3    0    1
 -2      1275      1960      3124      2028
 -1     40433    3    0    1
 -2      1275      3124      1960      1959
 -1     40434    3    0    1
 -2      3709      3124      1960      2028
 -1     40435    3    0    1
 -2      3709      1960      3124      1959
 -1     40436    3    0    1
 -2      2928       207      1042      1132
 -1     40437    3    0    1
 -2      2928      1042       207       125
 -1     40438    3    0    1
 -2       589      1042       207      1132
 -1     40439    3    0    1
 -2       589       207      1042       125
 -1     40440    3    0    1
 -2      6317      7776      5454      6318
 -1     40441    3    0    1
 -2      6317      5454      7776      7216
 -1     40442    3    0    1
 -2      7740      8988      9321      9007
 -1     40443    3    0    1
 -2      7740      9321      8988      7709
 -1     40444    3    0    1
 -2      8635      5794      9321      9007
 -1     40445    3    0    1
 -2      8635      9321      5794      7709
 -1     40446    3    0    1
 -2      5794      7740      9321      9007
 -1     40447    3    0    1
 -2      5794      9321      7740      7709
 -1     40448    3    0    1
 -2      6306      7254      7792      7209
 -1     40449    3    0    1
 -2      7792      5446      6306      7209
 -1     40450    3    0    1
 -2      6306      5446      7792      6305
 -1     40451    3    0    1
 -2      8401      7536      6042      6043
 -1     40452    3    0    1
 -2      6041      7536      6042      6781
 -1     40453    3    0    1
 -2      6041      6042      7536      6043
 -1     40454    3    0    1
 -2       948      2732       892       926
 -1     40455    3    0    1
 -2       892      2732       948      1533
 -1     40456    3    0    1
 -2      8294      6476      6477      7850
 -1     40457    3    0    1
 -2      8294      6477      6476      6475
 -1     40458    3    0    1
 -2      4837      4177      4113      4855
 -1     40459    3    0    1
 -2      4837      4113      4177      4155
 -1     40460    3    0    1
 -2      1978      3655      1895      2521
 -1     40461    3    0    1
 -2      1978      1895      3655      3086
 -1     40462    3    0    1
 -2      9261      8070      7031      7648
 -1     40463    3    0    1
 -2      5745      7031      8070      7648
 -1     40464    3    0    1
 -2       744      1316       743      1372
 -1     40465    3    0    1
 -2      6160      7755      7788      7723
 -1     40466    3    0    1
 -2      7788      7755      6160      7123
 -1     40467    3    0    1
 -2      7788      7177      6160      7723
 -1     40468    3    0    1
 -2      6160      7177      7788      7123
 -1     40469    3    0    1
 -2      6682      7421      6763      7493
 -1     40470    3    0    1
 -2      6682      6763      7421      6683
 -1     40471    3    0    1
 -2      3163      1415      2063      2009
 -1     40472    3    0    1
 -2      3163      2063      1415      3817
 -1     40473    3    0    1
 -2      6082      6098      7089      5766
 -1     40474    3    0    1
 -2      7089      6098      6082      6988
 -1     40475    3    0    1
 -2      1290      2136      3176      3243
 -1     40476    3    0    1
 -2      1290      3176      2136       794
 -1     40477    3    0    1
 -2      2669      3176      2136      3243
 -1     40478    3    0    1
 -2      2669      2136      3176       794
 -1     40479    3    0    1
 -2      1684       980       968      1641
 -1     40480    3    0    1
 -2       968       980      1684      2289
 -1     40481    3    0    1
 -2       968      1640      1684      1641
 -1     40482    3    0    1
 -2      1684      1640       968      2289
 -1     40483    3    0    1
 -2      3469      3535      2919      4078
 -1     40484    3    0    1
 -2      2919      3535      3469      2357
 -1     40485    3    0    1
 -2      4227      1978      3748      3692
 -1     40486    3    0    1
 -2      3748      1978      4227      3730
 -1     40487    3    0    1
 -2      6647      9153      8807      7970
 -1     40488    3    0    1
 -2      6647      8807      9153      7897
 -1     40489    3    0    1
 -2      6073      8511      6972      8494
 -1     40490    3    0    1
 -2      6073      6972      8511      7659
 -1     40491    3    0    1
 -2      2896      2895      4478      3542
 -1     40492    3    0    1
 -2      4478      2895      2896      3454
 -1     40493    3    0    1
 -2      5684      6107      5738      5739
 -1     40494    3    0    1
 -2      5738      6107      5684      6984
 -1     40495    3    0    1
 -2      4388      4945      3847      4389
 -1     40496    3    0    1
 -2      4944      3319      4383      4348
 -1     40497    3    0    1
 -2      8616      5395      8608      7151
 -1     40498    3    0    1
 -2      8616      8608      5395      8639
 -1     40499    3    0    1
 -2      3016      2996      4128      3657
 -1     40500    3    0    1
 -2      4128      2996      3016      2449
 -1     40501    3    0    1
 -2      7048      8497      8513      7661
 -1     40502    3    0    1
 -2      1738      1801      3453      3501
 -1     40503    3    0    1
 -2      3453      1801      1738      1016
 -1     40504    3    0    1
 -2      8467      8036      7027      7589
 -1     40505    3    0    1
 -2      7027      8036      8467      7647
 -1     40506    3    0    1
 -2      7027      6080      8467      7589
 -1     40507    3    0    1
 -2      8202      6372      8623      7200
 -1     40508    3    0    1
 -2      8202      8623      6372      8644
 -1     40509    3    0    1
 -2      7765      8623      5229      7200
 -1     40510    3    0    1
 -2      7765      5229      8623      8644
 -1     40511    3    0    1
 -2      8623      6372      5229      7200
 -1     40512    3    0    1
 -2      8623      5229      6372      8644
 -1     40513    3    0    1
 -2      9495      6071      7677      7692
 -1     40514    3    0    1
 -2      7677      6071      9495      8492
 -1     40515    3    0    1
 -2      1747      1804      2395      1125
 -1     40516    3    0    1
 -2      1747      2395      1804      3543
 -1     40517    3    0    1
 -2      8876      7616      6916      8044
 -1     40518    3    0    1
 -2      6916      7616      8876      7596
 -1     40519    3    0    1
 -2      3018      1238       640      1237
 -1     40520    3    0    1
 -2      4800      4799      4061      4028
 -1     40521    3    0    1
 -2      4800      4061      4799      5074
 -1     40522    3    0    1
 -2      3838      3172      4296      4297
 -1     40523    3    0    1
 -2      3838      4296      3172      3746
 -1     40524    3    0    1
 -2      4839      5115      4587      4840
 -1     40525    3    0    1
 -2      4587      4169      4839      4840
 -1     40526    3    0    1
 -2      4839      4169      4587      4550
 -1     40527    3    0    1
 -2      8223      6324      7822      6325
 -1     40528    3    0    1
 -2      8223      7822      6324      6390
 -1     40529    3    0    1
 -2       476       973      2771       506
 -1     40530    3    0    1
 -2      2771       973       476       914
 -1     40531    3    0    1
 -2      8340      8836      6658      7483
 -1     40532    3    0    1
 -2      6658      8836      8340      9442
 -1     40533    3    0    1
 -2      1023       529      1022       155
 -1     40534    3    0    1
 -2      1023      1022       529       569
 -1     40535    3    0    1
 -2      2894      1022       529       155
 -1     40536    3    0    1
 -2      2894       529      1022       569
 -1     40537    3    0    1
 -2      8495      8015      7554      8855
 -1     40538    3    0    1
 -2      8495      7554      8015      6919
 -1     40539    3    0    1
 -2      6705      8349      6770      8388
 -1     40540    3    0    1
 -2      6705      6770      8349      7458
 -1     40541    3    0    1
 -2      7670      9257      9241      8522
 -1     40542    3    0    1
 -2      9241      9257      7670      7088
 -1     40543    3    0    1
 -2      4385      5443      4690      5231
 -1     40544    3    0    1
 -2      4385      4690      5443      4972
 -1     40545    3    0    1
 -2      7181      9002      7128      7790
 -1     40546    3    0    1
 -2      7181      7128      9002      7729
 -1     40547    3    0    1
 -2      6436      7361      6438      6437
 -1     40548    3    0    1
 -2      6436      6438      7361      8269
 -1     40549    3    0    1
 -2      4603      4605      5192      4604
 -1     40550    3    0    1
 -2      5192      4605      4603      5204
 -1     40551    3    0    1
 -2      5192      5155      4603      4604
 -1     40552    3    0    1
 -2      4603      5155      5192      5204
 -1     40553    3    0    1
 -2      2498      3602      2984      4150
 -1     40554    3    0    1
 -2      2498      2984      3602      1203
 -1     40555    3    0    1
 -2      7817      6297      6338      6298
 -1     40556    3    0    1
 -2      7817      6338      6297      6296
 -1     40557    3    0    1
 -2      8930      5740      8035      8055
 -1     40558    3    0    1
 -2      1415      2116      2064      2104
 -1     40559    3    0    1
 -2      1415      2064      2116      3817
 -1     40560    3    0    1
 -2      6096      7083      5759      6095
 -1     40561    3    0    1
 -2      6096      5759      7083      6105
 -1     40562    3    0    1
 -2      7693      7053      7109      7054
 -1     40563    3    0    1
 -2      7109      7053      7693      8112
 -1     40564    3    0    1
 -2      2057       703      1268       702
 -1     40565    3    0    1
 -2       373       318       314       316
 -1     40566    3    0    1
 -2       314       318       373       797
 -1     40567    3    0    1
 -2      6521      8712      8746      5937
 -1     40568    3    0    1
 -2      8746      8712      6521      7873
 -1     40569    3    0    1
 -2      8497      6978      8513      8031
 -1     40570    3    0    1
 -2      8513      6978      8497      7048
 -1     40571    3    0    1
 -2       821      2752       901      2698
 -1     40572    3    0    1
 -2       901      2752       821       857
 -1     40573    3    0    1
 -2       901       422       821      2698
 -1     40574    3    0    1
 -2       821       422       901       857
 -1     40575    3    0    1
 -2       242       648      9675       243
 -1     40576    3    0    1
 -2      9675       648       242      1219
 -1     40577    3    0    1
 -2      7540      6057      7580      8449
 -1     40578    3    0    1
 -2      7580      6057      7540      6880
 -1     40579    3    0    1
 -2      6947      8086      8501      8935
 -1     40580    3    0    1
 -2      6947      8501      8086      7051
 -1     40581    3    0    1
 -2      2041       742      1367      1279
 -1     40582    3    0    1
 -2      1367       742      2041      1368
 -1     40583    3    0    1
 -2      4256      3227      4257      3735
 -1     40584    3    0    1
 -2      3160      3227      4257      3814
 -1     40585    3    0    1
 -2      3160      4257      3227      3735
 -1     40586    3    0    1
 -2       328      2614       329       377
 -1     40587    3    0    1
 -2      3360      4717      3303      4718
 -1     40588    3    0    1
 -2      3303      4717      3360      4381
 -1     40589    3    0    1
 -2      7265      8713      6434      7356
 -1     40590    3    0    1
 -2      7265      6434      8713      9095
 -1     40591    3    0    1
 -2      6525      6434      8713      7356
 -1     40592    3    0    1
 -2       445      1495       925       923
 -1     40593    3    0    1
 -2       924       925      1495       923
 -1     40594    3    0    1
 -2       924      1495       925      2715
 -1     40595    3    0    1
 -2      5548      5935      5276      5564
 -1     40596    3    0    1
 -2      5548      5276      5935      5492
 -1     40597    3    0    1
 -2      3472      1119      1118      1790
 -1     40598    3    0    1
 -2      3472      1118      1119      1735
 -1     40599    3    0    1
 -2      3776      4660      3779      4683
 -1     40600    3    0    1
 -2      3776      3779      4660      3166
 -1     40601    3    0    1
 -2      9221      8929      6114      9282
 -1     40602    3    0    1
 -2      9221      6114      8929      8874
 -1     40603    3    0    1
 -2      3936      3988      1581      3935
 -1     40604    3    0    1
 -2      3936      1581      3988      3412
 -1     40605    3    0    1
 -2      7054      6097      7693      7014
 -1     40606    3    0    1
 -2      7693      6097      7054      7109
 -1     40607    3    0    1
 -2      7247      5858      5860      8232
 -1     40608    3    0    1
 -2      5860      5858      7247      5859
 -1     40609    3    0    1
 -2      5860      6318      7247      8232
 -1     40610    3    0    1
 -2      7247      6318      5860      5859
 -1     40611    3    0    1
 -2       157       158      3526       159
 -1     40612    3    0    1
 -2      3526       158       157       191
 -1     40613    3    0    1
 -2       402        14      1451        77
 -1     40614    3    0    1
 -2       402      1451        14        15
 -1     40615    3    0    1
 -2       278       768       703       279
 -1     40616    3    0    1
 -2       278       703       768      1432
 -1     40617    3    0    1
 -2       732       703       768       279
 -1     40618    3    0    1
 -2       732       768       703      1432
 -1     40619    3    0    1
 -2      5256      5917      5906      5270
 -1     40620    3    0    1
 -2      5906      5917      5256      5505
 -1     40621    3    0    1
 -2      1794      1032      1129      2948
 -1     40622    3    0    1
 -2      1794      1129      1032      1083
 -1     40623    3    0    1
 -2      1989      3049      4189      3686
 -1     40624    3    0    1
 -2      4189      3049      1989      1949
 -1     40625    3    0    1
 -2      4189      3070      1989      3686
 -1     40626    3    0    1
 -2      1989      3070      4189      1949
 -1     40627    3    0    1
 -2      1802      1168      2980      3599
 -1     40628    3    0    1
 -2      3035      2980      1168      3599
 -1     40629    3    0    1
 -2      3035      1168      2980       629
 -1     40630    3    0    1
 -2      1578       922      3306      1577
 -1     40631    3    0    1
 -2      3306       922      1578      2222
 -1     40632    3    0    1
 -2      3306      3906      1578      1577
 -1     40633    3    0    1
 -2      1578      3906      3306      2222
 -1     40634    3    0    1
 -2      6924      6949      8463      7019
 -1     40635    3    0    1
 -2      6924      8463      6949      7600
 -1     40636    3    0    1
 -2      8798      7450      7982      5978
 -1     40637    3    0    1
 -2      8798      7982      7450      8780
 -1     40638    3    0    1
 -2      6140      7708      6169      7143
 -1     40639    3    0    1
 -2      6169      7708      6140      6141
 -1     40640    3    0    1
 -2      3217      3144      2072      2071
 -1     40641    3    0    1
 -2      2072      3144      3217      3818
 -1     40642    3    0    1
 -2      5078      4116      4858      4159
 -1     40643    3    0    1
 -2      4553      4858      4116      4159
 -1     40644    3    0    1
 -2      5603      5316      5973      5604
 -1     40645    3    0    1
 -2      5973      5316      5603      6648
 -1     40646    3    0    1
 -2      6466      8287      7391      8286
 -1     40647    3    0    1
 -2      7391      8287      6466      6539
 -1     40648    3    0    1
 -2      1886      1124      1170       662
 -1     40649    3    0    1
 -2      1886      1170      1124      2984
 -1     40650    3    0    1
 -2      6190      5817      6281      5819
 -1     40651    3    0    1
 -2      6281      5817      6190      7162
 -1     40652    3    0    1
 -2      6281      8178      6190      5819
 -1     40653    3    0    1
 -2      6190      8178      6281      7162
 -1     40654    3    0    1
 -2      2902      2996      3560      2924
 -1     40655    3    0    1
 -2      2902      3560      2996      2955
 -1     40656    3    0    1
 -2      8476      6961      8477      7609
 -1     40657    3    0    1
 -2      8476      8477      6961      7034
 -1     40658    3    0    1
 -2      2696      2257      1500      3345
 -1     40659    3    0    1
 -2      2696      1500      2257      1501
 -1     40660    3    0    1
 -2      3840      4663      2647      3788
 -1     40661    3    0    1
 -2      3840      2647      4663      4320
 -1     40662    3    0    1
 -2      3764      2647      4663      3788
 -1     40663    3    0    1
 -2      3764      4663      2647      4320
 -1     40664    3    0    1
 -2      6647      6003      8807      6606
 -1     40665    3    0    1
 -2      6174      8641      6222      6154
 -1     40666    3    0    1
 -2      6222      8641      6174      7225
 -1     40667    3    0    1
 -2      1479       921       922       834
 -1     40668    3    0    1
 -2       922       921      1479      1576
 -1     40669    3    0    1
 -2      7970      6003      6647      6010
 -1     40670    3    0    1
 -2      6647      6003      7970      8807
 -1     40671    3    0    1
 -2      7321      9078      7879      8700
 -1     40672    3    0    1
 -2      7321      7879      9078      7853
 -1     40673    3    0    1
 -2      6055      8491      6969      7598
 -1     40674    3    0    1
 -2      6055      6969      8491      7046
 -1     40675    3    0    1
 -2       771      3161      1394      2627
 -1     40676    3    0    1
 -2      5659      5592      6726      5591
 -1     40677    3    0    1
 -2      5659      6726      5592      6642
 -1     40678    3    0    1
 -2      6624      6726      5592      5591
 -1     40679    3    0    1
 -2      6624      5592      6726      6642
 -1     40680    3    0    1
 -2      1184      2958      1143      1859
 -1     40681    3    0    1
 -2      1143      2958      1184      1808
 -1     40682    3    0    1
 -2      8287      6444      6539      7376
 -1     40683    3    0    1
 -2      8287      6539      6444      6443
 -1     40684    3    0    1
 -2      1436      2660      1446      2143
 -1     40685    3    0    1
 -2      1446      2660      1436      3236
 -1     40686    3    0    1
 -2      1446       320      1436      2143
 -1     40687    3    0    1
 -2      1436       320      1446      3236
 -1     40688    3    0    1
 -2      5212      5467      5448      5213
 -1     40689    3    0    1
 -2      5011      4469      5044      5073
 -1     40690    3    0    1
 -2      5011      5044      4469      4470
 -1     40691    3    0    1
 -2      7906      6656      8339      8820
 -1     40692    3    0    1
 -2      7906      8339      6656      7445
 -1     40693    3    0    1
 -2      9203      9618      7956      9468
 -1     40694    3    0    1
 -2      9203      7956      9618      9439
 -1     40695    3    0    1
 -2      5861      8219      5862      7829
 -1     40696    3    0    1
 -2      5861      5862      8219      6388
 -1     40697    3    0    1
 -2       552      1001      1000      1045
 -1     40698    3    0    1
 -2      1000      1001       552       516
 -1     40699    3    0    1
 -2      1000      2906       552      1045
 -1     40700    3    0    1
 -2       552      2906      1000       516
 -1     40701    3    0    1
 -2      2442      2957      3561      2956
 -1     40702    3    0    1
 -2      2442      3561      2957      3622
 -1     40703    3    0    1
 -2      7429      8810      7479      6702
 -1     40704    3    0    1
 -2      7429      7479      8810      9168
 -1     40705    3    0    1
 -2      5495      4487      5278      5031
 -1     40706    3    0    1
 -2      5495      5278      4487      5277
 -1     40707    3    0    1
 -2      2941       563       562      1149
 -1     40708    3    0    1
 -2      2941       562       563       561
 -1     40709    3    0    1
 -2      7941      8712      7919      5937
 -1     40710    3    0    1
 -2      7941      7919      8712      9130
 -1     40711    3    0    1
 -2      9116      7919      8712      5937
 -1     40712    3    0    1
 -2      9116      8712      7919      9130
 -1     40713    3    0    1
 -2      8809      7427      6627      8774
 -1     40714    3    0    1
 -2      6627      7427      8809      6648
 -1     40715    3    0    1
 -2      4949      5441      4721      5005
 -1     40716    3    0    1
 -2      4949      4721      5441      5440
 -1     40717    3    0    1
 -2      1095      3536      2925      1799
 -1     40718    3    0    1
 -2      2925      3536      1095      1096
 -1     40719    3    0    1
 -2      2925      1728      1095      1799
 -1     40720    3    0    1
 -2      1095      1728      2925      1096
 -1     40721    3    0    1
 -2      4682      5685      5346      4885
 -1     40722    3    0    1
 -2      4682      5346      5685      5351
 -1     40723    3    0    1
 -2      4820      5623      5653      5299
 -1     40724    3    0    1
 -2      5653      5623      4820      5105
 -1     40725    3    0    1
 -2      5653      5621      4820      5299
 -1     40726    3    0    1
 -2      1544      2719      2194      1512
 -1     40727    3    0    1
 -2      1544      2194      2719      3279
 -1     40728    3    0    1
 -2      5336      5168      5757      5190
 -1     40729    3    0    1
 -2      5757      5168      5336      6057
 -1     40730    3    0    1
 -2      5879      6455      6529      5877
 -1     40731    3    0    1
 -2      7065      8476      6960      7034
 -1     40732    3    0    1
 -2      6960      8476      7065      8475
 -1     40733    3    0    1
 -2      5358      6053      5698      5180
 -1     40734    3    0    1
 -2      5698      6053      5358      6115
 -1     40735    3    0    1
 -2      5698      5343      5358      5180
 -1     40736    3    0    1
 -2      5358      5343      5698      6115
 -1     40737    3    0    1
 -2      9641      9464      9674      9628
 -1     40738    3    0    1
 -2      1544      1511      2719      1512
 -1     40739    3    0    1
 -2      1544      2719      1511      2258
 -1     40740    3    0    1
 -2      6044      6046      6823      7997
 -1     40741    3    0    1
 -2      6823      6046      6044      6045
 -1     40742    3    0    1
 -2      6075      8922      7625      8052
 -1     40743    3    0    1
 -2      6075      7625      8922      6947
 -1     40744    3    0    1
 -2      5665      6652      5613      6707
 -1     40745    3    0    1
 -2      5613      6652      5665      5612
 -1     40746    3    0    1
 -2      4563      4562      4830      5109
 -1     40747    3    0    1
 -2      5097      4562      4830      4831
 -1     40748    3    0    1
 -2      5097      4830      4562      5109
 -1     40749    3    0    1
 -2      2778      1576      2192       921
 -1     40750    3    0    1
 -2      2778      2192      1576      3307
 -1     40751    3    0    1
 -2      1479      2192      1576       921
 -1     40752    3    0    1
 -2      1479      1576      2192      3307
 -1     40753    3    0    1
 -2      2850       526       591      3473
 -1     40754    3    0    1
 -2       591       526      2850       986
 -1     40755    3    0    1
 -2       591      1735      2850      3473
 -1     40756    3    0    1
 -2      2850      1735       591       986
 -1     40757    3    0    1
 -2        79      2161         6       114
 -1     40758    3    0    1
 -2        79        80         6         5
 -1     40759    3    0    1
 -2         6        80        79       114
 -1     40760    3    0    1
 -2      5620      4819      5960      5650
 -1     40761    3    0    1
 -2      5620      5960      4819      4818
 -1     40762    3    0    1
 -2      5578      5960      4819      5650
 -1     40763    3    0    1
 -2      5578      4819      5960      4818
 -1     40764    3    0    1
 -2      4642      4913      5330      4912
 -1     40765    3    0    1
 -2      3299      3317      4358      3381
 -1     40766    3    0    1
 -2      3299      4358      3317      3865
 -1     40767    3    0    1
 -2      4357      2706      4947      3861
 -1     40768    3    0    1
 -2      4709      4947      2706      3861
 -1     40769    3    0    1
 -2       598      1809      1158      1110
 -1     40770    3    0    1
 -2       598      1158      1809      1157
 -1     40771    3    0    1
 -2      8037      8468      8065      7604
 -1     40772    3    0    1
 -2      8037      8065      8468      9257
 -1     40773    3    0    1
 -2      3320      2206      1480      2689
 -1     40774    3    0    1
 -2      1480       850      3320      2689
 -1     40775    3    0    1
 -2      8287      6505      8315      6445
 -1     40776    3    0    1
 -2      8315      6505      8287      7376
 -1     40777    3    0    1
 -2      7194      7744      7813      6255
 -1     40778    3    0    1
 -2      7194      7813      7744      8615
 -1     40779    3    0    1
 -2       991      1130       539       584
 -1     40780    3    0    1
 -2      1910      1995      3025      3054
 -1     40781    3    0    1
 -2      1266      3657       673      3016
 -1     40782    3    0    1
 -2       673      3657      1266      1232
 -1     40783    3    0    1
 -2      1266       690       673      1232
 -1     40784    3    0    1
 -2       904      1589      1551      2759
 -1     40785    3    0    1
 -2      1551      1589       904       960
 -1     40786    3    0    1
 -2      2723      2218      3932      3301
 -1     40787    3    0    1
 -2      2723      3932      2218      1569
 -1     40788    3    0    1
 -2      2817      3932      2218      3301
 -1     40789    3    0    1
 -2      2817      2218      3932      1569
 -1     40790    3    0    1
 -2      3082      3676      1888      4183
 -1     40791    3    0    1
 -2      3082      1888      3676      2499
 -1     40792    3    0    1
 -2      8713      7881      6434      6525
 -1     40793    3    0    1
 -2      8713      6434      7881      9095
 -1     40794    3    0    1
 -2      1552      3287      1551      2264
 -1     40795    3    0    1
 -2      5849      5409      5222      5370
 -1     40796    3    0    1
 -2      5222      5409      5849      5463
 -1     40797    3    0    1
 -2      4413      2903      4072      4764
 -1     40798    3    0    1
 -2      1721      2390      1720      1722
 -1     40799    3    0    1
 -2      1409      1391      1352      2052
 -1     40800    3    0    1
 -2      1409      1352      1391      1390
 -1     40801    3    0    1
 -2       137       138      9675       136
 -1     40802    3    0    1
 -2       137      9675       138       180
 -1     40803    3    0    1
 -2      4223      1982      3681      4215
 -1     40804    3    0    1
 -2      3681      1982      4223      2504
 -1     40805    3    0    1
 -2      4144      3032      2492      3595
 -1     40806    3    0    1
 -2      4144      2492      3032      3671
 -1     40807    3    0    1
 -2      1118      3472      1733      1735
 -1     40808    3    0    1
 -2      1118      1733      3472      3521
 -1     40809    3    0    1
 -2      2362      1733      3472      1735
 -1     40810    3    0    1
 -2      2362      3472      1733      3521
 -1     40811    3    0    1
 -2      2603      1381      2109      2604
 -1     40812    3    0    1
 -2      2603      2109      1381      2100
 -1     40813    3    0    1
 -2      9506      8063      8941      8089
 -1     40814    3    0    1
 -2      9506      8941      8063      8520
 -1     40815    3    0    1
 -2      3014      1923       669      3639
 -1     40816    3    0    1
 -2       669      1923      3014      1924
 -1     40817    3    0    1
 -2       848       918      2186       482
 -1     40818    3    0    1
 -2       848      2186       918      3335
 -1     40819    3    0    1
 -2       481      2186       918       482
 -1     40820    3    0    1
 -2       481       918      2186      3335
 -1     40821    3    0    1
 -2      4609      5194      4898      5158
 -1     40822    3    0    1
 -2      4898      5194      4609      4610
 -1     40823    3    0    1
 -2      6645      6687      8345      8803
 -1     40824    3    0    1
 -2      6645      8345      6687      5980
 -1     40825    3    0    1
 -2      8845      8345      6687      8803
 -1     40826    3    0    1
 -2      8845      6687      8345      5980
 -1     40827    3    0    1
 -2      6014      9156      7939      7961
 -1     40828    3    0    1
 -2      6014      7939      9156      7918
 -1     40829    3    0    1
 -2      9302      8592      9578      9563
 -1     40830    3    0    1
 -2      1291      3204      1983      2048
 -1     40831    3    0    1
 -2      1291      1983      3204      2022
 -1     40832    3    0    1
 -2      1982      3204      1983      2022
 -1     40833    3    0    1
 -2      2124      1382      2636      3219
 -1     40834    3    0    1
 -2      2124      2636      1382      1383
 -1     40835    3    0    1
 -2      4953      5446      4735      4952
 -1     40836    3    0    1
 -2      4953      4735      5446      5414
 -1     40837    3    0    1
 -2      3174      1380      2645      2634
 -1     40838    3    0    1
 -2      2645      1380      3174      2046
 -1     40839    3    0    1
 -2      7102      5775      6103      5359
 -1     40840    3    0    1
 -2      7102      6103      5775      7103
 -1     40841    3    0    1
 -2      7345      5901      8296      7346
 -1     40842    3    0    1
 -2      7345      8296      5901      6578
 -1     40843    3    0    1
 -2       568      1817      1168      1802
 -1     40844    3    0    1
 -2       568      1168      1817      1167
 -1     40845    3    0    1
 -2      5119      5655      5290      5120
 -1     40846    3    0    1
 -2      5290      5655      5119      5089
 -1     40847    3    0    1
 -2      5290      5090      5119      5120
 -1     40848    3    0    1
 -2      5119      5090      5290      5089
 -1     40849    3    0    1
 -2      4009      4072      2903      4481
 -1     40850    3    0    1
 -2      4009      2903      4072      4413
 -1     40851    3    0    1
 -2      4222      3131      3152      3766
 -1     40852    3    0    1
 -2      4222      3152      3131      1980
 -1     40853    3    0    1
 -2      8933      8488      6069      8046
 -1     40854    3    0    1
 -2      8933      6069      8488      8934
 -1     40855    3    0    1
 -2        96      1459       406        50
 -1     40856    3    0    1
 -2       406      1459        96      1549
 -1     40857    3    0    1
 -2       406        95        96        50
 -1     40858    3    0    1
 -2        96        95       406      1549
 -1     40859    3    0    1
 -2      7184      5376      8179      6191
 -1     40860    3    0    1
 -2      8179      5376      7184      7792
 -1     40861    3    0    1
 -2      9275      7058      9280      8869
 -1     40862    3    0    1
 -2      9275      9280      7058      8516
 -1     40863    3    0    1
 -2      7682      9280      7058      8869
 -1     40864    3    0    1
 -2      7682      7058      9280      8516
 -1     40865    3    0    1
 -2      2569      4210      1966      3099
 -1     40866    3    0    1
 -2      2515      1966      4210      3099
 -1     40867    3    0    1
 -2      2515      4210      1966      1990
 -1     40868    3    0    1
 -2      6229      6231      8205      8154
 -1     40869    3    0    1
 -2      6229      8205      6231      6230
 -1     40870    3    0    1
 -2      7996      6028      6905      7569
 -1     40871    3    0    1
 -2      7996      6905      6028      6030
 -1     40872    3    0    1
 -2      5684      6028      6905      6030
 -1     40873    3    0    1
 -2      4734      5443      4690      4972
 -1     40874    3    0    1
 -2      4734      4690      5443      5369
 -1     40875    3    0    1
 -2      2276      1522      3308      1579
 -1     40876    3    0    1
 -2      3308      1522      2276      3309
 -1     40877    3    0    1
 -2      3728      2020      3698      1976
 -1     40878    3    0    1
 -2      3698      2020      3728      3106
 -1     40879    3    0    1
 -2      3924      4375      3294      3354
 -1     40880    3    0    1
 -2      3924      3294      4375      4757
 -1     40881    3    0    1
 -2      3770      1354      3222      2128
 -1     40882    3    0    1
 -2      3770      3222      1354      1353
 -1     40883    3    0    1
 -2      3707      4207      1995      4192
 -1     40884    3    0    1
 -2      1995      4207      3707      3722
 -1     40885    3    0    1
 -2      2382      2879      4070      2381
 -1     40886    3    0    1
 -2      4070      2879      2382      3442
 -1     40887    3    0    1
 -2      4070      4045      2382      2381
 -1     40888    3    0    1
 -2      2382      4045      4070      3442
 -1     40889    3    0    1
 -2      7020      6926      6924      6925
 -1     40890    3    0    1
 -2      6924      6926      7020      8463
 -1     40891    3    0    1
 -2      9050      9351      7768      9064
 -1     40892    3    0    1
 -2      9050      7768      9351      9036
 -1     40893    3    0    1
 -2      2971      2459      1148      1190
 -1     40894    3    0    1
 -2      1191      2459      1148      1192
 -1     40895    3    0    1
 -2      1191      1148      2459      1190
 -1     40896    3    0    1
 -2       864      3292      2706      1486
 -1     40897    3    0    1
 -2      2706      3292       864      1558
 -1     40898    3    0    1
 -2      3931      1563      1526      3300
 -1     40899    3    0    1
 -2      1526      1563      3931      2271
 -1     40900    3    0    1
 -2       113       820       449       819
 -1     40901    3    0    1
 -2       113       449       820       448
 -1     40902    3    0    1
 -2      2694       449       820       819
 -1     40903    3    0    1
 -2      2694       820       449       448
 -1     40904    3    0    1
 -2      3275       892      2732      2166
 -1     40905    3    0    1
 -2      3275      2732       892      1533
 -1     40906    3    0    1
 -2      5393      8637      7148      7221
 -1     40907    3    0    1
 -2      5393      7148      8637      7743
 -1     40908    3    0    1
 -2      5092      6585      5627      5585
 -1     40909    3    0    1
 -2      5092      5627      6585      6639
 -1     40910    3    0    1
 -2      5995      5627      6585      5585
 -1     40911    3    0    1
 -2      5995      6585      5627      6639
 -1     40912    3    0    1
 -2      7621      7681      6074      8920
 -1     40913    3    0    1
 -2      7621      6074      7681      7071
 -1     40914    3    0    1
 -2      8084      6074      7681      8920
 -1     40915    3    0    1
 -2      8084      7681      6074      7071
 -1     40916    3    0    1
 -2      3738      3230      2009      2579
 -1     40917    3    0    1
 -2      3738      2009      3230      3163
 -1     40918    3    0    1
 -2      5240      5214      5797      5469
 -1     40919    3    0    1
 -2      5240      5797      5214      5423
 -1     40920    3    0    1
 -2      1267      1886      1970      1253
 -1     40921    3    0    1
 -2      1970      1886      1267      3652
 -1     40922    3    0    1
 -2      5376      5414      4953      5446
 -1     40923    3    0    1
 -2      5376      4953      5414      5211
 -1     40924    3    0    1
 -2      5094      4530      5125      4529
 -1     40925    3    0    1
 -2      5125      4530      5094      5108
 -1     40926    3    0    1
 -2      8477      6962      6961      7649
 -1     40927    3    0    1
 -2      8477      6961      6962      7609
 -1     40928    3    0    1
 -2      6130      9003      7131      8136
 -1     40929    3    0    1
 -2      6130      7131      9003      6164
 -1     40930    3    0    1
 -2      8347      7478      8382      6766
 -1     40931    3    0    1
 -2      8382      7478      8347      8381
 -1     40932    3    0    1
 -2      8732      6464      8284      8283
 -1     40933    3    0    1
 -2      8732      8284      6464      6504
 -1     40934    3    0    1
 -2      3060      1853      1881      2493
 -1     40935    3    0    1
 -2      1881      1853      3060      3600
 -1     40936    3    0    1
 -2        77       455       488       456
 -1     40937    3    0    1
 -2       488       455        77        78
 -1     40938    3    0    1
 -2      1729      1046      1789      2361
 -1     40939    3    0    1
 -2      1729      1789      1046      1047
 -1     40940    3    0    1
 -2      8753      7884      5939      8322
 -1     40941    3    0    1
 -2      5939      7884      8753      8700
 -1     40942    3    0    1
 -2      6886      8420      6887      8003
 -1     40943    3    0    1
 -2      6887      8420      6886      6869
 -1     40944    3    0    1
 -2      1500      2783      2257      1542
 -1     40945    3    0    1
 -2      1500      2257      2783      3894
 -1     40946    3    0    1
 -2      3032      3031      4107      4163
 -1     40947    3    0    1
 -2      3032      4828      4107      3571
 -1     40948    3    0    1
 -2      4107      4828      3032      4163
 -1     40949    3    0    1
 -2      3325      2210      1484      3280
 -1     40950    3    0    1
 -2      3325      1484      2210       838
 -1     40951    3    0    1
 -2      5384      5468      5793      5419
 -1     40952    3    0    1
 -2      5793      5468      5384      5418
 -1     40953    3    0    1
 -2       102       496      2266       497
 -1     40954    3    0    1
 -2      2266       496       102       116
 -1     40955    3    0    1
 -2      6572      7901      8741      7393
 -1     40956    3    0    1
 -2      6572      8741      7901      7900
 -1     40957    3    0    1
 -2      5516      4795      5042      5041
 -1     40958    3    0    1
 -2      5516      5042      4795      5285
 -1     40959    3    0    1
 -2      8081      7007      6089      7068
 -1     40960    3    0    1
 -2      6089      7007      8081      8915
 -1     40961    3    0    1
 -2      5367      5442      5782      6161
 -1     40962    3    0    1
 -2      5367      5782      5442      5407
 -1     40963    3    0    1
 -2      2235      2700      3284       876
 -1     40964    3    0    1
 -2      2235      3284      2700      2701
 -1     40965    3    0    1
 -2      2417      2957      1155      1796
 -1     40966    3    0    1
 -2      2417      1155      2957      3580
 -1     40967    3    0    1
 -2      6989      6990      8470      6957
 -1     40968    3    0    1
 -2      6989      8470      6990      7062
 -1     40969    3    0    1
 -2      5866      7814      5864      7288
 -1     40970    3    0    1
 -2      5866      5864      7814      6322
 -1     40971    3    0    1
 -2      4050      2348      1717      2389
 -1     40972    3    0    1
 -2      1717      2348      4050      2883
 -1     40973    3    0    1
 -2      1717      2401      4050      2389
 -1     40974    3    0    1
 -2      4050      2401      1717      2883
 -1     40975    3    0    1
 -2      7652      8481      8056      6964
 -1     40976    3    0    1
 -2      8056      8481      7652      8909
 -1     40977    3    0    1
 -2      1543       956      1603       929
 -1     40978    3    0    1
 -2      1543      1603       956      3347
 -1     40979    3    0    1
 -2      7397      8764      7355      7316
 -1     40980    3    0    1
 -2      6519      7355      8764      7316
 -1     40981    3    0    1
 -2      3760      1280      3125      1278
 -1     40982    3    0    1
 -2      3760      3125      1280      2041
 -1     40983    3    0    1
 -2      7017      5731      5762      6121
 -1     40984    3    0    1
 -2      5762      5731      7017      5710
 -1     40985    3    0    1
 -2      7998      6852      7975      8391
 -1     40986    3    0    1
 -2      7998      8842      7975      7514
 -1     40987    3    0    1
 -2      7975      8842      7998      8391
 -1     40988    3    0    1
 -2      6886      8420      6867      6869
 -1     40989    3    0    1
 -2      6886      6867      8420      6868
 -1     40990    3    0    1
 -2      6779      6867      8420      6869
 -1     40991    3    0    1
 -2      6779      8420      6867      6868
 -1     40992    3    0    1
 -2      7771      5462      7721      5803
 -1     40993    3    0    1
 -2      7771      7721      5462      6159
 -1     40994    3    0    1
 -2      6158      7721      5462      5803
 -1     40995    3    0    1
 -2      6158      5462      7721      6159
 -1     40996    3    0    1
 -2       307      1433       771       789
 -1     40997    3    0    1
 -2       771      1433       307       735
 -1     40998    3    0    1
 -2      9552      8116      9337      8568
 -1     40999    3    0    1
 -2      9552      9337      8116      9307
 -1     41000    3    0    1
 -2      8467      6078      8468      7603
 -1     41001    3    0    1
 -2      8467      8468      6078      7647
 -1     41002    3    0    1
 -2      1759      4045      2398      2382
 -1     41003    3    0    1
 -2      1759      2398      4045      3547
 -1     41004    3    0    1
 -2      2223      2255      2256      1509
 -1     41005    3    0    1
 -2      2223      2256      2255      3892
 -1     41006    3    0    1
 -2      6640      8781      8372      6680
 -1     41007    3    0    1
 -2      8372      6681      6640      6680
 -1     41008    3    0    1
 -2      2304      3368      1620      2280
 -1     41009    3    0    1
 -2      2304      1620      3368      3387
 -1     41010    3    0    1
 -2      1550      1631      2808      1587
 -1     41011    3    0    1
 -2      2808      1631      1550      2298
 -1     41012    3    0    1
 -2       892      3275       891      2691
 -1     41013    3    0    1
 -2       891      3275       892      1533
 -1     41014    3    0    1
 -2      4353      2701      3920      4702
 -1     41015    3    0    1
 -2      3920      2701      4353      4396
 -1     41016    3    0    1
 -2      3920      4743      4353      4702
 -1     41017    3    0    1
 -2      4353      4743      3920      4396
 -1     41018    3    0    1
 -2      4691      5409      5222      4960
 -1     41019    3    0    1
 -2      5222      5409      4691      5370
 -1     41020    3    0    1
 -2       461       113      1539       112
 -1     41021    3    0    1
 -2      1539       113       461       449
 -1     41022    3    0    1
 -2      7232      6176      7233      7788
 -1     41023    3    0    1
 -2      7232      7233      6176      5476
 -1     41024    3    0    1
 -2      3497      4082      3538      3498
 -1     41025    3    0    1
 -2      3538      4082      3497      4053
 -1     41026    3    0    1
 -2      8752      5938      7319      8714
 -1     41027    3    0    1
 -2      7319      5938      8752      7883
 -1     41028    3    0    1
 -2      7319      8715      8752      8714
 -1     41029    3    0    1
 -2      2925      2360      2358      1728
 -1     41030    3    0    1
 -2      2925      2358      2360      3989
 -1     41031    3    0    1
 -2       881      3295      2789      1487
 -1     41032    3    0    1
 -2      2789      3295       881      1561
 -1     41033    3    0    1
 -2      3511      1107      3485      1091
 -1     41034    3    0    1
 -2      3511      3485      1107      2414
 -1     41035    3    0    1
 -2      6976      8497      7048      7661
 -1     41036    3    0    1
 -2      6976      7048      8497      6974
 -1     41037    3    0    1
 -2      7074      5732      7023      6108
 -1     41038    3    0    1
 -2      4085      3407      2913      4064
 -1     41039    3    0    1
 -2      2913      3407      4085      3505
 -1     41040    3    0    1
 -2      4085      2944      2913      3505
 -1     41041    3    0    1
 -2      6014      8814      9156      7961
 -1     41042    3    0    1
 -2      6014      9156      8814      7433
 -1     41043    3    0    1
 -2      4419      5245      5043      5263
 -1     41044    3    0    1
 -2      5043      5245      4419      4420
 -1     41045    3    0    1
 -2      4419      5043      5077      5263
 -1     41046    3    0    1
 -2      5077      5043      4419      4420
 -1     41047    3    0    1
 -2      4419      5077      4797      5263
 -1     41048    3    0    1
 -2      4797      5077      4419      4420
 -1     41049    3    0    1
 -2       501      2793      2185       479
 -1     41050    3    0    1
 -2      2185      2793       501      2730
 -1     41051    3    0    1
 -2      6446      7399      8300      8301
 -1     41052    3    0    1
 -2      8300      7399      6446      6483
 -1     41053    3    0    1
 -2      7311      7288      7287      5497
 -1     41054    3    0    1
 -2      7311      7287      7288      8695
 -1     41055    3    0    1
 -2      4174      3606      4835      3040
 -1     41056    3    0    1
 -2      4835      3606      4174      4509
 -1     41057    3    0    1
 -2      6308      9035      9020      8169
 -1     41058    3    0    1
 -2      9020      9035      6308      6193
 -1     41059    3    0    1
 -2       100      3315       427       806
 -1     41060    3    0    1
 -2       100       427      3315      2785
 -1     41061    3    0    1
 -2      2176       427      3315       806
 -1     41062    3    0    1
 -2      2176      3315       427      2785
 -1     41063    3    0    1
 -2      9007      5794      6171      8635
 -1     41064    3    0    1
 -2      6171      5794      9007      7740
 -1     41065    3    0    1
 -2      6171      8607      9007      8635
 -1     41066    3    0    1
 -2      9007      8607      6171      7740
 -1     41067    3    0    1
 -2      7553      7461      8830      8383
 -1     41068    3    0    1
 -2      8830      7461      7553      6794
 -1     41069    3    0    1
 -2      6609      7310      7352      9113
 -1     41070    3    0    1
 -2      6609      7352      7310      5912
 -1     41071    3    0    1
 -2      1157      3047      2424      1861
 -1     41072    3    0    1
 -2      2424      3047      1157      3585
 -1     41073    3    0    1
 -2      5399      6222      6153      6154
 -1     41074    3    0    1
 -2      6153      6222      5399      5237
 -1     41075    3    0    1
 -2       419      1481      2690      1471
 -1     41076    3    0    1
 -2       419       890      2690       852
 -1     41077    3    0    1
 -2      3418      2830      1633      3972
 -1     41078    3    0    1
 -2      1633      2830      3418      1700
 -1     41079    3    0    1
 -2      1633      1632      3418      3972
 -1     41080    3    0    1
 -2      3418      1632      1633      1700
 -1     41081    3    0    1
 -2      6779      8420      6780      6869
 -1     41082    3    0    1
 -2      6780      8420      6779      8431
 -1     41083    3    0    1
 -2      4087      2923      2898      4042
 -1     41084    3    0    1
 -2      2898      2923      4087      2949
 -1     41085    3    0    1
 -2      2898      2854      4087      4042
 -1     41086    3    0    1
 -2      4087      2854      2898      2949
 -1     41087    3    0    1
 -2         8      1444         7         9
 -1     41088    3    0    1
 -2      5478      7699      5790      5809
 -1     41089    3    0    1
 -2      5478      5790      7699      5378
 -1     41090    3    0    1
 -2      9037      7793      8662      8230
 -1     41091    3    0    1
 -2      9037      8662      7793      8630
 -1     41092    3    0    1
 -2      6502      9084      8256      8265
 -1     41093    3    0    1
 -2      8256      9084      6502      7332
 -1     41094    3    0    1
 -2      2758      2196      2213      3285
 -1     41095    3    0    1
 -2      2213      2196      2758       860
 -1     41096    3    0    1
 -2      3768      4592      4251      3184
 -1     41097    3    0    1
 -2      4251      4592      3768      4593
 -1     41098    3    0    1
 -2      1130      2989      3639      2988
 -1     41099    3    0    1
 -2      3639       669      1130      2988
 -1     41100    3    0    1
 -2      5754      5727      6102      5753
 -1     41101    3    0    1
 -2      6102      5727      5754      6085
 -1     41102    3    0    1
 -2      1507       923       924      1495
 -1     41103    3    0    1
 -2       924       923      1507      1522
 -1     41104    3    0    1
 -2      3141      2578      2094      3816
 -1     41105    3    0    1
 -2      8325      6518      8711      7395
 -1     41106    3    0    1
 -2      8325      8711      6518      8744
 -1     41107    3    0    1
 -2      4457      5513      5501      4778
 -1     41108    3    0    1
 -2      7327      6458      6459      6460
 -1     41109    3    0    1
 -2      6459      8278      7327      6460
 -1     41110    3    0    1
 -2      1357      3752      2091      2577
 -1     41111    3    0    1
 -2      2091      3752      1357      1393
 -1     41112    3    0    1
 -2      6968      8487      6943      7617
 -1     41113    3    0    1
 -2      7954      7524      7991      5679
 -1     41114    3    0    1
 -2      4669      4302      4647      3792
 -1     41115    3    0    1
 -2      4102      3028      3535      3026
 -1     41116    3    0    1
 -2      9153      6647      7935      8806
 -1     41117    3    0    1
 -2      9153      7935      6647      7897
 -1     41118    3    0    1
 -2      2284      3348      1546      3324
 -1     41119    3    0    1
 -2      2284       958      1546       957
 -1     41120    3    0    1
 -2      1546       958      2284      3324
 -1     41121    3    0    1
 -2      7420      7954      6724      8799
 -1     41122    3    0    1
 -2      7420      6724      7954      5587
 -1     41123    3    0    1
 -2      5587      9148      7913      7954
 -1     41124    3    0    1
 -2      7913      9148      5587      7912
 -1     41125    3    0    1
 -2      4209      1961      3058      3689
 -1     41126    3    0    1
 -2      4209      3058      1961      1963
 -1     41127    3    0    1
 -2      2758      2213      3896      3285
 -1     41128    3    0    1
 -2      3896      2213      2758      2263
 -1     41129    3    0    1
 -2      4641      3766      3202      4280
 -1     41130    3    0    1
 -2      4641      4668      3202      3789
 -1     41131    3    0    1
 -2      3202      4668      4641      4280
 -1     41132    3    0    1
 -2      4614      4899      4613      4612
 -1     41133    3    0    1
 -2      4613      4899      4614      4900
 -1     41134    3    0    1
 -2      8656      8146      7178      9332
 -1     41135    3    0    1
 -2      8656      7178      8146      7202
 -1     41136    3    0    1
 -2      3017      4131      4116      4553
 -1     41137    3    0    1
 -2      4116      4131      3017      2958
 -1     41138    3    0    1
 -2      4112      2468      2990      3640
 -1     41139    3    0    1
 -2      4112      2990      2468      3064
 -1     41140    3    0    1
 -2      8160      7762      6286      8190
 -1     41141    3    0    1
 -2      2688      3321      2250      2743
 -1     41142    3    0    1
 -2      2250      3321      2688      3263
 -1     41143    3    0    1
 -2      2250       418      2688      2743
 -1     41144    3    0    1
 -2      2688       418      2250      3263
 -1     41145    3    0    1
 -2      7611      6998      5714      6935
 -1     41146    3    0    1
 -2      7611      5714      6998      7038
 -1     41147    3    0    1
 -2      5357      5714      6998      6935
 -1     41148    3    0    1
 -2      5357      6998      5714      7038
 -1     41149    3    0    1
 -2      1289      3204      1291      1290
 -1     41150    3    0    1
 -2      1289      1291      3204      2022
 -1     41151    3    0    1
 -2      5324      8847      6737      8360
 -1     41152    3    0    1
 -2      5324      6737      8847      7976
 -1     41153    3    0    1
 -2      7950      6737      8847      8360
 -1     41154    3    0    1
 -2      7950      8847      6737      7976
 -1     41155    3    0    1
 -2      8188      6359      7259      7215
 -1     41156    3    0    1
 -2      7259      6359      8188      8240
 -1     41157    3    0    1
 -2      5235      6171      5453      5387
 -1     41158    3    0    1
 -2      5388      5453      6171      5387
 -1     41159    3    0    1
 -2      5388      6171      5453      6274
 -1     41160    3    0    1
 -2      8665      5471      7249      6323
 -1     41161    3    0    1
 -2      7249      5471      8665      8221
 -1     41162    3    0    1
 -2      3017      4116      4504      4159
 -1     41163    3    0    1
 -2      4504      4116      3017      2958
 -1     41164    3    0    1
 -2      8895      7025      9254      8063
 -1     41165    3    0    1
 -2      8895      9254      7025      7602
 -1     41166    3    0    1
 -2       546      1043       545      1061
 -1     41167    3    0    1
 -2      8538      9251      8964      8085
 -1     41168    3    0    1
 -2      8538      8964      9251      9285
 -1     41169    3    0    1
 -2      6331      7264      6431      6395
 -1     41170    3    0    1
 -2      7422      8372      7470      6681
 -1     41171    3    0    1
 -2      7422      7470      8372      8333
 -1     41172    3    0    1
 -2      7224      9072      7778      5473
 -1     41173    3    0    1
 -2      1844      3604      1888      2434
 -1     41174    3    0    1
 -2      1844      1888      3604      1889
 -1     41175    3    0    1
 -2      8749      6555      6523      7401
 -1     41176    3    0    1
 -2      8886      6918      7678      7008
 -1     41177    3    0    1
 -2      8886      7678      6918      6090
 -1     41178    3    0    1
 -2      7069      7678      6918      7008
 -1     41179    3    0    1
 -2      7069      6918      7678      6090
 -1     41180    3    0    1
 -2      2778      2191      3915      2775
 -1     41181    3    0    1
 -2      4839      5677      4588      5115
 -1     41182    3    0    1
 -2      4839      4588      5677      5641
 -1     41183    3    0    1
 -2      5332      4613      4900      4899
 -1     41184    3    0    1
 -2      5332      4900      4613      5348
 -1     41185    3    0    1
 -2      4538      4510      3656      4521
 -1     41186    3    0    1
 -2      4538      3656      4510      3609
 -1     41187    3    0    1
 -2      3655      3656      4510      4521
 -1     41188    3    0    1
 -2      3655      4510      3656      3609
 -1     41189    3    0    1
 -2      4319      3743      4661      4685
 -1     41190    3    0    1
 -2      4319      4661      3743      3196
 -1     41191    3    0    1
 -2      2969      1146      1135      1813
 -1     41192    3    0    1
 -2      1135      1146      2969      3588
 -1     41193    3    0    1
 -2       453       827        59       452
 -1     41194    3    0    1
 -2       453        59       827      2179
 -1     41195    3    0    1
 -2      8085      8050      7083      6096
 -1     41196    3    0    1
 -2      6095      7083      8050      6096
 -1     41197    3    0    1
 -2      6095      8050      7083      7663
 -1     41198    3    0    1
 -2       612      1196      2974       654
 -1     41199    3    0    1
 -2       612      2974      1196      1195
 -1     41200    3    0    1
 -2      6544      7309      7379      7866
 -1     41201    3    0    1
 -2      6544      7379      7309      5927
 -1     41202    3    0    1
 -2      9612      9381      7402      9422
 -1     41203    3    0    1
 -2      9612      7402      9381      9605
 -1     41204    3    0    1
 -2      7245      5869      6378      5868
 -1     41205    3    0    1
 -2      6378      5869      7245      7824
 -1     41206    3    0    1
 -2      1961      3058      1875      1962
 -1     41207    3    0    1
 -2      8467      6080      6078      6931
 -1     41208    3    0    1
 -2      1199      1198      1150      2978
 -1     41209    3    0    1
 -2      8442      8024      7536      7562
 -1     41210    3    0    1
 -2      7536      8024      8442      9209
 -1     41211    3    0    1
 -2      3127      1965      2031      1315
 -1     41212    3    0    1
 -2      2031      1965      3127      3714
 -1     41213    3    0    1
 -2      2198      2215      1554      3288
 -1     41214    3    0    1
 -2      1554      2215      2198       879
 -1     41215    3    0    1
 -2      1554      2762      2198      3288
 -1     41216    3    0    1
 -2      2198      2762      1554       879
 -1     41217    3    0    1
 -2      2322      1712      2336       989
 -1     41218    3    0    1
 -2      2322      2336      1712      3458
 -1     41219    3    0    1
 -2      1686      3456      2343      3408
 -1     41220    3    0    1
 -2      1686      2343      3456      1687
 -1     41221    3    0    1
 -2      6532      7298      8274      7855
 -1     41222    3    0    1
 -2      6532      8274      7298      5880
 -1     41223    3    0    1
 -2      2691      2208      1498      1499
 -1     41224    3    0    1
 -2      1498      2208      2691       891
 -1     41225    3    0    1
 -2      1498       853      2691      1499
 -1     41226    3    0    1
 -2      2691       853      1498       891
 -1     41227    3    0    1
 -2      7020      8463      7019      6924
 -1     41228    3    0    1
 -2      7019      8463      7020      7643
 -1     41229    3    0    1
 -2      1893      1845      3608      2436
 -1     41230    3    0    1
 -2      3608      1845      1893      1894
 -1     41231    3    0    1
 -2      1820      1892      3042      3607
 -1     41232    3    0    1
 -2      3653      1892      3042      1891
 -1     41233    3    0    1
 -2      3653      3042      1892      3607
 -1     41234    3    0    1
 -2      7575      7997      6045      6823
 -1     41235    3    0    1
 -2      7575      6045      7997      8443
 -1     41236    3    0    1
 -2      6044      6045      7997      6823
 -1     41237    3    0    1
 -2      6044      7997      6045      8443
 -1     41238    3    0    1
 -2      8611      6372      5229      8644
 -1     41239    3    0    1
 -2      8611      5229      6372      5803
 -1     41240    3    0    1
 -2      6883      6059      7601      6047
 -1     41241    3    0    1
 -2      6883      7601      6059      8009
 -1     41242    3    0    1
 -2      3264      3873      3321      2688
 -1     41243    3    0    1
 -2      3264      3321      3873      4349
 -1     41244    3    0    1
 -2      2743      3321      3873      2688
 -1     41245    3    0    1
 -2      2743      3873      3321      4349
 -1     41246    3    0    1
 -2      8515      7016      7015      7668
 -1     41247    3    0    1
 -2      7015      7016      8515      8514
 -1     41248    3    0    1
 -2      7015      7056      8515      7668
 -1     41249    3    0    1
 -2      8515      7056      7015      8514
 -1     41250    3    0    1
 -2      7371      8729      6587      6500
 -1     41251    3    0    1
 -2      6587      8729      7371      7927
 -1     41252    3    0    1
 -2      7330      5891      8281      7331
 -1     41253    3    0    1
 -2      7330      8281      5891      7351
 -1     41254    3    0    1
 -2      1596       848      3335      2712
 -1     41255    3    0    1
 -2      1596      3335       848       918
 -1     41256    3    0    1
 -2      2800      3367      2209      3891
 -1     41257    3    0    1
 -2      2800      2209      3367      2254
 -1     41258    3    0    1
 -2      3409      1688      3975      1644
 -1     41259    3    0    1
 -2      3975      1688      3409      2836
 -1     41260    3    0    1
 -2      7242      7773      7810      8213
 -1     41261    3    0    1
 -2      7810      7773      7242      5478
 -1     41262    3    0    1
 -2      4728      5416      4969      4954
 -1     41263    3    0    1
 -2      4728      4969      5416      5465
 -1     41264    3    0    1
 -2      8206      6290      6291      8236
 -1     41265    3    0    1
 -2      6291      6290      8206      6292
 -1     41266    3    0    1
 -2      6291      7816      8206      8236
 -1     41267    3    0    1
 -2      8206      7816      6291      6292
 -1     41268    3    0    1
 -2      5622      5653      5963      5621
 -1     41269    3    0    1
 -2      5622      5963      5653      6743
 -1     41270    3    0    1
 -2      3227      1427       770      2129
 -1     41271    3    0    1
 -2       770      1427      3227      3160
 -1     41272    3    0    1
 -2       770      1357      3227      2129
 -1     41273    3    0    1
 -2      3227      1357       770      3160
 -1     41274    3    0    1
 -2      1701      1710      1013      1012
 -1     41275    3    0    1
 -2      1701      1013      1710      3497
 -1     41276    3    0    1
 -2      6518      5554      7395      5573
 -1     41277    3    0    1
 -2      6518      7395      5554      6517
 -1     41278    3    0    1
 -2      3415       522      1677      1009
 -1     41279    3    0    1
 -2      3415      1677       522      1048
 -1     41280    3    0    1
 -2      9003      7131      8613      6164
 -1     41281    3    0    1
 -2      8613      7131      9003      8604
 -1     41282    3    0    1
 -2      7280      7788      7232      7233
 -1     41283    3    0    1
 -2      7280      7232      7788      8669
 -1     41284    3    0    1
 -2      8460      7672      6992      6991
 -1     41285    3    0    1
 -2      6992      7672      8460      8902
 -1     41286    3    0    1
 -2      2339      1786      3464      1057
 -1     41287    3    0    1
 -2      2339      3464      1786      3487
 -1     41288    3    0    1
 -2      9300      8586      9344      9561
 -1     41289    3    0    1
 -2      9300      9344      8586      8127
 -1     41290    3    0    1
 -2      8557      7106      7663      8558
 -1     41291    3    0    1
 -2      8557      7663      7106      7107
 -1     41292    3    0    1
 -2      6907      8418      7544      7570
 -1     41293    3    0    1
 -2      7544      8418      6907      7486
 -1     41294    3    0    1
 -2      2523      4186      3704      3090
 -1     41295    3    0    1
 -2      3704      4186      2523      1904
 -1     41296    3    0    1
 -2      4628      4677      5198      4627
 -1     41297    3    0    1
 -2      5198      4677      4628      4907
 -1     41298    3    0    1
 -2      8343      6724      8790      7419
 -1     41299    3    0    1
 -2      8343      8790      6724      7990
 -1     41300    3    0    1
 -2      2166       404      2691       892
 -1     41301    3    0    1
 -2      2166      2691       404       814
 -1     41302    3    0    1
 -2       853      2691       404       892
 -1     41303    3    0    1
 -2       853       404      2691       814
 -1     41304    3    0    1
 -2      6489      8754      8761      7885
 -1     41305    3    0    1
 -2      6489      8761      8754      8272
 -1     41306    3    0    1
 -2      3916      4724      3928      4723
 -1     41307    3    0    1
 -2      3916      3928      4724      4725
 -1     41308    3    0    1
 -2      5000      3928      4724      4723
 -1     41309    3    0    1
 -2      5000      4724      3928      4725
 -1     41310    3    0    1
 -2      2055      3721      2613      2617
 -1     41311    3    0    1
 -2      2613      3721      2055      2574
 -1     41312    3    0    1
 -2      5469      4956      4992      5394
 -1     41313    3    0    1
 -2      5469      4992      4956      4991
 -1     41314    3    0    1
 -2      7690      9246      9493      7100
 -1     41315    3    0    1
 -2      7690      9493      9246      8552
 -1     41316    3    0    1
 -2      9001      5783      9333      7728
 -1     41317    3    0    1
 -2      9333      5783      9001      9030
 -1     41318    3    0    1
 -2      5158      5194      5734      5179
 -1     41319    3    0    1
 -2      5734      5194      5158      4898
 -1     41320    3    0    1
 -2      3451      4427      4080      3415
 -1     41321    3    0    1
 -2      3451      4080      4427      4022
 -1     41322    3    0    1
 -2      3537      1120      2392      1121
 -1     41323    3    0    1
 -2      9251      8016      8889      9226
 -1     41324    3    0    1
 -2      8451      8016      8889      8051
 -1     41325    3    0    1
 -2      8451      8889      8016      9226
 -1     41326    3    0    1
 -2      8525      8902      8460      7672
 -1     41327    3    0    1
 -2      8460      8902      8525      9260
 -1     41328    3    0    1
 -2      1302      3160      3735      2555
 -1     41329    3    0    1
 -2      3735      3160      1302      2007
 -1     41330    3    0    1
 -2      1022      1680      3421      3436
 -1     41331    3    0    1
 -2      3421      1680      1022      1023
 -1     41332    3    0    1
 -2      6222      8641      8673      9345
 -1     41333    3    0    1
 -2      6222      7168      8673      7197
 -1     41334    3    0    1
 -2      8673      7168      6222      9345
 -1     41335    3    0    1
 -2      6275      5844      5454      7192
 -1     41336    3    0    1
 -2      5454      5844      6275      5422
 -1     41337    3    0    1
 -2      2916      1714       992       585
 -1     41338    3    0    1
 -2       993       992      1714       585
 -1     41339    3    0    1
 -2      5541      6500      5258      5542
 -1     41340    3    0    1
 -2      5258      6500      5541      5889
 -1     41341    3    0    1
 -2      4776      5500      5060      5071
 -1     41342    3    0    1
 -2      4776      5060      5500      5499
 -1     41343    3    0    1
 -2      5268      5060      5500      5071
 -1     41344    3    0    1
 -2      5268      5500      5060      5499
 -1     41345    3    0    1
 -2      2987      1209       669      1208
 -1     41346    3    0    1
 -2      2987       669      1209      1922
 -1     41347    3    0    1
 -2      7730      7161      6239      7731
 -1     41348    3    0    1
 -2      7730      6239      7161      5373
 -1     41349    3    0    1
 -2      5904      5557      5504      5535
 -1     41350    3    0    1
 -2      5904      5504      5557      5938
 -1     41351    3    0    1
 -2      7448      7487      9446      6718
 -1     41352    3    0    1
 -2      9446      7487      7448      8822
 -1     41353    3    0    1
 -2      5666      7975      7998      6852
 -1     41354    3    0    1
 -2      7998      7975      5666      7514
 -1     41355    3    0    1
 -2      7998      6855      5666      6852
 -1     41356    3    0    1
 -2      5666      6855      7998      7514
 -1     41357    3    0    1
 -2      1947      3109      3134      2004
 -1     41358    3    0    1
 -2      3134      3109      1947      2564
 -1     41359    3    0    1
 -2       446        40      1496        39
 -1     41360    3    0    1
 -2       446      1496        40        84
 -1     41361    3    0    1
 -2      4584      5110      4583      4854
 -1     41362    3    0    1
 -2      4584      4583      5110      5133
 -1     41363    3    0    1
 -2      3875      4387      3874      4726
 -1     41364    3    0    1
 -2      3875      3874      4387      3366
 -1     41365    3    0    1
 -2      4341      4736      3921      4703
 -1     41366    3    0    1
 -2      4341      3921      4736      4984
 -1     41367    3    0    1
 -2      4946      3921      4736      4703
 -1     41368    3    0    1
 -2      4946      4736      3921      4984
 -1     41369    3    0    1
 -2      3734      1268      3190      2058
 -1     41370    3    0    1
 -2      3734      3190      1268      2057
 -1     41371    3    0    1
 -2       703      3190      1268      2058
 -1     41372    3    0    1
 -2       703      1268      3190      2057
 -1     41373    3    0    1
 -2      4894      4259      4258      4606
 -1     41374    3    0    1
 -2      4925      4304      3189      3225
 -1     41375    3    0    1
 -2      4925      4599      3189      4600
 -1     41376    3    0    1
 -2      3189      4599      4925      3225
 -1     41377    3    0    1
 -2      2879      4007      1757      2380
 -1     41378    3    0    1
 -2      2879      1757      4007      4070
 -1     41379    3    0    1
 -2      3293      1515      3899      2268
 -1     41380    3    0    1
 -2      3293      3899      1515      2224
 -1     41381    3    0    1
 -2      4748      5473      5219      5428
 -1     41382    3    0    1
 -2      4748      5219      5473      5457
 -1     41383    3    0    1
 -2      7925      6672      9147      7981
 -1     41384    3    0    1
 -2      7925      9147      6672      6622
 -1     41385    3    0    1
 -2       303      1339      2139       767
 -1     41386    3    0    1
 -2       303      2139      1339      2654
 -1     41387    3    0    1
 -2      1412      2139      1339       767
 -1     41388    3    0    1
 -2      1412      1339      2139      2654
 -1     41389    3    0    1
 -2      7180      5783      8603      6162
 -1     41390    3    0    1
 -2      8603      5783      7180      9001
 -1     41391    3    0    1
 -2      1065      2402      3490      1064
 -1     41392    3    0    1
 -2      3490      2402      1065      1111
 -1     41393    3    0    1
 -2      3490      1134      1065      1064
 -1     41394    3    0    1
 -2      1065      1134      3490      1111
 -1     41395    3    0    1
 -2      3007      2972      3632      3631
 -1     41396    3    0    1
 -2      3632      2972      3007      3553
 -1     41397    3    0    1
 -2      1723      4013      2351      2352
 -1     41398    3    0    1
 -2      1723      2351      4013      1765
 -1     41399    3    0    1
 -2      8477      8039      6996      8508
 -1     41400    3    0    1
 -2      6996      8039      8477      6962
 -1     41401    3    0    1
 -2      6996      7649      8477      8508
 -1     41402    3    0    1
 -2      8477      7649      6996      6962
 -1     41403    3    0    1
 -2      8650      9339      6272      8632
 -1     41404    3    0    1
 -2      8650      6272      9339      9066
 -1     41405    3    0    1
 -2      7533      6033      6864      6032
 -1     41406    3    0    1
 -2      7533      6864      6033      7555
 -1     41407    3    0    1
 -2      2294      3988      3935      1581
 -1     41408    3    0    1
 -2      2294      3935      3988      2823
 -1     41409    3    0    1
 -2      7172      8654      7288      8193
 -1     41410    3    0    1
 -2      7172      7288      8654      5470
 -1     41411    3    0    1
 -2      8908      6114      8874      8929
 -1     41412    3    0    1
 -2      8908      8874      6114      7000
 -1     41413    3    0    1
 -2      3204      4312      4642      3790
 -1     41414    3    0    1
 -2      4642      4312      3204      4281
 -1     41415    3    0    1
 -2      2217       881       844      1487
 -1     41416    3    0    1
 -2      2217       844       881      1516
 -1     41417    3    0    1
 -2      4912      4644      4642      4913
 -1     41418    3    0    1
 -2      4642      4644      4912      4643
 -1     41419    3    0    1
 -2      1742      4063      2367      1770
 -1     41420    3    0    1
 -2      1742      2367      4063      3435
 -1     41421    3    0    1
 -2      8531      8913      7657      8078
 -1     41422    3    0    1
 -2      8531      7657      8913      9265
 -1     41423    3    0    1
 -2      3821      2082      4246      2081
 -1     41424    3    0    1
 -2      3147      4246      2082      2081
 -1     41425    3    0    1
 -2      4076      2860      2931      2887
 -1     41426    3    0    1
 -2      2931      2860      4076      3447
 -1     41427    3    0    1
 -2      7343      6474      6475      6476
 -1     41428    3    0    1
 -2      6475      8294      7343      6476
 -1     41429    3    0    1
 -2       958       930      3324       493
 -1     41430    3    0    1
 -2       958      3324       930      2806
 -1     41431    3    0    1
 -2      3189      4304      3813      3225
 -1     41432    3    0    1
 -2      3987      2326       993      2344
 -1     41433    3    0    1
 -2      3987       993      2326      1650
 -1     41434    3    0    1
 -2      1095      3536      2888      1067
 -1     41435    3    0    1
 -2      2888      3536      1095      1799
 -1     41436    3    0    1
 -2      2888      1116      1095      1067
 -1     41437    3    0    1
 -2      1095      1116      2888      1799
 -1     41438    3    0    1
 -2      8404      8027      8854      8004
 -1     41439    3    0    1
 -2      8404      8854      8027      8012
 -1     41440    3    0    1
 -2      7156      6175      7723      7122
 -1     41441    3    0    1
 -2      7156      7723      6175      7177
 -1     41442    3    0    1
 -2      3163      3230      1434      2009
 -1     41443    3    0    1
 -2      1434      3230      3163      2116
 -1     41444    3    0    1
 -2      1434      1415      3163      2009
 -1     41445    3    0    1
 -2      3163      1415      1434      2116
 -1     41446    3    0    1
 -2      1667      3446      1695      2329
 -1     41447    3    0    1
 -2      1667      1695      3446       545
 -1     41448    3    0    1
 -2       547      1787      1063      1669
 -1     41449    3    0    1
 -2      1063      1787       547       548
 -1     41450    3    0    1
 -2      8784      6690      8378      7474
 -1     41451    3    0    1
 -2      6690      7426      8784      6689
 -1     41452    3    0    1
 -2      8784      7426      6690      7474
 -1     41453    3    0    1
 -2      7426      6691      6690      7474
 -1     41454    3    0    1
 -2      7455      7503      8336      6012
 -1     41455    3    0    1
 -2      7455      8336      7503      8382
 -1     41456    3    0    1
 -2      7971      8336      7503      6012
 -1     41457    3    0    1
 -2      7971      7503      8336      8382
 -1     41458    3    0    1
 -2       684       258      2465       257
 -1     41459    3    0    1
 -2       684      2465       258      1226
 -1     41460    3    0    1
 -2      5117      5078      4553      4858
 -1     41461    3    0    1
 -2      5117      4553      5078      4857
 -1     41462    3    0    1
 -2      3020      4160      4097      3624
 -1     41463    3    0    1
 -2      3020      4097      4160      4117
 -1     41464    3    0    1
 -2      6625      9438      9152      8803
 -1     41465    3    0    1
 -2      6625      9152      9438      9137
 -1     41466    3    0    1
 -2      2459      2971      3591      1191
 -1     41467    3    0    1
 -2      2459      3591      2971      2972
 -1     41468    3    0    1
 -2      7889      7368      9107      5906
 -1     41469    3    0    1
 -2      7889      9107      7368      9119
 -1     41470    3    0    1
 -2      7842      9107      7368      5906
 -1     41471    3    0    1
 -2      7842      7368      9107      9119
 -1     41472    3    0    1
 -2      6658      8836      5960      7483
 -1     41473    3    0    1
 -2      6658      5960      8836      8792
 -1     41474    3    0    1
 -2      5650      5960      8836      7483
 -1     41475    3    0    1
 -2      1716      1110      3446      3488
 -1     41476    3    0    1
 -2      7841      9075      7825      8262
 -1     41477    3    0    1
 -2      7841      7825      9075      7856
 -1     41478    3    0    1
 -2      8423      6829      8827      6826
 -1     41479    3    0    1
 -2      8423      8827      6829      7563
 -1     41480    3    0    1
 -2      7992      8827      6829      6826
 -1     41481    3    0    1
 -2      7992      6829      8827      7563
 -1     41482    3    0    1
 -2      6280      6188      5840      7807
 -1     41483    3    0    1
 -2      5840      6188      6280      5842
 -1     41484    3    0    1
 -2      2418      1189      2970      3030
 -1     41485    3    0    1
 -2      2418      2970      1189      1164
 -1     41486    3    0    1
 -2      2486      2428      1874      1839
 -1     41487    3    0    1
 -2      1874      2428      2486      3666
 -1     41488    3    0    1
 -2      6919      8495      8887      8015
 -1     41489    3    0    1
 -2      6919      8887      8495      7633
 -1     41490    3    0    1
 -2      6700      8381      7478      8358
 -1     41491    3    0    1
 -2      6700      7478      8381      7454
 -1     41492    3    0    1
 -2      6239      8648      7238      7160
 -1     41493    3    0    1
 -2      6239      7238      8648      7207
 -1     41494    3    0    1
 -2      7394      6515      8295      6514
 -1     41495    3    0    1
 -2      7394      8295      6515      6575
 -1     41496    3    0    1
 -2      6479      8295      6515      6514
 -1     41497    3    0    1
 -2      6479      6515      8295      6575
 -1     41498    3    0    1
 -2      5876      5536      7321      5254
 -1     41499    3    0    1
 -2      5876      7321      5536      5939
 -1     41500    3    0    1
 -2      4523      5620      5139      4818
 -1     41501    3    0    1
 -2      5139      5620      4523      4849
 -1     41502    3    0    1
 -2      8480      8931      7037      8074
 -1     41503    3    0    1
 -2      8480      7037      8931      6998
 -1     41504    3    0    1
 -2      7038      7037      8931      8074
 -1     41505    3    0    1
 -2      7038      8931      7037      6998
 -1     41506    3    0    1
 -2      1950      3694      4190      2535
 -1     41507    3    0    1
 -2      4190      3694      1950      4589
 -1     41508    3    0    1
 -2      3773      3195      2658      3800
 -1     41509    3    0    1
 -2      2658      3195      3773      3164
 -1     41510    3    0    1
 -2      6609      7341      7310      8768
 -1     41511    3    0    1
 -2      7738      7189      7142      7141
 -1     41512    3    0    1
 -2      7738      7142      7189      8184
 -1     41513    3    0    1
 -2      6199      7142      7189      7141
 -1     41514    3    0    1
 -2      7006      8489      9237      7045
 -1     41515    3    0    1
 -2      7006      9237      8489      8047
 -1     41516    3    0    1
 -2      1490       439      2791       917
 -1     41517    3    0    1
 -2      1490      2791       439       830
 -1     41518    3    0    1
 -2      6602      6720      9170      6622
 -1     41519    3    0    1
 -2      9170      6720      6602      6638
 -1     41520    3    0    1
 -2      4839      5115      5669      5677
 -1     41521    3    0    1
 -2      4839      5669      5115      4840
 -1     41522    3    0    1
 -2      3651      1252      3037      2517
 -1     41523    3    0    1
 -2      3651      3037      1252      1884
 -1     41524    3    0    1
 -2      6274      4738      5453      5388
 -1     41525    3    0    1
 -2      6274      5453      4738      4986
 -1     41526    3    0    1
 -2      4706      5453      4738      5388
 -1     41527    3    0    1
 -2      4706      4738      5453      4986
 -1     41528    3    0    1
 -2      5414      5415      5376      5211
 -1     41529    3    0    1
 -2      5376      5415      5414      5807
 -1     41530    3    0    1
 -2       552       210      2967       133
 -1     41531    3    0    1
 -2       552      2967       210       601
 -1     41532    3    0    1
 -2      2175      2236      3857      2757
 -1     41533    3    0    1
 -2      2175      3857      2236      2728
 -1     41534    3    0    1
 -2      3505      4496      4447      4085
 -1     41535    3    0    1
 -2      4447      4496      3505      4036
 -1     41536    3    0    1
 -2      5007      4413      4072      4764
 -1     41537    3    0    1
 -2      8073      9263      8072      8527
 -1     41538    3    0    1
 -2      8073      8072      9263      7650
 -1     41539    3    0    1
 -2      4146      1853      3060      2493
 -1     41540    3    0    1
 -2      3484       990      3424      1706
 -1     41541    3    0    1
 -2      3484      3424       990      1707
 -1     41542    3    0    1
 -2      7319      8261      5938      6435
 -1     41543    3    0    1
 -2      7319      5938      8261      8714
 -1     41544    3    0    1
 -2       546      3446      1716      1110
 -1     41545    3    0    1
 -2      1716      3446       546      1061
 -1     41546    3    0    1
 -2      1716      1062       546      1110
 -1     41547    3    0    1
 -2       546      1062      1716      1061
 -1     41548    3    0    1
 -2      6557      8306      8765      6580
 -1     41549    3    0    1
 -2      8765      8306      6557      7356
 -1     41550    3    0    1
 -2      5529      5254      4072      5536
 -1     41551    3    0    1
 -2      4072      5254      5529      5007
 -1     41552    3    0    1
 -2      7016      6983      8514      7015
 -1     41553    3    0    1
 -2      8514      6983      7016      7627
 -1     41554    3    0    1
 -2      6788      8425      6838      7550
 -1     41555    3    0    1
 -2      6788      6838      8425      6787
 -1     41556    3    0    1
 -2      3841      4279      3175      3130
 -1     41557    3    0    1
 -2      3175      4279      3841      4311
 -1     41558    3    0    1
 -2      3175      2667      3841      3130
 -1     41559    3    0    1
 -2      3841      2667      3175      4311
 -1     41560    3    0    1
 -2      8284      6504      5923      6464
 -1     41561    3    0    1
 -2      8284      5923      6504      7374
 -1     41562    3    0    1
 -2      6862      6806      6882      8430
 -1     41563    3    0    1
 -2      6862      6882      6806      6807
 -1     41564    3    0    1
 -2      5488      6499      5934      5908
 -1     41565    3    0    1
 -2      5934      6499      5488      5015
 -1     41566    3    0    1
 -2      5934      5540      5488      5908
 -1     41567    3    0    1
 -2      5488      5540      5934      5015
 -1     41568    3    0    1
 -2      9013      6174      8641      7225
 -1     41569    3    0    1
 -2      9013      8641      6174      7749
 -1     41570    3    0    1
 -2      5514      5953      5262      5502
 -1     41571    3    0    1
 -2      5514      5262      5953      5284
 -1     41572    3    0    1
 -2      5283      5262      5953      5502
 -1     41573    3    0    1
 -2      5283      5953      5262      5284
 -1     41574    3    0    1
 -2      4960      4363      4350      4691
 -1     41575    3    0    1
 -2      1727      1067      3536      1096
 -1     41576    3    0    1
 -2      1757      2412      4070      1758
 -1     41577    3    0    1
 -2      1757      4070      2412      4007
 -1     41578    3    0    1
 -2      4385      3873      2743      4349
 -1     41579    3    0    1
 -2      2743      3873      4385      3887
 -1     41580    3    0    1
 -2      2832      3967      1613      2794
 -1     41581    3    0    1
 -2      3384      3967      1613      1647
 -1     41582    3    0    1
 -2      3384      1613      3967      2794
 -1     41583    3    0    1
 -2      3781      1370      1282      2133
 -1     41584    3    0    1
 -2      3781      1282      1370      2567
 -1     41585    3    0    1
 -2      1198       613      1150      1166
 -1     41586    3    0    1
 -2      1198      1150       613      1199
 -1     41587    3    0    1
 -2      5926      7309      6472      6473
 -1     41588    3    0    1
 -2      5926      6472      7309      5927
 -1     41589    3    0    1
 -2      3616      1832      2510      2995
 -1     41590    3    0    1
 -2      2510      1832      3616      1831
 -1     41591    3    0    1
 -2      4904      3843      2662      4675
 -1     41592    3    0    1
 -2      2662      3843      4904      4294
 -1     41593    3    0    1
 -2      2662      3782      4904      4675
 -1     41594    3    0    1
 -2      4904      3782      2662      4294
 -1     41595    3    0    1
 -2      8935      8922      8540      9278
 -1     41596    3    0    1
 -2      8935      8540      8922      6947
 -1     41597    3    0    1
 -2      8539      8540      8922      9278
 -1     41598    3    0    1
 -2      8539      8922      8540      6947
 -1     41599    3    0    1
 -2      2426      3072      2478      4139
 -1     41600    3    0    1
 -2      2426      2478      3072      1868
 -1     41601    3    0    1
 -2      3664      1221      1188      1911
 -1     41602    3    0    1
 -2      3664      1188      1221      1189
 -1     41603    3    0    1
 -2      2014      1967      3170      3128
 -1     41604    3    0    1
 -2      3170      1967      2014      1318
 -1     41605    3    0    1
 -2      6690      7425      6002      6689
 -1     41606    3    0    1
 -2      2201      3302       868      3333
 -1     41607    3    0    1
 -2      2201       868      3302      1491
 -1     41608    3    0    1
 -2      8305      6524      8321      6452
 -1     41609    3    0    1
 -2      8305      8321      6524      7383
 -1     41610    3    0    1
 -2      6498      7270      7255      8678
 -1     41611    3    0    1
 -2      5832      6174      7198      5833
 -1     41612    3    0    1
 -2      5832      7198      6174      7751
 -1     41613    3    0    1
 -2      6021      5091      5584      5978
 -1     41614    3    0    1
 -2      5584      5091      6021      5122
 -1     41615    3    0    1
 -2      3306       922      3307      2779
 -1     41616    3    0    1
 -2      3306      3307       922      2203
 -1     41617    3    0    1
 -2      5023      5507      5276      4771
 -1     41618    3    0    1
 -2      5276      5507      5023      5066
 -1     41619    3    0    1
 -2      5276      4495      5023      4771
 -1     41620    3    0    1
 -2      5023      4495      5276      5066
 -1     41621    3    0    1
 -2      9217      8460      7671      9260
 -1     41622    3    0    1
 -2      8525      7671      8460      9260
 -1     41623    3    0    1
 -2      8525      8460      7671      6991
 -1     41624    3    0    1
 -2      6485      8749      6555      6523
 -1     41625    3    0    1
 -2      6555      8749      6485      8304
 -1     41626    3    0    1
 -2      1378      2097      2633      2098
 -1     41627    3    0    1
 -2      1378      2633      2097      2599
 -1     41628    3    0    1
 -2      3822      2633      2097      2098
 -1     41629    3    0    1
 -2      3822      2097      2633      2599
 -1     41630    3    0    1
 -2      1806      1760      3462      1090
 -1     41631    3    0    1
 -2      1806      3462      1760      3511
 -1     41632    3    0    1
 -2       173       545      1043       128
 -1     41633    3    0    1
 -2       173      1043       545       546
 -1     41634    3    0    1
 -2      6529      6455      8719      7363
 -1     41635    3    0    1
 -2      3450      4020      2863      4474
 -1     41636    3    0    1
 -2      3450      2863      4020      3414
 -1     41637    3    0    1
 -2      6918      8458      5705      7008
 -1     41638    3    0    1
 -2      6918      5705      8458      7579
 -1     41639    3    0    1
 -2      8292      5925      8291      7379
 -1     41640    3    0    1
 -2      4676      4621      4285      4623
 -1     41641    3    0    1
 -2      4676      4285      4621      4622
 -1     41642    3    0    1
 -2      2092      3135      2091      2060
 -1     41643    3    0    1
 -2      2091      3135      2092      3136
 -1     41644    3    0    1
 -2      6082      8066      7606      7061
 -1     41645    3    0    1
 -2      6082      7606      8066      8898
 -1     41646    3    0    1
 -2      8899      7606      8066      7061
 -1     41647    3    0    1
 -2      8899      8066      7606      8898
 -1     41648    3    0    1
 -2      3747      1322      2000      2018
 -1     41649    3    0    1
 -2      2000      1322      3747      2001
 -1     41650    3    0    1
 -2      2719      2258      2804      1511
 -1     41651    3    0    1
 -2      2804      2258      2719      3279
 -1     41652    3    0    1
 -2      1681      2912       571      2369
 -1     41653    3    0    1
 -2      7547      5657      8402      7492
 -1     41654    3    0    1
 -2      7547      8402      5657      6821
 -1     41655    3    0    1
 -2      2247      2715      2276       924
 -1     41656    3    0    1
 -2      2247      2276      2715      3310
 -1     41657    3    0    1
 -2      3309      2276      2715       924
 -1     41658    3    0    1
 -2      3309      2715      2276      3310
 -1     41659    3    0    1
 -2      2134      1378      2633      1423
 -1     41660    3    0    1
 -2      7020      8463      8464      7643
 -1     41661    3    0    1
 -2      8464      8463      7020      6926
 -1     41662    3    0    1
 -2      3708      1274      1341      1273
 -1     41663    3    0    1
 -2      3708      1341      1274      2549
 -1     41664    3    0    1
 -2      9241      6061      9257      7088
 -1     41665    3    0    1
 -2      9241      9257      6061      8037
 -1     41666    3    0    1
 -2      6676      7469      6678      6677
 -1     41667    3    0    1
 -2      6678      7469      6676      8371
 -1     41668    3    0    1
 -2      7243      7761      9023      8633
 -1     41669    3    0    1
 -2      9023      7761      7243      5793
 -1     41670    3    0    1
 -2      3960      1631      2332      2307
 -1     41671    3    0    1
 -2      3960      2332      1631      3397
 -1     41672    3    0    1
 -2       425      2175       426       823
 -1     41673    3    0    1
 -2       426      2175       425       903
 -1     41674    3    0    1
 -2      8222      5471      8665      6323
 -1     41675    3    0    1
 -2      8665      5471      8222      7785
 -1     41676    3    0    1
 -2      2663       377      2614      2155
 -1     41677    3    0    1
 -2      3101      1978      2560      3692
 -1     41678    3    0    1
 -2      2560      1978      3101      1977
 -1     41679    3    0    1
 -2      7966      7535      8398      8837
 -1     41680    3    0    1
 -2      7966      8398      7535      5671
 -1     41681    3    0    1
 -2      6458      8278      6459      6533
 -1     41682    3    0    1
 -2      6458      6459      8278      7327
 -1     41683    3    0    1
 -2      2469       273      1263       266
 -1     41684    3    0    1
 -2      2469      1263       273       689
 -1     41685    3    0    1
 -2       500      1612      3334      1572
 -1     41686    3    0    1
 -2      3334      1612       500       975
 -1     41687    3    0    1
 -2      6069      6897      6896      5702
 -1     41688    3    0    1
 -2      6069      6896      6897      8046
 -1     41689    3    0    1
 -2      3283      2261      2211      1514
 -1     41690    3    0    1
 -2      2211      2261      3283      3350
 -1     41691    3    0    1
 -2      7301      5906      5485      7842
 -1     41692    3    0    1
 -2      7301      5485      5906      6342
 -1     41693    3    0    1
 -2      9184      9671      9615      9626
 -1     41694    3    0    1
 -2      2049      2126      3155      1351
 -1     41695    3    0    1
 -2      2049      3155      2126      3768
 -1     41696    3    0    1
 -2       944      1616      1527      1580
 -1     41697    3    0    1
 -2       944      1527      1616      1666
 -1     41698    3    0    1
 -2      2798      1527      1616      1580
 -1     41699    3    0    1
 -2      2798      1616      1527      1666
 -1     41700    3    0    1
 -2      8872      5745      9261      8070
 -1     41701    3    0    1
 -2      8872      9261      5745      6064
 -1     41702    3    0    1
 -2      7031      9261      5745      8070
 -1     41703    3    0    1
 -2      7031      5745      9261      6064
 -1     41704    3    0    1
 -2      2297       957       958      2284
 -1     41705    3    0    1
 -2       958       957      2297      1626
 -1     41706    3    0    1
 -2      3915      3307      2192      2778
 -1     41707    3    0    1
 -2      2192      3307      3915      3273
 -1     41708    3    0    1
 -2      2192      2191      3915      2778
 -1     41709    3    0    1
 -2      3915      2191      2192      3273
 -1     41710    3    0    1
 -2      1992      1856      1234      1903
 -1     41711    3    0    1
 -2      3687      1932      4208      2539
 -1     41712    3    0    1
 -2      3687      4208      1932      3073
 -1     41713    3    0    1
 -2      1172      3039      1829      3605
 -1     41714    3    0    1
 -2      4939      4934      4313      4935
 -1     41715    3    0    1
 -2      4313      4934      4939      4650
 -1     41716    3    0    1
 -2      1347      2083      3765      3731
 -1     41717    3    0    1
 -2      1347      3765      2083      1382
 -1     41718    3    0    1
 -2      4248      3765      2083      3731
 -1     41719    3    0    1
 -2      6432      7280      7318      6396
 -1     41720    3    0    1
 -2      7318      7280      6432      8252
 -1     41721    3    0    1
 -2      8405      9177      7476      7957
 -1     41722    3    0    1
 -2      8405      7476      9177      8840
 -1     41723    3    0    1
 -2       465      1474      1473       466
 -1     41724    3    0    1
 -2      1473      1474       465      2699
 -1     41725    3    0    1
 -2      8912      8045      7657      8913
 -1     41726    3    0    1
 -2      8912      7657      8045      7043
 -1     41727    3    0    1
 -2      8078      7657      8045      8913
 -1     41728    3    0    1
 -2      8078      8045      7657      7043
 -1     41729    3    0    1
 -2      7243      7761      6201      5418
 -1     41730    3    0    1
 -2      6201      7761      7243      8633
 -1     41731    3    0    1
 -2      6201      6200      7243      5418
 -1     41732    3    0    1
 -2      7243      6200      6201      8633
 -1     41733    3    0    1
 -2      1569      3332      3358      1568
 -1     41734    3    0    1
 -2      2816      1643      1611       972
 -1     41735    3    0    1
 -2      2816      1611      1643      2309
 -1     41736    3    0    1
 -2      1506      1494      3341      2221
 -1     41737    3    0    1
 -2      1506      3341      1494       870
 -1     41738    3    0    1
 -2      3919      4694      4727      4695
 -1     41739    3    0    1
 -2      3919      4727      4694      4365
 -1     41740    3    0    1
 -2      8081      8491      6089      8915
 -1     41741    3    0    1
 -2      6089      8491      8081      7046
 -1     41742    3    0    1
 -2      6192      8179      5376      6191
 -1     41743    3    0    1
 -2      6192      5376      8179      7137
 -1     41744    3    0    1
 -2      3910      2176      2759      3315
 -1     41745    3    0    1
 -2      2785      2759      2176      3315
 -1     41746    3    0    1
 -2      2785      2176      2759      2702
 -1     41747    3    0    1
 -2      1721      1065      2390      1111
 -1     41748    3    0    1
 -2      1721      2390      1065      1720
 -1     41749    3    0    1
 -2      2402      2390      1065      1111
 -1     41750    3    0    1
 -2      2402      1065      2390      1720
 -1     41751    3    0    1
 -2      9625      9412      5955      9606
 -1     41752    3    0    1
 -2      5955      9412      9625      9142
 -1     41753    3    0    1
 -2      5736      4915      5365      5709
 -1     41754    3    0    1
 -2      5365      4915      5736      5364
 -1     41755    3    0    1
 -2      5365      5777      5736      5709
 -1     41756    3    0    1
 -2      5736      5777      5365      5364
 -1     41757    3    0    1
 -2      6301      7806      5867      7245
 -1     41758    3    0    1
 -2      6301      5867      7806      6302
 -1     41759    3    0    1
 -2      6378      5867      7806      7245
 -1     41760    3    0    1
 -2      6378      7806      5867      6302
 -1     41761    3    0    1
 -2      1533      2279      2732       948
 -1     41762    3    0    1
 -2      2732      2279      1533      3366
 -1     41763    3    0    1
 -2      2360      1781      2925      4019
 -1     41764    3    0    1
 -2      2925      1781      2360      1728
 -1     41765    3    0    1
 -2      7651      6932      8026      8479
 -1     41766    3    0    1
 -2      7651      8026      6932      7036
 -1     41767    3    0    1
 -2      4036      4447      4477      4035
 -1     41768    3    0    1
 -2      4477      4447      4036      4496
 -1     41769    3    0    1
 -2      2408      1802       567      1021
 -1     41770    3    0    1
 -2       567      1802      2408      1076
 -1     41771    3    0    1
 -2       567      1075      2408      1021
 -1     41772    3    0    1
 -2      2408      1075       567      1076
 -1     41773    3    0    1
 -2      5642      5290      6622      5289
 -1     41774    3    0    1
 -2      6622      5290      5642      5655
 -1     41775    3    0    1
 -2      1183      1155      3581       619
 -1     41776    3    0    1
 -2      1183      3581      1155      1856
 -1     41777    3    0    1
 -2      3402      2301      1665      2844
 -1     41778    3    0    1
 -2      3402      1665      2301      1655
 -1     41779    3    0    1
 -2      4804      5504      5006      5061
 -1     41780    3    0    1
 -2      8829      5676      8841      7504
 -1     41781    3    0    1
 -2      8841      5676      8829      7505
 -1     41782    3    0    1
 -2      5676      9193      8841      7504
 -1     41783    3    0    1
 -2      8841      9193      5676      7505
 -1     41784    3    0    1
 -2      5676      6751      9193      7504
 -1     41785    3    0    1
 -2      9193      6751      5676      7505
 -1     41786    3    0    1
 -2      8347      6013      7454      6699
 -1     41787    3    0    1
 -2      8347      7454      6013      6701
 -1     41788    3    0    1
 -2      6700      7454      6013      6699
 -1     41789    3    0    1
 -2      6700      6013      7454      6701
 -1     41790    3    0    1
 -2      6881      8017      8498      7999
 -1     41791    3    0    1
 -2      6881      8498      8017      6921
 -1     41792    3    0    1
 -2      3853      3347      2698      3852
 -1     41793    3    0    1
 -2      3853      2698      3347      2752
 -1     41794    3    0    1
 -2      2230      2698      3347      3852
 -1     41795    3    0    1
 -2      2230      3347      2698      2752
 -1     41796    3    0    1
 -2      2299      1644      3357      3947
 -1     41797    3    0    1
 -2      2299      3357      1644      1645
 -1     41798    3    0    1
 -2      5246      4766      4806      4807
 -1     41799    3    0    1
 -2      5246      4806      4766      4424
 -1     41800    3    0    1
 -2      4052      4806      4766      4807
 -1     41801    3    0    1
 -2      4052      4766      4806      4424
 -1     41802    3    0    1
 -2      1852      4141      2481      1851
 -1     41803    3    0    1
 -2      2481      4141      1852      2482
 -1     41804    3    0    1
 -2      5955      5528      6525      5954
 -1     41805    3    0    1
 -2      5955      6525      5528      6558
 -1     41806    3    0    1
 -2      1903      4185      1856      3068
 -1     41807    3    0    1
 -2      1856      4185      1903      1992
 -1     41808    3    0    1
 -2      7369      5885      5919      5887
 -1     41809    3    0    1
 -2      5886      5919      5885      5887
 -1     41810    3    0    1
 -2      4670      4887      4651      5347
 -1     41811    3    0    1
 -2      4670      4651      4887      4595
 -1     41812    3    0    1
 -2      5150      4651      4887      5347
 -1     41813    3    0    1
 -2      5150      4887      4651      4595
 -1     41814    3    0    1
 -2      1136      1097      1068       559
 -1     41815    3    0    1
 -2      1068      1097      1136      2403
 -1     41816    3    0    1
 -2      1068      2936      1136       559
 -1     41817    3    0    1
 -2      1136      2936      1068      2403
 -1     41818    3    0    1
 -2      7942      7481      7995      7438
 -1     41819    3    0    1
 -2      7942      7995      7481      8817
 -1     41820    3    0    1
 -2      3967      2324      1613      1647
 -1     41821    3    0    1
 -2      1613      2324      3967      2832
 -1     41822    3    0    1
 -2      4915      4302      3205      4647
 -1     41823    3    0    1
 -2      3205      4302      4915      4288
 -1     41824    3    0    1
 -2      3205      3179      4915      4647
 -1     41825    3    0    1
 -2      4915      3179      3205      4288
 -1     41826    3    0    1
 -2      3756      4609      4611      4610
 -1     41827    3    0    1
 -2      4611      4609      3756      3757
 -1     41828    3    0    1
 -2      8372      7493      8333      7470
 -1     41829    3    0    1
 -2      8372      8333      7493      8373
 -1     41830    3    0    1
 -2      7421      8333      7493      7470
 -1     41831    3    0    1
 -2      7421      7493      8333      8373
 -1     41832    3    0    1
 -2      6200      8159      7142      6201
 -1     41833    3    0    1
 -2      7142      8159      6200      6245
 -1     41834    3    0    1
 -2      7142      6199      6200      6201
 -1     41835    3    0    1
 -2      6200      6199      7142      6245
 -1     41836    3    0    1
 -2      3737      1306      3162      1308
 -1     41837    3    0    1
 -2      3737      3162      1306      3192
 -1     41838    3    0    1
 -2      1320      2558      2542      2016
 -1     41839    3    0    1
 -2      1320      2542      2558      3745
 -1     41840    3    0    1
 -2      7458      6735      6770      8349
 -1     41841    3    0    1
 -2      3879      3270      3900      4374
 -1     41842    3    0    1
 -2      3900      3270      3879      2788
 -1     41843    3    0    1
 -2      3900      3377      3879      4374
 -1     41844    3    0    1
 -2      3879      3377      3900      2788
 -1     41845    3    0    1
 -2      2483      1187      2427      1837
 -1     41846    3    0    1
 -2      2483      2427      1187      2484
 -1     41847    3    0    1
 -2      1696      2314      1002      2860
 -1     41848    3    0    1
 -2      1726      1798      1766      1113
 -1     41849    3    0    1
 -2      1726      1766      1798      3518
 -1     41850    3    0    1
 -2      2126       697      1351      2049
 -1     41851    3    0    1
 -2      2126      1351       697       726
 -1     41852    3    0    1
 -2       994      2339      1056      3443
 -1     41853    3    0    1
 -2      1056      2339       994       511
 -1     41854    3    0    1
 -2      6419      7282      6296      7817
 -1     41855    3    0    1
 -2      6419      6296      7282      5482
 -1     41856    3    0    1
 -2      1490      3358      1569      3332
 -1     41857    3    0    1
 -2      1569      3358      1490      2723
 -1     41858    3    0    1
 -2      4378      2791      3881      3357
 -1     41859    3    0    1
 -2      3881      2791      4378      3868
 -1     41860    3    0    1
 -2      2202       479       884       883
 -1     41861    3    0    1
 -2      2202       884       479      3303
 -1     41862    3    0    1
 -2      5622      4820      5653      5621
 -1     41863    3    0    1
 -2      5622      5653      4820      5105
 -1     41864    3    0    1
 -2      6521      5555      5281      5512
 -1     41865    3    0    1
 -2      6521      5281      5555      5575
 -1     41866    3    0    1
 -2      7856      7267      6380      8209
 -1     41867    3    0    1
 -2      7856      6380      7267      7299
 -1     41868    3    0    1
 -2      3679      1848      2438      2437
 -1     41869    3    0    1
 -2      2438      1848      3679      4200
 -1     41870    3    0    1
 -2      2438      3611      3679      2437
 -1     41871    3    0    1
 -2      3679      3611      2438      4200
 -1     41872    3    0    1
 -2      2529      3106      3698      4221
 -1     41873    3    0    1
 -2      2529      3698      3106      2020
 -1     41874    3    0    1
 -2      8635      6171      6251      5794
 -1     41875    3    0    1
 -2      6251      6171      8635      6250
 -1     41876    3    0    1
 -2      1617      1669      2885       998
 -1     41877    3    0    1
 -2      1617      2885      1669      2848
 -1     41878    3    0    1
 -2      5699      6837      8445      7550
 -1     41879    3    0    1
 -2      5699      8445      6837      6892
 -1     41880    3    0    1
 -2      6893      8445      6837      7550
 -1     41881    3    0    1
 -2      6893      6837      8445      6892
 -1     41882    3    0    1
 -2      5061      4412      5006      4804
 -1     41883    3    0    1
 -2      5061      5006      4412      4763
 -1     41884    3    0    1
 -2      4153      4585      4566      5084
 -1     41885    3    0    1
 -2      4566      4585      4153      4175
 -1     41886    3    0    1
 -2      1107      2413      1091      1775
 -1     41887    3    0    1
 -2      1107      1091      2413      3485
 -1     41888    3    0    1
 -2      6584      5286      6494      5539
 -1     41889    3    0    1
 -2      6584      6494      5286      6601
 -1     41890    3    0    1
 -2      4243      3755      2066      3723
 -1     41891    3    0    1
 -2      1342      3755      2066      1364
 -1     41892    3    0    1
 -2      1342      2066      3755      3723
 -1     41893    3    0    1
 -2      4800      2852      3478      4061
 -1     41894    3    0    1
 -2      3478      2852      4800      4438
 -1     41895    3    0    1
 -2      3478      4028      4800      4061
 -1     41896    3    0    1
 -2      4800      4028      3478      4438
 -1     41897    3    0    1
 -2      3578      2454      2455      2994
 -1     41898    3    0    1
 -2      2455      2454      3578      4168
 -1     41899    3    0    1
 -2      2455      3643      3578      2994
 -1     41900    3    0    1
 -2      3578      3643      2455      4168
 -1     41901    3    0    1
 -2      6835      8434      8424      7549
 -1     41902    3    0    1
 -2      6835      8424      8434      6833
 -1     41903    3    0    1
 -2      4818      4115      3623      4523
 -1     41904    3    0    1
 -2      3623      4115      4818      4819
 -1     41905    3    0    1
 -2      3623      4571      4818      4523
 -1     41906    3    0    1
 -2      4818      4571      3623      4819
 -1     41907    3    0    1
 -2      3518      2887      3430      4017
 -1     41908    3    0    1
 -2      3518      3430      2887      1798
 -1     41909    3    0    1
 -2      6474      8294      6475      6545
 -1     41910    3    0    1
 -2      6474      6475      8294      7343
 -1     41911    3    0    1
 -2      6981      8502      8503      7667
 -1     41912    3    0    1
 -2      8503      8502      6981      7626
 -1     41913    3    0    1
 -2      8503      7055      6981      7667
 -1     41914    3    0    1
 -2      6981      7055      8503      7626
 -1     41915    3    0    1
 -2      1396      2587      2621      2106
 -1     41916    3    0    1
 -2      1396      2621      2587      2588
 -1     41917    3    0    1
 -2      1840      3667      3074      2445
 -1     41918    3    0    1
 -2      3074      3667      1840      2487
 -1     41919    3    0    1
 -2      3022      1850      1159      1864
 -1     41920    3    0    1
 -2      6508      7274      7308      7865
 -1     41921    3    0    1
 -2      6508      7308      7274      5495
 -1     41922    3    0    1
 -2      3667      1840      3591      3590
 -1     41923    3    0    1
 -2      5816      9004      7183      8627
 -1     41924    3    0    1
 -2      5816      7183      9004      7134
 -1     41925    3    0    1
 -2      8177      7183      9004      8627
 -1     41926    3    0    1
 -2      8177      9004      7183      7134
 -1     41927    3    0    1
 -2      6690      5956      7426      6689
 -1     41928    3    0    1
 -2      7426      5956      6690      6691
 -1     41929    3    0    1
 -2      7532      6773      6809      6774
 -1     41930    3    0    1
 -2      7532      6809      6773      7485
 -1     41931    3    0    1
 -2      2189       441       107       919
 -1     41932    3    0    1
 -2      2189       107       441       833
 -1     41933    3    0    1
 -2      5593      6645      6687      5980
 -1     41934    3    0    1
 -2      6687      6645      5593      5594
 -1     41935    3    0    1
 -2      6687      5660      5593      5980
 -1     41936    3    0    1
 -2      5593      5660      6687      5594
 -1     41937    3    0    1
 -2      4669      5736      4915      5364
 -1     41938    3    0    1
 -2      4669      4915      5736      4914
 -1     41939    3    0    1
 -2      4319      3743      2665      3196
 -1     41940    3    0    1
 -2      4319      2665      3743      3742
 -1     41941    3    0    1
 -2      2595      3743      2665      3742
 -1     41942    3    0    1
 -2      4197      1990      3035      3690
 -1     41943    3    0    1
 -2      3035      1990      4197      3034
 -1     41944    3    0    1
 -2      6182      8147      6181      7158
 -1     41945    3    0    1
 -2      6182      6181      8147      8173
 -1     41946    3    0    1
 -2      6267      8147      6181      8173
 -1     41947    3    0    1
 -2      1263      2469      1212       689
 -1     41948    3    0    1
 -2      3567      4102      3535      4103
 -1     41949    3    0    1
 -2      3535      4102      3567      3028
 -1     41950    3    0    1
 -2      8075      7594      7655      8910
 -1     41951    3    0    1
 -2      7655      7594      8075      6065
 -1     41952    3    0    1
 -2      4534      4106      3620      4505
 -1     41953    3    0    1
 -2      3620      4106      4534      3594
 -1     41954    3    0    1
 -2      7244      8218      7221      5455
 -1     41955    3    0    1
 -2      7244      7221      8218      8233
 -1     41956    3    0    1
 -2      6118      6973      7105      5757
 -1     41957    3    0    1
 -2      6118      7105      6973      6094
 -1     41958    3    0    1
 -2      1526      3931      2790      2271
 -1     41959    3    0    1
 -2      3741      2615      2593      3802
 -1     41960    3    0    1
 -2      2593      2615      3741      2594
 -1     41961    3    0    1
 -2       349       348       794       346
 -1     41962    3    0    1
 -2       349       794       348       350
 -1     41963    3    0    1
 -2      5968      5302      6725      5969
 -1     41964    3    0    1
 -2      6725      5302      5968      5658
 -1     41965    3    0    1
 -2      1719      3514      1780      2389
 -1     41966    3    0    1
 -2      1719      1780      3514      1718
 -1     41967    3    0    1
 -2      3404      1002      2314      2860
 -1     41968    3    0    1
 -2      2314      1002      3404      1674
 -1     41969    3    0    1
 -2      4582      5082      4508      4537
 -1     41970    3    0    1
 -2      7041      8484      8510      7595
 -1     41971    3    0    1
 -2      7041      8510      8484      7656
 -1     41972    3    0    1
 -2      3735      4601      4927      3227
 -1     41973    3    0    1
 -2      4927      4601      3735      4602
 -1     41974    3    0    1
 -2      4927      4256      3735      3227
 -1     41975    3    0    1
 -2      3735      4256      4927      4602
 -1     41976    3    0    1
 -2      4264      3754      3835      3708
 -1     41977    3    0    1
 -2      3835      3754      4264      4918
 -1     41978    3    0    1
 -2      4264      4265      3835      4918
 -1     41979    3    0    1
 -2      4669      4915      4302      5209
 -1     41980    3    0    1
 -2      4302      4915      4669      4647
 -1     41981    3    0    1
 -2      8458      6900      5705      7008
 -1     41982    3    0    1
 -2      5705      6900      8458      8435
 -1     41983    3    0    1
 -2      2217      2269      3295      3378
 -1     41984    3    0    1
 -2      7868      7900      6510      8740
 -1     41985    3    0    1
 -2      7868      6510      7900      6572
 -1     41986    3    0    1
 -2      6509      6510      7900      8740
 -1     41987    3    0    1
 -2      6509      7900      6510      6572
 -1     41988    3    0    1
 -2      5402      6159      5462      6158
 -1     41989    3    0    1
 -2      5462      6159      5402      5430
 -1     41990    3    0    1
 -2      5987      8363      7465      6659
 -1     41991    3    0    1
 -2      7465      8363      5987      6758
 -1     41992    3    0    1
 -2      5078      4553      4116      4131
 -1     41993    3    0    1
 -2      5078      4116      4553      4858
 -1     41994    3    0    1
 -2      5800      5473      7120      6260
 -1     41995    3    0    1
 -2      7120      5473      5800      5398
 -1     41996    3    0    1
 -2      6370      7264      6431      6331
 -1     41997    3    0    1
 -2      6431      7264      6370      8242
 -1     41998    3    0    1
 -2      1716      2415      1110      3488
 -1     41999    3    0    1
 -2      1716      1110      2415      1062
 -1     42000    3    0    1
 -2      8404      6913      8027      6891
 -1     42001    3    0    1
 -2      8404      8027      6913      8012
 -1     42002    3    0    1
 -2      1863      2960      1133      3020
 -1     42003    3    0    1
 -2      1133      2960      1863       642
 -1     42004    3    0    1
 -2      1863      1133      2961      3020
 -1     42005    3    0    1
 -2      2961      1133      1863       642
 -1     42006    3    0    1
 -2      1863      2961      3000      3020
 -1     42007    3    0    1
 -2      3000      2961      1863       642
 -1     42008    3    0    1
 -2      8565      9549      8564      8986
 -1     42009    3    0    1
 -2      8565      8564      9549      9568
 -1     42010    3    0    1
 -2      7791      6189      6164      8613
 -1     42011    3    0    1
 -2      6164      6189      7791      5841
 -1     42012    3    0    1
 -2      3078      2446      3671      1878
 -1     42013    3    0    1
 -2      3671      2446      3078      4145
 -1     42014    3    0    1
 -2      4164      4560      3597      3033
 -1     42015    3    0    1
 -2      4164      3597      4560      4845
 -1     42016    3    0    1
 -2      4121      3597      4560      3033
 -1     42017    3    0    1
 -2      4121      4560      3597      4845
 -1     42018    3    0    1
 -2      5871      7304      8679      8247
 -1     42019    3    0    1
 -2      8679      7304      5871      6352
 -1     42020    3    0    1
 -2      8679      7286      5871      8247
 -1     42021    3    0    1
 -2      5871      7286      8679      6352
 -1     42022    3    0    1
 -2      7576      7594      8445      5699
 -1     42023    3    0    1
 -2      7576      8445      7594      8875
 -1     42024    3    0    1
 -2       761       320      3236       760
 -1     42025    3    0    1
 -2       761      3236       320      1436
 -1     42026    3    0    1
 -2      3369      2280      2693      3368
 -1     42027    3    0    1
 -2      2693      2280      3369       893
 -1     42028    3    0    1
 -2      2714      3883      2796      2797
 -1     42029    3    0    1
 -2      2714      2796      3883      3272
 -1     42030    3    0    1
 -2       363         8      1444         7
 -1     42031    3    0    1
 -2      1444         8       363       795
 -1     42032    3    0    1
 -2      3930      2269      2217      3378
 -1     42033    3    0    1
 -2      2217      2269      3930      2813
 -1     42034    3    0    1
 -2      4864      4846      5130      4564
 -1     42035    3    0    1
 -2      4864      5130      4846      5098
 -1     42036    3    0    1
 -2      9065      7186      6197      6270
 -1     42037    3    0    1
 -2      9065      6197      7186      8629
 -1     42038    3    0    1
 -2      4018      5014      4785      4425
 -1     42039    3    0    1
 -2      4018      4785      5014      5013
 -1     42040    3    0    1
 -2      5064      4785      5014      4425
 -1     42041    3    0    1
 -2      5064      5014      4785      5013
 -1     42042    3    0    1
 -2      1090      1806      1091       541
 -1     42043    3    0    1
 -2      1090      1091      1806      1760
 -1     42044    3    0    1
 -2      9550      8566      7697      9570
 -1     42045    3    0    1
 -2      7697      8566      9550      8987
 -1     42046    3    0    1
 -2      7697      8598      9550      9570
 -1     42047    3    0    1
 -2      9550      8598      7697      8987
 -1     42048    3    0    1
 -2       498       474      2241       117
 -1     42049    3    0    1
 -2       498      2241       474       936
 -1     42050    3    0    1
 -2      6232      7724      6178      7125
 -1     42051    3    0    1
 -2      5805      6178      7724      7125
 -1     42052    3    0    1
 -2      3509      4490      4794      4503
 -1     42053    3    0    1
 -2      3509      4794      4490      4460
 -1     42054    3    0    1
 -2      5054      4794      4490      4503
 -1     42055    3    0    1
 -2      5054      4490      4794      4460
 -1     42056    3    0    1
 -2      7900      8294      6509      8740
 -1     42057    3    0    1
 -2      7900      6509      8294      6545
 -1     42058    3    0    1
 -2      1365      3216      2105      2118
 -1     42059    3    0    1
 -2      2105      3216      1365      1364
 -1     42060    3    0    1
 -2      8274      6532      8312      7366
 -1     42061    3    0    1
 -2      8312      6532      8274      7855
 -1     42062    3    0    1
 -2      2763      3878      4335      3291
 -1     42063    3    0    1
 -2      4335      3878      2763      3923
 -1     42064    3    0    1
 -2      4335      3911      2763      3291
 -1     42065    3    0    1
 -2      2763      3911      4335      3923
 -1     42066    3    0    1
 -2      2325      2311      1706      3441
 -1     42067    3    0    1
 -2      2325      1706      2311      1648
 -1     42068    3    0    1
 -2      1899      4156      3612      2439
 -1     42069    3    0    1
 -2      1899      3612      4156      2505
 -1     42070    3    0    1
 -2      4610      5179      4611      4674
 -1     42071    3    0    1
 -2      4611      5179      4610      4609
 -1     42072    3    0    1
 -2      9261      9231      8070      9276
 -1     42073    3    0    1
 -2      8070      9231      9261      8872
 -1     42074    3    0    1
 -2      7043      8486      8078      8045
 -1     42075    3    0    1
 -2      7043      8078      8486      7044
 -1     42076    3    0    1
 -2      6385      8237      6313      6386
 -1     42077    3    0    1
 -2      6313      8237      6385      7258
 -1     42078    3    0    1
 -2      1395      3237       761      2120
 -1     42079    3    0    1
 -2       761      3237      1395      1369
 -1     42080    3    0    1
 -2      4143      2490      3650      3593
 -1     42081    3    0    1
 -2      4143      3650      2490      3077
 -1     42082    3    0    1
 -2       779       336      1442       792
 -1     42083    3    0    1
 -2       779      1442       336       716
 -1     42084    3    0    1
 -2      6190      8178      6191      7184
 -1     42085    3    0    1
 -2      6190      6191      8178      7162
 -1     42086    3    0    1
 -2      9674      6604      6535      7913
 -1     42087    3    0    1
 -2      9674      6535      6604      6586
 -1     42088    3    0    1
 -2      5174      5687      4671      5151
 -1     42089    3    0    1
 -2      5174      4671      5687      5740
 -1     42090    3    0    1
 -2      4671      5687      5764      5151
 -1     42091    3    0    1
 -2      4671      5764      5687      5740
 -1     42092    3    0    1
 -2      5764      5687      5721      5151
 -1     42093    3    0    1
 -2      5764      5721      5687      5740
 -1     42094    3    0    1
 -2      7333      6538      5921      8285
 -1     42095    3    0    1
 -2      7655      8910      6966      8510
 -1     42096    3    0    1
 -2      7655      6966      8910      7594
 -1     42097    3    0    1
 -2      7595      6966      8910      8510
 -1     42098    3    0    1
 -2      7595      8910      6966      7594
 -1     42099    3    0    1
 -2      2209      2254      1536      3367
 -1     42100    3    0    1
 -2      2209      1536      2254      1537
 -1     42101    3    0    1
 -2      1210      1131      1211      2990
 -1     42102    3    0    1
 -2      1210      1211      1131       634
 -1     42103    3    0    1
 -2      4514      5093      4874      4528
 -1     42104    3    0    1
 -2      4874      5093      4514      5301
 -1     42105    3    0    1
 -2      4874      4875      4514      4528
 -1     42106    3    0    1
 -2      4514      4875      4874      5301
 -1     42107    3    0    1
 -2      9500      9544      8940      9482
 -1     42108    3    0    1
 -2      8940      9544      9500      9524
 -1     42109    3    0    1
 -2      7891      8278      6495      8724
 -1     42110    3    0    1
 -2      7891      6495      8278      6533
 -1     42111    3    0    1
 -2       642       220      2961      1133
 -1     42112    3    0    1
 -2       642      2961       220       621
 -1     42113    3    0    1
 -2      4178      1855      2510      3616
 -1     42114    3    0    1
 -2      2510      1855      4178      2509
 -1     42115    3    0    1
 -2      1656      3953      2312      2821
 -1     42116    3    0    1
 -2      1656      2312      3953      1657
 -1     42117    3    0    1
 -2      5282      6521      5281      5513
 -1     42118    3    0    1
 -2      5282      5281      6521      5575
 -1     42119    3    0    1
 -2      4775      4040      4792      4480
 -1     42120    3    0    1
 -2      4792      4040      4775      4791
 -1     42121    3    0    1
 -2      6059      9212      7601      8869
 -1     42122    3    0    1
 -2      7601      9212      6059      8009
 -1     42123    3    0    1
 -2      2540      3594      2491      1936
 -1     42124    3    0    1
 -2      2540      2491      3594      3670
 -1     42125    3    0    1
 -2      4007      1757      2899      2412
 -1     42126    3    0    1
 -2      4007      2899      1757      2380
 -1     42127    3    0    1
 -2      1967      3635      1916      2516
 -1     42128    3    0    1
 -2      1967      1916      3635      2496
 -1     42129    3    0    1
 -2      2029      2042      1313      1311
 -1     42130    3    0    1
 -2       708      1313      1312      1311
 -1     42131    3    0    1
 -2      1313      2042      1312      1311
 -1     42132    3    0    1
 -2      1313      1312      2042      3776
 -1     42133    3    0    1
 -2      6112      6064      5354      5157
 -1     42134    3    0    1
 -2      6112      5354      6064      5745
 -1     42135    3    0    1
 -2      3643      3578      4169      4168
 -1     42136    3    0    1
 -2      3643      4169      3578      3615
 -1     42137    3    0    1
 -2      6252      6286      6208      7217
 -1     42138    3    0    1
 -2      6252      6208      6286      6206
 -1     42139    3    0    1
 -2      3577      4152      2946      4110
 -1     42140    3    0    1
 -2      3577      2946      4152      3042
 -1     42141    3    0    1
 -2      2496      2013      4231      1967
 -1     42142    3    0    1
 -2      2496      4231      2013      3100
 -1     42143    3    0    1
 -2      3696      4231      2013      1967
 -1     42144    3    0    1
 -2      6310      6350      7271      6349
 -1     42145    3    0    1
 -2      6310      7271      6350      7257
 -1     42146    3    0    1
 -2      2925      2358      1727      1728
 -1     42147    3    0    1
 -2      2925      1727      2358      2359
 -1     42148    3    0    1
 -2      7119      9325      9071      8128
 -1     42149    3    0    1
 -2      7119      9071      9325      9057
 -1     42150    3    0    1
 -2      3739      1310      3193      1362
 -1     42151    3    0    1
 -2      3739      3193      1310      2011
 -1     42152    3    0    1
 -2      1957      3193      1310      1362
 -1     42153    3    0    1
 -2      1957      1310      3193      2011
 -1     42154    3    0    1
 -2      3194      3231      2582      2117
 -1     42155    3    0    1
 -2      1416      2582      3231      2117
 -1     42156    3    0    1
 -2      5488      7246      7284      6383
 -1     42157    3    0    1
 -2      4261      4895      3738      4260
 -1     42158    3    0    1
 -2      3738      4895      4261      4916
 -1     42159    3    0    1
 -2      2686       811      2731      2185
 -1     42160    3    0    1
 -2      2686      2731       811      1466
 -1     42161    3    0    1
 -2       938      2731       811      2185
 -1     42162    3    0    1
 -2       938       811      2731      1466
 -1     42163    3    0    1
 -2      8764      8320      6519      8298
 -1     42164    3    0    1
 -2      8764      6519      8320      7396
 -1     42165    3    0    1
 -2      6549      6519      8320      8298
 -1     42166    3    0    1
 -2      6549      8320      6519      7396
 -1     42167    3    0    1
 -2      4536      4880      4520      5096
 -1     42168    3    0    1
 -2      4520      4880      4536      4561
 -1     42169    3    0    1
 -2      2384      4008      1776      2881
 -1     42170    3    0    1
 -2      1776      4008      2384      4047
 -1     42171    3    0    1
 -2      8706      6501      7914      7332
 -1     42172    3    0    1
 -2      8706      7914      6501      7389
 -1     42173    3    0    1
 -2      7059      7026      8064      6987
 -1     42174    3    0    1
 -2      8064      7026      7059      7028
 -1     42175    3    0    1
 -2      3457      4450      4498      2914
 -1     42176    3    0    1
 -2      3457      4498      4450      4451
 -1     42177    3    0    1
 -2      1776      2383      1775      1761
 -1     42178    3    0    1
 -2      1776      1775      2383      2881
 -1     42179    3    0    1
 -2      2590      4236      3217      2589
 -1     42180    3    0    1
 -2      3217      4236      2590      3819
 -1     42181    3    0    1
 -2      2286      1632      1588      1633
 -1     42182    3    0    1
 -2      1588      1632      2286      2760
 -1     42183    3    0    1
 -2      5910      5259      5549      5550
 -1     42184    3    0    1
 -2      5549      5259      5910      5493
 -1     42185    3    0    1
 -2      9433      9611      6614      9140
 -1     42186    3    0    1
 -2      9433      6614      9611      9633
 -1     42187    3    0    1
 -2      8390      6710      7975      8788
 -1     42188    3    0    1
 -2      7975      6710      8390      6756
 -1     42189    3    0    1
 -2      3161      1360      1394      2627
 -1     42190    3    0    1
 -2      2834      1597      3951      2819
 -1     42191    3    0    1
 -2      2834      3951      1597      1652
 -1     42192    3    0    1
 -2      1653      3951      1597      2819
 -1     42193    3    0    1
 -2      1653      1597      3951      1652
 -1     42194    3    0    1
 -2       154       153      2910       188
 -1     42195    3    0    1
 -2      2226      2790      1565      1564
 -1     42196    3    0    1
 -2      2226      1565      2790      3901
 -1     42197    3    0    1
 -2      2567      3712      1997      1998
 -1     42198    3    0    1
 -2      1997      3712      2567      3724
 -1     42199    3    0    1
 -2      1997      1281      2567      1998
 -1     42200    3    0    1
 -2      2567      1281      1997      3724
 -1     42201    3    0    1
 -2      1901      1822      3614      3615
 -1     42202    3    0    1
 -2      1901      3614      1822      1178
 -1     42203    3    0    1
 -2      9457      8818      7921      9161
 -1     42204    3    0    1
 -2      1002      1798      1112      2887
 -1     42205    3    0    1
 -2      1112      1798      1002      1113
 -1     42206    3    0    1
 -2      2365      3999      1740      2868
 -1     42207    3    0    1
 -2      1740      3999      2365      4026
 -1     42208    3    0    1
 -2      2874      2309      3457      3400
 -1     42209    3    0    1
 -2      3457      2309      2874      1664
 -1     42210    3    0    1
 -2      7954      7524      7491      8839
 -1     42211    3    0    1
 -2      7954      7491      7524      5679
 -1     42212    3    0    1
 -2      3139      3699      2547      2008
 -1     42213    3    0    1
 -2      2547      3699      3139      3138
 -1     42214    3    0    1
 -2      5869      6422      5868      7245
 -1     42215    3    0    1
 -2      5869      5868      6422      5009
 -1     42216    3    0    1
 -2      1747      1125      1081      1804
 -1     42217    3    0    1
 -2      1747      1081      1125      1080
 -1     42218    3    0    1
 -2       614      1081      1125      1804
 -1     42219    3    0    1
 -2       614      1125      1081      1080
 -1     42220    3    0    1
 -2      7634      6978      8513      7049
 -1     42221    3    0    1
 -2      8513      6978      7634      8031
 -1     42222    3    0    1
 -2      4621      4905      4676      5160
 -1     42223    3    0    1
 -2      4676      4905      4621      4623
 -1     42224    3    0    1
 -2      1541      2718      2801      1540
 -1     42225    3    0    1
 -2      3278      2718      2801      3893
 -1     42226    3    0    1
 -2      3278      2801      2718      1540
 -1     42227    3    0    1
 -2      4771      4437      3501      4495
 -1     42228    3    0    1
 -2      3501      4437      4771      4436
 -1     42229    3    0    1
 -2      5595      6691      5597      5674
 -1     42230    3    0    1
 -2      5595      5597      6691      5956
 -1     42231    3    0    1
 -2      6729      5597      6691      5674
 -1     42232    3    0    1
 -2      6729      6691      5597      5956
 -1     42233    3    0    1
 -2      3386      2247       982      3364
 -1     42234    3    0    1
 -2       982      2247      3386      2302
 -1     42235    3    0    1
 -2      3386       982       507      3364
 -1     42236    3    0    1
 -2       507       982      3386      2302
 -1     42237    3    0    1
 -2      3386       507       979      3364
 -1     42238    3    0    1
 -2       979       507      3386      2302
 -1     42239    3    0    1
 -2      2313      1666      2339      1616
 -1     42240    3    0    1
 -2      2313      2339      1666      2847
 -1     42241    3    0    1
 -2      2869      1020       566      2891
 -1     42242    3    0    1
 -2       566      1020      2869      1703
 -1     42243    3    0    1
 -2      2573      2616      2572      3719
 -1     42244    3    0    1
 -2      2573      2572      2616      2053
 -1     42245    3    0    1
 -2      1015      3420      1738      3453
 -1     42246    3    0    1
 -2      8169      5447      9035      7780
 -1     42247    3    0    1
 -2      8169      9035      5447      6308
 -1     42248    3    0    1
 -2      5789      9035      5447      7780
 -1     42249    3    0    1
 -2      5789      5447      9035      6308
 -1     42250    3    0    1
 -2      1652      1054      1653      1038
 -1     42251    3    0    1
 -2      1652      1653      1054      2327
 -1     42252    3    0    1
 -2      2917      1653      1054      1038
 -1     42253    3    0    1
 -2      2917      1054      1653      2327
 -1     42254    3    0    1
 -2      4056      1775      2901      2413
 -1     42255    3    0    1
 -2      7701      6134      6167      7116
 -1     42256    3    0    1
 -2      6167      6134      7701      7702
 -1     42257    3    0    1
 -2      2087      2038      2113      1388
 -1     42258    3    0    1
 -2      2138      2113      2038      1388
 -1     42259    3    0    1
 -2      2138      2038      2113      3206
 -1     42260    3    0    1
 -2      6558      7881      9383      6525
 -1     42261    3    0    1
 -2      9383      7881      6558      7882
 -1     42262    3    0    1
 -2      6558      9383      8713      6525
 -1     42263    3    0    1
 -2      6558      8713      5955      6525
 -1     42264    3    0    1
 -2      3697      1971      2015      2542
 -1     42265    3    0    1
 -2      2015      1971      3697      3715
 -1     42266    3    0    1
 -2      2015      3745      3697      2542
 -1     42267    3    0    1
 -2      3697      3745      2015      3715
 -1     42268    3    0    1
 -2      6306      7241      7792      7254
 -1     42269    3    0    1
 -2      7792      7241      6306      6305
 -1     42270    3    0    1
 -2       874      1585      2753      2754
 -1     42271    3    0    1
 -2      2753      1585       874       931
 -1     42272    3    0    1
 -2      2753       465       874      2754
 -1     42273    3    0    1
 -2       874       465      2753       931
 -1     42274    3    0    1
 -2      7339      6541      6507      7377
 -1     42275    3    0    1
 -2      7339      6507      6541      6468
 -1     42276    3    0    1
 -2      1659      3431      2315      2306
 -1     42277    3    0    1
 -2      2315      3431      1659      2861
 -1     42278    3    0    1
 -2      6422      6491      7840      5009
 -1     42279    3    0    1
 -2      7840      6491      6422      7854
 -1     42280    3    0    1
 -2      5652      8793      5961      6715
 -1     42281    3    0    1
 -2      5652      5961      8793      7459
 -1     42282    3    0    1
 -2      7443      6740      6017      6741
 -1     42283    3    0    1
 -2      1372      2032      2557      2568
 -1     42284    3    0    1
 -2      2557      2032      1372       743
 -1     42285    3    0    1
 -2      2557      1966      1372      2568
 -1     42286    3    0    1
 -2      1372      1966      2557       743
 -1     42287    3    0    1
 -2      9669       679       241       240
 -1     42288    3    0    1
 -2      9669       241       679      1867
 -1     42289    3    0    1
 -2       646       241       679       240
 -1     42290    3    0    1
 -2       646       679       241      1867
 -1     42291    3    0    1
 -2      9013      6174      7198      7750
 -1     42292    3    0    1
 -2      9013      7198      6174      7225
 -1     42293    3    0    1
 -2      6617      5533      6597      6616
 -1     42294    3    0    1
 -2      6617      6597      5533      5576
 -1     42295    3    0    1
 -2      2855      2846      1691      1692
 -1     42296    3    0    1
 -2      2855      1691      2846      3463
 -1     42297    3    0    1
 -2      3863      2179      2767      3294
 -1     42298    3    0    1
 -2      3863      2767      2179      2681
 -1     42299    3    0    1
 -2      1702      1098      1049      1074
 -1     42300    3    0    1
 -2      1702      1049      1098      3478
 -1     42301    3    0    1
 -2      2782       950      1618      1534
 -1     42302    3    0    1
 -2      2782      1618       950       949
 -1     42303    3    0    1
 -2      4105      3057      2973      4104
 -1     42304    3    0    1
 -2      2973      3057      4105      3592
 -1     42305    3    0    1
 -2      1339      1355      1412       767
 -1     42306    3    0    1
 -2      1339      1412      1355      2006
 -1     42307    3    0    1
 -2      5240      5214      4711      5423
 -1     42308    3    0    1
 -2      3868      2182      3881      2710
 -1     42309    3    0    1
 -2      3868      3881      2182      2685
 -1     42310    3    0    1
 -2      2233      3881      2182      2710
 -1     42311    3    0    1
 -2      2233      2182      3881      2685
 -1     42312    3    0    1
 -2      1306      3737      1994      1308
 -1     42313    3    0    1
 -2      1994      3737      1306      1307
 -1     42314    3    0    1
 -2      3388      1589      2760      1588
 -1     42315    3    0    1
 -2      3388      2760      1589      2759
 -1     42316    3    0    1
 -2      1551      2760      1589      1588
 -1     42317    3    0    1
 -2      1551      1589      2760      2759
 -1     42318    3    0    1
 -2      7176      6224      7753      6223
 -1     42319    3    0    1
 -2      4424      5047      4052      5046
 -1     42320    3    0    1
 -2      4052      5047      4424      4806
 -1     42321    3    0    1
 -2      5499      6519      5574      5500
 -1     42322    3    0    1
 -2      5574      6519      5499      5511
 -1     42323    3    0    1
 -2      5574      5268      5499      5500
 -1     42324    3    0    1
 -2      5499      5268      5574      5511
 -1     42325    3    0    1
 -2      4244      2069      2587      2586
 -1     42326    3    0    1
 -2      4244      2587      2069      2106
 -1     42327    3    0    1
 -2      8714      5938      6618      8752
 -1     42328    3    0    1
 -2      6618      5938      8714      8261
 -1     42329    3    0    1
 -2      6618      9117      8714      8752
 -1     42330    3    0    1
 -2      8714      9117      6618      8261
 -1     42331    3    0    1
 -2      3826      2038      2113      2087
 -1     42332    3    0    1
 -2      2113      2038      3826      3206
 -1     42333    3    0    1
 -2      6067      7564      7615      6967
 -1     42334    3    0    1
 -2      4517      4879      5322      4862
 -1     42335    3    0    1
 -2      5854      8172      7799      7176
 -1     42336    3    0    1
 -2      7799      8172      5854      6330
 -1     42337    3    0    1
 -2      6853      6855      6852      6854
 -1     42338    3    0    1
 -2      6853      6852      6855      8427
 -1     42339    3    0    1
 -2      1976      3728      3716      3698
 -1     42340    3    0    1
 -2      1976      3716      3728      2019
 -1     42341    3    0    1
 -2      7532      5652      8366      6773
 -1     42342    3    0    1
 -2      8366      5652      7532      8417
 -1     42343    3    0    1
 -2      7644      8020      8035      6951
 -1     42344    3    0    1
 -2      8035      8020      7644      8893
 -1     42345    3    0    1
 -2      2188      3338      4323      2189
 -1     42346    3    0    1
 -2      3339      3338      4323      3903
 -1     42347    3    0    1
 -2      3339      4323      3338      2189
 -1     42348    3    0    1
 -2      5579      6715      5652      5961
 -1     42349    3    0    1
 -2      5652      6715      5579      5309
 -1     42350    3    0    1
 -2      4841      4117      4160      4821
 -1     42351    3    0    1
 -2      4160      4117      4841      4134
 -1     42352    3    0    1
 -2      4160      4574      4841      4821
 -1     42353    3    0    1
 -2      4841      4574      4160      4134
 -1     42354    3    0    1
 -2      3476      1791      1069      2926
 -1     42355    3    0    1
 -2      3476      1069      1791      1070
 -1     42356    3    0    1
 -2      3734      1269      1268      2058
 -1     42357    3    0    1
 -2      3734      1268      1269      2545
 -1     42358    3    0    1
 -2      5581      6009      5313      6636
 -1     42359    3    0    1
 -2      5581      5313      6009      6020
 -1     42360    3    0    1
 -2      5624      5313      6009      6636
 -1     42361    3    0    1
 -2      5624      6009      5313      6020
 -1     42362    3    0    1
 -2      3575      3675      4166      3603
 -1     42363    3    0    1
 -2      4166      3675      3575      4549
 -1     42364    3    0    1
 -2      1382      3765      2135      1347
 -1     42365    3    0    1
 -2      1382      2135      3765      3219
 -1     42366    3    0    1
 -2      6943      7597      6086      6088
 -1     42367    3    0    1
 -2      6943      6086      7597      8486
 -1     42368    3    0    1
 -2      7044      6086      7597      6088
 -1     42369    3    0    1
 -2      7044      7597      6086      8486
 -1     42370    3    0    1
 -2      1725      1113      1002      1798
 -1     42371    3    0    1
 -2      1725      1002      1113      1114
 -1     42372    3    0    1
 -2      4540      4176      3639      4541
 -1     42373    3    0    1
 -2      4540      3639      4176      4568
 -1     42374    3    0    1
 -2      2316       985       983      3449
 -1     42375    3    0    1
 -2      2316       983       985       984
 -1     42376    3    0    1
 -2      7473      7933      7932      6688
 -1     42377    3    0    1
 -2      7932      7933      7473      8377
 -1     42378    3    0    1
 -2      4327      2745      2165      2724
 -1     42379    3    0    1
 -2      4136      1835      4135      2477
 -1     42380    3    0    1
 -2      4135      1835      4136      2425
 -1     42381    3    0    1
 -2      3149      3114      1975      4590
 -1     42382    3    0    1
 -2      1975      3114      3149      2550
 -1     42383    3    0    1
 -2      1975      2543      3149      4590
 -1     42384    3    0    1
 -2      3149      2543      1975      2550
 -1     42385    3    0    1
 -2      5063      4472      5485      5045
 -1     42386    3    0    1
 -2      5485      4472      5063      5012
 -1     42387    3    0    1
 -2      6243      7734      7187      6166
 -1     42388    3    0    1
 -2      7187      7734      6243      7735
 -1     42389    3    0    1
 -2      1694      1093      1094      2903
 -1     42390    3    0    1
 -2      1694      1094      1093      1060
 -1     42391    3    0    1
 -2      1029      3457      1664      1031
 -1     42392    3    0    1
 -2      1664      3457      1029      1052
 -1     42393    3    0    1
 -2      6162      5231      5369      5443
 -1     42394    3    0    1
 -2      5369      5231      6162      5368
 -1     42395    3    0    1
 -2      7123      7788      7756      6176
 -1     42396    3    0    1
 -2      7756      7788      7123      7755
 -1     42397    3    0    1
 -2      6560      7892      8725      7386
 -1     42398    3    0    1
 -2      6560      8725      7892      7891
 -1     42399    3    0    1
 -2      1250      3031      1914      1938
 -1     42400    3    0    1
 -2      1914      3031      1250      1877
 -1     42401    3    0    1
 -2      7060      7604      7603      6952
 -1     42402    3    0    1
 -2      7603      7604      7060      8468
 -1     42403    3    0    1
 -2      7603      6078      7060      6952
 -1     42404    3    0    1
 -2      7060      6078      7603      8468
 -1     42405    3    0    1
 -2      5469      8663      5862      6212
 -1     42406    3    0    1
 -2      5469      5862      8663      6321
 -1     42407    3    0    1
 -2      4750      2773      3337      4403
 -1     42408    3    0    1
 -2      3337      2773      4750      4338
 -1     42409    3    0    1
 -2      7735      7187      5823      6243
 -1     42410    3    0    1
 -2      7735      5823      7187      8182
 -1     42411    3    0    1
 -2      6207      7146      8160      6276
 -1     42412    3    0    1
 -2      4778      4459      4457      4779
 -1     42413    3    0    1
 -2      4778      4457      4459      4458
 -1     42414    3    0    1
 -2      1498      2253      1524      2208
 -1     42415    3    0    1
 -2      1524      2253      1498      1532
 -1     42416    3    0    1
 -2      8933      6069      9247      8046
 -1     42417    3    0    1
 -2      9247      6069      8933      7101
 -1     42418    3    0    1
 -2      4517      4546      4879      4862
 -1     42419    3    0    1
 -2      4517      4879      4546      4533
 -1     42420    3    0    1
 -2      1984      4203      2508      1985
 -1     42421    3    0    1
 -2      1984      2508      4203      2531
 -1     42422    3    0    1
 -2      1005      3448      1659      1007
 -1     42423    3    0    1
 -2      1659      3448      1005      1675
 -1     42424    3    0    1
 -2      4804      4411      4071      4412
 -1     42425    3    0    1
 -2      4804      4071      4411      4782
 -1     42426    3    0    1
 -2      1971      3105      4219      2541
 -1     42427    3    0    1
 -2      4219      3105      1971      2542
 -1     42428    3    0    1
 -2      4219      3697      1971      2541
 -1     42429    3    0    1
 -2      1971      3697      4219      2542
 -1     42430    3    0    1
 -2      8465      7024      7644      7645
 -1     42431    3    0    1
 -2      8465      7644      7024      6928
 -1     42432    3    0    1
 -2      4255      2091      3752      2577
 -1     42433    3    0    1
 -2      4255      3752      2091      3795
 -1     42434    3    0    1
 -2      8359      8787      6707      7480
 -1     42435    3    0    1
 -2      8359      6707      8787      9157
 -1     42436    3    0    1
 -2      7940      8787      6707      9157
 -1     42437    3    0    1
 -2      2987      1922      4154      2988
 -1     42438    3    0    1
 -2      4154      1922      2987      1209
 -1     42439    3    0    1
 -2      4923      5203      4648      4680
 -1     42440    3    0    1
 -2      4923      4648      5203      5172
 -1     42441    3    0    1
 -2      2063      2580      2064      3142
 -1     42442    3    0    1
 -2      2064      2580      2063      2065
 -1     42443    3    0    1
 -2      4732      4406      3310      4325
 -1     42444    3    0    1
 -2      3310      4406      4732      4382
 -1     42445    3    0    1
 -2      7277      8251      6391      7291
 -1     42446    3    0    1
 -2      7277      6391      8251      7822
 -1     42447    3    0    1
 -2      6392      6391      8251      7291
 -1     42448    3    0    1
 -2      6392      8251      6391      7822
 -1     42449    3    0    1
 -2      4664      4891      3226      4654
 -1     42450    3    0    1
 -2      4664      3226      4891      4653
 -1     42451    3    0    1
 -2      3734      3226      4891      4654
 -1     42452    3    0    1
 -2      3734      4891      3226      4653
 -1     42453    3    0    1
 -2      6446      6552      6448      6447
 -1     42454    3    0    1
 -2      6446      6448      6552      8301
 -1     42455    3    0    1
 -2      9514      9489      8950      9244
 -1     42456    3    0    1
 -2      8950      9489      9514      9534
 -1     42457    3    0    1
 -2      8111      8981      9498      9297
 -1     42458    3    0    1
 -2      8111      9498      8981      8557
 -1     42459    3    0    1
 -2      9651      8981      9498      8557
 -1     42460    3    0    1
 -2      8390      6710      7436      6756
 -1     42461    3    0    1
 -2      7436      6710      8390      8338
 -1     42462    3    0    1
 -2      6021      6722      6623      5643
 -1     42463    3    0    1
 -2      6623      6722      6021      5978
 -1     42464    3    0    1
 -2      6623      5584      6021      5643
 -1     42465    3    0    1
 -2      6021      5584      6623      5978
 -1     42466    3    0    1
 -2      3514      1718      2857      1719
 -1     42467    3    0    1
 -2      2857      1718      3514      3992
 -1     42468    3    0    1
 -2      3160      3752      1357      2577
 -1     42469    3    0    1
 -2      3160      1357      3752      3227
 -1     42470    3    0    1
 -2      7425      6690      8784      6689
 -1     42471    3    0    1
 -2      8784      6690      7425      8378
 -1     42472    3    0    1
 -2      4098      3021      3645      3022
 -1     42473    3    0    1
 -2      4098      4118      3645      4543
 -1     42474    3    0    1
 -2      3645      4118      4098      3022
 -1     42475    3    0    1
 -2       709       695      9668       287
 -1     42476    3    0    1
 -2       709      9668       695      1282
 -1     42477    3    0    1
 -2      3693      3122      3706      4216
 -1     42478    3    0    1
 -2      3693      3706      3122      1948
 -1     42479    3    0    1
 -2      4267      2621      1395      1396
 -1     42480    3    0    1
 -2      1395      3237      4267      1396
 -1     42481    3    0    1
 -2      3735      1951      2555      2535
 -1     42482    3    0    1
 -2      3735      2555      1951      1302
 -1     42483    3    0    1
 -2      1301      2555      1951      2535
 -1     42484    3    0    1
 -2      1301      1951      2555      1302
 -1     42485    3    0    1
 -2      5638      4883      4522      4882
 -1     42486    3    0    1
 -2      4522      4883      5638      5325
 -1     42487    3    0    1
 -2      4986      4706      4370      4707
 -1     42488    3    0    1
 -2      4370      4706      4986      4738
 -1     42489    3    0    1
 -2      3647      1245      3026      1244
 -1     42490    3    0    1
 -2      3647      3026      1245      1871
 -1     42491    3    0    1
 -2       648      3026      1245      1244
 -1     42492    3    0    1
 -2       648      1245      3026      1871
 -1     42493    3    0    1
 -2      4140      5112      5672      4842
 -1     42494    3    0    1
 -2      5672      5112      4140      5123
 -1     42495    3    0    1
 -2      5672      5140      4576      4842
 -1     42496    3    0    1
 -2      4576      5140      5672      5123
 -1     42497    3    0    1
 -2      4140      5672      4576      4842
 -1     42498    3    0    1
 -2      4576      5672      4140      5123
 -1     42499    3    0    1
 -2      4143      2490      3076      3077
 -1     42500    3    0    1
 -2      4143      3076      2490      2429
 -1     42501    3    0    1
 -2      5473      5800      5428      5427
 -1     42502    3    0    1
 -2      5473      5428      5800      5398
 -1     42503    3    0    1
 -2      8869      8928      8517      6059
 -1     42504    3    0    1
 -2      8517      8928      8869      9275
 -1     42505    3    0    1
 -2      8517      7058      8869      6059
 -1     42506    3    0    1
 -2      8869      7058      8517      9275
 -1     42507    3    0    1
 -2      7741      5844      9008      7742
 -1     42508    3    0    1
 -2      7741      9008      5844      7192
 -1     42509    3    0    1
 -2      7776      5844      9008      7192
 -1     42510    3    0    1
 -2      2064      4242      2063      3142
 -1     42511    3    0    1
 -2      6697      8380      6765      6696
 -1     42512    3    0    1
 -2      6697      6765      8380      7501
 -1     42513    3    0    1
 -2      2916       993       992      1714
 -1     42514    3    0    1
 -2      2916       992       993      1690
 -1     42515    3    0    1
 -2      2028      2068      1417      1366
 -1     42516    3    0    1
 -2      1417      2068      2028      3756
 -1     42517    3    0    1
 -2      2028      2119      1417      3756
 -1     42518    3    0    1
 -2      1935      3594      1248      1936
 -1     42519    3    0    1
 -2      1248      3594      1935      2461
 -1     42520    3    0    1
 -2      1817      1881      3600      1167
 -1     42521    3    0    1
 -2      1817      3600      1881      3599
 -1     42522    3    0    1
 -2      8797      8332      7982      7449
 -1     42523    3    0    1
 -2      8797      7982      8332      8369
 -1     42524    3    0    1
 -2      6721      7982      8332      7449
 -1     42525    3    0    1
 -2      6721      8332      7982      8369
 -1     42526    3    0    1
 -2      2716      2164      2228      3274
 -1     42527    3    0    1
 -2      2716      2228      2164      2717
 -1     42528    3    0    1
 -2      4714      3925      4400      4344
 -1     42529    3    0    1
 -2      4400      3925      4714      4359
 -1     42530    3    0    1
 -2      5072      4463      4781      4500
 -1     42531    3    0    1
 -2      4781      4463      5072      4462
 -1     42532    3    0    1
 -2      1786       510       597      1058
 -1     42533    3    0    1
 -2       597       510      1786      1796
 -1     42534    3    0    1
 -2      7674      8476      7065      7034
 -1     42535    3    0    1
 -2      7065      8476      7674      8904
 -1     42536    3    0    1
 -2      9080      7266      6490      8254
 -1     42537    3    0    1
 -2      6490      7266      9080      7323
 -1     42538    3    0    1
 -2      3471      4798      4427      4080
 -1     42539    3    0    1
 -2      3471      4427      4798      4767
 -1     42540    3    0    1
 -2      3551      4020      4426      2934
 -1     42541    3    0    1
 -2      4426      4020      3551      4812
 -1     42542    3    0    1
 -2      4426      4473      3551      2934
 -1     42543    3    0    1
 -2      3551      4473      4426      4812
 -1     42544    3    0    1
 -2      7771      7122      7721      6159
 -1     42545    3    0    1
 -2      6158      7721      7122      6159
 -1     42546    3    0    1
 -2      6158      7122      7721      7720
 -1     42547    3    0    1
 -2      3851      2735      2229      2170
 -1     42548    3    0    1
 -2      2229      2735      3851      3314
 -1     42549    3    0    1
 -2      2229      3267      3851      2170
 -1     42550    3    0    1
 -2      3851      3267      2229      3314
 -1     42551    3    0    1
 -2       220       174      2961       129
 -1     42552    3    0    1
 -2       220      2961       174       238
 -1     42553    3    0    1
 -2      2963       174      2961       238
 -1     42554    3    0    1
 -2      5245      7266      7253      6300
 -1     42555    3    0    1
 -2      5245      6299      7253      7283
 -1     42556    3    0    1
 -2      7253      6299      5245      6300
 -1     42557    3    0    1
 -2      3585      2457      1809      3584
 -1     42558    3    0    1
 -2      3585      1809      2457      1860
 -1     42559    3    0    1
 -2      1511      3280      1545      2259
 -1     42560    3    0    1
 -2      1511      1545      3280      2210
 -1     42561    3    0    1
 -2      4091      3452      2939      2941
 -1     42562    3    0    1
 -2      4091      2939      3452      3475
 -1     42563    3    0    1
 -2      2528      4211      1991      2518
 -1     42564    3    0    1
 -2      2528      1991      4211      4226
 -1     42565    3    0    1
 -2      3673      1991      4211      2518
 -1     42566    3    0    1
 -2      3673      4211      1991      4226
 -1     42567    3    0    1
 -2      3751      2023      1988      3117
 -1     42568    3    0    1
 -2      1988      2023      3751      3118
 -1     42569    3    0    1
 -2      1988      4233      3751      3117
 -1     42570    3    0    1
 -2      3751      4233      1988      3118
 -1     42571    3    0    1
 -2       614      1887      1819       631
 -1     42572    3    0    1
 -2      1819      1887       614      3603
 -1     42573    3    0    1
 -2      1505      3904      2774      2220
 -1     42574    3    0    1
 -2      1505      2774      3904      2273
 -1     42575    3    0    1
 -2      3793      1408      2051      3811
 -1     42576    3    0    1
 -2      3793      2051      1408      2612
 -1     42577    3    0    1
 -2      4520      4880      5304      5096
 -1     42578    3    0    1
 -2      5304      4880      4520      5095
 -1     42579    3    0    1
 -2      4934      4649      4939      4650
 -1     42580    3    0    1
 -2      4934      4939      4649      4924
 -1     42581    3    0    1
 -2      6313      7258      8216      8237
 -1     42582    3    0    1
 -2      6313      6386      8216      7212
 -1     42583    3    0    1
 -2      8216      6386      6313      8237
 -1     42584    3    0    1
 -2      3502      1019      2891      2869
 -1     42585    3    0    1
 -2      3502      2891      1019      2921
 -1     42586    3    0    1
 -2      4355      1552      3897      2214
 -1     42587    3    0    1
 -2      4355      3897      1552      2264
 -1     42588    3    0    1
 -2      3286      3897      1552      2214
 -1     42589    3    0    1
 -2      3498      1120       603      1710
 -1     42590    3    0    1
 -2      3498       603      1120      1121
 -1     42591    3    0    1
 -2      3032      1165      1197      1877
 -1     42592    3    0    1
 -2      3032      1197      1165      1816
 -1     42593    3    0    1
 -2      2340      1668      2824      2838
 -1     42594    3    0    1
 -2      2340      2824      1668      1600
 -1     42595    3    0    1
 -2      8912      6085      7043      7596
 -1     42596    3    0    1
 -2      7043      6085      8912      7657
 -1     42597    3    0    1
 -2      5572      5898      5532      5915
 -1     42598    3    0    1
 -2      5532      5898      5572      5265
 -1     42599    3    0    1
 -2      4264      3755      3835      4265
 -1     42600    3    0    1
 -2      4264      3835      3755      3708
 -1     42601    3    0    1
 -2      5518      7357      6619      6490
 -1     42602    3    0    1
 -2      5518      6619      7357      7364
 -1     42603    3    0    1
 -2      2473      3020      1144      1863
 -1     42604    3    0    1
 -2      2473      1144      3020      3644
 -1     42605    3    0    1
 -2      2960      1144      3020      1863
 -1     42606    3    0    1
 -2      2960      3020      1144      3644
 -1     42607    3    0    1
 -2      7231      8225      7802      8235
 -1     42608    3    0    1
 -2      7231      7802      8225      6372
 -1     42609    3    0    1
 -2      9059      7802      8225      8235
 -1     42610    3    0    1
 -2      9059      8225      7802      6372
 -1     42611    3    0    1
 -2      2105      3801      2067      2620
 -1     42612    3    0    1
 -2      2105      2067      3801      4291
 -1     42613    3    0    1
 -2      7173      9057      8195      6277
 -1     42614    3    0    1
 -2      8195      9057      7173      8655
 -1     42615    3    0    1
 -2      8195      7797      7173      6277
 -1     42616    3    0    1
 -2      7173      7797      8195      8655
 -1     42617    3    0    1
 -2      3700      2010      2009      3104
 -1     42618    3    0    1
 -2      3700      2009      2010      1956
 -1     42619    3    0    1
 -2      4137      3564      4544      3052
 -1     42620    3    0    1
 -2      4137      4544      3564      4100
 -1     42621    3    0    1
 -2      3619      4544      3564      3052
 -1     42622    3    0    1
 -2      3619      3564      4544      4100
 -1     42623    3    0    1
 -2      1618      2799      3343      1619
 -1     42624    3    0    1
 -2      1618      3343      2799      3938
 -1     42625    3    0    1
 -2      3137      4589      3694      4234
 -1     42626    3    0    1
 -2      3694      4589      3137      3110
 -1     42627    3    0    1
 -2      5467      5212      5450      5381
 -1     42628    3    0    1
 -2      5467      5450      5212      5449
 -1     42629    3    0    1
 -2      1332       297       298       696
 -1     42630    3    0    1
 -2       298       297      1332      1349
 -1     42631    3    0    1
 -2       298      1293      1332       696
 -1     42632    3    0    1
 -2      2584      3756      1417      3801
 -1     42633    3    0    1
 -2      1417      3756      2584      2068
 -1     42634    3    0    1
 -2      1417      2620      2584      3801
 -1     42635    3    0    1
 -2      2584      2620      1417      2068
 -1     42636    3    0    1
 -2      2657       789      2040      2150
 -1     42637    3    0    1
 -2      2657      2040       789      1433
 -1     42638    3    0    1
 -2      3458      4086      2946      3506
 -1     42639    3    0    1
 -2      3458      2946      4086      2897
 -1     42640    3    0    1
 -2      6724      8343      6723      7419
 -1     42641    3    0    1
 -2      6723      8343      6724      6748
 -1     42642    3    0    1
 -2      8493      7620      6091      8512
 -1     42643    3    0    1
 -2      6091      7620      8493      6971
 -1     42644    3    0    1
 -2      6091      7047      8493      8512
 -1     42645    3    0    1
 -2      8493      7047      6091      6971
 -1     42646    3    0    1
 -2      2690      4327      2165      3845
 -1     42647    3    0    1
 -2      2165      4327      2690      2745
 -1     42648    3    0    1
 -2      5513      4069      5281      5282
 -1     42649    3    0    1
 -2      5281      4069      5513      4457
 -1     42650    3    0    1
 -2      1174      3042      1892      1891
 -1     42651    3    0    1
 -2      1174      1892      3042      1820
 -1     42652    3    0    1
 -2      6254      6209      8192      7193
 -1     42653    3    0    1
 -2      6966      6940      7595      6939
 -1     42654    3    0    1
 -2      6966      7595      6940      7041
 -1     42655    3    0    1
 -2      8484      7595      6940      6939
 -1     42656    3    0    1
 -2      8484      6940      7595      7041
 -1     42657    3    0    1
 -2      7544      6884      6811      7570
 -1     42658    3    0    1
 -2      7544      6811      6884      6810
 -1     42659    3    0    1
 -2       510       511      2385       124
 -1     42660    3    0    1
 -2       510      2385       511      1056
 -1     42661    3    0    1
 -2      3282       465      1474      2699
 -1     42662    3    0    1
 -2      3282      1474       465       874
 -1     42663    3    0    1
 -2      1745      4000      1744      2394
 -1     42664    3    0    1
 -2      1745      1744      4000      2873
 -1     42665    3    0    1
 -2      3524      1744      4000      2394
 -1     42666    3    0    1
 -2      3524      4000      1744      2873
 -1     42667    3    0    1
 -2      7547      6819      5657      6820
 -1     42668    3    0    1
 -2      7547      5657      6819      6821
 -1     42669    3    0    1
 -2      4529      4557      3631      4530
 -1     42670    3    0    1
 -2      4529      3631      4557      4843
 -1     42671    3    0    1
 -2      4512      4570      5111      5138
 -1     42672    3    0    1
 -2      4512      5111      4570      4551
 -1     42673    3    0    1
 -2      5147      5111      4570      5138
 -1     42674    3    0    1
 -2      5147      4570      5111      4551
 -1     42675    3    0    1
 -2      2865      1731      1732      1734
 -1     42676    3    0    1
 -2      1732      1731      2865      2864
 -1     42677    3    0    1
 -2      3057      1223      3668      1875
 -1     42678    3    0    1
 -2      3057      3668      1223      1913
 -1     42679    3    0    1
 -2      1961      3668      1223      1875
 -1     42680    3    0    1
 -2      1961      1223      3668      1913
 -1     42681    3    0    1
 -2      3041      3577      4175      4566
 -1     42682    3    0    1
 -2      3041      4175      3577      3042
 -1     42683    3    0    1
 -2      4722      3363      4346      4752
 -1     42684    3    0    1
 -2      4722      4346      4740      4752
 -1     42685    3    0    1
 -2      4740      4346      4722      4324
 -1     42686    3    0    1
 -2      4722      4740      5461      4752
 -1     42687    3    0    1
 -2      5461      4740      4722      4324
 -1     42688    3    0    1
 -2      1984      1348      1985      1331
 -1     42689    3    0    1
 -2      1984      1985      1348      2551
 -1     42690    3    0    1
 -2      3718      1985      1348      1331
 -1     42691    3    0    1
 -2      3718      1348      1985      2551
 -1     42692    3    0    1
 -2      3592      1194      2973       626
 -1     42693    3    0    1
 -2      3592      2973      1194      2419
 -1     42694    3    0    1
 -2      1149      2973      1194       626
 -1     42695    3    0    1
 -2      1149      1194      2973      2419
 -1     42696    3    0    1
 -2      6027      5617      5618      5312
 -1     42697    3    0    1
 -2      5618      5617      6027      6656
 -1     42698    3    0    1
 -2      3021      3049      1240      3645
 -1     42699    3    0    1
 -2      3021      1240      3049      1864
 -1     42700    3    0    1
 -2      6754      6631      6014      5649
 -1     42701    3    0    1
 -2      6754      6014      6631      6613
 -1     42702    3    0    1
 -2      5610      6014      6631      5649
 -1     42703    3    0    1
 -2      5610      6631      6014      6613
 -1     42704    3    0    1
 -2      4263      3194      3773      3739
 -1     42705    3    0    1
 -2      2010      3700      2525      3104
 -1     42706    3    0    1
 -2      2525      3700      2010      1955
 -1     42707    3    0    1
 -2      7766      6228      6289      7234
 -1     42708    3    0    1
 -2      7766      6289      6228      6227
 -1     42709    3    0    1
 -2      2822      1666      2313      1616
 -1     42710    3    0    1
 -2      2313      1666      2822      3954
 -1     42711    3    0    1
 -2      6667      8777      6668      6746
 -1     42712    3    0    1
 -2      6667      6668      8777      6666
 -1     42713    3    0    1
 -2      2831      1637      2853      3973
 -1     42714    3    0    1
 -2      2853      1637      2831      1636
 -1     42715    3    0    1
 -2      4158      3616      1855      4178
 -1     42716    3    0    1
 -2      4158      1855      3616      2441
 -1     42717    3    0    1
 -2      2797      1653      1597      2819
 -1     42718    3    0    1
 -2      1597      1653      2797      1598
 -1     42719    3    0    1
 -2      1597      1575      2797      2819
 -1     42720    3    0    1
 -2      7007      8081      8916      7068
 -1     42721    3    0    1
 -2      7007      8916      8081      8048
 -1     42722    3    0    1
 -2      2998      2489      3592      3649
 -1     42723    3    0    1
 -2      5663      5129      5305      5680
 -1     42724    3    0    1
 -2      5305      5129      5663      5602
 -1     42725    3    0    1
 -2       778       712       330       334
 -1     42726    3    0    1
 -2       778       330       712      1440
 -1     42727    3    0    1
 -2      3024      1163      3587      1870
 -1     42728    3    0    1
 -2      3024      3587      1163      1162
 -1     42729    3    0    1
 -2      1359      1358      1394      1360
 -1     42730    3    0    1
 -2      1394      3161      1359      1360
 -1     42731    3    0    1
 -2      6796      6842      7994      6874
 -1     42732    3    0    1
 -2      6796      7994      6842      6795
 -1     42733    3    0    1
 -2      8028      7994      6842      6874
 -1     42734    3    0    1
 -2      8028      6842      7994      6795
 -1     42735    3    0    1
 -2      8349      6706      8791      7458
 -1     42736    3    0    1
 -2      3141      2062      3798      2061
 -1     42737    3    0    1
 -2      3141      3798      2062      3140
 -1     42738    3    0    1
 -2      1727      2888      1067       985
 -1     42739    3    0    1
 -2      1067      2888      1727      3536
 -1     42740    3    0    1
 -2      2855      1041      1691      1709
 -1     42741    3    0    1
 -2      2855      1691      1041      1692
 -1     42742    3    0    1
 -2      1888      1819      2434      2999
 -1     42743    3    0    1
 -2      1888      2434      1819      1171
 -1     42744    3    0    1
 -2      3945      1607      3963      1635
 -1     42745    3    0    1
 -2      3945      3963      1607      2810
 -1     42746    3    0    1
 -2      2308      3963      1607      1635
 -1     42747    3    0    1
 -2      2308      1607      3963      2810
 -1     42748    3    0    1
 -2      2305      3344      2748      2747
 -1     42749    3    0    1
 -2      2305      2748      3344       953
 -1     42750    3    0    1
 -2       896      2305      2748      2747
 -1     42751    3    0    1
 -2       896      2748      2305       953
 -1     42752    3    0    1
 -2      1601      2305       896      2747
 -1     42753    3    0    1
 -2      1601       896      2305       953
 -1     42754    3    0    1
 -2      3200      1378      2134      2018
 -1     42755    3    0    1
 -2      2134      1378      3200      2633
 -1     42756    3    0    1
 -2      3202      4249      4641      3789
 -1     42757    3    0    1
 -2      3202      4641      4249      3766
 -1     42758    3    0    1
 -2      3631      1247      1912      1934
 -1     42759    3    0    1
 -2      3631      1912      1247      2459
 -1     42760    3    0    1
 -2      6002      7474      8378      6690
 -1     42761    3    0    1
 -2      8378      7474      6002      7498
 -1     42762    3    0    1
 -2      8378      7425      6002      6690
 -1     42763    3    0    1
 -2      6002      7425      8378      7498
 -1     42764    3    0    1
 -2      5752      5162      4931      4625
 -1     42765    3    0    1
 -2       466       822       465        48
 -1     42766    3    0    1
 -2       466       465       822      1473
 -1     42767    3    0    1
 -2       465       822       494        48
 -1     42768    3    0    1
 -2       465       494       822      1473
 -1     42769    3    0    1
 -2       494       822       930        48
 -1     42770    3    0    1
 -2       494       930       822      1473
 -1     42771    3    0    1
 -2      4114      3065      2954      2992
 -1     42772    3    0    1
 -2      2954      3065      4114      3642
 -1     42773    3    0    1
 -2      1657      2845      3953      2846
 -1     42774    3    0    1
 -2      3463      2845      3953      3411
 -1     42775    3    0    1
 -2      3463      3953      2845      2846
 -1     42776    3    0    1
 -2      3370      2802      1623      2306
 -1     42777    3    0    1
 -2      1602      1623      2802      2306
 -1     42778    3    0    1
 -2      1954      3663      3025      1995
 -1     42779    3    0    1
 -2      3025      1910      1954      1995
 -1     42780    3    0    1
 -2      1954      1910      3025      1243
 -1     42781    3    0    1
 -2      7544      6811      7486      6907
 -1     42782    3    0    1
 -2      7544      7486      6811      6810
 -1     42783    3    0    1
 -2      1159      3022       622      1810
 -1     42784    3    0    1
 -2       622      3022      1159      1864
 -1     42785    3    0    1
 -2       128       512      1043       127
 -1     42786    3    0    1
 -2      1043       512       128       995
 -1     42787    3    0    1
 -2      1573      2219       884      1520
 -1     42788    3    0    1
 -2      1573       884      2219      3361
 -1     42789    3    0    1
 -2      4243      2583      2066      4291
 -1     42790    3    0    1
 -2      4243      2066      2583      3723
 -1     42791    3    0    1
 -2      7229      7754      7801      8622
 -1     42792    3    0    1
 -2      8164      7801      7754      8622
 -1     42793    3    0    1
 -2      8164      7754      7801      7155
 -1     42794    3    0    1
 -2      8175      7159      6184      7758
 -1     42795    3    0    1
 -2      6184      7159      8175      6268
 -1     42796    3    0    1
 -2      6184      7182      8175      7758
 -1     42797    3    0    1
 -2      8175      7182      6184      6268
 -1     42798    3    0    1
 -2       890       851      2690       852
 -1     42799    3    0    1
 -2       890      2690       851      1531
 -1     42800    3    0    1
 -2      8151      6209      6254      6211
 -1     42801    3    0    1
 -2      6254      6209      8151      8192
 -1     42802    3    0    1
 -2      8801      8782      7471      7472
 -1     42803    3    0    1
 -2      8801      7471      8782      9165
 -1     42804    3    0    1
 -2      6642      7471      7931      7472
 -1     42805    3    0    1
 -2      6642      7931      7471      9165
 -1     42806    3    0    1
 -2      7471      8782      7931      7472
 -1     42807    3    0    1
 -2      7471      7931      8782      9165
 -1     42808    3    0    1
 -2      8298      6482      8320      6549
 -1     42809    3    0    1
 -2      8298      8320      6482      7851
 -1     42810    3    0    1
 -2      7382      8320      5930      6549
 -1     42811    3    0    1
 -2      7382      5930      8320      7851
 -1     42812    3    0    1
 -2      8320      6482      5930      6549
 -1     42813    3    0    1
 -2      8320      5930      6482      7851
 -1     42814    3    0    1
 -2      7384      8752      7319      8715
 -1     42815    3    0    1
 -2      7319      8752      7384      7883
 -1     42816    3    0    1
 -2      4205      3184      2049      1992
 -1     42817    3    0    1
 -2      2049      3184      4205      3119
 -1     42818    3    0    1
 -2      2049      1993      4205      1992
 -1     42819    3    0    1
 -2      4205      1993      2049      3119
 -1     42820    3    0    1
 -2      6981      6980      7055      7626
 -1     42821    3    0    1
 -2      7055      6980      6981      6982
 -1     42822    3    0    1
 -2      1998      3712      3113      3126
 -1     42823    3    0    1
 -2      3113      3712      1998      1997
 -1     42824    3    0    1
 -2      6666      7923      6718      5582
 -1     42825    3    0    1
 -2      6718      7923      6666      7415
 -1     42826    3    0    1
 -2      5475      5803      5402      5462
 -1     42827    3    0    1
 -2      5475      5402      5803      5229
 -1     42828    3    0    1
 -2      5650      6658      5959      5960
 -1     42829    3    0    1
 -2      5959      6658      5650      5577
 -1     42830    3    0    1
 -2      5959      5578      5650      5960
 -1     42831    3    0    1
 -2      5650      5578      5959      5577
 -1     42832    3    0    1
 -2      8318      6575      6479      8295
 -1     42833    3    0    1
 -2      6479      6575      8318      6546
 -1     42834    3    0    1
 -2      6479      6478      8318      8295
 -1     42835    3    0    1
 -2      2596      3197      2096      4629
 -1     42836    3    0    1
 -2      2596      2096      3197      2597
 -1     42837    3    0    1
 -2      3622      1234      1992      1856
 -1     42838    3    0    1
 -2      3622      1992      1234      1927
 -1     42839    3    0    1
 -2      2413      4047      1775      1777
 -1     42840    3    0    1
 -2      1776      1775      4047      1777
 -1     42841    3    0    1
 -2      1776      4047      1775      4008
 -1     42842    3    0    1
 -2      4394      4330      4754      4393
 -1     42843    3    0    1
 -2      4754      4330      4394      4755
 -1     42844    3    0    1
 -2      7785      6217      8639      7222
 -1     42845    3    0    1
 -2      8639      6217      7785      5395
 -1     42846    3    0    1
 -2       944      3318      1666      1599
 -1     42847    3    0    1
 -2      1666      3318       944      1527
 -1     42848    3    0    1
 -2      3028      4555      4102      3567
 -1     42849    3    0    1
 -2      4102      4555      3028      3647
 -1     42850    3    0    1
 -2      9345      9575      8130      9327
 -1     42851    3    0    1
 -2      9013      7198      8641      8199
 -1     42852    3    0    1
 -2      9013      8641      7198      7225
 -1     42853    3    0    1
 -2      4637      4943      5169      4909
 -1     42854    3    0    1
 -2      9076      7261      7834      8692
 -1     42855    3    0    1
 -2      3185      4651      3186      4283
 -1     42856    3    0    1
 -2      3156      3186      4651      4283
 -1     42857    3    0    1
 -2      3156      4651      3186      3120
 -1     42858    3    0    1
 -2      9576      8119      9553      8572
 -1     42859    3    0    1
 -2      9576      9553      8119      9319
 -1     42860    3    0    1
 -2      4820      4871      4573      4524
 -1     42861    3    0    1
 -2      4573      4871      4820      4513
 -1     42862    3    0    1
 -2      4573      3584      4820      4524
 -1     42863    3    0    1
 -2      4820      3584      4573      4513
 -1     42864    3    0    1
 -2      8115      9567      9334      8563
 -1     42865    3    0    1
 -2      8115      9334      9567      9316
 -1     42866    3    0    1
 -2      1711      3457      2309      2875
 -1     42867    3    0    1
 -2      1711      2309      3457      1031
 -1     42868    3    0    1
 -2      5822      8157      6196      7210
 -1     42869    3    0    1
 -2      6196      8157      5822      7138
 -1     42870    3    0    1
 -2        53       824       806       825
 -1     42871    3    0    1
 -2        53       806       824       101
 -1     42872    3    0    1
 -2      4707      4335      4370      3923
 -1     42873    3    0    1
 -2      4370      4335      4707      4706
 -1     42874    3    0    1
 -2      3559      4457      3508      4069
 -1     42875    3    0    1
 -2      3559      3508      4457      4044
 -1     42876    3    0    1
 -2      4916      3753      4261      3738
 -1     42877    3    0    1
 -2      4916      4261      3753      3833
 -1     42878    3    0    1
 -2      3163      4261      3753      3738
 -1     42879    3    0    1
 -2      3163      3753      4261      3833
 -1     42880    3    0    1
 -2      5045      4016      4784      4472
 -1     42881    3    0    1
 -2      4784      4016      5045      4492
 -1     42882    3    0    1
 -2      4784      5063      5045      4472
 -1     42883    3    0    1
 -2      5045      5063      4784      4492
 -1     42884    3    0    1
 -2      2630      3781      2107      3761
 -1     42885    3    0    1
 -2      2107      3781      2630      2133
 -1     42886    3    0    1
 -2      2304      1620      2839      1621
 -1     42887    3    0    1
 -2      2839      1620      2304      3387
 -1     42888    3    0    1
 -2      6009      8794      9145      7965
 -1     42889    3    0    1
 -2      9145      8794      6009      6636
 -1     42890    3    0    1
 -2      9145      8795      6009      7965
 -1     42891    3    0    1
 -2      6009      8795      9145      6636
 -1     42892    3    0    1
 -2      4111      2986      3044      3610
 -1     42893    3    0    1
 -2      7985      6739      8818      7541
 -1     42894    3    0    1
 -2      7985      8429      8818      9207
 -1     42895    3    0    1
 -2      8818      8429      7985      7541
 -1     42896    3    0    1
 -2      3595      1165      1878      2430
 -1     42897    3    0    1
 -2      3595      4144      1878      2492
 -1     42898    3    0    1
 -2      1878      4144      3595      2430
 -1     42899    3    0    1
 -2      3394      2848      1617      2825
 -1     42900    3    0    1
 -2      1617      2848      3394      3982
 -1     42901    3    0    1
 -2      4352      3276      3323      3343
 -1     42902    3    0    1
 -2      3323      3276      4352      3847
 -1     42903    3    0    1
 -2      5131      4565      5113      5132
 -1     42904    3    0    1
 -2      5113      4565      5131      4834
 -1     42905    3    0    1
 -2      3080      1843      4149      2432
 -1     42906    3    0    1
 -2      3080      4149      1843      2448
 -1     42907    3    0    1
 -2      2433      4149      1843      2432
 -1     42908    3    0    1
 -2      2433      1843      4149      2448
 -1     42909    3    0    1
 -2      6303      7808      6342      7269
 -1     42910    3    0    1
 -2      6303      6342      7808      6304
 -1     42911    3    0    1
 -2      7564      9222      6067      7615
 -1     42912    3    0    1
 -2      7100      6067      9222      7615
 -1     42913    3    0    1
 -2      3580      2423      2470      4129
 -1     42914    3    0    1
 -2      5629      4879      4517      4853
 -1     42915    3    0    1
 -2      5629      4517      4879      5322
 -1     42916    3    0    1
 -2      9653      9647      8109      9648
 -1     42917    3    0    1
 -2      8109      9647      9653      8978
 -1     42918    3    0    1
 -2      8109      8959      9653      9648
 -1     42919    3    0    1
 -2      9653      8959      8109      8978
 -1     42920    3    0    1
 -2      9560      9577      8990      9355
 -1     42921    3    0    1
 -2      9560      8990      9577      9313
 -1     42922    3    0    1
 -2      8124      8990      9577      9355
 -1     42923    3    0    1
 -2      8124      9577      8990      9313
 -1     42924    3    0    1
 -2      7413      8368      6716      6744
 -1     42925    3    0    1
 -2      7413      6716      8368      8330
 -1     42926    3    0    1
 -2      6745      6716      8368      6744
 -1     42927    3    0    1
 -2      6745      8368      6716      8330
 -1     42928    3    0    1
 -2       699       729      1338       700
 -1     42929    3    0    1
 -2       699      1338       729       727
 -1     42930    3    0    1
 -2      7981      8779      6675      7468
 -1     42931    3    0    1
 -2      6675      8779      7981      6673
 -1     42932    3    0    1
 -2      6675      6674      7981      7468
 -1     42933    3    0    1
 -2      7981      6674      6675      6673
 -1     42934    3    0    1
 -2      1216       621      1239       642
 -1     42935    3    0    1
 -2      1216      1239       621       687
 -1     42936    3    0    1
 -2      3000      1239       621       642
 -1     42937    3    0    1
 -2      3000       621      1239       687
 -1     42938    3    0    1
 -2      2628      2581      2095      2582
 -1     42939    3    0    1
 -2      2628      2095      2581      2065
 -1     42940    3    0    1
 -2      1416      2095      2581      2582
 -1     42941    3    0    1
 -2      1416      2581      2095      2065
 -1     42942    3    0    1
 -2      5365      6075      5777      5719
 -1     42943    3    0    1
 -2      5777      6075      5365      5761
 -1     42944    3    0    1
 -2      5721      7074      7023      5740
 -1     42945    3    0    1
 -2      7023      7074      5721      5732
 -1     42946    3    0    1
 -2      3647      4140      4555      3028
 -1     42947    3    0    1
 -2      3647      4555      4140      4577
 -1     42948    3    0    1
 -2      1922      1923       669      1262
 -1     42949    3    0    1
 -2      1922       669      1923      3639
 -1     42950    3    0    1
 -2      4719      5429      5439      5401
 -1     42951    3    0    1
 -2      5439      5429      4719      4750
 -1     42952    3    0    1
 -2      5439      5459      4719      5401
 -1     42953    3    0    1
 -2      4719      5459      5439      4750
 -1     42954    3    0    1
 -2      3798      4241      2062      3140
 -1     42955    3    0    1
 -2      6601      5977      5990      5288
 -1     42956    3    0    1
 -2      6601      5990      5977      6719
 -1     42957    3    0    1
 -2      5671      5990      5977      5288
 -1     42958    3    0    1
 -2      5671      5977      5990      6719
 -1     42959    3    0    1
 -2      1947      1928      1905      2004
 -1     42960    3    0    1
 -2      1905      1928      1947      1238
 -1     42961    3    0    1
 -2      6284      6244      8158      5825
 -1     42962    3    0    1
 -2      8158      6244      6284      7211
 -1     42963    3    0    1
 -2       749       361       748       340
 -1     42964    3    0    1
 -2       749       748       361      1424
 -1     42965    3    0    1
 -2       748       361      2045       340
 -1     42966    3    0    1
 -2       748      2045       361      1424
 -1     42967    3    0    1
 -2      2045      2146       361      1424
 -1     42968    3    0    1
 -2      2489      3076      2429      1876
 -1     42969    3    0    1
 -2      2429      3076      2489      3649
 -1     42970    3    0    1
 -2      2429      2998      2489      1876
 -1     42971    3    0    1
 -2      2489      2998      2429      3649
 -1     42972    3    0    1
 -2      3365      2207       851      2251
 -1     42973    3    0    1
 -2       851      2207      3365      3888
 -1     42974    3    0    1
 -2       851      2690      3365      2251
 -1     42975    3    0    1
 -2      3365      2690       851      3888
 -1     42976    3    0    1
 -2      4426      4812      5016      4786
 -1     42977    3    0    1
 -2      4426      5016      4812      4473
 -1     42978    3    0    1
 -2      5272      5016      4812      4786
 -1     42979    3    0    1
 -2      5272      4812      5016      4473
 -1     42980    3    0    1
 -2      5250      6497      5561      5562
 -1     42981    3    0    1
 -2      6585      6497      5561      6562
 -1     42982    3    0    1
 -2      6585      5561      6497      5562
 -1     42983    3    0    1
 -2      8421      6816      6818      6817
 -1     42984    3    0    1
 -2      8421      6818      6816      7560
 -1     42985    3    0    1
 -2      2621      3237      1395      2120
 -1     42986    3    0    1
 -2      2621      1395      3237      4267
 -1     42987    3    0    1
 -2      5548      6605      5909      5564
 -1     42988    3    0    1
 -2      5548      5909      6605      6567
 -1     42989    3    0    1
 -2      1263      3065      1945      1900
 -1     42990    3    0    1
 -2      1263      1945      3065      1925
 -1     42991    3    0    1
 -2      2508      1945      3065      1900
 -1     42992    3    0    1
 -2      2508      3065      1945      1925
 -1     42993    3    0    1
 -2      1607      3945      1557      3373
 -1     42994    3    0    1
 -2      1607      1557      3945      2810
 -1     42995    3    0    1
 -2      2763      1557      3945      3373
 -1     42996    3    0    1
 -2      2763      3945      1557      2810
 -1     42997    3    0    1
 -2      1655      2776      2778      3392
 -1     42998    3    0    1
 -2      2778      2776      1655       981
 -1     42999    3    0    1
 -2      2778      2777      1655      3392
 -1     43000    3    0    1
 -2      1655      2777      2778       981
 -1     43001    3    0    1
 -2      8148      8135      8624      8993
 -1     43002    3    0    1
 -2      8148      8624      8135      7759
 -1     43003    3    0    1
 -2      6127      8624      8135      8993
 -1     43004    3    0    1
 -2      6127      8135      8624      7759
 -1     43005    3    0    1
 -2      9371      9609      6537      9583
 -1     43006    3    0    1
 -2      9371      6537      9609      9594
 -1     43007    3    0    1
 -2      7404      9609      6537      9594
 -1     43008    3    0    1
 -2      2655       768      3207      2149
 -1     43009    3    0    1
 -2      2655      3207       768      1432
 -1     43010    3    0    1
 -2      9548      8563      9579      9567
 -1     43011    3    0    1
 -2      9548      9579      8563      8562
 -1     43012    3    0    1
 -2      5168      4637      4943      5169
 -1     43013    3    0    1
 -2      4943      4637      5168      4638
 -1     43014    3    0    1
 -2      7187      7811      5823      6271
 -1     43015    3    0    1
 -2      7187      5823      7811      8182
 -1     43016    3    0    1
 -2       444       485       925       942
 -1     43017    3    0    1
 -2       444       925       485       507
 -1     43018    3    0    1
 -2       979       925       485       942
 -1     43019    3    0    1
 -2       979       485       925       507
 -1     43020    3    0    1
 -2      4634      5184      4686      5185
 -1     43021    3    0    1
 -2      4634      4686      5184      4635
 -1     43022    3    0    1
 -2      2622      2593      3726      2592
 -1     43023    3    0    1
 -2       920      1575       502       977
 -1     43024    3    0    1
 -2       920       502      1575      2797
 -1     43025    3    0    1
 -2      8155      7790      7128      9002
 -1     43026    3    0    1
 -2      8155      7128      7790      7169
 -1     43027    3    0    1
 -2      1979      4214      2562      3703
 -1     43028    3    0    1
 -2      1979      2562      4214      2561
 -1     43029    3    0    1
 -2      3364      3953      2247      2821
 -1     43030    3    0    1
 -2      3364      2247      3953      3386
 -1     43031    3    0    1
 -2      2302      2247      3953      2821
 -1     43032    3    0    1
 -2      2302      3953      2247      3386
 -1     43033    3    0    1
 -2      1362      1416      3194      1363
 -1     43034    3    0    1
 -2      1362      3194      1416      2582
 -1     43035    3    0    1
 -2      3231      1416      3194      2582
 -1     43036    3    0    1
 -2      7980      6670      6668      6669
 -1     43037    3    0    1
 -2      6668      6670      7980      7987
 -1     43038    3    0    1
 -2      6668      6760      7980      6669
 -1     43039    3    0    1
 -2      7980      6760      6668      7987
 -1     43040    3    0    1
 -2      2204      2248      3312      1528
 -1     43041    3    0    1
 -2      2204      3312      2248      3885
 -1     43042    3    0    1
 -2      6571      7310      6609      7341
 -1     43043    3    0    1
 -2      6571      6609      7310      5912
 -1     43044    3    0    1
 -2      7971      8809      6648      7504
 -1     43045    3    0    1
 -2      7971      6648      8809      8808
 -1     43046    3    0    1
 -2      7870      6481      6576      5915
 -1     43047    3    0    1
 -2      6576      6481      7870      7869
 -1     43048    3    0    1
 -2      6576      7904      7870      5915
 -1     43049    3    0    1
 -2      7870      7904      6576      7869
 -1     43050    3    0    1
 -2       406      2680      2729      2174
 -1     43051    3    0    1
 -2       406      2729      2680      1459
 -1     43052    3    0    1
 -2        40        85       394        86
 -1     43053    3    0    1
 -2       394        85        40        84
 -1     43054    3    0    1
 -2      7868      8294      6510      6477
 -1     43055    3    0    1
 -2      7868      6510      8294      8740
 -1     43056    3    0    1
 -2      6509      6510      8294      6477
 -1     43057    3    0    1
 -2      6509      8294      6510      8740
 -1     43058    3    0    1
 -2       382       341       337       339
 -1     43059    3    0    1
 -2       337       341       382       793
 -1     43060    3    0    1
 -2       107        68        69       106
 -1     43061    3    0    1
 -2        69        68       107        70
 -1     43062    3    0    1
 -2        69       832       107       106
 -1     43063    3    0    1
 -2       107       832        69        70
 -1     43064    3    0    1
 -2      1549      2728       804      2236
 -1     43065    3    0    1
 -2      1549       804      2728      2729
 -1     43066    3    0    1
 -2      2175       804      2728      2236
 -1     43067    3    0    1
 -2      2175      2728       804      2729
 -1     43068    3    0    1
 -2       427       960      2785       468
 -1     43069    3    0    1
 -2      2785       960       427       904
 -1     43070    3    0    1
 -2       185       186      2920       184
 -1     43071    3    0    1
 -2      2920       186       185       253
 -1     43072    3    0    1
 -2      3553       590      2937      1137
 -1     43073    3    0    1
 -2      3941      1547      1548      3372
 -1     43074    3    0    1
 -2      3941      1548      1547      2260
 -1     43075    3    0    1
 -2       320       322       374       323
 -1     43076    3    0    1
 -2       374       322       320       321
 -1     43077    3    0    1
 -2       374      2143       320       323
 -1     43078    3    0    1
 -2       227       188      2943       153
 -1     43079    3    0    1
 -2       227      2943       188       255
 -1     43080    3    0    1
 -2      3573      2943       188       153
 -1     43081    3    0    1
 -2      3573       188      2943       255
 -1     43082    3    0    1
 -2       371       773        10       796
 -1     43083    3    0    1
 -2       371        10       773        11
 -1     43084    3    0    1
 -2      1445       700       766       787
 -1     43085    3    0    1
 -2       301       700       766       729
 -1     43086    3    0    1
 -2       301       766       700       787
 -1     43087    3    0    1
 -2       302       730      1338       300
 -1     43088    3    0    1
 -2      1338       730       302       731
 -1     43089    3    0    1
 -2      1294       274      2610       698
 -1     43090    3    0    1
 -2      2610       274      1294      1336
 -1     43091    3    0    1
 -2       355      1334      1333      1350
 -1     43092    3    0    1
 -2      1333      1334       355       725
 -1     43093    3    0    1
 -2      1333      1335       355      1350
 -1     43094    3    0    1
 -2       355      1335      1333       725
 -1     43095    3    0    1
 -2       357       724       390       354
 -1     43096    3    0    1
 -2       357       390       724       756
 -1     43097    3    0    1
 -2       390       724      2147       354
 -1     43098    3    0    1
 -2       390      2147       724       756
 -1     43099    3    0    1
 -2      2147      2114       724       756
 -1     43100    3    0    1
 -2       293       344      3201       720
 -1     43101    3    0    1
 -2       293      3201       344       294
 -1     43102    3    0    1
 -2      1447      3201       344       720
 -1     43103    3    0    1
 -2      1447       344      3201       294
 -1     43104    3    0    1
 -2       292       293      1327       291
 -1     43105    3    0    1
 -2       292      1327       293       294
 -1     43106    3    0    1
 -2      3201       798      1327       291
 -1     43107    3    0    1
 -2      3201      1327       798       294
 -1     43108    3    0    1
 -2       798       292      1327       291
 -1     43109    3    0    1
 -2       798      1327       292       294
 -1     43110    3    0    1
 -2       334       379      2156       778
 -1     43111    3    0    1
 -2      2156       379       334       333
 -1     43112    3    0    1
 -2      2156       330       334       778
 -1     43113    3    0    1
 -2       334       330      2156       333
 -1     43114    3    0    1
 -2      6964      6936      8482      6965
 -1     43115    3    0    1
 -2      6964      8482      6936      7040
 -1     43116    3    0    1
 -2       329       743      1316       325
 -1     43117    3    0    1
 -2      1316       743       329       744
 -1     43118    3    0    1
 -2       329      2614      1316       744
 -1     43119    3    0    1
 -2      5674      4845      5661      5127
 -1     43120    3    0    1
 -2      5674      5661      4845      5310
 -1     43121    3    0    1
 -2      5081      4845      5661      5310
 -1     43122    3    0    1
 -2      1021      1609      2334      1020
 -1     43123    3    0    1
 -2      1021      2334      1609      2342
 -1     43124    3    0    1
 -2      1679      2334      1609      1020
 -1     43125    3    0    1
 -2      1679      1609      2334      2342
 -1     43126    3    0    1
 -2      2989       669      3639      3014
 -1     43127    3    0    1
 -2      2989      3639       669      1130
 -1     43128    3    0    1
 -2       199      1038      2917      1054
 -1     43129    3    0    1
 -2       199      2917      1038       540
 -1     43130    3    0    1
 -2      3044      4511      2986      4111
 -1     43131    3    0    1
 -2      3044      2986      4511      4127
 -1     43132    3    0    1
 -2      2949      2986      4511      4111
 -1     43133    3    0    1
 -2      2949      4511      2986      4127
 -1     43134    3    0    1
 -2       168       197      2387       216
 -1     43135    3    0    1
 -2      2387       197       168       196
 -1     43136    3    0    1
 -2       154       155      1024       153
 -1     43137    3    0    1
 -2      1024       155       154       156
 -1     43138    3    0    1
 -2      1024      2910       154       153
 -1     43139    3    0    1
 -2      1080       575       614       577
 -1     43140    3    0    1
 -2      1080       614       575      1027
 -1     43141    3    0    1
 -2       104        65       938      1466
 -1     43142    3    0    1
 -2       104       938        65       120
 -1     43143    3    0    1
 -2      2797       977      2796       502
 -1     43144    3    0    1
 -2      2797      2796       977      1598
 -1     43145    3    0    1
 -2      1575       977      2797       502
 -1     43146    3    0    1
 -2      3312      2249      2206      2205
 -1     43147    3    0    1
 -2      3312      2206      2249      3886
 -1     43148    3    0    1
 -2      1710      3998      1120      2364
 -1     43149    3    0    1
 -2      1710      1120      3998      3537
 -1     43150    3    0    1
 -2      2392      1120      3998      2364
 -1     43151    3    0    1
 -2      2392      3998      1120      3537
 -1     43152    3    0    1
 -2      3935      1530      3936      2743
 -1     43153    3    0    1
 -2      3935      3936      1530      2277
 -1     43154    3    0    1
 -2      2781      3936      1530      2743
 -1     43155    3    0    1
 -2      3413      4467      4012      4483
 -1     43156    3    0    1
 -2      3413      4012      4467      4421
 -1     43157    3    0    1
 -2      3322      3323      2678      2734
 -1     43158    3    0    1
 -2      3322      2678      3323      3847
 -1     43159    3    0    1
 -2      2167      2678      2733      3847
 -1     43160    3    0    1
 -2      2733      3322      2678      2734
 -1     43161    3    0    1
 -2      2733      2678      3322      3847
 -1     43162    3    0    1
 -2      1618      1670      1671      1044
 -1     43163    3    0    1
 -2      1618      1671      1670      2330
 -1     43164    3    0    1
 -2      1671      1670      1064      1044
 -1     43165    3    0    1
 -2      1671      1064      1670      2330
 -1     43166    3    0    1
 -2      1064      3468      1670      2330
 -1     43167    3    0    1
 -2      1539      3849      2168      3266
 -1     43168    3    0    1
 -2      1539      2168      3849      2234
 -1     43169    3    0    1
 -2      2759      4730      3351      4322
 -1     43170    3    0    1
 -2      2759      3351      4730      4744
 -1     43171    3    0    1
 -2      4321      3351      4730      4322
 -1     43172    3    0    1
 -2      4321      4730      3351      4744
 -1     43173    3    0    1
 -2       591       526       525      3473
 -1     43174    3    0    1
 -2       591       525       526       524
 -1     43175    3    0    1
 -2      1552       862      3287      2197
 -1     43176    3    0    1
 -2      2175      1550      2196       877
 -1     43177    3    0    1
 -2      2175      2196      1550      2758
 -1     43178    3    0    1
 -2       860      2196      1550       877
 -1     43179    3    0    1
 -2       860      1550      2196      2758
 -1     43180    3    0    1
 -2      2359      3536      2925      1727
 -1     43181    3    0    1
 -2      2359      2925      3536      3995
 -1     43182    3    0    1
 -2      1629      2331      3417      1698
 -1     43183    3    0    1
 -2      2867      2287      3962      2318
 -1     43184    3    0    1
 -2      2867      3962      2287      3984
 -1     43185    3    0    1
 -2      1631      1699      3397      2332
 -1     43186    3    0    1
 -2      3452      3397      1699      2332
 -1     43187    3    0    1
 -2      3962      3453      1738      3420
 -1     43188    3    0    1
 -2      3962      1738      3453      2867
 -1     43189    3    0    1
 -2      1662      1738      1634      2867
 -1     43190    3    0    1
 -2      1634      3962      1738      3420
 -1     43191    3    0    1
 -2      1634      1738      3962      2867
 -1     43192    3    0    1
 -2      1778      2903      1094      1093
 -1     43193    3    0    1
 -2      1778      1094      2903      3465
 -1     43194    3    0    1
 -2      1952      1185      2536      1930
 -1     43195    3    0    1
 -2      1952      2536      1185      1953
 -1     43196    3    0    1
 -2      3071      2536      1185      1930
 -1     43197    3    0    1
 -2      3071      1185      2536      1953
 -1     43198    3    0    1
 -2      1875      1876      3592      1194
 -1     43199    3    0    1
 -2      1875      3592      1876      2489
 -1     43200    3    0    1
 -2      2419      3592      1876      1194
 -1     43201    3    0    1
 -2      3832      1433      4290      2657
 -1     43202    3    0    1
 -2      3832      4290      1433      3228
 -1     43203    3    0    1
 -2      2141       369       359       358
 -1     43204    3    0    1
 -2       359       369      2141      2674
 -1     43205    3    0    1
 -2       359       309      2141       358
 -1     43206    3    0    1
 -2      2141       309       359      2674
 -1     43207    3    0    1
 -2      2064      3213      2581      2628
 -1     43208    3    0    1
 -2      4242      2581      3213      2628
 -1     43209    3    0    1
 -2       301       700      1445       787
 -1     43210    3    0    1
 -2      1445       364       301       787
 -1     43211    3    0    1
 -2      3249      3159       303      2140
 -1     43212    3    0    1
 -2       303      3159      3249      2654
 -1     43213    3    0    1
 -2       303      2139      3249      2140
 -1     43214    3    0    1
 -2      3249      2139       303      2654
 -1     43215    3    0    1
 -2      4186      1859      4187      3017
 -1     43216    3    0    1
 -2      4186      4187      1859      2511
 -1     43217    3    0    1
 -2      3659      4187      1859      3017
 -1     43218    3    0    1
 -2      3188      4252      4652      3705
 -1     43219    3    0    1
 -2      3188      4652      4252      3770
 -1     43220    3    0    1
 -2      3194      4263      2658      4316
 -1     43221    3    0    1
 -2      3194      2658      4263      3773
 -1     43222    3    0    1
 -2      3834      2658      4263      4316
 -1     43223    3    0    1
 -2      3834      4263      2658      3773
 -1     43224    3    0    1
 -2      1877      1878      3032      1165
 -1     43225    3    0    1
 -2      1877      3032      1878      2492
 -1     43226    3    0    1
 -2      3595      3032      1878      1165
 -1     43227    3    0    1
 -2      3595      1878      3032      2492
 -1     43228    3    0    1
 -2      2588      2621      4245      4267
 -1     43229    3    0    1
 -2      4245      2621      2588      2587
 -1     43230    3    0    1
 -2      4245      2042      2588      4267
 -1     43231    3    0    1
 -2      2588      2042      4245      2587
 -1     43232    3    0    1
 -2      4120      1220      2935      3569
 -1     43233    3    0    1
 -2      4120      2935      1220      2485
 -1     43234    3    0    1
 -2      3002       254      2975      2976
 -1     43235    3    0    1
 -2      3002      2975       254      2462
 -1     43236    3    0    1
 -2       627       254      2975      2462
 -1     43237    3    0    1
 -2      4787      4767      5018      4798
 -1     43238    3    0    1
 -2      1220      3055       680      3056
 -1     43239    3    0    1
 -2      1220       680      3055      1933
 -1     43240    3    0    1
 -2      3029       680      3055      3056
 -1     43241    3    0    1
 -2      1949      1864      1240      1908
 -1     43242    3    0    1
 -2      1949      1240      1864      3049
 -1     43243    3    0    1
 -2      2426      3564      1186      1811
 -1     43244    3    0    1
 -2      2426      1186      3564      3626
 -1     43245    3    0    1
 -2      1856      1857      3580      1155
 -1     43246    3    0    1
 -2      1856      3580      1857      2470
 -1     43247    3    0    1
 -2      2417      3580      1857      1155
 -1     43248    3    0    1
 -2      3584      4513      4871      4573
 -1     43249    3    0    1
 -2      6906      6047      7532      6883
 -1     43250    3    0    1
 -2      6059      7532      6047      6883
 -1     43251    3    0    1
 -2      4525      4513      4871      3584
 -1     43252    3    0    1
 -2      4525      4871      4513      5086
 -1     43253    3    0    1
 -2      5685      4885      4886      5149
 -1     43254    3    0    1
 -2      5685      4886      4885      4682
 -1     43255    3    0    1
 -2      4593      4886      4885      5149
 -1     43256    3    0    1
 -2      4593      4885      4886      4682
 -1     43257    3    0    1
 -2      6009      4872      5624      4850
 -1     43258    3    0    1
 -2      6009      5624      4872      5670
 -1     43259    3    0    1
 -2      4821      5624      4574      4850
 -1     43260    3    0    1
 -2      4821      4574      5624      5670
 -1     43261    3    0    1
 -2      5624      4872      4574      4850
 -1     43262    3    0    1
 -2      5624      4574      4872      5670
 -1     43263    3    0    1
 -2      1416       772      3194      1363
 -1     43264    3    0    1
 -2      1416      3194       772      3231
 -1     43265    3    0    1
 -2      7966      6669      8778      7980
 -1     43266    3    0    1
 -2      7966      8778      6669      6671
 -1     43267    3    0    1
 -2      8778      6669      8331      7980
 -1     43268    3    0    1
 -2      8778      8331      6669      6671
 -1     43269    3    0    1
 -2      8331      6669      6670      7980
 -1     43270    3    0    1
 -2      8331      6670      6669      6671
 -1     43271    3    0    1
 -2      4754      5478      4963      4755
 -1     43272    3    0    1
 -2      4754      4963      5478      5466
 -1     43273    3    0    1
 -2      5378      4963      5478      4755
 -1     43274    3    0    1
 -2      5378      5478      4963      5466
 -1     43275    3    0    1
 -2      5970      4827      6643      5631
 -1     43276    3    0    1
 -2      5970      6643      4827      5293
 -1     43277    3    0    1
 -2      5646      6643      4827      5631
 -1     43278    3    0    1
 -2      6912      6783      8433      6888
 -1     43279    3    0    1
 -2      6912      8433      6783      6825
 -1     43280    3    0    1
 -2      7548      8433      6783      6888
 -1     43281    3    0    1
 -2      5679      4874      5301      5656
 -1     43282    3    0    1
 -2      5679      5301      4874      4875
 -1     43283    3    0    1
 -2      8521      9528      9255      9507
 -1     43284    3    0    1
 -2      8521      9255      9528      8942
 -1     43285    3    0    1
 -2      8523      9529      9243      9509
 -1     43286    3    0    1
 -2      9243      9529      8523      8944
 -1     43287    3    0    1
 -2      9484      8941      8969      8102
 -1     43288    3    0    1
 -2      9484      8969      8941      9288
 -1     43289    3    0    1
 -2      5655      7573      6778      6777
 -1     43290    3    0    1
 -2      5655      6778      7573      7989
 -1     43291    3    0    1
 -2      8879      9214      7635      8454
 -1     43292    3    0    1
 -2      7635      9214      8879      9483
 -1     43293    3    0    1
 -2      9214      8089      7635      8454
 -1     43294    3    0    1
 -2      7635      8089      9214      9483
 -1     43295    3    0    1
 -2      9214      8895      8089      8454
 -1     43296    3    0    1
 -2      8089      8895      9214      9483
 -1     43297    3    0    1
 -2      9446      9615      9671      9635
 -1     43298    3    0    1
 -2      9671      9615      9446      9184
 -1     43299    3    0    1
 -2      8896      8521      9255      9256
 -1     43300    3    0    1
 -2      9656      8944      9485      9290
 -1     43301    3    0    1
 -2      9656      9485      8944      9529
 -1     43302    3    0    1
 -2      6049      8524      8471      8901
 -1     43303    3    0    1
 -2      6049      8471      8524      7062
 -1     43304    3    0    1
 -2      8900      8471      8524      8901
 -1     43305    3    0    1
 -2      8900      8524      8471      7062
 -1     43306    3    0    1
 -2      8945      9260      7671      8525
 -1     43307    3    0    1
 -2      8945      7671      9260      9501
 -1     43308    3    0    1
 -2      8883      8093      9512      7673
 -1     43309    3    0    1
 -2      8883      9512      8093      8948
 -1     43310    3    0    1
 -2      8526      9512      8093      7673
 -1     43311    3    0    1
 -2      8526      8093      9512      8948
 -1     43312    3    0    1
 -2      8971      8104      9502      8550
 -1     43313    3    0    1
 -2      8971      9502      8104      8972
 -1     43314    3    0    1
 -2      6440      5922      7333      6465
 -1     43315    3    0    1
 -2      6440      7333      5922      5921
 -1     43316    3    0    1
 -2      6538      7333      5922      6465
 -1     43317    3    0    1
 -2      6538      5922      7333      5921
 -1     43318    3    0    1
 -2      9449      9428      6587      9174
 -1     43319    3    0    1
 -2      6587      9428      9449      9629
 -1     43320    3    0    1
 -2      9449      9641      9674      9629
 -1     43321    3    0    1
 -2      9674      9641      9449      9464
 -1     43322    3    0    1
 -2      3398      2764      1592      3374
 -1     43323    3    0    1
 -2      6718      8777      6667      7487
 -1     43324    3    0    1
 -2      6718      6667      8777      6666
 -1     43325    3    0    1
 -2      5988      7459      8365      6661
 -1     43326    3    0    1
 -2      5988      8365      7459      7484
 -1     43327    3    0    1
 -2      8364      5988      8365      6661
 -1     43328    3    0    1
 -2      8364      8365      5988      7484
 -1     43329    3    0    1
 -2      7447      5988      8364      6661
 -1     43330    3    0    1
 -2      7978      8793      8821      9198
 -1     43331    3    0    1
 -2      7978      8821      8793      5652
 -1     43332    3    0    1
 -2      5652      7951      8793      6715
 -1     43333    3    0    1
 -2      5652      8793      7951      8821
 -1     43334    3    0    1
 -2      9445      7951      8793      8821
 -1     43335    3    0    1
 -2      8836      9443      6658      8792
 -1     43336    3    0    1
 -2      6658      9443      8836      9442
 -1     43337    3    0    1
 -2      9002      7181      6125      9316
 -1     43338    3    0    1
 -2      6125      7181      9002      7729
 -1     43339    3    0    1
 -2      6125      8115      9002      9316
 -1     43340    3    0    1
 -2      9002      8115      6125      7729
 -1     43341    3    0    1
 -2      9317      7731      6239      9018
 -1     43342    3    0    1
 -2      6239      7731      9317      7730
 -1     43343    3    0    1
 -2      8659      6380      6164      8209
 -1     43344    3    0    1
 -2      6339      6164      6380      8209
 -1     43345    3    0    1
 -2      6339      6380      6164      6341
 -1     43346    3    0    1
 -2      5504      4411      4804      5006
 -1     43347    3    0    1
 -2      5504      4804      4411      4782
 -1     43348    3    0    1
 -2      4015      5011      4075      4423
 -1     43349    3    0    1
 -2      4015      4075      5011      5056
 -1     43350    3    0    1
 -2      5073      4075      5011      4423
 -1     43351    3    0    1
 -2      5073      5011      4075      5056
 -1     43352    3    0    1
 -2      5443      6294      6295      6293
 -1     43353    3    0    1
 -2      5443      6295      6294      7203
 -1     43354    3    0    1
 -2      6377      6295      6294      6293
 -1     43355    3    0    1
 -2      6618      7838      5938      8261
 -1     43356    3    0    1
 -2      6435      5938      7838      8261
 -1     43357    3    0    1
 -2      8700      7320      5939      7350
 -1     43358    3    0    1
 -2      8700      5939      7320      8716
 -1     43359    3    0    1
 -2      4973      4363      4961      4960
 -1     43360    3    0    1
 -2      4973      4961      4363      4386
 -1     43361    3    0    1
 -2      4350      4961      4363      4960
 -1     43362    3    0    1
 -2      4350      4363      4961      4386
 -1     43363    3    0    1
 -2      5562      6561      6497      6585
 -1     43364    3    0    1
 -2      5562      6497      6561      5907
 -1     43365    3    0    1
 -2      5049      5273      5019      5506
 -1     43366    3    0    1
 -2      6501      5273      5019      5065
 -1     43367    3    0    1
 -2      6501      5019      5273      5506
 -1     43368    3    0    1
 -2      9005      8119      8629      8120
 -1     43369    3    0    1
 -2      9005      8629      8119      9319
 -1     43370    3    0    1
 -2      6309      6310      7257      6311
 -1     43371    3    0    1
 -2      6309      7257      6310      6350
 -1     43372    3    0    1
 -2      4395      5467      4743      5449
 -1     43373    3    0    1
 -2      4395      4743      5467      5448
 -1     43374    3    0    1
 -2      5212      4743      5467      5449
 -1     43375    3    0    1
 -2      5212      5467      4743      5448
 -1     43376    3    0    1
 -2      8238      6354      7272      8231
 -1     43377    3    0    1
 -2      8238      7272      6354      6406
 -1     43378    3    0    1
 -2      6355      6354      7272      6406
 -1     43379    3    0    1
 -2      6166      6271      6243      5824
 -1     43380    3    0    1
 -2      6166      6243      6271      7187
 -1     43381    3    0    1
 -2      5823      6243      6271      5824
 -1     43382    3    0    1
 -2      5823      6271      6243      7187
 -1     43383    3    0    1
 -2      7140      8605      5792      8606
 -1     43384    3    0    1
 -2      7140      5792      8605      7702
 -1     43385    3    0    1
 -2      8630      5792      8605      8606
 -1     43386    3    0    1
 -2      9361      9592      9674      9593
 -1     43387    3    0    1
 -2      9674      9592      9361      9369
 -1     43388    3    0    1
 -2      5488      7859      7246      7285
 -1     43389    3    0    1
 -2      8727      7859      7246      8246
 -1     43390    3    0    1
 -2      8727      7246      7859      7285
 -1     43391    3    0    1
 -2      9341      9556      8579      9320
 -1     43392    3    0    1
 -2      9609      7404      7914      9450
 -1     43393    3    0    1
 -2      7914      9388      9609      9450
 -1     43394    3    0    1
 -2      9609      9388      7914      9583
 -1     43395    3    0    1
 -2      7528      6626      8828      6003
 -1     43396    3    0    1
 -2      7528      8828      6626      8354
 -1     43397    3    0    1
 -2      8807      8828      6626      6003
 -1     43398    3    0    1
 -2      8219      7310      7829      7828
 -1     43399    3    0    1
 -2      8219      7829      7310      8682
 -1     43400    3    0    1
 -2      7829      7310      5496      7828
 -1     43401    3    0    1
 -2      7950      6632      7919      7409
 -1     43402    3    0    1
 -2      7950      7919      6632      6737
 -1     43403    3    0    1
 -2      6615      7919      6632      7409
 -1     43404    3    0    1
 -2      8187      6203      8607      8620
 -1     43405    3    0    1
 -2      7164      6203      8607      7739
 -1     43406    3    0    1
 -2      7164      8607      6203      8620
 -1     43407    3    0    1
 -2      7220      6145      8191      6253
 -1     43408    3    0    1
 -2      7220      8191      6145      8171
 -1     43409    3    0    1
 -2      8191      6145      9069      6253
 -1     43410    3    0    1
 -2      8191      9069      6145      8171
 -1     43411    3    0    1
 -2      9069      9358      6145      8171
 -1     43412    3    0    1
 -2      6427      6361      7307      6428
 -1     43413    3    0    1
 -2      6427      7307      6361      6429
 -1     43414    3    0    1
 -2      4987      5844      4708      5389
 -1     43415    3    0    1
 -2      4987      4708      5844      5454
 -1     43416    3    0    1
 -2      5390      4708      5844      5389
 -1     43417    3    0    1
 -2      5390      5844      4708      5454
 -1     43418    3    0    1
 -2      1127      1053      1792      1126
 -1     43419    3    0    1
 -2      1127      1792      1053      2914
 -1     43420    3    0    1
 -2      6255      6212      7744      7166
 -1     43421    3    0    1
 -2      6255      7744      6212      7194
 -1     43422    3    0    1
 -2      8615      6212      7744      7194
 -1     43423    3    0    1
 -2      5531      5059      5497      5260
 -1     43424    3    0    1
 -2      4449      5497      5059      5260
 -1     43425    3    0    1
 -2      1052      1749      2914      1053
 -1     43426    3    0    1
 -2      1052      2914      1749      2375
 -1     43427    3    0    1
 -2      1792      2914      1749      1053
 -1     43428    3    0    1
 -2      5439      6155      6262      7174
 -1     43429    3    0    1
 -2      5427      7168      5800      6153
 -1     43430    3    0    1
 -2      5427      5800      7168      6260
 -1     43431    3    0    1
 -2      7120      5800      7168      6153
 -1     43432    3    0    1
 -2      7120      7168      5800      6260
 -1     43433    3    0    1
 -2      7124      6232      5805      6266
 -1     43434    3    0    1
 -2      5238      5805      6232      6266
 -1     43435    3    0    1
 -2      5238      6232      5805      6178
 -1     43436    3    0    1
 -2      7766      6228      8205      6230
 -1     43437    3    0    1
 -2      7766      8205      6228      7234
 -1     43438    3    0    1
 -2      6231      8205      6228      6230
 -1     43439    3    0    1
 -2      6231      6228      8205      7234
 -1     43440    3    0    1
 -2      9381      9130      7919      9422
 -1     43441    3    0    1
 -2      7919      9130      9381      9116
 -1     43442    3    0    1
 -2      9347      9014      8594      9303
 -1     43443    3    0    1
 -2      8594      9014      9347      9044
 -1     43444    3    0    1
 -2      9359      8591      9578      9302
 -1     43445    3    0    1
 -2      9578      8591      8592      9302
 -1     43446    3    0    1
 -2      9578      8592      8591      7719
 -1     43447    3    0    1
 -2      9013      8130      8641      8131
 -1     43448    3    0    1
 -2      9013      8641      8130      9327
 -1     43449    3    0    1
 -2      6154      8641      8130      8131
 -1     43450    3    0    1
 -2      7276      6513      7262      6412
 -1     43451    3    0    1
 -2      7276      7262      6513      8683
 -1     43452    3    0    1
 -2      8241      7262      6513      6412
 -1     43453    3    0    1
 -2      8241      6513      7262      8683
 -1     43454    3    0    1
 -2      7316      6482      8298      6519
 -1     43455    3    0    1
 -2      7316      8298      6482      7851
 -1     43456    3    0    1
 -2      7381      8297      6548      7382
 -1     43457    3    0    1
 -2      7381      6548      8297      8745
 -1     43458    3    0    1
 -2      8776      8352      9625      9460
 -1     43459    3    0    1
 -2      8776      9625      8352      8329
 -1     43460    3    0    1
 -2      6010      5097      5662      5981
 -1     43461    3    0    1
 -2      6010      5662      5097      5142
 -1     43462    3    0    1
 -2      5109      5662      5097      5981
 -1     43463    3    0    1
 -2      5109      5097      5662      5142
 -1     43464    3    0    1
 -2      7956      8405      6730      7500
 -1     43465    3    0    1
 -2      7956      6730      8405      8840
 -1     43466    3    0    1
 -2      7476      6730      8405      7500
 -1     43467    3    0    1
 -2      7476      8405      6730      8840
 -1     43468    3    0    1
 -2      7567      8922      7625      8437
 -1     43469    3    0    1
 -2      7567      7625      8922      8052
 -1     43470    3    0    1
 -2      7110      8926      8890      8053
 -1     43471    3    0    1
 -2      7110      8890      8926      9252
 -1     43472    3    0    1
 -2      8867      8890      8926      8053
 -1     43473    3    0    1
 -2      8867      8926      8890      9252
 -1     43474    3    0    1
 -2      6803      8360      5324      6711
 -1     43475    3    0    1
 -2      6803      5324      8360      8414
 -1     43476    3    0    1
 -2      9520      8099      9270      8887
 -1     43477    3    0    1
 -2      9520      9270      8099      8963
 -1     43478    3    0    1
 -2      8536      8099      9270      8963
 -1     43479    3    0    1
 -2      6647      7935      6698      7452
 -1     43480    3    0    1
 -2      6647      6698      7935      8806
 -1     43481    3    0    1
 -2      2145       381       288       380
 -1     43482    3    0    1
 -2      2145       288       381      2157
 -1     43483    3    0    1
 -2      6066      4906      5752      5162
 -1     43484    3    0    1
 -2      6066      5752      4906      5197
 -1     43485    3    0    1
 -2      4931      5752      4906      5162
 -1     43486    3    0    1
 -2      4931      4906      5752      5197
 -1     43487    3    0    1
 -2      7097      5358      5751      6115
 -1     43488    3    0    1
 -2      5751      5358      7097      7078
 -1     43489    3    0    1
 -2      5699      5161      6065      5700
 -1     43490    3    0    1
 -2      4676      5161      6065      5771
 -1     43491    3    0    1
 -2      4676      6065      5161      5700
 -1     43492    3    0    1
 -2      7007      8048      6089      6970
 -1     43493    3    0    1
 -2      7007      6089      8048      8915
 -1     43494    3    0    1
 -2      8491      6089      8048      6970
 -1     43495    3    0    1
 -2      8491      8048      6089      8915
 -1     43496    3    0    1
 -2      8786      7972      7431      7462
 -1     43497    3    0    1
 -2      6649      7972      7431      7432
 -1     43498    3    0    1
 -2      6649      7431      7972      7462
 -1     43499    3    0    1
 -2      7553      6917      6795      5703
 -1     43500    3    0    1
 -2      7553      6795      6917      8028
 -1     43501    3    0    1
 -2      6842      6795      6917      5703
 -1     43502    3    0    1
 -2      6842      6917      6795      8028
 -1     43503    3    0    1
 -2      5131      5681      5113      5974
 -1     43504    3    0    1
 -2      5131      5113      5681      5132
 -1     43505    3    0    1
 -2      6853      5707      6855      6854
 -1     43506    3    0    1
 -2      6853      6855      5707      7581
 -1     43507    3    0    1
 -2      3015      1924      2989      3014
 -1     43508    3    0    1
 -2      3015      2989      1924      2453
 -1     43509    3    0    1
 -2       669      2989      1924      3014
 -1     43510    3    0    1
 -2      4542      3065      4522      2992
 -1     43511    3    0    1
 -2      4542      4522      3065      4569
 -1     43512    3    0    1
 -2      9072      8224      6260      7224
 -1     43513    3    0    1
 -2      9072      6260      8224      8666
 -1     43514    3    0    1
 -2      7168      6260      8224      7224
 -1     43515    3    0    1
 -2      7168      8224      6260      8666
 -1     43516    3    0    1
 -2       497       964      2239       470
 -1     43517    3    0    1
 -2       497      2239       964      1591
 -1     43518    3    0    1
 -2      3726      2622      3168      2121
 -1     43519    3    0    1
 -2      3726      3168      2622      2592
 -1     43520    3    0    1
 -2      2073      3168      2622      2121
 -1     43521    3    0    1
 -2      2073      2622      3168      2592
 -1     43522    3    0    1
 -2      4275      2045      4298      2600
 -1     43523    3    0    1
 -2      4275      4298      2045      3210
 -1     43524    3    0    1
 -2      3257      4298      2045      2600
 -1     43525    3    0    1
 -2      3257      2045      4298      3210
 -1     43526    3    0    1
 -2      2635      3764      2109      2604
 -1     43527    3    0    1
 -2      2635      2109      3764      4278
 -1     43528    3    0    1
 -2      2603      2109      3764      2604
 -1     43529    3    0    1
 -2      2603      3764      2109      4278
 -1     43530    3    0    1
 -2      1389      2039      3829      2609
 -1     43531    3    0    1
 -2      3182      3829      2039      2609
 -1     43532    3    0    1
 -2      1349       295      1330      1348
 -1     43533    3    0    1
 -2      1331      1330       295      1348
 -1     43534    3    0    1
 -2      1331       295      1330       722
 -1     43535    3    0    1
 -2      2144       331       332      2156
 -1     43536    3    0    1
 -2       332       331      2144       378
 -1     43537    3    0    1
 -2       332       379      2144      2156
 -1     43538    3    0    1
 -2      2144       379       332       378
 -1     43539    3    0    1
 -2      1402      2015      2631      2044
 -1     43540    3    0    1
 -2      1648      1649      2292      1614
 -1     43541    3    0    1
 -2      1648      2292      1649      2311
 -1     43542    3    0    1
 -2      3949      1649      2292      2311
 -1     43543    3    0    1
 -2      4046      3511      4781      4461
 -1     43544    3    0    1
 -2      4046      4781      3511      4463
 -1     43545    3    0    1
 -2      4462      4781      3511      4461
 -1     43546    3    0    1
 -2      4462      3511      4781      4463
 -1     43547    3    0    1
 -2      1655      2345      3462      2338
 -1     43548    3    0    1
 -2      1655      3462      2345      3427
 -1     43549    3    0    1
 -2      3506       162      2946      2376
 -1     43550    3    0    1
 -2      3506      2946       162      2922
 -1     43551    3    0    1
 -2       532      2946       162      2376
 -1     43552    3    0    1
 -2      2374      4039      1749      1772
 -1     43553    3    0    1
 -2      2374      1749      4039      3544
 -1     43554    3    0    1
 -2      1792      1749      4039      1772
 -1     43555    3    0    1
 -2      1792      4039      1749      3544
 -1     43556    3    0    1
 -2      5247      5032      4809      4447
 -1     43557    3    0    1
 -2      4477      5032      4809      4789
 -1     43558    3    0    1
 -2      4477      4809      5032      4447
 -1     43559    3    0    1
 -2      1658      1681      1663      1050
 -1     43560    3    0    1
 -2      1658      1663      1681      2335
 -1     43561    3    0    1
 -2      1663      1681      1078      1050
 -1     43562    3    0    1
 -2      1663      1078      1681      2335
 -1     43563    3    0    1
 -2      1078      2912      1681      2335
 -1     43564    3    0    1
 -2      2771      2741      3866      3867
 -1     43565    3    0    1
 -2      2771      3866      2741      3925
 -1     43566    3    0    1
 -2      4344      3866      2741      3867
 -1     43567    3    0    1
 -2      4344      2741      3866      3925
 -1     43568    3    0    1
 -2        27      1460      2266        25
 -1     43569    3    0    1
 -2      2266      1460        27      2162
 -1     43570    3    0    1
 -2      2266       102        27        25
 -1     43571    3    0    1
 -2        27       102      2266      2162
 -1     43572    3    0    1
 -2      3862      4374      3270      4710
 -1     43573    3    0    1
 -2      3862      3270      4374      3900
 -1     43574    3    0    1
 -2      3375      1559      3292       864
 -1     43575    3    0    1
 -2      3375      3292      1559      2721
 -1     43576    3    0    1
 -2      1486      3292      1559       864
 -1     43577    3    0    1
 -2      1486      1559      3292      2721
 -1     43578    3    0    1
 -2      2268      2788       843      1560
 -1     43579    3    0    1
 -2      2268       843      2788      3353
 -1     43580    3    0    1
 -2      2707       843      2788      1560
 -1     43581    3    0    1
 -2      2707      2788       843      3353
 -1     43582    3    0    1
 -2      3860      4707      4335      4706
 -1     43583    3    0    1
 -2      3860      4335      4707      3878
 -1     43584    3    0    1
 -2      3868      4958      4379      4378
 -1     43585    3    0    1
 -2      3868      4379      4958      4716
 -1     43586    3    0    1
 -2      2686      4380      2185      3882
 -1     43587    3    0    1
 -2      2686      2185      4380      3870
 -1     43588    3    0    1
 -2      2793      2185      4380      3882
 -1     43589    3    0    1
 -2      2793      4380      2185      3870
 -1     43590    3    0    1
 -2      3967      2792      1647      3384
 -1     43591    3    0    1
 -2      3967      1647      2792      3410
 -1     43592    3    0    1
 -2      5228      3927      4949      4731
 -1     43593    3    0    1
 -2      5228      4949      3927      5005
 -1     43594    3    0    1
 -2      4721      3927      4949      5005
 -1     43595    3    0    1
 -2      1598      2246       977        83
 -1     43596    3    0    1
 -2      1598       977      2246      2796
 -1     43597    3    0    1
 -2       977      2246       502        83
 -1     43598    3    0    1
 -2       977       502      2246      2796
 -1     43599    3    0    1
 -2       502      2246       442        83
 -1     43600    3    0    1
 -2       502       442      2246      2796
 -1     43601    3    0    1
 -2      4323      2244      3338      2188
 -1     43602    3    0    1
 -2      4323      3338      2244      3903
 -1     43603    3    0    1
 -2      3334      2291       975      2242
 -1     43604    3    0    1
 -2      3334       975      2291      3383
 -1     43605    3    0    1
 -2      8633      9006      7243      8634
 -1     43606    3    0    1
 -2      8633      7243      9006      9023
 -1     43607    3    0    1
 -2      5240      5214      4992      4711
 -1     43608    3    0    1
 -2      5240      4992      5214      5394
 -1     43609    3    0    1
 -2      4956      4992      5214      4711
 -1     43610    3    0    1
 -2      4956      5214      4992      5394
 -1     43611    3    0    1
 -2      8397      8367      6775      7964
 -1     43612    3    0    1
 -2      8397      6775      8367      8396
 -1     43613    3    0    1
 -2      2845      2855      1691      1709
 -1     43614    3    0    1
 -2      2845      1691      2855      3463
 -1     43615    3    0    1
 -2      1527      1528      2193       871
 -1     43616    3    0    1
 -2      1527      2193      1528      2248
 -1     43617    3    0    1
 -2      2204      2193      1528       871
 -1     43618    3    0    1
 -2      2204      1528      2193      2248
 -1     43619    3    0    1
 -2      6464      6503      8731      6504
 -1     43620    3    0    1
 -2      6464      8731      6503      7845
 -1     43621    3    0    1
 -2       432       409       451       410
 -1     43622    3    0    1
 -2      3170      4625      3784      4624
 -1     43623    3    0    1
 -2      3170      3784      4625      4626
 -1     43624    3    0    1
 -2      4938      3784      4625      4624
 -1     43625    3    0    1
 -2      4938      4625      3784      4626
 -1     43626    3    0    1
 -2      5720      4648      5203      5737
 -1     43627    3    0    1
 -2      5720      5203      4648      5172
 -1     43628    3    0    1
 -2      3032      4829      4828      3571
 -1     43629    3    0    1
 -2      5676      5098      4864      5306
 -1     43630    3    0    1
 -2      5676      4864      5098      5130
 -1     43631    3    0    1
 -2      3081      3675      3682      1973
 -1     43632    3    0    1
 -2      3081      3682      3675      4198
 -1     43633    3    0    1
 -2      8273      9080      7357      8254
 -1     43634    3    0    1
 -2      8273      7357      9080      9365
 -1     43635    3    0    1
 -2      6490      7357      9080      8254
 -1     43636    3    0    1
 -2      6490      9080      7357      9365
 -1     43637    3    0    1
 -2      4719      3872      4750      4338
 -1     43638    3    0    1
 -2      4719      4750      3872      4720
 -1     43639    3    0    1
 -2      3337      4750      3872      4338
 -1     43640    3    0    1
 -2      3337      3872      4750      4720
 -1     43641    3    0    1
 -2      5401      6262      5439      6155
 -1     43642    3    0    1
 -2      5401      5439      6262      5429
 -1     43643    3    0    1
 -2      6496      7328      6495      6461
 -1     43644    3    0    1
 -2      8278      6495      7328      6461
 -1     43645    3    0    1
 -2      8278      7328      6495      8724
 -1     43646    3    0    1
 -2      5391      6145      6253      6143
 -1     43647    3    0    1
 -2      5391      6253      6145      5812
 -1     43648    3    0    1
 -2      2274      1506      3905      1505
 -1     43649    3    0    1
 -2      2274      3905      1506      2275
 -1     43650    3    0    1
 -2      2221      3905      1506      1505
 -1     43651    3    0    1
 -2      3794      3225      2613      1411
 -1     43652    3    0    1
 -2      2613      3225      3158      1411
 -1     43653    3    0    1
 -2      6640      8781      6681      8372
 -1     43654    3    0    1
 -2      6640      6681      8781      7928
 -1     43655    3    0    1
 -2      7422      6681      8781      8372
 -1     43656    3    0    1
 -2      7422      8781      6681      7928
 -1     43657    3    0    1
 -2      9313      8125      8124      9577
 -1     43658    3    0    1
 -2      9313      8124      8125      8584
 -1     43659    3    0    1
 -2      1235      2450       268       677
 -1     43660    3    0    1
 -2      1235       268      2450      3046
 -1     43661    3    0    1
 -2      9622      9196      7457      9195
 -1     43662    3    0    1
 -2      9622      7457      9196      9632
 -1     43663    3    0    1
 -2      5734      6996      4674      6113
 -1     43664    3    0    1
 -2      5724      4674      6996      6113
 -1     43665    3    0    1
 -2      7594      6892      8445      5699
 -1     43666    3    0    1
 -2      7594      8445      6892      6893
 -1     43667    3    0    1
 -2      5615      4839      5640      5616
 -1     43668    3    0    1
 -2      5615      5640      4839      4840
 -1     43669    3    0    1
 -2      5669      5640      4839      5616
 -1     43670    3    0    1
 -2      5669      4839      5640      4840
 -1     43671    3    0    1
 -2      8001      6847      6846      6877
 -1     43672    3    0    1
 -2      6845      6847      6846      6844
 -1     43673    3    0    1
 -2      6845      6846      6847      6877
 -1     43674    3    0    1
 -2      6668      7987      8777      7416
 -1     43675    3    0    1
 -2       285      3166      3776      1313
 -1     43676    3    0    1
 -2       285      3776      3166      3779
 -1     43677    3    0    1
 -2      5225      5468      4730      5451
 -1     43678    3    0    1
 -2      4744      4730      5468      5451
 -1     43679    3    0    1
 -2      4744      5468      4730      5435
 -1     43680    3    0    1
 -2      7586      6028      6905      5684
 -1     43681    3    0    1
 -2      7586      6905      6028      7569
 -1     43682    3    0    1
 -2      5644      5302      5094      4843
 -1     43683    3    0    1
 -2      4529      5094      5302      4843
 -1     43684    3    0    1
 -2      4529      5302      5094      5292
 -1     43685    3    0    1
 -2      8509      7613      7002      7001
 -1     43686    3    0    1
 -2      8509      7002      7613      6938
 -1     43687    3    0    1
 -2      6937      7002      7613      7001
 -1     43688    3    0    1
 -2      6937      7613      7002      6938
 -1     43689    3    0    1
 -2       206       543      1784       204
 -1     43690    3    0    1
 -2       206      1784       543       588
 -1     43691    3    0    1
 -2      8146      5782      9332      7126
 -1     43692    3    0    1
 -2      8146      9332      5782      7178
 -1     43693    3    0    1
 -2      9332      5782      6123      7126
 -1     43694    3    0    1
 -2      9332      6123      5782      7178
 -1     43695    3    0    1
 -2      7726      9332      6123      7126
 -1     43696    3    0    1
 -2      7726      6123      9332      7178
 -1     43697    3    0    1
 -2      6991      6816      8421      5693
 -1     43698    3    0    1
 -2      6991      8421      6816      7560
 -1     43699    3    0    1
 -2      7397      6519      7355      8764
 -1     43700    3    0    1
 -2      7397      7355      6519      6579
 -1     43701    3    0    1
 -2      1675      1767      2907      1066
 -1     43702    3    0    1
 -2      1675      2907      1767      2356
 -1     43703    3    0    1
 -2      1788      2907      1767      1066
 -1     43704    3    0    1
 -2      6171      6203      8187      6250
 -1     43705    3    0    1
 -2      5593      4829      5315      5594
 -1     43706    3    0    1
 -2      5593      5315      4829      4828
 -1     43707    3    0    1
 -2      3025      4192      1995      3663
 -1     43708    3    0    1
 -2      3025      1995      4192      3054
 -1     43709    3    0    1
 -2      2566       695      3724      1281
 -1     43710    3    0    1
 -2      2566      3724       695      9668
 -1     43711    3    0    1
 -2      1282      3724       695      1281
 -1     43712    3    0    1
 -2      1282       695      3724      9668
 -1     43713    3    0    1
 -2       133       134      2353       135
 -1     43714    3    0    1
 -2       133      2353       134      9669
 -1     43715    3    0    1
 -2      9457      9207      7921      8818
 -1     43716    3    0    1
 -2      9457      7921      9207      9473
 -1     43717    3    0    1
 -2      7962      7921      9207      8818
 -1     43718    3    0    1
 -2      7962      9207      7921      9473
 -1     43719    3    0    1
 -2      4112      2453      2990      2991
 -1     43720    3    0    1
 -2      4112      2990      2453      3640
 -1     43721    3    0    1
 -2      3540       568      2980      1802
 -1     43722    3    0    1
 -2      3540      2980       568       629
 -1     43723    3    0    1
 -2      1168      2980       568      1802
 -1     43724    3    0    1
 -2      1168       568      2980       629
 -1     43725    3    0    1
 -2      1442       381       336      2157
 -1     43726    3    0    1
 -2      1442       336       381       792
 -1     43727    3    0    1
 -2      5384      6168      5793      6138
 -1     43728    3    0    1
 -2      5384      5793      6168      5419
 -1     43729    3    0    1
 -2      9672      5793      6168      6138
 -1     43730    3    0    1
 -2      9672      6168      5793      5419
 -1     43731    3    0    1
 -2      2664      1429      3785      3253
 -1     43732    3    0    1
 -2      2664      3785      1429      3239
 -1     43733    3    0    1
 -2      3820      3785      1429      3253
 -1     43734    3    0    1
 -2      3820      1429      3785      3239
 -1     43735    3    0    1
 -2      1961      3058      3668      1875
 -1     43736    3    0    1
 -2      1961      3668      3058      3669
 -1     43737    3    0    1
 -2      3057      3668      3058      1875
 -1     43738    3    0    1
 -2      3057      3058      3668      3669
 -1     43739    3    0    1
 -2      4259      3737      4894      4258
 -1     43740    3    0    1
 -2      4259      4894      3737      4673
 -1     43741    3    0    1
 -2      1378      2018      1424      2134
 -1     43742    3    0    1
 -2      4976      4352      4945      4693
 -1     43743    3    0    1
 -2      4976      4945      4352      4388
 -1     43744    3    0    1
 -2      3847      4945      4352      4693
 -1     43745    3    0    1
 -2      3847      4352      4945      4388
 -1     43746    3    0    1
 -2      9435      7908      9584      8759
 -1     43747    3    0    1
 -2      9435      9584      7908      9414
 -1     43748    3    0    1
 -2       669       264      2989       670
 -1     43749    3    0    1
 -2       216      2989       264       670
 -1     43750    3    0    1
 -2       216       264      2989      2453
 -1     43751    3    0    1
 -2      7838      5479      5938      6435
 -1     43752    3    0    1
 -2      5938      5479      7838      5904
 -1     43753    3    0    1
 -2       851       419      2690       852
 -1     43754    3    0    1
 -2      2690       419       851      1481
 -1     43755    3    0    1
 -2      5128      4165      5082      4832
 -1     43756    3    0    1
 -2      5128      5082      4165      4582
 -1     43757    3    0    1
 -2      4508      5082      4165      4832
 -1     43758    3    0    1
 -2      4508      4165      5082      4582
 -1     43759    3    0    1
 -2      1622      1696      1674      1003
 -1     43760    3    0    1
 -2      1622      1674      1696      2314
 -1     43761    3    0    1
 -2      1002      1674      1696      1003
 -1     43762    3    0    1
 -2      1002      1696      1674      2314
 -1     43763    3    0    1
 -2      1889      1890      1844      1173
 -1     43764    3    0    1
 -2      1889      1844      1890      3039
 -1     43765    3    0    1
 -2      1844      1890      1829      1173
 -1     43766    3    0    1
 -2      1844      1829      1890      3039
 -1     43767    3    0    1
 -2      1829      1890      1172      1173
 -1     43768    3    0    1
 -2      1829      1172      1890      3039
 -1     43769    3    0    1
 -2      8160      6276      6208      6207
 -1     43770    3    0    1
 -2      8160      6208      6276      8189
 -1     43771    3    0    1
 -2      6206      6208      6276      6207
 -1     43772    3    0    1
 -2      6206      6276      6208      8189
 -1     43773    3    0    1
 -2      7954      8839      7991      7524
 -1     43774    3    0    1
 -2      7954      7991      8839      9201
 -1     43775    3    0    1
 -2      8825      7991      8839      7524
 -1     43776    3    0    1
 -2      8825      8839      7991      9201
 -1     43777    3    0    1
 -2      2951      3483       991      3484
 -1     43778    3    0    1
 -2       991      3483      2951      1130
 -1     43779    3    0    1
 -2       991       539      2951      3484
 -1     43780    3    0    1
 -2      2951       539       991      1130
 -1     43781    3    0    1
 -2      7443      6740      6713      6017
 -1     43782    3    0    1
 -2      7443      6713      6740      7519
 -1     43783    3    0    1
 -2      6018      6713      6740      6017
 -1     43784    3    0    1
 -2      6018      6740      6713      7519
 -1     43785    3    0    1
 -2       500       440      2772      3334
 -1     43786    3    0    1
 -2       500      2772       440       478
 -1     43787    3    0    1
 -2      2183      2772       440      3334
 -1     43788    3    0    1
 -2      2183       440      2772       478
 -1     43789    3    0    1
 -2      2311      3424      3441      3423
 -1     43790    3    0    1
 -2      2311      3441      3424      1706
 -1     43791    3    0    1
 -2      1549      1459        52       804
 -1     43792    3    0    1
 -2      6550      7872      7355      6520
 -1     43793    3    0    1
 -2      7355      7872      6550      7402
 -1     43794    3    0    1
 -2      9391      9597      7880      9374
 -1     43795    3    0    1
 -2      7880      9597      9391      9417
 -1     43796    3    0    1
 -2       625      1136      1189      2970
 -1     43797    3    0    1
 -2       625      1189      1136      1147
 -1     43798    3    0    1
 -2      1164      1189      1136      2970
 -1     43799    3    0    1
 -2      1164      1136      1189      1147
 -1     43800    3    0    1
 -2      2028      3709      4218      2027
 -1     43801    3    0    1
 -2      2028      4218      3709      3124
 -1     43802    3    0    1
 -2      5018      4021      4787      5017
 -1     43803    3    0    1
 -2      5018      4787      4021      4767
 -1     43804    3    0    1
 -2      1238       620      3018       640
 -1     43805    3    0    1
 -2      1238      3018       620      1158
 -1     43806    3    0    1
 -2      2454      3548       636      2994
 -1     43807    3    0    1
 -2      2454       636      3548       232
 -1     43808    3    0    1
 -2       609       636      3548      2994
 -1     43809    3    0    1
 -2       609      3548       636       232
 -1     43810    3    0    1
 -2      4547      3032      4828      3633
 -1     43811    3    0    1
 -2      4547      4828      3032      4829
 -1     43812    3    0    1
 -2       360       709      9668       324
 -1     43813    3    0    1
 -2       360      9668       709      1437
 -1     43814    3    0    1
 -2        87       488       417       395
 -1     43815    3    0    1
 -2       417       488        87        88
 -1     43816    3    0    1
 -2      7564      7100      9222      8457
 -1     43817    3    0    1
 -2      7564      9222      7100      6067
 -1     43818    3    0    1
 -2      9575      7716      8130      8589
 -1     43819    3    0    1
 -2      8130      7716      9575      9345
 -1     43820    3    0    1
 -2      1233       673      1266       690
 -1     43821    3    0    1
 -2      1233      1266       673      3016
 -1     43822    3    0    1
 -2       105        68        69        66
 -1     43823    3    0    1
 -2        69        68       105       106
 -1     43824    3    0    1
 -2      8889      6105      6096      9251
 -1     43825    3    0    1
 -2      6096      6105      8889      8051
 -1     43826    3    0    1
 -2      6096      8016      8889      9251
 -1     43827    3    0    1
 -2      8889      8016      6096      8051
 -1     43828    3    0    1
 -2      2918       173       546      1043
 -1     43829    3    0    1
 -2       546       173      2918      3532
 -1     43830    3    0    1
 -2       546      2882      2918      1043
 -1     43831    3    0    1
 -2      2918      2882       546      3532
 -1     43832    3    0    1
 -2      7044      6968      8486      6086
 -1     43833    3    0    1
 -2      7044      8486      6968      8487
 -1     43834    3    0    1
 -2      6943      8486      6968      6086
 -1     43835    3    0    1
 -2      6943      6968      8486      8487
 -1     43836    3    0    1
 -2      5007      4009      4072      4413
 -1     43837    3    0    1
 -2      5007      4072      4009      4796
 -1     43838    3    0    1
 -2      3166      2042      1313      2029
 -1     43839    3    0    1
 -2      3166      1313      2042      3776
 -1     43840    3    0    1
 -2      9295      8553      9236      9296
 -1     43841    3    0    1
 -2      9236      9494      9295      9296
 -1     43842    3    0    1
 -2      4153      5100      4585      5084
 -1     43843    3    0    1
 -2      4153      4585      5100      5101
 -1     43844    3    0    1
 -2      5144      4585      5100      5084
 -1     43845    3    0    1
 -2      5144      5100      4585      5101
 -1     43846    3    0    1
 -2      1602      3346      1623       955
 -1     43847    3    0    1
 -2      1602      1623      3346      2802
 -1     43848    3    0    1
 -2      3370      1623      3346       955
 -1     43849    3    0    1
 -2      3370      3346      1623      2802
 -1     43850    3    0    1
 -2      1248      3594       254      1937
 -1     43851    3    0    1
 -2      3141      2094      2061      3798
 -1     43852    3    0    1
 -2      9310      6145      7712      9358
 -1     43853    3    0    1
 -2      9310      7712      6145      7117
 -1     43854    3    0    1
 -2      4624      5162      4931      4906
 -1     43855    3    0    1
 -2      4624      4931      5162      4625
 -1     43856    3    0    1
 -2      5512      4457      5513      5501
 -1     43857    3    0    1
 -2      5513      4457      5512      5281
 -1     43858    3    0    1
 -2      5513      6521      5512      5501
 -1     43859    3    0    1
 -2      5512      6521      5513      5281
 -1     43860    3    0    1
 -2      9485      9228      8546      9242
 -1     43861    3    0    1
 -2      8546      9228      9485      9291
 -1     43862    3    0    1
 -2      4925      4600      3813      4689
 -1     43863    3    0    1
 -2      3189      3813      4600      4689
 -1     43864    3    0    1
 -2      1840      3667      1191      2487
 -1     43865    3    0    1
 -2      1840      1191      3667      3591
 -1     43866    3    0    1
 -2      2459      1191      3667      2487
 -1     43867    3    0    1
 -2      2459      3667      1191      3591
 -1     43868    3    0    1
 -2        96       467        52        97
 -1     43869    3    0    1
 -2        52       467        96      1549
 -1     43870    3    0    1
 -2        52      1459        96        97
 -1     43871    3    0    1
 -2        96      1459        52      1549
 -1     43872    3    0    1
 -2      9291      9290      9485      8546
 -1     43873    3    0    1
 -2      9291      9485      9290      9656
 -1     43874    3    0    1
 -2      2759      4322      2176      3910
 -1     43875    3    0    1
 -2      2176      4322      2759      2702
 -1     43876    3    0    1
 -2      6706      6705      6735      6704
 -1     43877    3    0    1
 -2      6706      6735      6705      7458
 -1     43878    3    0    1
 -2      6770      6735      6705      6704
 -1     43879    3    0    1
 -2      6770      6705      6735      7458
 -1     43880    3    0    1
 -2      6344      6498      7270      7255
 -1     43881    3    0    1
 -2      6344      7270      6498      5487
 -1     43882    3    0    1
 -2      3797      2061      4241      2062
 -1     43883    3    0    1
 -2      3797      4241      2061      2619
 -1     43884    3    0    1
 -2      3798      4241      2061      2062
 -1     43885    3    0    1
 -2      3798      2061      4241      2619
 -1     43886    3    0    1
 -2      3460      1705      2411      1754
 -1     43887    3    0    1
 -2      3460      2411      1705      2950
 -1     43888    3    0    1
 -2      7146      6208      8160      8150
 -1     43889    3    0    1
 -2      7146      8160      6208      6207
 -1     43890    3    0    1
 -2      5494      9076      6429      7834
 -1     43891    3    0    1
 -2      5494      6429      9076      6427
 -1     43892    3    0    1
 -2      7261      6429      9076      7834
 -1     43893    3    0    1
 -2      7261      9076      6429      6427
 -1     43894    3    0    1
 -2      6735      6753      8349      6706
 -1     43895    3    0    1
 -2      6735      8349      6753      7508
 -1     43896    3    0    1
 -2      8791      8349      6753      6706
 -1     43897    3    0    1
 -2      8791      6753      8349      7508
 -1     43898    3    0    1
 -2      4056      4047      1775      2413
 -1     43899    3    0    1
 -2      4056      1775      4047      4008
 -1     43900    3    0    1
 -2      2764      1679      1592      1608
 -1     43901    3    0    1
 -2      2764      1592      1679      3398
 -1     43902    3    0    1
 -2      6746      6760      8777      6668
 -1     43903    3    0    1
 -2      6746      8777      6760      7488
 -1     43904    3    0    1
 -2      7987      8777      6760      6668
 -1     43905    3    0    1
 -2      7987      6760      8777      7488
 -1     43906    3    0    1
 -2      1476       451       409      2178
 -1     43907    3    0    1
 -2      1476       409       451       432
 -1     43908    3    0    1
 -2      2094      2578      2061      2093
 -1     43909    3    0    1
 -2      2094      2061      2578      3141
 -1     43910    3    0    1
 -2      2062      2061      2578      2093
 -1     43911    3    0    1
 -2      2062      2578      2061      3141
 -1     43912    3    0    1
 -2       265      1230       264      2468
 -1     43913    3    0    1
 -2       265       264      1230       671
 -1     43914    3    0    1
 -2      3139      2547      2040      1304
 -1     43915    3    0    1
 -2      3139      2040      2547      3138
 -1     43916    3    0    1
 -2      2008      3139      1304      2547
 -1     43917    3    0    1
 -2      1304      3139      2008      1359
 -1     43918    3    0    1
 -2       285       375       287       286
 -1     43919    3    0    1
 -2       285       287       375      2153
 -1     43920    3    0    1
 -2       360       287       375       286
 -1     43921    3    0    1
 -2       360       375       287      2153
 -1     43922    3    0    1
 -2      5202      4910      5207      4922
 -1     43923    3    0    1
 -2      5202      5207      4910      4911
 -1     43924    3    0    1
 -2      4667      5207      4910      4922
 -1     43925    3    0    1
 -2      4667      4910      5207      4911
 -1     43926    3    0    1
 -2      5090      4544      5089      5119
 -1     43927    3    0    1
 -2      5090      5089      4544      4822
 -1     43928    3    0    1
 -2      8345      9151      7949      7915
 -1     43929    3    0    1
 -2      8345      7949      9151      9466
 -1     43930    3    0    1
 -2      9202      7949      9151      7915
 -1     43931    3    0    1
 -2      9202      9151      7949      9466
 -1     43932    3    0    1
 -2      7479      8348      7430      6752
 -1     43933    3    0    1
 -2      7430      8348      7479      8785
 -1     43934    3    0    1
 -2      7430      8337      7479      6752
 -1     43935    3    0    1
 -2      7479      8337      7430      8785
 -1     43936    3    0    1
 -2       183      2940       144       224
 -1     43937    3    0    1
 -2       144      2940       183      2938
 -1     43938    3    0    1
 -2      8125      9577      6148      8124
 -1     43939    3    0    1
 -2      8125      6148      9577      9312
 -1     43940    3    0    1
 -2      7150      6148      9577      8124
 -1     43941    3    0    1
 -2      7150      9577      6148      9312
 -1     43942    3    0    1
 -2      1561      2217      2269      3295
 -1     43943    3    0    1
 -2      1561      2269      2217      1562
 -1     43944    3    0    1
 -2      1048      2936      1730       559
 -1     43945    3    0    1
 -2      1048      1730      2936      2341
 -1     43946    3    0    1
 -2       654       254      1248      3594
 -1     43947    3    0    1
 -2      1248       254       654       681
 -1     43948    3    0    1
 -2       744      2663       329      2614
 -1     43949    3    0    1
 -2       744       329      2663      1439
 -1     43950    3    0    1
 -2       377       329      2663      2614
 -1     43951    3    0    1
 -2       377      2663       329      1439
 -1     43952    3    0    1
 -2      9531      7687      7637      8103
 -1     43953    3    0    1
 -2      8038      6063      7687      9477
 -1     43954    3    0    1
 -2      7687      6063      8038      7637
 -1     43955    3    0    1
 -2      7687      9531      8038      9477
 -1     43956    3    0    1
 -2      8038      9531      7687      7637
 -1     43957    3    0    1
 -2      9484      8102      8090      7635
 -1     43958    3    0    1
 -2      8090      8102      9484      8969
 -1     43959    3    0    1
 -2        82       935        59       472
 -1     43960    3    0    1
 -2        82        59       935      2739
 -1     43961    3    0    1
 -2      2179        59       935       472
 -1     43962    3    0    1
 -2      2179       935        59      2739
 -1     43963    3    0    1
 -2      6650      5682      6008      6734
 -1     43964    3    0    1
 -2      6008      6612      6650      6734
 -1     43965    3    0    1
 -2      6650      6612      6008      6630
 -1     43966    3    0    1
 -2       718      3150      1325      1326
 -1     43967    3    0    1
 -2       718      1325      3150       719
 -1     43968    3    0    1
 -2      9612      9411      7402      9605
 -1     43969    3    0    1
 -2      7402      9411      9612      9623
 -1     43970    3    0    1
 -2       272      3573      2943       255
 -1     43971    3    0    1
 -2       272      2943      3573      3011
 -1     43972    3    0    1
 -2      9342      8122      9039      9322
 -1     43973    3    0    1
 -2      9342      9039      8122      6142
 -1     43974    3    0    1
 -2      7192      9039      8122      9322
 -1     43975    3    0    1
 -2      7192      8122      9039      6142
 -1     43976    3    0    1
 -2      6182      8603      6162      7179
 -1     43977    3    0    1
 -2      6182      6162      8603      7727
 -1     43978    3    0    1
 -2      1784       206       217       233
 -1     43979    3    0    1
 -2       205       206      1784       204
 -1     43980    3    0    1
 -2       205      1784       206       217
 -1     43981    3    0    1
 -2      9643      9455      7408      7463
 -1     43982    3    0    1
 -2      7408      9455      9643      9633
 -1     43983    3    0    1
 -2      1207      1176      1141      1153
 -1     43984    3    0    1
 -2      3610      1176      1207      2466
 -1     43985    3    0    1
 -2      3610      1207      1176      1141
 -1     43986    3    0    1
 -2      8103      8548      9230      9645
 -1     43987    3    0    1
 -2      8103      9531      9230      7637
 -1     43988    3    0    1
 -2      9230      9531      8103      9645
 -1     43989    3    0    1
 -2      7686      9230      8103      8548
 -1     43990    3    0    1
 -2      7686      8103      9230      7637
 -1     43991    3    0    1
 -2      8961      7641      9239      7105
 -1     43992    3    0    1
 -2      8961      9239      7641      9649
 -1     43993    3    0    1
 -2      8292      6570      5926      5925
 -1     43994    3    0    1
 -2      5926      8292      8291      6473
 -1     43995    3    0    1
 -2      8291      8292      5926      5925
 -1     43996    3    0    1
 -2      5926      8291      7309      6473
 -1     43997    3    0    1
 -2      7309      8291      5926      5925
 -1     43998    3    0    1
 -2      5926      7341      8292      6473
 -1     43999    3    0    1
 -2      8292      7341      5926      6570
 -1     44000    3    0    1
 -2       272      3011      2497      2943
 -1     44001    3    0    1
 -2      2497      3011       272      1201
 -1     44002    3    0    1
 -2      1360      3797      2062      2061
 -1     44003    3    0    1
 -2      2062      3797      1360      3815
 -1     44004    3    0    1
 -2      1394      2061      2627      1360
 -1     44005    3    0    1
 -2      1394      2627      2061      2619
 -1     44006    3    0    1
 -2      3797      2627      2061      1360
 -1     44007    3    0    1
 -2      3797      2061      2627      2619
 -1     44008    3    0    1
 -2      6734      8385      9180      8813
 -1     44009    3    0    1
 -2      6734      9180      8385      7974
 -1     44010    3    0    1
 -2      1199      1138      1150       613
 -1     44011    3    0    1
 -2      1199      1150      1138      2978
 -1     44012    3    0    1
 -2      7860      7372      6536      7844
 -1     44013    3    0    1
 -2      6536      7372      7860      7388
 -1     44014    3    0    1
 -2      2144       711      2156      1319
 -1     44015    3    0    1
 -2      2144      2156       711       331
 -1     44016    3    0    1
 -2       330      2156       711      1319
 -1     44017    3    0    1
 -2       330       711      2156       331
 -1     44018    3    0    1
 -2      1429      2664       711      2144
 -1     44019    3    0    1
 -2       711      2664      1429      1344
 -1     44020    3    0    1
 -2       711       331      1429      2144
 -1     44021    3    0    1
 -2      1429       331       711      1344
 -1     44022    3    0    1
 -2      9255      6987      8896      8022
 -1     44023    3    0    1
 -2      7059      8896      6109      6987
 -1     44024    3    0    1
 -2      7059      6109      8896      8521
 -1     44025    3    0    1
 -2      9255      6109      8896      6987
 -1     44026    3    0    1
 -2      9255      8896      6109      8521
 -1     44027    3    0    1
 -2      2763      3291       842      2705
 -1     44028    3    0    1
 -2       842      3291      2763       908
 -1     44029    3    0    1
 -2       842       430      2763      2705
 -1     44030    3    0    1
 -2      2763       430       842       908
 -1     44031    3    0    1
 -2      8692      9076      9112      7834
 -1     44032    3    0    1
 -2      8692      9112      9076      9111
 -1     44033    3    0    1
 -2      7864      9112      9076      7834
 -1     44034    3    0    1
 -2      7864      9076      9112      9111
 -1     44035    3    0    1
 -2      1256      1975      2543      1974
 -1     44036    3    0    1
 -2      3691      1942      1256      2543
 -1     44037    3    0    1
 -2      1256      1942      3691      3677
 -1     44038    3    0    1
 -2      1256      1975      3691      2543
 -1     44039    3    0    1
 -2      3691      1975      1256      3677
 -1     44040    3    0    1
 -2      2923      1713       535      1034
 -1     44041    3    0    1
 -2       535      1713      2923      3558
 -1     44042    3    0    1
 -2      2923       606       535      3558
 -1     44043    3    0    1
 -2       195      2923       535      1034
 -1     44044    3    0    1
 -2       195       535      2923       606
 -1     44045    3    0    1
 -2      1475      1553       879       880
 -1     44046    3    0    1
 -2      9449      5967      6749      6587
 -1     44047    3    0    1
 -2      9449      6749      5967      7947
 -1     44048    3    0    1
 -2       742       791       317      2611
 -1     44049    3    0    1
 -2       742       317       791       319
 -1     44050    3    0    1
 -2       314       317       791      2611
 -1     44051    3    0    1
 -2       314       791       317       319
 -1     44052    3    0    1
 -2      4751      3927      3340      4721
 -1     44053    3    0    1
 -2      4751      3340      3927      4404
 -1     44054    3    0    1
 -2      2045       382       362      2146
 -1     44055    3    0    1
 -2       362       382      2045       338
 -1     44056    3    0    1
 -2      2045       340       362       338
 -1     44057    3    0    1
 -2       126      2918       125       127
 -1     44058    3    0    1
 -2       125      2918       126      3531
 -1     44059    3    0    1
 -2      7930      9109      9123      9136
 -1     44060    3    0    1
 -2      7930      9123      9109      8707
 -1     44061    3    0    1
 -2      1241      3661      1929      1866
 -1     44062    3    0    1
 -2      1241      1929      3661      2512
 -1     44063    3    0    1
 -2      5070      5037      4453      4499
 -1     44064    3    0    1
 -2      4453      5037      5070      5036
 -1     44065    3    0    1
 -2      4453      4452      5070      4499
 -1     44066    3    0    1
 -2      5070      4452      4453      5036
 -1     44067    3    0    1
 -2      9179      7429      5950      6702
 -1     44068    3    0    1
 -2      9179      5950      7429      9440
 -1     44069    3    0    1
 -2      5400      4739      5244      5437
 -1     44070    3    0    1
 -2      5400      4971      4739      4717
 -1     44071    3    0    1
 -2      4739      4971      5400      5244
 -1     44072    3    0    1
 -2      5224      6136      5383      6137
 -1     44073    3    0    1
 -2      5383      6136      5224      5382
 -1     44074    3    0    1
 -2      1668      3446      1667      2329
 -1     44075    3    0    1
 -2      1667      3446      1668      1716
 -1     44076    3    0    1
 -2      8949      8040      8550      9526
 -1     44077    3    0    1
 -2      8949      8550      8040      7035
 -1     44078    3    0    1
 -2      7763      8126      6149      7746
 -1     44079    3    0    1
 -2      8126      8638      7763      6149
 -1     44080    3    0    1
 -2      7763      8638      8126      9010
 -1     44081    3    0    1
 -2       382       338       793      2045
 -1     44082    3    0    1
 -2       382       793       338       337
 -1     44083    3    0    1
 -2       717       793       338      2045
 -1     44084    3    0    1
 -2       717       338       793       337
 -1     44085    3    0    1
 -2      8601      9559      8123      8989
 -1     44086    3    0    1
 -2      8601      8123      9559      9582
 -1     44087    3    0    1
 -2      7117      8123      9559      8989
 -1     44088    3    0    1
 -2      7117      9559      8123      9582
 -1     44089    3    0    1
 -2      7176      6224      7754      7753
 -1     44090    3    0    1
 -2      7754      6224      7176      7229
 -1     44091    3    0    1
 -2      7754      8622      7176      7753
 -1     44092    3    0    1
 -2      7176      8622      7754      7229
 -1     44093    3    0    1
 -2       211      1116       649       648
 -1     44094    3    0    1
 -2       602      3520      1135      2908
 -1     44095    3    0    1
 -2      1135      3520       602      3552
 -1     44096    3    0    1
 -2      3520      3450      1135      2908
 -1     44097    3    0    1
 -2      1135      3450      3520      3552
 -1     44098    3    0    1
 -2      3520      3494      3450      2908
 -1     44099    3    0    1
 -2      3450      3494      3520      3552
 -1     44100    3    0    1
 -2       298      3180      1332      1293
 -1     44101    3    0    1
 -2       298      1332      3180      1349
 -1     44102    3    0    1
 -2      3065      1212      1263      2469
 -1     44103    3    0    1
 -2      3065      1263      1212      1900
 -1     44104    3    0    1
 -2      2198      2703       879      1475
 -1     44105    3    0    1
 -2      2198       879      2703      3289
 -1     44106    3    0    1
 -2      1553       879      2703      1475
 -1     44107    3    0    1
 -2      1553      2703       879      3289
 -1     44108    3    0    1
 -2      8519      8518      5740      8930
 -1     44109    3    0    1
 -2      5740      8518      8519      8061
 -1     44110    3    0    1
 -2      5740      8035      8519      8930
 -1     44111    3    0    1
 -2      8519      8035      5740      8061
 -1     44112    3    0    1
 -2      2115       275         9      1444
 -1     44113    3    0    1
 -2      2115         9       275      1336
 -1     44114    3    0    1
 -2         7      2115         9      1444
 -1     44115    3    0    1
 -2         7         9      2115      1336
 -1     44116    3    0    1
 -2       363      2115         7      1444
 -1     44117    3    0    1
 -2       363         7      2115      1336
 -1     44118    3    0    1
 -2      1336      2610       786      2115
 -1     44119    3    0    1
 -2       786      2610      1336       274
 -1     44120    3    0    1
 -2       786       275      1336      2115
 -1     44121    3    0    1
 -2      1336       275       786       274
 -1     44122    3    0    1
 -2       615      3040      1890      3606
 -1     44123    3    0    1
 -2       615      1890      3040      1204
 -1     44124    3    0    1
 -2      4329      4328      3277      3850
 -1     44125    3    0    1
 -2      4329      3277      4328      2748
 -1     44126    3    0    1
 -2      2694      3277      4328      3850
 -1     44127    3    0    1
 -2      2694      4328      3277      2748
 -1     44128    3    0    1
 -2      3569      3029      3630      3056
 -1     44129    3    0    1
 -2      3569      3630      3029      3552
 -1     44130    3    0    1
 -2      2790      1525      2722      1526
 -1     44131    3    0    1
 -2      2722      1525      2790      3901
 -1     44132    3    0    1
 -2      2722      3300      3931      1526
 -1     44133    3    0    1
 -2      3931      3300      2722      3901
 -1     44134    3    0    1
 -2      2790      2722      3931      1526
 -1     44135    3    0    1
 -2      3931      2722      2790      3901
 -1     44136    3    0    1
 -2      5634      6008      6650      5682
 -1     44137    3    0    1
 -2      6650      6008      5634      6630
 -1     44138    3    0    1
 -2      7355      5527      6550      6520
 -1     44139    3    0    1
 -2      7355      5952      5527      6579
 -1     44140    3    0    1
 -2      5527      5952      7355      6550
 -1     44141    3    0    1
 -2      6763      7421      7525      8373
 -1     44142    3    0    1
 -2      6763      7525      7421      6684
 -1     44143    3    0    1
 -2      3620       253      3554       251
 -1     44144    3    0    1
 -2      3620      3554       253      2976
 -1     44145    3    0    1
 -2      4397      4705      3859      3327
 -1     44146    3    0    1
 -2      3859      4705      4397      4704
 -1     44147    3    0    1
 -2      8553      9494      9236      9248
 -1     44148    3    0    1
 -2      8553      9236      9494      9295
 -1     44149    3    0    1
 -2      9192      7453      7502      6731
 -1     44150    3    0    1
 -2      7993      7502      8354      7453
 -1     44151    3    0    1
 -2      7993      8354      7502      9191
 -1     44152    3    0    1
 -2      9192      8354      7502      7453
 -1     44153    3    0    1
 -2      9192      7502      8354      9191
 -1     44154    3    0    1
 -2       611       211      1116       649
 -1     44155    3    0    1
 -2       611      1116       211       556
 -1     44156    3    0    1
 -2      6569      7340      8317      6471
 -1     44157    3    0    1
 -2      6569      8317      7340      7898
 -1     44158    3    0    1
 -2      7916      7957      5971      7476
 -1     44159    3    0    1
 -2      5971      9166      7916      7917
 -1     44160    3    0    1
 -2      7916      9166      5971      7957
 -1     44161    3    0    1
 -2      5510      4802      4455      5266
 -1     44162    3    0    1
 -2      5510      4455      4802      5039
 -1     44163    3    0    1
 -2      5709      5777      7052      6948
 -1     44164    3    0    1
 -2      7052      5777      5709      5736
 -1     44165    3    0    1
 -2      7052      6947      5709      6948
 -1     44166    3    0    1
 -2      5709      6947      7052      5736
 -1     44167    3    0    1
 -2      1086      1130       991       584
 -1     44168    3    0    1
 -2      3483       991      1783      1130
 -1     44169    3    0    1
 -2      3483      1783       991      1706
 -1     44170    3    0    1
 -2      1086      1783       991      1130
 -1     44171    3    0    1
 -2      1086       991      1783      1706
 -1     44172    3    0    1
 -2      2875      2914      4498      3545
 -1     44173    3    0    1
 -2      2875      4498      2914      3457
 -1     44174    3    0    1
 -2      8346      5971      6694      9166
 -1     44175    3    0    1
 -2      8346      6694      5971      6692
 -1     44176    3    0    1
 -2      8515      8925      7628      7668
 -1     44177    3    0    1
 -2      7628      8925      8515      8504
 -1     44178    3    0    1
 -2      7628      7627      8515      7668
 -1     44179    3    0    1
 -2      8515      7627      7628      8504
 -1     44180    3    0    1
 -2      7305      8734      8763      9124
 -1     44181    3    0    1
 -2      8763      8734      7305      5935
 -1     44182    3    0    1
 -2      8763      6625      7305      9124
 -1     44183    3    0    1
 -2      7305      6625      8763      5935
 -1     44184    3    0    1
 -2       302      2653      2148      1338
 -1     44185    3    0    1
 -2      2148      2653       302       788
 -1     44186    3    0    1
 -2      1650      2837      2293      1615
 -1     44187    3    0    1
 -2      1650      2293      2837      3977
 -1     44188    3    0    1
 -2      9431      6612      9622      9632
 -1     44189    3    0    1
 -2      9622      6612      6573      6629
 -1     44190    3    0    1
 -2      9622      6573      6612      9603
 -1     44191    3    0    1
 -2      9603      6612      9431      9139
 -1     44192    3    0    1
 -2      9603      9431      6612      9622
 -1     44193    3    0    1
 -2      2128      2102      3770      1354
 -1     44194    3    0    1
 -2      2128      3770      2102      3224
 -1     44195    3    0    1
 -2      3157      3770      2102      1354
 -1     44196    3    0    1
 -2      3157      2102      3770      3224
 -1     44197    3    0    1
 -2      1991      3651      2517      1252
 -1     44198    3    0    1
 -2      1991      2517      3651      3673
 -1     44199    3    0    1
 -2      3651      1991      2518      1969
 -1     44200    3    0    1
 -2      3651      2518      1991      3673
 -1     44201    3    0    1
 -2      5886      5919      7369      5885
 -1     44202    3    0    1
 -2      7369      5919      5886      6534
 -1     44203    3    0    1
 -2      7369      8313      5886      5885
 -1     44204    3    0    1
 -2      5886      8313      7369      6534
 -1     44205    3    0    1
 -2       910      2163      3355      2708
 -1     44206    3    0    1
 -2       910      3355      2163      2240
 -1     44207    3    0    1
 -2      3331      3355      2163      2708
 -1     44208    3    0    1
 -2      3331      2163      3355      2240
 -1     44209    3    0    1
 -2      3364      3310       849      2717
 -1     44210    3    0    1
 -2       849      3310      3364       925
 -1     44211    3    0    1
 -2       849       444      3364      2717
 -1     44212    3    0    1
 -2      3364       444       849       925
 -1     44213    3    0    1
 -2      4338      2712      3337      2773
 -1     44214    3    0    1
 -2      4338      3337      2712      3872
 -1     44215    3    0    1
 -2      1424      1323      1378       749
 -1     44216    3    0    1
 -2      1378      1323      1424      2018
 -1     44217    3    0    1
 -2      1970      1267      1971      2542
 -1     44218    3    0    1
 -2      1970      1971      1267      1253
 -1     44219    3    0    1
 -2      9532      9486      8549      8970
 -1     44220    3    0    1
 -2      8549      9486      9532      9646
 -1     44221    3    0    1
 -2      7536      6042      8839      8401
 -1     44222    3    0    1
 -2      7536      8839      6042      6781
 -1     44223    3    0    1
 -2      7491      8839      6042      8401
 -1     44224    3    0    1
 -2      7491      6042      8839      6781
 -1     44225    3    0    1
 -2      4383      4944      3917      3319
 -1     44226    3    0    1
 -2      3917      4944      4383      4347
 -1     44227    3    0    1
 -2      8467      7027      6078      6080
 -1     44228    3    0    1
 -2      6078      7027      8467      7647
 -1     44229    3    0    1
 -2      3804      4246      2082      2624
 -1     44230    3    0    1
 -2      2082      4246      3804      3821
 -1     44231    3    0    1
 -2      2082      2632      3804      2624
 -1     44232    3    0    1
 -2      3804      2632      2082      3821
 -1     44233    3    0    1
 -2      4587      4839      4588      5115
 -1     44234    3    0    1
 -2      4588      4839      4587      4550
 -1     44235    3    0    1
 -2      5760      4642      5330      5362
 -1     44236    3    0    1
 -2      5760      5330      4642      4913
 -1     44237    3    0    1
 -2      3227      4257      4940      4256
 -1     44238    3    0    1
 -2      3227      4940      4257      3814
 -1     44239    3    0    1
 -2      1495       925       849       445
 -1     44240    3    0    1
 -2      1495       849       925      2715
 -1     44241    3    0    1
 -2      5063      5256      5906      5270
 -1     44242    3    0    1
 -2      5045      5505      5063      5256
 -1     44243    3    0    1
 -2      5045      5063      5505      5485
 -1     44244    3    0    1
 -2      5906      5063      5505      5256
 -1     44245    3    0    1
 -2      5906      5505      5063      5485
 -1     44246    3    0    1
 -2      7176      7175      7121      8643
 -1     44247    3    0    1
 -2      7121      7175      7176      6223
 -1     44248    3    0    1
 -2      7176      7753      7121      6223
 -1     44249    3    0    1
 -2      9027      7121      7176      7753
 -1     44250    3    0    1
 -2      9027      7176      7121      8643
 -1     44251    3    0    1
 -2      4562      4830      3036      4563
 -1     44252    3    0    1
 -2      4562      3036      4830      4831
 -1     44253    3    0    1
 -2         6        79      1456      2161
 -1     44254    3    0    1
 -2      1456        79         6         5
 -1     44255    3    0    1
 -2      2706      4709      4708      4947
 -1     44256    3    0    1
 -2      4708      4709      2706      4372
 -1     44257    3    0    1
 -2      4708      4357      2706      4947
 -1     44258    3    0    1
 -2      2706      4357      4708      4372
 -1     44259    3    0    1
 -2       850      3320      2206      1480
 -1     44260    3    0    1
 -2       850      2206      3320      2249
 -1     44261    3    0    1
 -2      3226       703      3190      1432
 -1     44262    3    0    1
 -2      3226      3190       703      2058
 -1     44263    3    0    1
 -2       703      3226       733      1413
 -1     44264    3    0    1
 -2       703       733      3226      2058
 -1     44265    3    0    1
 -2      1413      3226      1432       703
 -1     44266    3    0    1
 -2      1432      3226      1413      2640
 -1     44267    3    0    1
 -2      2722      1489      1526      1525
 -1     44268    3    0    1
 -2       913      1489      1526      1563
 -1     44269    3    0    1
 -2       913      1526      1489      1525
 -1     44270    3    0    1
 -2      3300      1526      1489      1563
 -1     44271    3    0    1
 -2      3300      1489      1526      2722
 -1     44272    3    0    1
 -2      3204      1983      2571      1982
 -1     44273    3    0    1
 -2      3204      2571      1983      2048
 -1     44274    3    0    1
 -2      4210      1966      3145      2569
 -1     44275    3    0    1
 -2      4210      3145      1966      1990
 -1     44276    3    0    1
 -2      2459      1148      2972      2971
 -1     44277    3    0    1
 -2      2459      2972      1148      1192
 -1     44278    3    0    1
 -2      1137      2972      1148      2971
 -1     44279    3    0    1
 -2      1137      1148      2972      1192
 -1     44280    3    0    1
 -2      3032      2977      3002      3031
 -1     44281    3    0    1
 -2      3002      2977      3032      3571
 -1     44282    3    0    1
 -2      3002      4107      3032      3031
 -1     44283    3    0    1
 -2      3032      4107      3002      3571
 -1     44284    3    0    1
 -2      6990      8471      8470      6957
 -1     44285    3    0    1
 -2      8470      7062      8471      6990
 -1     44286    3    0    1
 -2      8471      7062      8470      8900
 -1     44287    3    0    1
 -2      1296      3120      1297      2003
 -1     44288    3    0    1
 -2      1337      3120      1296      3186
 -1     44289    3    0    1
 -2      1337      1296      3120      1297
 -1     44290    3    0    1
 -2      2913      4085      2945      2944
 -1     44291    3    0    1
 -2      2945      4085      2913      4064
 -1     44292    3    0    1
 -2      2690       419       456       890
 -1     44293    3    0    1
 -2       456       419      2690      1471
 -1     44294    3    0    1
 -2      1546      2284      3371      3348
 -1     44295    3    0    1
 -2      3371      2284      1546       957
 -1     44296    3    0    1
 -2      3371      2805      1546      3348
 -1     44297    3    0    1
 -2      1546      2805      3371       957
 -1     44298    3    0    1
 -2      6252      7762      7217      6208
 -1     44299    3    0    1
 -2      6252      7217      7762      8190
 -1     44300    3    0    1
 -2      6286      7217      7762      6208
 -1     44301    3    0    1
 -2      6286      7762      7217      8190
 -1     44302    3    0    1
 -2      6286      8160      6208      7762
 -1     44303    3    0    1
 -2      6208      8160      6286      8189
 -1     44304    3    0    1
 -2      6171      5453      6251      5235
 -1     44305    3    0    1
 -2      6171      6251      5453      6274
 -1     44306    3    0    1
 -2      7224      9072      8223      7778
 -1     44307    3    0    1
 -2      7224      8223      9072      8224
 -1     44308    3    0    1
 -2      8050      7083      8111      8085
 -1     44309    3    0    1
 -2      8050      8111      7083      7663
 -1     44310    3    0    1
 -2      1893      3608      4184      2436
 -1     44311    3    0    1
 -2      1894      4184      3608      3085
 -1     44312    3    0    1
 -2      1894      3608      4184      1893
 -1     44313    3    0    1
 -2      8673      6222      7225      8641
 -1     44314    3    0    1
 -2      7225      6222      8673      7197
 -1     44315    3    0    1
 -2      3189      4925      3813      4304
 -1     44316    3    0    1
 -2      3813      4925      3189      4600
 -1     44317    3    0    1
 -2      4246      2082      3805      3147
 -1     44318    3    0    1
 -2      4246      3805      2082      2624
 -1     44319    3    0    1
 -2      6397      5479      8244      7281
 -1     44320    3    0    1
 -2      8236      7831      5479      6376
 -1     44321    3    0    1
 -2      5479      7831      8236      8244
 -1     44322    3    0    1
 -2      5479      6397      8236      6376
 -1     44323    3    0    1
 -2      8236      6397      5479      8244
 -1     44324    3    0    1
 -2      8534      8081      8916      8937
 -1     44325    3    0    1
 -2      8916      8081      8534      7677
 -1     44326    3    0    1
 -2      8534      8492      8916      7677
 -1     44327    3    0    1
 -2      8916      9518      8534      8937
 -1     44328    3    0    1
 -2      8916      8534      9518      8492
 -1     44329    3    0    1
 -2      5960      8836      7465      5650
 -1     44330    3    0    1
 -2      5960      7465      8836      8792
 -1     44331    3    0    1
 -2      7142      7189      8183      6199
 -1     44332    3    0    1
 -2      7142      8183      7189      8184
 -1     44333    3    0    1
 -2      2966      1160       601      1826
 -1     44334    3    0    1
 -2      2968       644      2966      1866
 -1     44335    3    0    1
 -2      2968      2966       644       601
 -1     44336    3    0    1
 -2      1160      2966       644      1866
 -1     44337    3    0    1
 -2      1160       644      2966       601
 -1     44338    3    0    1
 -2      4146      1853      3600      3060
 -1     44339    3    0    1
 -2      4146      3600      1853      2431
 -1     44340    3    0    1
 -2      6909      8460      6063      9217
 -1     44341    3    0    1
 -2      6909      6063      8460      6991
 -1     44342    3    0    1
 -2      7671      6063      8460      9217
 -1     44343    3    0    1
 -2      7671      8460      6063      6991
 -1     44344    3    0    1
 -2      3765      2083      2636      4248
 -1     44345    3    0    1
 -2      3765      2636      2083      1382
 -1     44346    3    0    1
 -2      7230      7801      5837      8164
 -1     44347    3    0    1
 -2      7230      5837      7801      6333
 -1     44348    3    0    1
 -2      5836      7801      5837      6333
 -1     44349    3    0    1
 -2      7801      5835      5837      8164
 -1     44350    3    0    1
 -2      5837      5835      7801      5836
 -1     44351    3    0    1
 -2      3755      2066      2105      4243
 -1     44352    3    0    1
 -2      3755      2105      2066      1364
 -1     44353    3    0    1
 -2      3022      1850      1825      1159
 -1     44354    3    0    1
 -2      1825      1850      3022      3586
 -1     44355    3    0    1
 -2      1825      1810      3022      1159
 -1     44356    3    0    1
 -2      3022      1810      1825      3586
 -1     44357    3    0    1
 -2      3743      2665      2077      2595
 -1     44358    3    0    1
 -2      3743      2077      2665      3196
 -1     44359    3    0    1
 -2      8147      6181      6234      6267
 -1     44360    3    0    1
 -2      8147      6234      6181      7158
 -1     44361    3    0    1
 -2      1313      1312       285       708
 -1     44362    3    0    1
 -2      1313       285      1312      3776
 -1     44363    3    0    1
 -2       320       285      1312       708
 -1     44364    3    0    1
 -2       320      1312       285      3776
 -1     44365    3    0    1
 -2      4231      2013      3128      3696
 -1     44366    3    0    1
 -2      4231      3128      2013      3100
 -1     44367    3    0    1
 -2      2593      3741      3726      4237
 -1     44368    3    0    1
 -2      3802      3726      2593      3741
 -1     44369    3    0    1
 -2      3802      2593      3726      2622
 -1     44370    3    0    1
 -2      2718      2801      1500      1541
 -1     44371    3    0    1
 -2      2718      1500      2801      3893
 -1     44372    3    0    1
 -2      8311      8719      7322      8271
 -1     44373    3    0    1
 -2      6455      5879      8311      7322
 -1     44374    3    0    1
 -2      8311      5879      6455      6529
 -1     44375    3    0    1
 -2      8311      8719      6455      7322
 -1     44376    3    0    1
 -2      6455      8719      8311      6529
 -1     44377    3    0    1
 -2      1775      2901      2881      4056
 -1     44378    3    0    1
 -2      1775      2881      2901      2383
 -1     44379    3    0    1
 -2      1091      1775      3485      1761
 -1     44380    3    0    1
 -2      1091      3485      1775      2413
 -1     44381    3    0    1
 -2      2901      1775      3485      2413
 -1     44382    3    0    1
 -2      1775      2383      3485      1761
 -1     44383    3    0    1
 -2      3485      2383      1775      2901
 -1     44384    3    0    1
 -2      5955      6558      9412      8713
 -1     44385    3    0    1
 -2      5955      9412      6558      7882
 -1     44386    3    0    1
 -2      9383      9412      6558      8713
 -1     44387    3    0    1
 -2      9383      6558      9412      7882
 -1     44388    3    0    1
 -2      2252      2251      3889      3365
 -1     44389    3    0    1
 -2      2252      3889      2251      1523
 -1     44390    3    0    1
 -2      1524      2251      3889      1523
 -1     44391    3    0    1
 -2      2251      2207      3889      3365
 -1     44392    3    0    1
 -2      3889      2207      2251      1524
 -1     44393    3    0    1
 -2      8787      6707      7434      7940
 -1     44394    3    0    1
 -2      8787      7434      6707      7480
 -1     44395    3    0    1
 -2      8981      9498      9661      9651
 -1     44396    3    0    1
 -2      8981      9661      9498      9297
 -1     44397    3    0    1
 -2      3645      4098      3625      3021
 -1     44398    3    0    1
 -2      3625      4098      3645      4543
 -1     44399    3    0    1
 -2      3625      3005      3645      3021
 -1     44400    3    0    1
 -2      3645      3005      3625      4543
 -1     44401    3    0    1
 -2      9671      9615      9397      9586
 -1     44402    3    0    1
 -2      9671      6599      9397      9134
 -1     44403    3    0    1
 -2      9397      6599      9671      9586
 -1     44404    3    0    1
 -2      9626      9397      9671      9615
 -1     44405    3    0    1
 -2      9626      9671      9397      9134
 -1     44406    3    0    1
 -2      5844      9008      7146      7776
 -1     44407    3    0    1
 -2      5844      7146      9008      7742
 -1     44408    3    0    1
 -2      8160      7146      9008      7776
 -1     44409    3    0    1
 -2      8160      9008      7146      7742
 -1     44410    3    0    1
 -2      2064      4242      3817      2063
 -1     44411    3    0    1
 -2      2064      3817      4242      3213
 -1     44412    3    0    1
 -2      1417      2028       759      2119
 -1     44413    3    0    1
 -2       759      2028      1417      1366
 -1     44414    3    0    1
 -2      7122      7721      7156      7771
 -1     44415    3    0    1
 -2      7122      7156      7721      7720
 -1     44416    3    0    1
 -2       174      2961      2962      2963
 -1     44417    3    0    1
 -2       174      2962      2961       129
 -1     44418    3    0    1
 -2      7253      5245      7323      7266
 -1     44419    3    0    1
 -2      7323      5245      7253      7283
 -1     44420    3    0    1
 -2      2712      3336       885      2711
 -1     44421    3    0    1
 -2       885      3336      2712      1596
 -1     44422    3    0    1
 -2       885       869      2712      2711
 -1     44423    3    0    1
 -2      2712       869       885      1596
 -1     44424    3    0    1
 -2      8216      6313      6312      7258
 -1     44425    3    0    1
 -2      6312      6313      8216      7212
 -1     44426    3    0    1
 -2      3897      1552      3287      3286
 -1     44427    3    0    1
 -2      3897      3287      1552      2264
 -1     44428    3    0    1
 -2      4346      4722      3342      3363
 -1     44429    3    0    1
 -2      3342      4722      4346      4324
 -1     44430    3    0    1
 -2      4722      2797      3342      3363
 -1     44431    3    0    1
 -2      3342      2797      4722      4324
 -1     44432    3    0    1
 -2      4722      3883      2797      3363
 -1     44433    3    0    1
 -2      2797      3883      4722      4324
 -1     44434    3    0    1
 -2       771      3161      1358      1394
 -1     44435    3    0    1
 -2       771      1358      3161      3139
 -1     44436    3    0    1
 -2      1359      1358      3161      1394
 -1     44437    3    0    1
 -2      1359      3161      1358      3139
 -1     44438    3    0    1
 -2      7962      8818      7985      6739
 -1     44439    3    0    1
 -2      7985      8818      7962      9207
 -1     44440    3    0    1
 -2      2845      3953      2312      1657
 -1     44441    3    0    1
 -2      2845      2312      3953      3411
 -1     44442    3    0    1
 -2      3025      1954      1870      3663
 -1     44443    3    0    1
 -2      1870      1954      3025      1243
 -1     44444    3    0    1
 -2      7754      7801      6224      7229
 -1     44445    3    0    1
 -2      7754      6224      7801      7155
 -1     44446    3    0    1
 -2      8318      6479      6480      6478
 -1     44447    3    0    1
 -2      6480      6479      8318      6546
 -1     44448    3    0    1
 -2      4651      3186      3769      3185
 -1     44449    3    0    1
 -2      4651      3769      3186      3120
 -1     44450    3    0    1
 -2       361      2045       362      2146
 -1     44451    3    0    1
 -2       362      2045       361       340
 -1     44452    3    0    1
 -2      9609      6537      7914      7404
 -1     44453    3    0    1
 -2      9609      7914      6537      9583
 -1     44454    3    0    1
 -2       590       591      3473      2937
 -1     44455    3    0    1
 -2      3473       591       590       525
 -1     44456    3    0    1
 -2      3473      3553       590      2937
 -1     44457    3    0    1
 -2       590      3553      3473       525
 -1     44458    3    0    1
 -2       590      2937      1119       591
 -1     44459    3    0    1
 -2       590      1119      2937      1137
 -1     44460    3    0    1
 -2       320       374      1436      2143
 -1     44461    3    0    1
 -2      1436       374       320       321
 -1     44462    3    0    1
 -2       700       766      1338      1445
 -1     44463    3    0    1
 -2       700      1338       766       729
 -1     44464    3    0    1
 -2       727      1338       766      1445
 -1     44465    3    0    1
 -2       727       766      1338       729
 -1     44466    3    0    1
 -2       724      2147       388      2114
 -1     44467    3    0    1
 -2       388      2147       724       354
 -1     44468    3    0    1
 -2       388       355       724      2114
 -1     44469    3    0    1
 -2       724       355       388       354
 -1     44470    3    0    1
 -2      1316       329       328      2614
 -1     44471    3    0    1
 -2       328       329      1316       325
 -1     44472    3    0    1
 -2       328       327      1316      2614
 -1     44473    3    0    1
 -2      1316       327       328       325
 -1     44474    3    0    1
 -2      4560      4845      4844      5081
 -1     44475    3    0    1
 -2      4560      4844      4845      5127
 -1     44476    3    0    1
 -2      5661      4844      4845      5081
 -1     44477    3    0    1
 -2      5661      4845      4844      5127
 -1     44478    3    0    1
 -2       205      1762      1784      2399
 -1     44479    3    0    1
 -2       543       205      1784       204
 -1     44480    3    0    1
 -2       543      1784       205      1762
 -1     44481    3    0    1
 -2      2979       149      1138       593
 -1     44482    3    0    1
 -2      2979      1138       149      1049
 -1     44483    3    0    1
 -2       592       593      1138       149
 -1     44484    3    0    1
 -2       592      1138       593      1098
 -1     44485    3    0    1
 -2      1049      1074      1138       149
 -1     44486    3    0    1
 -2      1049      1138      1074      1098
 -1     44487    3    0    1
 -2      1074       592      1138       149
 -1     44488    3    0    1
 -2      1074      1138       592      1098
 -1     44489    3    0    1
 -2      1024       571       189      2910
 -1     44490    3    0    1
 -2       189       571      1024       156
 -1     44491    3    0    1
 -2       189       154      1024      2910
 -1     44492    3    0    1
 -2      1024       154       189       156
 -1     44493    3    0    1
 -2       977      2797      1597      1575
 -1     44494    3    0    1
 -2       977      1597      2797      1598
 -1     44495    3    0    1
 -2      3936      1530      1581      2781
 -1     44496    3    0    1
 -2      3936      1581      1530      2277
 -1     44497    3    0    1
 -2      2678      2733      3323      2167
 -1     44498    3    0    1
 -2      2678      3323      2733      2734
 -1     44499    3    0    1
 -2       457      3323      2733      2167
 -1     44500    3    0    1
 -2       457      2733      3323      2734
 -1     44501    3    0    1
 -2      1670      1064       550      3468
 -1     44502    3    0    1
 -2       550      1064      1670      1044
 -1     44503    3    0    1
 -2      1670       550       549      3468
 -1     44504    3    0    1
 -2       549       550      1670      1044
 -1     44505    3    0    1
 -2      1670       549       999      3468
 -1     44506    3    0    1
 -2       999       549      1670      1044
 -1     44507    3    0    1
 -2      1552       862      1551      3287
 -1     44508    3    0    1
 -2      1551       862      1552       878
 -1     44509    3    0    1
 -2      3417      1629      3971      2331
 -1     44510    3    0    1
 -2      3971      1629      3417      3416
 -1     44511    3    0    1
 -2      3452      3397      1631      1699
 -1     44512    3    0    1
 -2      1631      3397      3452      2851
 -1     44513    3    0    1
 -2      1631      1010      3452      1699
 -1     44514    3    0    1
 -2      3452      1010      1631      2851
 -1     44515    3    0    1
 -2      1738      1634      1015      1662
 -1     44516    3    0    1
 -2      1738      1015      1634      3420
 -1     44517    3    0    1
 -2      2349      2904      3514      3992
 -1     44518    3    0    1
 -2      2349      1718      3514      1780
 -1     44519    3    0    1
 -2      3514      1718      2349      3992
 -1     44520    3    0    1
 -2      1787      2349      3514      1780
 -1     44521    3    0    1
 -2      1787      3514      2349      2904
 -1     44522    3    0    1
 -2      3592      1876      2998      2419
 -1     44523    3    0    1
 -2      3592      2998      1876      2489
 -1     44524    3    0    1
 -2      2040      4290      1433      2657
 -1     44525    3    0    1
 -2      2040      3228      4290      3736
 -1     44526    3    0    1
 -2      4290      3228      2040      1433
 -1     44527    3    0    1
 -2      4242      2581      2064      3213
 -1     44528    3    0    1
 -2      2064      2581      4242      2580
 -1     44529    3    0    1
 -2      1445       364       700       301
 -1     44530    3    0    1
 -2      1445       700       364      2148
 -1     44531    3    0    1
 -2      4187      1859      1904      3659
 -1     44532    3    0    1
 -2      4187      1904      1859      2511
 -1     44533    3    0    1
 -2       254      2975       225       627
 -1     44534    3    0    1
 -2       254       225      2975      2976
 -1     44535    3    0    1
 -2       680      3055      1246      3029
 -1     44536    3    0    1
 -2       680      1246      3055      1933
 -1     44537    3    0    1
 -2      3580      1857      2423      2417
 -1     44538    3    0    1
 -2      3580      2423      1857      2470
 -1     44539    3    0    1
 -2      6059      7532      6906      6047
 -1     44540    3    0    1
 -2      6906      7532      6059      8008
 -1     44541    3    0    1
 -2      6643      4827      5629      5646
 -1     44542    3    0    1
 -2      6643      5629      4827      5293
 -1     44543    3    0    1
 -2      7471      8433      6784      7548
 -1     44544    3    0    1
 -2      7471      6784      8433      6825
 -1     44545    3    0    1
 -2      6783      6784      8433      7548
 -1     44546    3    0    1
 -2      6783      8433      6784      6825
 -1     44547    3    0    1
 -2      5988      8364      8341      7447
 -1     44548    3    0    1
 -2      5988      8341      8364      7484
 -1     44549    3    0    1
 -2      7951      8793      6635      9445
 -1     44550    3    0    1
 -2      7951      6635      8793      6715
 -1     44551    3    0    1
 -2      6581      6635      8793      9445
 -1     44552    3    0    1
 -2      6581      8793      6635      6715
 -1     44553    3    0    1
 -2      6380      6164      7239      8659
 -1     44554    3    0    1
 -2      6380      7239      6164      6341
 -1     44555    3    0    1
 -2      6295      6294      7252      6377
 -1     44556    3    0    1
 -2      6295      7252      6294      7203
 -1     44557    3    0    1
 -2      7838      5938      6598      6618
 -1     44558    3    0    1
 -2      7838      6598      5938      5904
 -1     44559    3    0    1
 -2      6497      6498      5561      6562
 -1     44560    3    0    1
 -2      5487      6497      5561      5250
 -1     44561    3    0    1
 -2      5487      5561      6497      6498
 -1     44562    3    0    1
 -2      5273      5019      4081      5049
 -1     44563    3    0    1
 -2      5273      4081      5019      5065
 -1     44564    3    0    1
 -2      6354      7272      6356      6355
 -1     44565    3    0    1
 -2      6354      6356      7272      8231
 -1     44566    3    0    1
 -2      5792      8605      5467      8630
 -1     44567    3    0    1
 -2      5792      5467      8605      7702
 -1     44568    3    0    1
 -2      9037      5467      8605      8630
 -1     44569    3    0    1
 -2      9037      8605      5467      7702
 -1     44570    3    0    1
 -2      7859      7246      7284      5488
 -1     44571    3    0    1
 -2      7859      7284      7246      8246
 -1     44572    3    0    1
 -2      9556      8577      7707      8579
 -1     44573    3    0    1
 -2      7707      8577      9556      9353
 -1     44574    3    0    1
 -2      7707      9341      9556      8579
 -1     44575    3    0    1
 -2      9556      9341      7707      9353
 -1     44576    3    0    1
 -2      8828      6626      9190      8807
 -1     44577    3    0    1
 -2      8828      9190      6626      8354
 -1     44578    3    0    1
 -2      5496      7829      5861      6410
 -1     44579    3    0    1
 -2      5496      5861      7829      7828
 -1     44580    3    0    1
 -2      7310      7830      6410      5496
 -1     44581    3    0    1
 -2      6410      7830      7310      8682
 -1     44582    3    0    1
 -2      6410      7829      7310      5496
 -1     44583    3    0    1
 -2      7310      7829      6410      8682
 -1     44584    3    0    1
 -2      7919      6632      6653      6615
 -1     44585    3    0    1
 -2      7919      6653      6632      6737
 -1     44586    3    0    1
 -2      5614      6653      6632      6615
 -1     44587    3    0    1
 -2      5614      6632      6653      6737
 -1     44588    3    0    1
 -2      6203      8607      6171      8187
 -1     44589    3    0    1
 -2      6203      6171      8607      7739
 -1     44590    3    0    1
 -2      6145      9069      8636      9358
 -1     44591    3    0    1
 -2      8636      9069      6145      6253
 -1     44592    3    0    1
 -2      6212      7744      7745      8615
 -1     44593    3    0    1
 -2      6212      7745      7744      7166
 -1     44594    3    0    1
 -2      4449      5497      5531      5059
 -1     44595    3    0    1
 -2      5531      5497      4449      5034
 -1     44596    3    0    1
 -2      4449      5531      5068      5059
 -1     44597    3    0    1
 -2      5068      5531      4449      5034
 -1     44598    3    0    1
 -2      4449      5068      4448      5059
 -1     44599    3    0    1
 -2      4448      5068      4449      5034
 -1     44600    3    0    1
 -2      2914      1749      3544      1792
 -1     44601    3    0    1
 -2      2914      3544      1749      2375
 -1     44602    3    0    1
 -2      6232      5805      7724      7124
 -1     44603    3    0    1
 -2      6232      7724      5805      6178
 -1     44604    3    0    1
 -2      9359      8591      8590      6262
 -1     44605    3    0    1
 -2      9359      8590      8591      9302
 -1     44606    3    0    1
 -2      6262      8591      9578      9359
 -1     44607    3    0    1
 -2      9578      8591      6262      7719
 -1     44608    3    0    1
 -2      8641      8130      9345      6154
 -1     44609    3    0    1
 -2      8641      9345      8130      9327
 -1     44610    3    0    1
 -2      9670      6608      5950      6594
 -1     44611    3    0    1
 -2      7428      9670      6608      5950
 -1     44612    3    0    1
 -2      7428      6608      9670      9673
 -1     44613    3    0    1
 -2      8099      9270      7680      8536
 -1     44614    3    0    1
 -2      8099      7680      9270      8887
 -1     44615    3    0    1
 -2      5161      6065      5726      5699
 -1     44616    3    0    1
 -2      5161      5726      6065      5771
 -1     44617    3    0    1
 -2      7972      7431      8775      8786
 -1     44618    3    0    1
 -2      7972      8775      7431      7432
 -1     44619    3    0    1
 -2      2989      1924       264       669
 -1     44620    3    0    1
 -2      2989       264      1924      2453
 -1     44621    3    0    1
 -2      3182      3829      1389      2039
 -1     44622    3    0    1
 -2      1389      3829      3182      3830
 -1     44623    3    0    1
 -2      1389      1350      3182      2039
 -1     44624    3    0    1
 -2      3182      1350      1389      3830
 -1     44625    3    0    1
 -2       295      1330       297      1349
 -1     44626    3    0    1
 -2       295       297      1330       722
 -1     44627    3    0    1
 -2      2631      2015      3197      2044
 -1     44628    3    0    1
 -2      3197      3198      2631      2644
 -1     44629    3    0    1
 -2      2631      3198      3197      2015
 -1     44630    3    0    1
 -2       745      2015      1430      1402
 -1     44631    3    0    1
 -2       745      1430      2015      3198
 -1     44632    3    0    1
 -2      2631      1430      2015      1402
 -1     44633    3    0    1
 -2      2631      2015      1430      3198
 -1     44634    3    0    1
 -2      1596      1649      2818      3949
 -1     44635    3    0    1
 -2      1596      2818      1649      1614
 -1     44636    3    0    1
 -2      2292      2818      1649      3949
 -1     44637    3    0    1
 -2      2292      1649      2818      1614
 -1     44638    3    0    1
 -2      2950      1795      1085      1705
 -1     44639    3    0    1
 -2      1085      1795      2950      3546
 -1     44640    3    0    1
 -2      3546      1774      2950      1085
 -1     44641    3    0    1
 -2      3546      2950      1774      2411
 -1     44642    3    0    1
 -2      2950      1774      1705      1085
 -1     44643    3    0    1
 -2      2950      1705      1774      2411
 -1     44644    3    0    1
 -2      1705      1774      1754      1085
 -1     44645    3    0    1
 -2      1705      1754      1774      2411
 -1     44646    3    0    1
 -2      2946       162       163       532
 -1     44647    3    0    1
 -2      2946       163       162      2922
 -1     44648    3    0    1
 -2      5032      4809      5075      5247
 -1     44649    3    0    1
 -2      5032      5075      4809      4789
 -1     44650    3    0    1
 -2      1681      1078       572      2912
 -1     44651    3    0    1
 -2       572      1078      1681      1050
 -1     44652    3    0    1
 -2       572       571      1681      2912
 -1     44653    3    0    1
 -2      1681       571       572      1050
 -1     44654    3    0    1
 -2      4748      3914      3334      3383
 -1     44655    3    0    1
 -2      3334      4402      4748      3383
 -1     44656    3    0    1
 -2      4402      3302      4748      4337
 -1     44657    3    0    1
 -2      4402      4748      3302      3334
 -1     44658    3    0    1
 -2      3914      4748      3302      4337
 -1     44659    3    0    1
 -2      3914      3302      4748      3334
 -1     44660    3    0    1
 -2      3927      4949      3340      4721
 -1     44661    3    0    1
 -2      3927      3340      4949      4731
 -1     44662    3    0    1
 -2      4323      3340      4949      4721
 -1     44663    3    0    1
 -2      4323      4949      3340      4731
 -1     44664    3    0    1
 -2      5793      9672      9006      8139
 -1     44665    3    0    1
 -2      9006      9672      5793      8634
 -1     44666    3    0    1
 -2      5793      7243      9006      8634
 -1     44667    3    0    1
 -2      9023      5793      9006      8139
 -1     44668    3    0    1
 -2      9023      9006      5793      7243
 -1     44669    3    0    1
 -2      7328      6495      7891      6496
 -1     44670    3    0    1
 -2      7328      7891      6495      8724
 -1     44671    3    0    1
 -2      3905      1506      3341      2221
 -1     44672    3    0    1
 -2      3905      3341      1506      2275
 -1     44673    3    0    1
 -2      3794      3225      3158      2613
 -1     44674    3    0    1
 -2      3158      3225      3794      4239
 -1     44675    3    0    1
 -2      3158      2576      3794      2613
 -1     44676    3    0    1
 -2      3794      2576      3158      4239
 -1     44677    3    0    1
 -2      3158      2613      2056      2576
 -1     44678    3    0    1
 -2      3158      2056      2613      1411
 -1     44679    3    0    1
 -2      6996      4674      5696      5734
 -1     44680    3    0    1
 -2      5179      5696      4674      5734
 -1     44681    3    0    1
 -2      5179      4674      5696      4942
 -1     44682    3    0    1
 -2      5724      4674      5696      6996
 -1     44683    3    0    1
 -2      5696      4674      5724      4942
 -1     44684    3    0    1
 -2      3310      2716      4325      4326
 -1     44685    3    0    1
 -2      4732      3310      2716      4325
 -1     44686    3    0    1
 -2      4732      2716      3310      3364
 -1     44687    3    0    1
 -2      6847      6846      8386      8001
 -1     44688    3    0    1
 -2      6847      8386      6846      6844
 -1     44689    3    0    1
 -2      5468      4730      5384      5225
 -1     44690    3    0    1
 -2      5468      5384      4730      5435
 -1     44691    3    0    1
 -2      5302      5094      5658      5644
 -1     44692    3    0    1
 -2      5302      5658      5094      5292
 -1     44693    3    0    1
 -2      7726      9332      8559      9315
 -1     44694    3    0    1
 -2      7726      8559      9332      7126
 -1     44695    3    0    1
 -2      9332      7726      8168      9315
 -1     44696    3    0    1
 -2      9332      8168      7726      7178
 -1     44697    3    0    1
 -2      2907      1767      3519      1788
 -1     44698    3    0    1
 -2      2907      3519      1767      2356
 -3
    1PSTEP                         1           1           1          
  100CL  101 1.000000000        9675                     0    1           1
 -4  DISP        4    1
 -5  D1          1    2    1    0
 -5  D2          1    2    2    0
 -5  D3          1    2    3    0
 -5  ALL         1    2    0    0    1ALL
 -1         1 0.00000E+00 0.00000E+00 0.00000E+00
 -1         2 0.00000E+00 0.00000E+00 0.00000E+00
 -1         3 0.00000E+00 0.00000E+00 0.00000E+00
 -1         4-1.68159E+00-1.26700E-02-8.87523E+00
 -1         5-1.62924E+00-1.39818E-02-8.54508E+00
 -1         6-1.63919E+00-1.35579E-02-8.78065E+00
 -1         7 0.00000E+00 0.00000E+00 0.00000E+00
 -1         8 0.00000E+00 0.00000E+00 0.00000E+00
 -1         9 0.00000E+00 0.00000E+00 0.00000E+00
 -1        10-1.44958E+00-4.32354E-02-1.24825E+01
 -1        11-1.46564E+00-4.21562E-02-1.26739E+01
 -1        12-1.53190E+00-4.04550E-02-1.23122E+01
 -1        13-3.06863E-01-7.97474E-02-2.43613E-01
 -1        14-3.26931E-01-8.13567E-02-3.06034E-01
 -1        15-2.61356E-01-7.78633E-02-2.74914E-01
 -1        16-7.96608E-01-6.86074E-02-1.82759E+00
 -1        17-1.02625E+00-7.98061E-02-2.07667E+00
 -1        18-8.55316E-01-7.44897E-02-2.06689E+00
 -1        19-1.26321E+00-2.40432E-02-5.00768E+00
 -1        20-1.51814E+00-2.48269E-02-5.17470E+00
 -1        21-1.27247E+00-2.39348E-02-5.26339E+00
 -1        22-1.40562E+00-1.72959E-02-8.66777E+00
 -1        23-1.41462E+00-1.66713E-02-8.94949E+00
 -1        24-1.54098E+00-1.45533E-02-9.25104E+00
 -1        25 3.61016E-01-1.12352E-02-1.78935E+01
 -1        26 4.50578E-01 1.21329E-02-1.78054E+01
 -1        27 3.75172E-01-5.24697E-03-1.78012E+01
 -1        28 9.44336E-01-3.64970E-02-1.59106E+01
 -1        29 1.13303E+00-2.46404E-02-1.58520E+01
 -1        30 1.00633E+00-3.04604E-02-1.56746E+01
 -1        31 1.37485E+00-7.27853E-02-1.30660E+01
 -1        32 1.52628E+00-6.84590E-02-1.26412E+01
 -1        33 1.27949E+00-7.23954E-02-1.27550E+01
 -1        34 1.29088E+00-7.30785E-02-1.24921E+01
 -1        35 1.53130E+00-9.48143E-02-9.15432E+00
 -1        36 1.66072E+00-9.33021E-02-8.87773E+00
 -1        37 1.38362E+00-9.37102E-02-8.86755E+00
 -1        38 1.45121E+00-9.23323E-02-8.52290E+00
 -1        39 0.00000E+00 0.00000E+00 0.00000E+00
 -1        40 0.00000E+00 0.00000E+00 0.00000E+00
 -1        41 0.00000E+00 0.00000E+00 0.00000E+00
 -1        42-9.53219E-01-6.73504E-02-1.78270E+00
 -1        43-1.42348E+00-2.15265E-02-4.78146E+00
 -1        44-1.47529E+00 3.69592E-03-1.24884E+01
 -1        45-1.45544E+00 3.06538E-03-1.21287E+01
 -1        46-1.56351E+00 6.66058E-03-1.26116E+01
 -1        47-1.28684E+00-4.90488E-03-1.27456E+01
 -1        48-1.40184E+00-4.46386E-03-1.30231E+01
 -1        49-1.03974E+00 2.57154E-02-1.57993E+01
 -1        50-1.14435E+00 3.56438E-02-1.55449E+01
 -1        51-1.18694E+00 3.93449E-02-1.58403E+01
 -1        52-1.06555E+00 2.26534E-02-1.61379E+01
 -1        53-4.08454E-01 3.02429E-02-1.80019E+01
 -1        54-4.18043E-01 3.82721E-02-1.78694E+01
 -1        55-4.77697E-01 5.59451E-02-1.78081E+01
 -1        56 4.12913E-01-1.98744E-03-1.79074E+01
 -1        57 4.23162E-01-4.45411E-03-1.76476E+01
 -1        58 1.04872E+00-3.46631E-02-1.61044E+01
 -1        59 1.04640E+00-3.18244E-02-1.54482E+01
 -1        60 1.54616E+00-9.58194E-02-9.32714E+00
 -1        61 1.51243E+00-9.15378E-02-8.44077E+00
 -1        62 1.31913E+00-1.02589E-01-5.23068E+00
 -1        63 1.41537E+00-1.04306E-01-5.60131E+00
 -1        64 1.50734E+00-1.04387E-01-5.15080E+00
 -1        65 1.35118E+00-9.59526E-02-4.75150E+00
 -1        66 9.10765E-01-9.79549E-02-2.14574E+00
 -1        67 1.06553E+00-1.04854E-01-2.31292E+00
 -1        68 1.09139E+00-1.06308E-01-2.10800E+00
 -1        69 9.39711E-01-9.51417E-02-1.94255E+00
 -1        70 9.65947E-01-8.45685E-02-1.80823E+00
 -1        71 3.08592E-01-6.25541E-02-4.53960E-01
 -1        72 3.53242E-01-6.19838E-02-4.76705E-01
 -1        73 3.77144E-01-7.28462E-02-3.84211E-01
 -1        74 3.15296E-01-7.15477E-02-3.43237E-01
 -1        75 3.26238E-01-6.79071E-02-2.50116E-01
 -1        76 0.00000E+00 0.00000E+00 0.00000E+00
 -1        77-3.20323E-01-7.31631E-02-3.87717E-01
 -1        78-3.01378E-01-7.52783E-02-3.21472E-01
 -1        79-1.25241E+00-1.99458E-02-8.31565E+00
 -1        80-1.51058E+00-1.59797E-02-8.24065E+00
 -1        81-4.40434E-01 4.25645E-02-1.78508E+01
 -1        82 1.01194E+00-3.21692E-02-1.56876E+01
 -1        83 2.81233E-01-6.34810E-02-3.68937E-01
 -1        84 0.00000E+00 0.00000E+00 0.00000E+00
 -1        85 0.00000E+00 0.00000E+00 0.00000E+00
 -1        86 0.00000E+00 0.00000E+00 0.00000E+00
 -1        87-2.82939E-01-7.22607E-02-1.91542E-01
 -1        88-2.56700E-01-6.00439E-02-2.37279E-01
 -1        89-8.61143E-01-5.90569E-02-1.71305E+00
 -1        90-9.59504E-01-7.30225E-02-2.37813E+00
 -1        91-9.11365E-01-7.28694E-02-2.18034E+00
 -1        92-1.29243E+00-1.63857E-02-4.49180E+00
 -1        93-1.37517E+00-2.11785E-02-4.91493E+00
 -1        94-1.35696E+00-1.28343E-03-1.23722E+01
 -1        95-1.05269E+00 1.31712E-02-1.52872E+01
 -1        96-9.19937E-01 1.31605E-02-1.57302E+01
 -1        97-1.10494E+00 2.96493E-02-1.58811E+01
 -1        98-4.45255E-01 4.11395E-02-1.76981E+01
 -1        99-4.40539E-01 3.85043E-02-1.77311E+01
 -1       100-3.25635E-01 7.45466E-03-1.77890E+01
 -1       101-3.86155E-01 1.70257E-02-1.79745E+01
 -1       102 3.98441E-01-4.31048E-03-1.77388E+01
 -1       103 1.34047E+00-7.45902E-02-1.29123E+01
 -1       104 1.30010E+00-1.01437E-01-5.28558E+00
 -1       105 8.16470E-01-9.56973E-02-2.19578E+00
 -1       106 1.01424E+00-9.81377E-02-2.09080E+00
 -1       107 9.12411E-01-7.63659E-02-1.77380E+00
 -1       108 3.51950E-01-6.26664E-02-4.26346E-01
 -1       109 2.85636E-01-5.14798E-02-2.26683E-01
 -1       110 0.00000E+00 0.00000E+00 0.00000E+00
 -1       111-9.33111E-01-6.97264E-02-1.95925E+00
 -1       112-1.36251E+00-2.27579E-02-5.26085E+00
 -1       113-1.38013E+00-2.22607E-02-5.56680E+00
 -1       114-1.44221E+00-1.71137E-02-8.66000E+00
 -1       115-1.52100E+00-1.53465E-02-8.96814E+00
 -1       116 3.80418E-01-1.27303E-02-1.78546E+01
 -1       117 1.36217E+00-7.32293E-02-1.25224E+01
 -1       118 1.39224E+00-7.49822E-02-1.21455E+01
 -1       119 1.42394E+00-9.47804E-02-9.01819E+00
 -1       120 1.36438E+00-9.77208E-02-5.04213E+00
 -1       121 1.00234E+00-9.54556E-02-2.55739E+00
 -1       122 0.00000E+00 0.00000E+00 0.00000E+00
 -1       123 0.00000E+00 0.00000E+00 0.00000E+00
 -1       124 0.00000E+00 0.00000E+00 0.00000E+00
 -1       125-2.79691E-01-1.12444E-02-2.15240E-01
 -1       126-3.48625E-01-8.58722E-03-3.45815E-01
 -1       127-3.05329E-01-1.18163E-02-2.93711E-01
 -1       128-3.07039E-01-8.35782E-03-3.73011E-01
 -1       129-9.54231E-01-2.59104E-02-1.81420E+00
 -1       130-1.06633E+00-2.71750E-02-2.15381E+00
 -1       131-9.55701E-01-2.69300E-02-1.99209E+00
 -1       132-9.35701E-01-2.90273E-02-2.19026E+00
 -1       133-1.36527E+00 2.40688E-03-4.69827E+00
 -1       134-1.35098E+00-9.49175E-04-5.25176E+00
 -1       135-1.35620E+00 1.39720E-04-4.97569E+00
 -1       136-1.40576E+00-1.42467E-02-8.74566E+00
 -1       137-1.67007E+00-8.40386E-03-8.67119E+00
 -1       138-1.51488E+00-1.37263E-02-9.01104E+00
 -1       139-1.35811E+00-2.20315E-02-1.23198E+01
 -1       140-1.53927E+00-1.71084E-02-1.25149E+01
 -1       141-1.39748E+00-2.14325E-02-1.27098E+01
 -1       142-1.41142E+00-2.37184E-02-1.29093E+01
 -1       143-1.10508E+00-3.20357E-02-1.53585E+01
 -1       144-1.08579E+00-3.62097E-02-1.59547E+01
 -1       145-1.03981E+00-3.46873E-02-1.57092E+01
 -1       146-3.09201E-01-5.83417E-02-1.76810E+01
 -1       147-4.06745E-01-3.71428E-02-1.77694E+01
 -1       148-3.58170E-01-3.43422E-02-1.77746E+01
 -1       149 3.32665E-01-7.79751E-02-1.78250E+01
 -1       150 4.10444E-01-8.13531E-02-1.76602E+01
 -1       151 3.56756E-01-7.99962E-02-1.77289E+01
 -1       152 3.51439E-01-8.63678E-02-1.76481E+01
 -1       153 1.01547E+00-8.63106E-02-1.60259E+01
 -1       154 1.13413E+00-8.06596E-02-1.56545E+01
 -1       155 9.06091E-01-8.26239E-02-1.59513E+01
 -1       156 9.91673E-01-8.27039E-02-1.56189E+01
 -1       157 1.39596E+00-9.28966E-02-1.28461E+01
 -1       158 1.52045E+00-9.02426E-02-1.24010E+01
 -1       159 1.29604E+00-9.18365E-02-1.24953E+01
 -1       160 1.52534E+00-9.02429E-02-9.08359E+00
 -1       161 1.63781E+00-8.75944E-02-8.82491E+00
 -1       162 1.06854E+00-9.28001E-02-8.93294E+00
 -1       163 1.50567E+00-8.67623E-02-8.39300E+00
 -1       164 1.31822E+00-7.27583E-02-5.37182E+00
 -1       165 1.40724E+00-6.75904E-02-4.88749E+00
 -1       166 1.35460E+00-7.07756E-02-4.99117E+00
 -1       167 8.14816E-01-4.08850E-02-2.20954E+00
 -1       168 1.07923E+00-3.56190E-02-2.13761E+00
 -1       169 9.36593E-01-4.19635E-02-2.01768E+00
 -1       170 9.77586E-01-3.43785E-02-1.85300E+00
 -1       171 0.00000E+00 0.00000E+00 0.00000E+00
 -1       172 0.00000E+00 0.00000E+00 0.00000E+00
 -1       173-3.34372E-01-6.86211E-03-4.50853E-01
 -1       174-1.04252E+00-2.62577E-02-1.97650E+00
 -1       175-9.92596E-01-2.93421E-02-2.39418E+00
 -1       176-1.49763E+00 3.21802E-03-5.26312E+00
 -1       177-1.48624E+00 4.38439E-03-4.95739E+00
 -1       178-1.37640E+00-8.11571E-04-5.55144E+00
 -1       179-1.53792E+00-8.55604E-03-8.29989E+00
 -1       180-1.63752E+00-1.11767E-02-8.97943E+00
 -1       181-1.50128E+00-1.57150E-02-9.30957E+00
 -1       182-1.43636E+00-1.83403E-02-1.20531E+01
 -1       183-1.19325E+00-2.90451E-02-1.56214E+01
 -1       184-4.32385E-01-3.66529E-02-1.76175E+01
 -1       185-4.24952E-01-4.03722E-02-1.74929E+01
 -1       186-4.58797E-01-3.38521E-02-1.76379E+01
 -1       187 3.84240E-01-8.60977E-02-1.75331E+01
 -1       188 1.10998E+00-8.39330E-02-1.58455E+01
 -1       189 1.05103E+00-7.92283E-02-1.53844E+01
 -1       190 1.23947E+00-9.68964E-02-1.32156E+01
 -1       191 1.47521E+00-9.23528E-02-1.28135E+01
 -1       192 1.39484E+00-8.92830E-02-1.21086E+01
 -1       193 1.51874E+00-9.16895E-02-9.33177E+00
 -1       194 1.50824E+00-7.02244E-02-5.24862E+00
 -1       195 1.37614E+00-7.48325E-02-5.66848E+00
 -1       196 1.01756E+00-4.00261E-02-2.31228E+00
 -1       197 9.92850E-01-4.40702E-02-2.54492E+00
 -1       198 3.45045E-01 1.32904E-03-3.99723E-01
 -1       199 3.46000E-01-5.48843E-03-4.97521E-01
 -1       200 3.49672E-01 1.99896E-03-4.54981E-01
 -1       201 2.71770E-01-2.84732E-03-3.60642E-01
 -1       202 3.60370E-01 7.58331E-03-3.64989E-01
 -1       203 3.12357E-01 7.22778E-03-2.67999E-01
 -1       204 0.00000E+00 0.00000E+00 0.00000E+00
 -1       205 0.00000E+00 0.00000E+00 0.00000E+00
 -1       206 0.00000E+00 0.00000E+00 0.00000E+00
 -1       207-2.45888E-01-4.38288E-03-1.83068E-01
 -1       208-3.35315E-01-3.77478E-03-4.49460E-01
 -1       209-9.90385E-01-2.68353E-02-2.29154E+00
 -1       210-1.34626E+00 5.39567E-03-4.63075E+00
 -1       211-1.50843E+00-1.53814E-02-9.23751E+00
 -1       212 3.68309E-01-8.19806E-02-1.77648E+01
 -1       213 3.92063E-01-8.82510E-02-1.75380E+01
 -1       214 1.03682E+00-8.05609E-02-1.53811E+01
 -1       215 1.39563E+00-7.36003E-02-5.62229E+00
 -1       216 1.01915E+00-4.15498E-02-2.47798E+00
 -1       217 0.00000E+00 0.00000E+00 0.00000E+00
 -1       218-3.23061E-01-4.57861E-03-2.86077E-01
 -1       219-3.17573E-01-2.36005E-03-3.70669E-01
 -1       220-8.46270E-01-2.15560E-02-1.64509E+00
 -1       221-9.67493E-01-2.74049E-02-2.46893E+00
 -1       222-1.36188E+00-9.56056E-03-8.05671E+00
 -1       223-1.49236E+00-7.72648E-03-8.19470E+00
 -1       224-1.09995E+00-3.60274E-02-1.57450E+01
 -1       225-3.90204E-01-4.42366E-02-1.77704E+01
 -1       226 3.70905E-01-8.85855E-02-1.76219E+01
 -1       227 9.00772E-01-9.14812E-02-1.62122E+01
 -1       228 1.34343E+00-9.35186E-02-9.57346E+00
 -1       229 1.45812E+00-9.23880E-02-9.37754E+00
 -1       230 1.39560E+00-6.78513E-02-5.07649E+00
 -1       231 1.00974E+00-3.63602E-02-2.06336E+00
 -1       232 2.96110E-01 1.18220E-02-2.47008E-01
 -1       233 0.00000E+00 0.00000E+00 0.00000E+00
 -1       234 0.00000E+00 0.00000E+00 0.00000E+00
 -1       235 0.00000E+00 0.00000E+00 0.00000E+00
 -1       236 0.00000E+00 0.00000E+00 0.00000E+00
 -1       237 0.00000E+00 0.00000E+00 0.00000E+00
 -1       238-9.69573E-01-2.33849E-02-1.94730E+00
 -1       239-1.35442E+00 6.11491E-03-4.89778E+00
 -1       240-1.34207E+00 2.74749E-03-5.24051E+00
 -1       241-1.35944E+00 3.77807E-04-5.53652E+00
 -1       242-1.44269E+00-1.11520E-02-8.57424E+00
 -1       243-1.53932E+00-1.17031E-02-8.84408E+00
 -1       244-1.32553E+00-2.39470E-02-1.20421E+01
 -1       245-1.39636E+00-1.98411E-02-1.19342E+01
 -1       246-1.46431E+00-2.04141E-02-1.24373E+01
 -1       247-1.34614E+00-2.83953E-02-1.29220E+01
 -1       248-1.04322E+00-3.81470E-02-1.51391E+01
 -1       249-8.79526E-01-4.67940E-02-1.55872E+01
 -1       250-1.01512E+00-4.53482E-02-1.60002E+01
 -1       251-4.29043E-01-4.73234E-02-1.74622E+01
 -1       252-4.24231E-01-4.65778E-02-1.75533E+01
 -1       253-4.50399E-01-3.86196E-02-1.75451E+01
 -1       254-3.16743E-01-6.44413E-02-1.76193E+01
 -1       255 1.02044E+00-8.89098E-02-1.59510E+01
 -1       256 9.92711E-01-8.46089E-02-1.56031E+01
 -1       257 1.37861E+00-9.44814E-02-1.27652E+01
 -1       258 1.27807E+00-9.38284E-02-1.25168E+01
 -1       259 1.37626E+00-9.08547E-02-1.21131E+01
 -1       260 1.43530E+00-8.66260E-02-8.36861E+00
 -1       261 1.51799E+00-8.77033E-02-8.77532E+00
 -1       262 1.28408E+00-7.10135E-02-5.30041E+00
 -1       263 1.29838E+00-6.20651E-02-4.75629E+00
 -1       264 8.11305E-01-4.08617E-02-2.19951E+00
 -1       265 9.06016E-01-2.93787E-02-1.79511E+00
 -1       266 2.63273E-01 5.18085E-03-3.50444E-01
 -1       267 0.00000E+00 0.00000E+00 0.00000E+00
 -1       268-2.84160E-01 5.12681E-03-2.84186E-01
 -1       269-6.89657E-01-2.40584E-02-2.13874E+00
 -1       270-1.31885E+00-2.51917E-02-1.23246E+01
 -1       271 3.50343E-01-9.06557E-02-1.77244E+01
 -1       272 9.59976E-01-8.86715E-02-1.58061E+01
 -1       273 3.23012E-01 9.25932E-03-4.14660E-01
 -1       274 0.00000E+00 0.00000E+00 0.00000E+00
 -1       275 0.00000E+00 0.00000E+00 0.00000E+00
 -1       276-9.67379E-01 2.36107E-02-2.01707E+00
 -1       277-1.05168E+00 2.73476E-02-2.13094E+00
 -1       278-9.11056E-01 2.36436E-02-2.19289E+00
 -1       279-9.57853E-01 2.25346E-02-2.38151E+00
 -1       280-1.35497E+00 2.40813E-02-4.86129E+00
 -1       281-1.46874E+00 2.90970E-02-5.16257E+00
 -1       282-1.25422E+00 2.25909E-02-5.17410E+00
 -1       283-1.34785E+00-4.39615E-02-1.22480E+01
 -1       284-1.29280E+00-4.21272E-02-1.26798E+01
 -1       285-3.20805E-01-1.23548E-01-1.75658E+01
 -1       286-4.71681E-01-1.14978E-01-1.75809E+01
 -1       287-4.02045E-01-1.08125E-01-1.76481E+01
 -1       288 1.45338E+00-1.12492E-01-1.28216E+01
 -1       289 1.35219E+00-1.08917E-01-1.22945E+01
 -1       290 1.24231E+00-1.09576E-01-1.29024E+01
 -1       291 1.29781E+00-4.45403E-02-5.35295E+00
 -1       292 1.46720E+00-4.07108E-02-5.15330E+00
 -1       293 1.24487E+00-4.74325E-02-4.93603E+00
 -1       294 1.34906E+00-4.38428E-02-4.86685E+00
 -1       295 2.93134E-01 3.55918E-02-4.24290E-01
 -1       296 3.04355E-01 6.72669E-02-3.08496E-01
 -1       297 2.50972E-01 5.69538E-02-2.99106E-01
 -1       298 2.51796E-01 5.29151E-02-2.35651E-01
 -1       299-3.53202E-01 9.36461E-02-3.25055E-01
 -1       300-3.08769E-01 8.06802E-02-3.67283E-01
 -1       301-3.32904E-01 8.82223E-02-2.56640E-01
 -1       302-3.40724E-01 8.63551E-02-4.21169E-01
 -1       303-9.05534E-01 1.25209E-02-1.74119E+00
 -1       304-1.01486E+00 2.73101E-02-1.98039E+00
 -1       305-1.42341E+00 2.63060E-02-4.78519E+00
 -1       306-1.28730E+00 1.66838E-02-4.49915E+00
 -1       307-1.35722E+00 2.13736E-02-5.50320E+00
 -1       308-1.37686E+00-6.02154E-03-8.68973E+00
 -1       309-1.50139E+00 2.28284E-03-8.24595E+00
 -1       310-1.61646E+00-8.31725E-04-8.69466E+00
 -1       311-1.52930E+00-4.26789E-03-8.83654E+00
 -1       312-1.47189E+00-1.05597E-02-9.22412E+00
 -1       313-1.42913E+00-3.96242E-02-1.19688E+01
 -1       314-1.04595E+00-8.48617E-02-1.54859E+01
 -1       315-1.08037E+00-7.85842E-02-1.52150E+01
 -1       316-1.15573E+00-8.47679E-02-1.54901E+01
 -1       317-1.00698E+00-8.30575E-02-1.57511E+01
 -1       318-1.11415E+00-8.88271E-02-1.56967E+01
 -1       319-1.06123E+00-8.82135E-02-1.58875E+01
 -1       320-4.41475E-01-1.05473E-01-1.73709E+01
 -1       321-4.42011E-01-1.11953E-01-1.73925E+01
 -1       322-4.65877E-01-1.22879E-01-1.75144E+01
 -1       323-4.54197E-01-1.17632E-01-1.75098E+01
 -1       324-4.08650E-01-1.01040E-01-1.77117E+01
 -1       325 3.55861E-01-1.70156E-01-1.75930E+01
 -1       326 3.28660E-01-1.58882E-01-1.77908E+01
 -1       327 3.79961E-01-1.73765E-01-1.77141E+01
 -1       328 3.99112E-01-1.74613E-01-1.76364E+01
 -1       329 3.79528E-01-1.70792E-01-1.75351E+01
 -1       330 9.67979E-01-1.31599E-01-1.55520E+01
 -1       331 9.75737E-01-1.29589E-01-1.60553E+01
 -1       332 1.08504E+00-1.35775E-01-1.57901E+01
 -1       333 1.12145E+00-1.33609E-01-1.56020E+01
 -1       334 1.02521E+00-1.28574E-01-1.53554E+01
 -1       335 1.49869E+00-1.09867E-01-1.24332E+01
 -1       336 1.38004E+00-1.07746E-01-1.20873E+01
 -1       337 1.52407E+00-9.13090E-02-8.72864E+00
 -1       338 1.17827E+00-9.38764E-02-8.91853E+00
 -1       339 1.61141E+00-9.14516E-02-8.78604E+00
 -1       340 1.49927E+00-9.60326E-02-9.31682E+00
 -1       341 1.45701E+00-8.84299E-02-8.31880E+00
 -1       342 1.37370E+00-4.79261E-02-5.61290E+00
 -1       343 1.25780E+00-4.27911E-02-4.75018E+00
 -1       344 1.28810E+00-4.56047E-02-4.62332E+00
 -1       345 1.09017E+00 2.85143E-02-2.17891E+00
 -1       346 9.66354E-01 2.05102E-02-2.22057E+00
 -1       347 1.01175E+00 1.26320E-02-2.43879E+00
 -1       348 9.32957E-01 1.52450E-02-1.97504E+00
 -1       349 1.02939E+00 2.72598E-02-1.99149E+00
 -1       350 9.82115E-01 2.42960E-02-1.81532E+00
 -1       351 2.76420E-01 4.05995E-02-4.02352E-01
 -1       352 2.96355E-01 7.23069E-02-2.92281E-01
 -1       353 2.62302E-01 6.45996E-02-1.93079E-01
 -1       354 0.00000E+00 0.00000E+00 0.00000E+00
 -1       355 0.00000E+00 0.00000E+00 0.00000E+00
 -1       356 0.00000E+00 0.00000E+00 0.00000E+00
 -1       357 0.00000E+00 0.00000E+00 0.00000E+00
 -1       358-1.28646E+00-2.21677E-03-8.20445E+00
 -1       359-1.49972E+00-4.27641E-05-8.41054E+00
 -1       360-4.02315E-01-1.11704E-01-1.76814E+01
 -1       361 1.28420E+00-9.74912E-02-9.34937E+00
 -1       362 1.49880E+00-9.46431E-02-9.14328E+00
 -1       363 0.00000E+00 0.00000E+00 0.00000E+00
 -1       364-2.81643E-01 8.18780E-02-3.20325E-01
 -1       365-7.99221E-01 1.91288E-02-1.78536E+00
 -1       366-8.39318E-01 2.23281E-02-2.04517E+00
 -1       367-1.14132E+00 1.87140E-02-4.76275E+00
 -1       368-1.25624E+00 2.36545E-02-5.08566E+00
 -1       369-1.35260E+00-7.58260E-03-8.68732E+00
 -1       370-1.29644E+00-4.15765E-02-1.18561E+01
 -1       371-1.23549E+00-4.85112E-02-1.22460E+01
 -1       372-1.01658E+00-8.15524E-02-1.51753E+01
 -1       373-9.49907E-01-9.17219E-02-1.54518E+01
 -1       374-4.00460E-01-1.23597E-01-1.74609E+01
 -1       375-4.07793E-01-1.26859E-01-1.75658E+01
 -1       376 3.11344E-01-1.67044E-01-1.77594E+01
 -1       377 2.78268E-01-1.68198E-01-1.75802E+01
 -1       378 8.49046E-01-1.34105E-01-1.59992E+01
 -1       379 8.91810E-01-1.37183E-01-1.57163E+01
 -1       380 1.16046E+00-1.13806E-01-1.29234E+01
 -1       381 1.27755E+00-1.12028E-01-1.25218E+01
 -1       382 1.35776E+00-9.23840E-02-8.86170E+00
 -1       383 1.20323E+00-4.58132E-02-5.44852E+00
 -1       384 1.29724E+00-4.19560E-02-5.15988E+00
 -1       385 9.07328E-01 2.00063E-02-2.20080E+00
 -1       386 2.35035E-01 5.13159E-02-3.35812E-01
 -1       387 2.41159E-01 6.61408E-02-2.53332E-01
 -1       388 0.00000E+00 0.00000E+00 0.00000E+00
 -1       389 3.26003E-01-1.71835E-01-1.76654E+01
 -1       390 0.00000E+00 0.00000E+00 0.00000E+00
 -1       391-1.22804E+00-6.01938E-03-1.24846E+01
 -1       392 0.00000E+00 0.00000E+00 0.00000E+00
 -1       393 0.00000E+00 0.00000E+00 0.00000E+00
 -1       394 0.00000E+00 0.00000E+00 0.00000E+00
 -1       395-2.37737E-01-6.98583E-02-1.67541E-01
 -1       396-1.17135E+00-7.62925E-03-1.21124E+01
 -1       397-3.79747E-01 2.02838E-02-1.77249E+01
 -1       398 1.24032E+00-9.61998E-02-9.37254E+00
 -1       399 9.05894E-01-9.88830E-02-2.42791E+00
 -1       400 2.23061E-01-6.08387E-02-2.19740E-01
 -1       401 0.00000E+00 0.00000E+00 0.00000E+00
 -1       402-2.26365E-01-6.65238E-02-3.87129E-01
 -1       403-2.95307E-01-6.64156E-02-4.41720E-01
 -1       404-8.41902E-01-5.21708E-02-1.55362E+00
 -1       405-1.17498E+00-2.11203E-02-4.71293E+00
 -1       406-8.03513E-01-3.11537E-03-1.54182E+01
 -1       407-9.79085E-01 1.82031E-02-1.55147E+01
 -1       408 3.42511E-01-2.25740E-02-1.79683E+01
 -1       409 3.04741E-01-2.70251E-02-1.76910E+01
 -1       410 3.77579E-01-2.24640E-02-1.76027E+01
 -1       411 8.74370E-01-4.46150E-02-1.61321E+01
 -1       412 8.09191E-01-6.34715E-02-1.64007E+01
 -1       413 1.36095E+00-9.08418E-02-8.18074E+00
 -1       414 1.12958E+00-9.88003E-02-5.63608E+00
 -1       415 0.00000E+00 0.00000E+00 0.00000E+00
 -1       416 0.00000E+00 0.00000E+00 0.00000E+00
 -1       417-2.28178E-01-5.05939E-02-1.51509E-01
 -1       418-1.65591E-01-5.56419E-02-1.15375E-01
 -1       419-3.16678E-01-5.39725E-02-5.01680E-01
 -1       420-1.38619E+00-1.73932E-02-7.99469E+00
 -1       421-1.37869E+00-1.69918E-02-9.51612E+00
 -1       422-1.40119E+00-1.58959E-02-9.56887E+00
 -1       423-1.33383E+00-1.82742E-02-9.77841E+00
 -1       424-1.32481E+00-6.97300E-03-1.17543E+01
 -1       425-9.44926E-01-1.36847E-03-1.64377E+01
 -1       426-9.89226E-01 7.43536E-03-1.62403E+01
 -1       427-4.31299E-01 1.52655E-02-1.76109E+01
 -1       428-3.09786E-01-2.10363E-02-1.76240E+01
 -1       429-3.49027E-01-5.57384E-03-1.80716E+01
 -1       430 3.38058E-01-3.33802E-02-1.79719E+01
 -1       431 3.00238E-01-5.12202E-02-1.80459E+01
 -1       432 3.85483E-01-3.49813E-02-1.75195E+01
 -1       433 9.81710E-01-4.76241E-02-1.62304E+01
 -1       434 7.74198E-01-7.42504E-02-1.63276E+01
 -1       435 1.08007E+00-7.85840E-02-1.32485E+01
 -1       436 1.18328E+00-8.15430E-02-1.34743E+01
 -1       437 1.39826E+00-9.79109E-02-9.63847E+00
 -1       438 1.38299E+00-9.10816E-02-8.19806E+00
 -1       439 1.31606E+00-9.02408E-02-7.91898E+00
 -1       440 1.28730E+00-9.75606E-02-5.88697E+00
 -1       441 8.56440E-01-6.12978E-02-1.56407E+00
 -1       442 3.52248E-01-4.49005E-02-5.28839E-01
 -1       443 2.49931E-01-3.98025E-02-5.45773E-01
 -1       444 0.00000E+00 0.00000E+00 0.00000E+00
 -1       445 0.00000E+00 0.00000E+00 0.00000E+00
 -1       446 0.00000E+00 0.00000E+00 0.00000E+00
 -1       447-1.77417E-01-3.76347E-02-1.15281E-01
 -1       448-1.23073E+00-1.52978E-02-6.01641E+00
 -1       449-1.26112E+00-1.67554E-02-5.76597E+00
 -1       450-4.37038E-01-1.13421E-03-1.75231E+01
 -1       451 4.01815E-01-3.24653E-02-1.75459E+01
 -1       452 9.34343E-01-5.37147E-02-1.51054E+01
 -1       453 9.05483E-01-5.17545E-02-1.52630E+01
 -1       454 3.64197E-01-2.81700E-02-6.12588E-01
 -1       455-3.14020E-01-5.60238E-02-3.95304E-01
 -1       456-3.07281E-01-5.18585E-02-4.43351E-01
 -1       457-8.40443E-01-5.66093E-02-2.49811E+00
 -1       458-8.69980E-01-5.37964E-02-2.65041E+00
 -1       459-1.22341E+00-1.39570E-02-4.28828E+00
 -1       460-1.25271E+00-1.58259E-02-4.63443E+00
 -1       461-1.26258E+00-1.70103E-02-5.53836E+00
 -1       462-1.38344E+00-1.70500E-02-8.29787E+00
 -1       463-1.36904E+00-1.75321E-02-9.15819E+00
 -1       464-1.20211E+00-1.55971E-02-1.18190E+01
 -1       465-1.09401E+00-2.59236E-02-1.32131E+01
 -1       466-1.26088E+00-2.01111E-02-1.33903E+01
 -1       467-9.69333E-01 6.64171E-03-1.60036E+01
 -1       468-4.21611E-01 1.33526E-02-1.76677E+01
 -1       469-3.61565E-01 9.95463E-03-1.78955E+01
 -1       470 3.91272E-01-2.88465E-02-1.76338E+01
 -1       471 9.14772E-01-5.05869E-02-1.60599E+01
 -1       472 9.73876E-01-4.20459E-02-1.54912E+01
 -1       473 1.23831E+00-8.05034E-02-1.33058E+01
 -1       474 1.27739E+00-8.05317E-02-1.21503E+01
 -1       475 1.23865E+00-8.57328E-02-1.17060E+01
 -1       476 1.36975E+00-9.67375E-02-9.37636E+00
 -1       477 1.35620E+00-9.25244E-02-8.55938E+00
 -1       478 1.30445E+00-9.95629E-02-5.59775E+00
 -1       479 9.54210E-01-7.44217E-02-4.48166E+00
 -1       480 1.21104E+00-8.01443E-02-4.39448E+00
 -1       481 9.39265E-01-8.87467E-02-2.42655E+00
 -1       482 9.27189E-01-8.07367E-02-2.75652E+00
 -1       483 8.78871E-01-7.80780E-02-1.93903E+00
 -1       484 2.76451E-01-4.85780E-02-2.75859E-01
 -1       485 0.00000E+00 0.00000E+00 0.00000E+00
 -1       486 0.00000E+00 0.00000E+00 0.00000E+00
 -1       487 0.00000E+00 0.00000E+00 0.00000E+00
 -1       488-1.97302E-01-6.74410E-02-2.95969E-01
 -1       489-8.28114E-01-5.85500E-02-1.86344E+00
 -1       490-8.72471E-01-6.11412E-02-2.35400E+00
 -1       491-1.19776E+00-1.60178E-02-4.80614E+00
 -1       492-1.15260E+00-2.17416E-02-5.23181E+00
 -1       493-1.26460E+00-8.63978E-03-1.22376E+01
 -1       494-1.22394E+00-1.50497E-02-1.28343E+01
 -1       495-9.31819E-01-4.06993E-03-1.54954E+01
 -1       496 3.22358E-01-2.97048E-02-1.78782E+01
 -1       497 2.88610E-01-3.53429E-02-1.77525E+01
 -1       498 1.17683E+00-7.70780E-02-1.26631E+01
 -1       499 1.06973E+00-8.87382E-02-5.96954E+00
 -1       500 1.19970E+00-9.52917E-02-5.50688E+00
 -1       501 1.17482E+00-8.71035E-02-4.92081E+00
 -1       502 3.42935E-01-4.49114E-02-4.67827E-01
 -1       503-1.98291E-01-4.06841E-02-1.85461E-01
 -1       504-1.28868E+00-1.76968E-02-8.46436E+00
 -1       505 1.15727E+00-8.33326E-02-1.29812E+01
 -1       506 1.27062E+00-9.60611E-02-9.20772E+00
 -1       507 0.00000E+00 0.00000E+00 0.00000E+00
 -1       508-1.38831E+00-1.75144E-02-9.36556E+00
 -1       509-1.33404E+00-1.85741E-02-9.24663E+00
 -1       510 0.00000E+00 0.00000E+00 0.00000E+00
 -1       511 0.00000E+00 0.00000E+00 0.00000E+00
 -1       512-2.54557E-01-1.94434E-02-2.49506E-01
 -1       513-8.51185E-01-3.07360E-02-1.88848E+00
 -1       514-8.80936E-01-2.96692E-02-1.68904E+00
 -1       515-1.09622E+00-4.36881E-03-5.11525E+00
 -1       516-1.21983E+00-4.63870E-03-4.83703E+00
 -1       517-1.28106E+00-5.41879E-03-5.52553E+00
 -1       518-1.12035E+00-2.00727E-02-8.73910E+00
 -1       519-1.37960E+00-1.25161E-02-8.27157E+00
 -1       520-1.27984E+00-2.06158E-02-1.20798E+01
 -1       521-1.23574E+00-2.00108E-02-1.17162E+01
 -1       522-1.27135E+00-2.32300E-02-1.27891E+01
 -1       523-1.21441E+00-2.56413E-02-1.31434E+01
 -1       524-1.00774E+00-3.09015E-02-1.53599E+01
 -1       525-9.95360E-01-2.96569E-02-1.51315E+01
 -1       526-7.74595E-01-4.89697E-02-1.56393E+01
 -1       527-4.07423E-01-3.83023E-02-1.75714E+01
 -1       528 2.98523E-01-7.49787E-02-1.77857E+01
 -1       529 9.38114E-01-8.37188E-02-1.61647E+01
 -1       530 1.24713E+00-9.05142E-02-1.29311E+01
 -1       531 1.36055E+00-9.24511E-02-9.36997E+00
 -1       532 1.40412E+00-8.78348E-02-8.36230E+00
 -1       533 1.33942E+00-8.78801E-02-8.40061E+00
 -1       534 1.24396E+00-7.76682E-02-5.61235E+00
 -1       535 1.20079E+00-8.03830E-02-5.95945E+00
 -1       536 1.22818E+00-7.38569E-02-4.91949E+00
 -1       537 1.06234E+00-7.37433E-02-4.57503E+00
 -1       538 8.15410E-01-4.94172E-02-2.36232E+00
 -1       539 9.09157E-01-5.03951E-02-2.54068E+00
 -1       540 3.38987E-01-1.36973E-02-4.53871E-01
 -1       541 2.42787E-01-1.77949E-03-1.76221E-01
 -1       542 2.61404E-01-6.88859E-03-2.77265E-01
 -1       543 0.00000E+00 0.00000E+00 0.00000E+00
 -1       544 0.00000E+00 0.00000E+00 0.00000E+00
 -1       545-3.14328E-01-2.42609E-02-4.39997E-01
 -1       546-3.26916E-01-1.50362E-02-5.21161E-01
 -1       547-7.28127E-01-3.66143E-02-1.58743E+00
 -1       548-8.30681E-01-3.67790E-02-1.48272E+00
 -1       549-9.03034E-01-3.64007E-02-2.39815E+00
 -1       550-8.48446E-01-3.99285E-02-2.58125E+00
 -1       551-8.99140E-01-3.39787E-02-2.67534E+00
 -1       552-1.22959E+00-2.58093E-03-4.53297E+00
 -1       553-1.24723E+00-9.51107E-03-5.85144E+00
 -1       554-1.23727E+00-3.01804E-03-5.75081E+00
 -1       555-1.36227E+00-1.04756E-02-7.86954E+00
 -1       556-1.36444E+00-1.95617E-02-9.46435E+00
 -1       557-1.37550E+00-1.92153E-02-9.64904E+00
 -1       558-1.25236E+00-2.98412E-02-1.31162E+01
 -1       559-1.24667E+00-2.39097E-02-1.33165E+01
 -1       560-9.76403E-01-3.42216E-02-1.58840E+01
 -1       561-8.09885E-01-3.51905E-02-1.62201E+01
 -1       562-9.39876E-01-4.62580E-02-1.61503E+01
 -1       563-9.25576E-01-2.79796E-02-1.63319E+01
 -1       564-3.32439E-01-3.49850E-02-1.78598E+01
 -1       565-3.25311E-01-3.59348E-02-1.79026E+01
 -1       566 3.57840E-01-7.92655E-02-1.75705E+01
 -1       567 3.51153E-01-8.04553E-02-1.74767E+01
 -1       568 3.29607E-01-9.59841E-02-1.74474E+01
 -1       569 7.71508E-01-7.93326E-02-1.62759E+01
 -1       570 8.81885E-01-7.80767E-02-1.63975E+01
 -1       571 9.55455E-01-7.48301E-02-1.53958E+01
 -1       572 8.95698E-01-7.00616E-02-1.51966E+01
 -1       573 9.27589E-01-8.01651E-02-1.52063E+01
 -1       574 1.17485E+00-8.76947E-02-1.34696E+01
 -1       575 1.26546E+00-8.75492E-02-1.20849E+01
 -1       576 1.25234E+00-9.00588E-02-1.19039E+01
 -1       577 1.27111E+00-8.86865E-02-1.17530E+01
 -1       578 1.34483E+00-9.32184E-02-9.76381E+00
 -1       579 1.27255E+00-8.69903E-02-8.12422E+00
 -1       580 1.34177E+00-8.63984E-02-8.17052E+00
 -1       581 1.29450E+00-8.78305E-02-7.81469E+00
 -1       582 1.20776E+00-6.44679E-02-4.58349E+00
 -1       583 1.20033E+00-7.49455E-02-4.42172E+00
 -1       584 9.21040E-01-5.20900E-02-2.78303E+00
 -1       585 7.30391E-01-5.33664E-02-1.66882E+00
 -1       586 9.14600E-01-3.99796E-02-1.72007E+00
 -1       587 8.38567E-01-5.22285E-02-1.56485E+00
 -1       588 0.00000E+00 0.00000E+00 0.00000E+00
 -1       589-2.20912E-01-1.29712E-02-1.43908E-01
 -1       590-9.58896E-01-3.85527E-02-1.50866E+01
 -1       591-8.87416E-01-2.75290E-02-1.50469E+01
 -1       592 2.67580E-01-6.39088E-02-1.79225E+01
 -1       593 2.99364E-01-8.81432E-02-1.78597E+01
 -1       594 8.43329E-01-4.36018E-02-2.73066E+00
 -1       595 8.07048E-01-3.82362E-02-1.65833E+00
 -1       596 0.00000E+00 0.00000E+00 0.00000E+00
 -1       597 0.00000E+00 0.00000E+00 0.00000E+00
 -1       598-2.89916E-01-3.87119E-03-5.15836E-01
 -1       599-8.82186E-01-2.96394E-02-2.56900E+00
 -1       600-1.15690E+00-1.12486E-02-4.19578E+00
 -1       601-9.06938E-01-2.56122E-03-4.32785E+00
 -1       602-1.27114E+00-2.24467E-02-1.17928E+01
 -1       603-4.25480E-01-4.12374E-02-1.73784E+01
 -1       604-3.78214E-01-5.68121E-02-1.74166E+01
 -1       605-3.15140E-01-5.18664E-02-1.78676E+01
 -1       606 1.23459E+00-7.63119E-02-5.87580E+00
 -1       607 3.56518E-01-2.71079E-02-6.00254E-01
 -1       608 3.01765E-01-6.35431E-03-5.43271E-01
 -1       609 2.30723E-01 6.78404E-03-1.77852E-01
 -1       610-1.22373E+00 7.86430E-03-4.31903E+00
 -1       611-1.32479E+00-2.41654E-02-9.70455E+00
 -1       612-4.28706E-01-6.55245E-02-1.73460E+01
 -1       613 2.89448E-01-9.76420E-02-1.78697E+01
 -1       614 9.38778E-01-9.36057E-02-1.17575E+01
 -1       615 1.34929E+00-9.48515E-02-9.66308E+00
 -1       616 9.28648E-01-3.68445E-02-2.77707E+00
 -1       617 3.36112E-01 5.83821E-03-5.10460E-01
 -1       618 0.00000E+00 0.00000E+00 0.00000E+00
 -1       619 0.00000E+00 0.00000E+00 0.00000E+00
 -1       620-3.25755E-01 6.20264E-03-5.09412E-01
 -1       621-8.51107E-01-1.06673E-02-1.74107E+00
 -1       622-8.44716E-01-1.83431E-02-2.73009E+00
 -1       623-1.24290E+00 6.52581E-04-5.73783E+00
 -1       624-1.16484E+00-1.83972E-03-6.01741E+00
 -1       625-1.23064E+00-3.80815E-02-1.32998E+01
 -1       626-9.10673E-01-5.84199E-02-1.62892E+01
 -1       627-3.39294E-01-6.10754E-02-1.78062E+01
 -1       628-3.05500E-01-6.61995E-02-1.78788E+01
 -1       629 3.69150E-01-1.03554E-01-1.74509E+01
 -1       630 8.96335E-01-9.99504E-02-1.61511E+01
 -1       631 1.18544E+00-9.55417E-02-1.17276E+01
 -1       632 1.32858E+00-8.40343E-02-8.00504E+00
 -1       633 1.18067E+00-5.13307E-02-4.38999E+00
 -1       634 8.41204E-01-2.31089E-02-1.55304E+00
 -1       635 3.48211E-01 5.38886E-03-5.86424E-01
 -1       636 2.57413E-01 1.72407E-02-2.00505E-01
 -1       637 2.18189E-01 1.19513E-02-1.40813E-01
 -1       638-1.83602E-01 1.79630E-02-1.59789E-01
 -1       639-2.12523E-01 1.27333E-02-1.40403E-01
 -1       640-3.18215E-01 7.81067E-03-4.35019E-01
 -1       641-8.11941E-01 2.73579E-03-1.48712E+00
 -1       642-7.10291E-01-3.53558E-03-1.59366E+00
 -1       643-8.78907E-01-2.04115E-02-2.44750E+00
 -1       644-1.11245E+00 9.92411E-03-4.39708E+00
 -1       645-1.23250E+00 7.81121E-03-4.63867E+00
 -1       646-1.24394E+00 2.64121E-03-5.51061E+00
 -1       647-1.29175E+00-9.10696E-03-8.07255E+00
 -1       648-1.36889E+00-1.81282E-02-9.22996E+00
 -1       649-1.26211E+00-2.42720E-02-9.65563E+00
 -1       650-9.77567E-01-3.77848E-02-1.15825E+01
 -1       651-1.26638E+00-3.19425E-02-1.27845E+01
 -1       652-1.01228E+00-4.61902E-02-1.53361E+01
 -1       653-9.20204E-01-5.42881E-02-1.58744E+01
 -1       654-3.87476E-01-7.94790E-02-1.73800E+01
 -1       655-3.46054E-01-6.41007E-02-1.77202E+01
 -1       656 3.62138E-01-1.04988E-01-1.75385E+01
 -1       657 8.80115E-01-1.01679E-01-1.63481E+01
 -1       658 7.52549E-01-1.09757E-01-1.62520E+01
 -1       659 8.91235E-01-9.91633E-02-1.59837E+01
 -1       660 9.14495E-01-9.10587E-02-1.53109E+01
 -1       661 9.11502E-01-8.93018E-02-1.50082E+01
 -1       662 1.19566E+00-1.03453E-01-1.34728E+01
 -1       663 1.25546E+00-9.93918E-02-1.30499E+01
 -1       664 1.26484E+00-9.50143E-02-1.21296E+01
 -1       665 1.36233E+00-9.23149E-02-9.32284E+00
 -1       666 1.20999E+00-7.04715E-02-5.82758E+00
 -1       667 1.21670E+00-7.01543E-02-5.48998E+00
 -1       668 1.18786E+00-6.14493E-02-4.89439E+00
 -1       669 8.08960E-01-3.02961E-02-2.75596E+00
 -1       670 9.32925E-01-3.51780E-02-2.43007E+00
 -1       671 8.74745E-01-2.83663E-02-1.93924E+00
 -1       672 2.63291E-01 1.63848E-02-2.62388E-01
 -1       673 0.00000E+00 0.00000E+00 0.00000E+00
 -1       674 0.00000E+00 0.00000E+00 0.00000E+00
 -1       675 0.00000E+00 0.00000E+00 0.00000E+00
 -1       676 0.00000E+00 0.00000E+00 0.00000E+00
 -1       677-2.31697E-01 1.96930E-03-3.49368E-01
 -1       678-1.17680E+00 7.24192E-03-4.78400E+00
 -1       679-1.13332E+00 3.71034E-04-5.20770E+00
 -1       680-1.20579E+00-2.97379E-02-1.21043E+01
 -1       681-4.12137E-01-6.35157E-02-1.75015E+01
 -1       682 2.99889E-01-9.91707E-02-1.77547E+01
 -1       683 2.71709E-01-1.03011E-01-1.76433E+01
 -1       684 1.17678E+00-1.00068E-01-1.28533E+01
 -1       685 1.33211E+00-8.80665E-02-8.54443E+00
 -1       686 1.42240E+00-8.96960E-02-9.01824E+00
 -1       687-8.24143E-01-1.25544E-02-1.88580E+00
 -1       688-1.29907E+00-1.22562E-02-8.45321E+00
 -1       689 3.17519E-01 1.40041E-02-4.64241E-01
 -1       690 0.00000E+00 0.00000E+00 0.00000E+00
 -1       691-1.24201E+00-8.54467E-03-8.53995E+00
 -1       692-1.35850E+00-1.98909E-03-8.22079E+00
 -1       693-1.24010E+00-3.91710E-02-1.17771E+01
 -1       694-1.22576E+00-4.04702E-02-1.20032E+01
 -1       695-3.13093E-01-9.46637E-02-1.76979E+01
 -1       696 1.99561E-01 3.77662E-02-2.13030E-01
 -1       697 0.00000E+00 0.00000E+00 0.00000E+00
 -1       698 0.00000E+00 0.00000E+00 0.00000E+00
 -1       699-2.54855E-01 6.21551E-02-2.43836E-01
 -1       700-3.07304E-01 8.08967E-02-2.79981E-01
 -1       701-8.29917E-01 8.10003E-03-1.86663E+00
 -1       702-8.38764E-01 6.71085E-03-2.35750E+00
 -1       703-8.55434E-01 5.02929E-03-2.53124E+00
 -1       704-1.21239E+00 1.55341E-02-4.67591E+00
 -1       705-1.35568E+00-1.27798E-02-9.15063E+00
 -1       706-1.16871E+00-4.33880E-02-1.29965E+01
 -1       707-1.34401E+00-4.26674E-02-1.29887E+01
 -1       708-4.29513E-01-1.05413E-01-1.74484E+01
 -1       709-3.45823E-01-8.83485E-02-1.77825E+01
 -1       710 3.01354E-01-1.51294E-01-1.77386E+01
 -1       711 8.99197E-01-1.26946E-01-1.59196E+01
 -1       712 9.46926E-01-1.16198E-01-1.51367E+01
 -1       713 8.89743E-01-1.16334E-01-1.54063E+01
 -1       714 1.12308E+00-1.11166E-01-1.25452E+01
 -1       715 1.22817E+00-1.03300E-01-1.20828E+01
 -1       716 1.26711E+00-1.00044E-01-1.18137E+01
 -1       717 1.34597E+00-8.90500E-02-8.42757E+00
 -1       718 1.22702E+00-5.50300E-02-5.59947E+00
 -1       719 1.14333E+00-6.16637E-02-5.86042E+00
 -1       720 1.11926E+00-5.07209E-02-4.62359E+00
 -1       721 7.20761E-01 1.03146E-02-2.17163E+00
 -1       722 2.99415E-01 3.16746E-02-3.94444E-01
 -1       723 1.97043E-01 4.38803E-02-1.26158E-01
 -1       724 0.00000E+00 0.00000E+00 0.00000E+00
 -1       725 0.00000E+00 0.00000E+00 0.00000E+00
 -1       726 0.00000E+00 0.00000E+00 0.00000E+00
 -1       727-2.48214E-01 5.87564E-02-1.71630E-01
 -1       728-2.27552E-01 5.40296E-02-1.15328E-01
 -1       729-3.01779E-01 7.54745E-02-2.01270E-01
 -1       730-3.20495E-01 4.37913E-02-4.54016E-01
 -1       731-3.37814E-01 5.78012E-02-5.10564E-01
 -1       732-9.06164E-01 1.02045E-02-2.55745E+00
 -1       733-8.59220E-01-3.08233E-03-2.75759E+00
 -1       734-1.25740E+00 1.47917E-02-5.48475E+00
 -1       735-1.25354E+00 1.19881E-02-5.74541E+00
 -1       736-1.32418E+00 7.66977E-04-7.80282E+00
 -1       737-1.29317E+00-2.08586E-02-9.54420E+00
 -1       738-1.29400E+00-3.67498E-02-1.15613E+01
 -1       739-1.23117E+00-4.09015E-02-1.32239E+01
 -1       740-9.90840E-01-7.53374E-02-1.52707E+01
 -1       741-9.88212E-01-7.04008E-02-1.50173E+01
 -1       742-9.31373E-01-8.18571E-02-1.61392E+01
 -1       743 3.44543E-01-1.43272E-01-1.75111E+01
 -1       744 3.64930E-01-1.52759E-01-1.74435E+01
 -1       745 1.15288E+00-1.08074E-01-1.32875E+01
 -1       746 1.18682E+00-1.09369E-01-1.34077E+01
 -1       747 1.34900E+00-1.10723E-01-1.30702E+01
 -1       748 1.35168E+00-9.57099E-02-9.29638E+00
 -1       749 1.33892E+00-9.91968E-02-9.65057E+00
 -1       750 1.32353E+00-8.50527E-02-8.01377E+00
 -1       751 1.22802E+00-6.39187E-02-6.03444E+00
 -1       752 1.17768E+00-5.11573E-02-4.39999E+00
 -1       753 9.21394E-01-4.46734E-03-2.43467E+00
 -1       754 9.17100E-01-1.66306E-02-2.74346E+00
 -1       755 8.61089E-01 5.85327E-03-1.58963E+00
 -1       756 0.00000E+00 0.00000E+00 0.00000E+00
 -1       757-1.33333E+00-1.82587E-02-9.55298E+00
 -1       758-1.17232E+00-4.56843E-02-1.31927E+01
 -1       759-8.39143E-01-7.60609E-02-1.48863E+01
 -1       760-4.46374E-01-9.19671E-02-1.72548E+01
 -1       761-3.91612E-01-1.01112E-01-1.72441E+01
 -1       762 1.12082E+00-4.72489E-02-4.42233E+00
 -1       763 3.03400E-01-2.93614E-04-5.24919E-01
 -1       764 2.00139E-01 2.53879E-02-4.23204E-01
 -1       765 0.00000E+00 0.00000E+00 0.00000E+00
 -1       766-2.24148E-01 6.47431E-02-1.58097E-01
 -1       767-8.11629E-01-1.46862E-03-1.51087E+00
 -1       768-7.28516E-01 1.67221E-02-2.34414E+00
 -1       769-9.67000E-01 1.52663E-02-4.50523E+00
 -1       770-1.15886E+00 8.68315E-03-4.20736E+00
 -1       771-9.81066E-01 3.03681E-03-5.87509E+00
 -1       772-9.82590E-01-4.64027E-02-1.16892E+01
 -1       773-1.23298E+00-4.80510E-02-1.28744E+01
 -1       774-8.67756E-01-8.74200E-02-1.61803E+01
 -1       775 2.65082E-01-1.38294E-01-1.78836E+01
 -1       776 2.60786E-01-1.49960E-01-1.78308E+01
 -1       777 8.74792E-01-1.23901E-01-1.63175E+01
 -1       778 7.75738E-01-1.29746E-01-1.53927E+01
 -1       779 9.88211E-01-1.01571E-01-1.17214E+01
 -1       780 9.89851E-01-8.59843E-02-8.11488E+00
 -1       781 9.82900E-01-5.81005E-02-5.84425E+00
 -1       782 7.67807E-01-2.11221E-02-2.76891E+00
 -1       783 7.99875E-01 5.41183E-03-1.53599E+00
 -1       784 1.98512E-01 6.01374E-02-1.69331E-01
 -1       785 0.00000E+00 0.00000E+00 0.00000E+00
 -1       786 0.00000E+00 0.00000E+00 0.00000E+00
 -1       787-2.71422E-01 7.81588E-02-2.15729E-01
 -1       788-2.55606E-01 7.00084E-02-4.13195E-01
 -1       789-1.03918E+00 1.48365E-02-5.45272E+00
 -1       790-1.11202E+00-1.95319E-02-9.19363E+00
 -1       791-7.60795E-01-1.01668E-01-1.59038E+01
 -1       792 1.16364E+00-1.08895E-01-1.20732E+01
 -1       793 1.13177E+00-8.79343E-02-8.40789E+00
 -1       794 6.95397E-01 1.39293E-02-1.79003E+00
 -1       795 0.00000E+00 0.00000E+00 0.00000E+00
 -1       796-1.18023E+00-4.95907E-02-1.26251E+01
 -1       797-8.34469E-01-9.75658E-02-1.56945E+01
 -1       798 1.06197E+00-4.32170E-02-5.03135E+00
 -1       799 7.81698E-01-4.35286E-02-1.58015E+01
 -1       800 0.00000E+00 0.00000E+00 0.00000E+00
 -1       801-7.55813E-01-6.90610E-02-2.33161E+00
 -1       802-1.10866E+00-2.27188E-02-5.53439E+00
 -1       803-1.14607E+00-2.00182E-02-9.28228E+00
 -1       804-8.03170E-01-4.10636E-05-1.61648E+01
 -1       805-2.67885E-01-7.92801E-03-1.78018E+01
 -1       806-2.19989E-01-2.12369E-02-1.78328E+01
 -1       807 7.75329E-01-4.72391E-02-1.54222E+01
 -1       808 1.11083E+00-7.58350E-02-1.29629E+01
 -1       809 1.04347E+00-7.96608E-02-1.22170E+01
 -1       810 1.09574E+00-9.26828E-02-8.29588E+00
 -1       811 9.92234E-01-9.10316E-02-4.70413E+00
 -1       812 1.97595E-01-5.95491E-02-4.00670E-01
 -1       813 0.00000E+00 0.00000E+00 0.00000E+00
 -1       814-6.83205E-01-5.79380E-02-1.55695E+00
 -1       815-6.15919E-01-5.75561E-02-2.47753E+00
 -1       816-6.32623E-01-4.84047E-02-2.67846E+00
 -1       817-1.10263E+00-1.43081E-02-4.27707E+00
 -1       818-9.15424E-01-1.98081E-02-4.49432E+00
 -1       819-8.63753E-01-2.09495E-02-5.69536E+00
 -1       820-9.10516E-01-1.78021E-02-6.00239E+00
 -1       821-9.75096E-01-2.23335E-02-9.74786E+00
 -1       822-1.06874E+00-1.51789E-02-1.29842E+01
 -1       823-6.83200E-01-1.95581E-02-1.64121E+01
 -1       824-2.38427E-01-2.97477E-02-1.80538E+01
 -1       825-3.11680E-01-3.55449E-05-1.80147E+01
 -1       826 5.50008E-01-7.25934E-02-1.62922E+01
 -1       827 6.83330E-01-6.59667E-02-1.51195E+01
 -1       828 8.85801E-01-8.66131E-02-1.19820E+01
 -1       829 9.13117E-01-9.00703E-02-1.17055E+01
 -1       830 9.60171E-01-9.34535E-02-8.00564E+00
 -1       831 7.35641E-01-8.86183E-02-2.55001E+00
 -1       832 7.43075E-01-8.12887E-02-1.82027E+00
 -1       833 6.31093E-01-6.67169E-02-1.59155E+00
 -1       834 2.46347E-01-5.28156E-02-1.58063E-01
 -1       835-8.05916E-01-3.35084E-02-2.86439E+00
 -1       836-1.12051E+00-2.11053E-02-7.86394E+00
 -1       837-1.07931E+00-1.54885E-02-1.17410E+01
 -1       838-1.02605E+00-2.27726E-02-1.12580E+01
 -1       839-8.50030E-01-3.06125E-02-1.48419E+01
 -1       840-1.00149E+00-8.37697E-03-1.50424E+01
 -1       841-7.59378E-01-2.31468E-02-1.51234E+01
 -1       842 2.45404E-01-5.65733E-02-1.80530E+01
 -1       843 7.76037E-01-9.89087E-02-1.66397E+01
 -1       844 8.70638E-01-6.74703E-02-1.48738E+01
 -1       845 1.13560E+00-9.86843E-02-9.77447E+00
 -1       846 1.04129E+00-9.47230E-02-5.98950E+00
 -1       847 1.06559E+00-9.25782E-02-6.41108E+00
 -1       848 7.51916E-01-7.88989E-02-2.79612E+00
 -1       849 0.00000E+00 0.00000E+00 0.00000E+00
 -1       850-1.13685E-01-2.36906E-02-6.73115E-02
 -1       851-3.71652E-01-4.11791E-03-6.52421E-01
 -1       852-3.52639E-01-2.51199E-02-5.77147E-01
 -1       853-7.07604E-01-3.11860E-02-1.28034E+00
 -1       854-1.08342E+00 7.10103E-04-3.96589E+00
 -1       855-7.93186E-01-3.31035E-04-3.82126E+00
 -1       856-1.30864E+00-1.55315E-02-7.70023E+00
 -1       857-1.26585E+00-2.03233E-02-9.80798E+00
 -1       858-1.20928E+00-2.38672E-02-1.01622E+01
 -1       859-1.18705E+00-1.71819E-02-1.13930E+01
 -1       860-7.61499E-01-4.75977E-02-1.67977E+01
 -1       861-7.84867E-01-2.36833E-02-1.66504E+01
 -1       862-4.00543E-01-2.88607E-02-1.74324E+01
 -1       863 3.76916E-01-6.32242E-02-1.74949E+01
 -1       864 4.23566E-01-9.19528E-02-1.73382E+01
 -1       865 1.17801E+00-8.93040E-02-1.36024E+01
 -1       866 7.58785E-01-9.66573E-02-1.38032E+01
 -1       867 1.24833E+00-1.01334E-01-1.00445E+01
 -1       868 1.07073E+00-8.69719E-02-6.31228E+00
 -1       869 8.63433E-01-6.59528E-02-3.02745E+00
 -1       870 3.72269E-01-1.24292E-02-7.09889E-01
 -1       871 0.00000E+00 0.00000E+00 0.00000E+00
 -1       872 0.00000E+00 0.00000E+00 0.00000E+00
 -1       873-1.09597E+00-3.37293E-02-1.37756E+01
 -1       874-8.76227E-01-4.06445E-02-1.33853E+01
 -1       875-1.04554E+00-5.02201E-02-1.38823E+01
 -1       876-9.08280E-01-3.89363E-02-1.48326E+01
 -1       877-8.12763E-01-2.96727E-02-1.65758E+01
 -1       878-4.56952E-01-5.49305E-02-1.73434E+01
 -1       879-2.32354E-01-6.14283E-02-1.81952E+01
 -1       880-2.57338E-01-4.99081E-02-1.81114E+01
 -1       881 8.55629E-01-8.11275E-02-1.48546E+01
 -1       882 1.01688E+00-1.09709E-01-1.38084E+01
 -1       883 1.05436E+00-5.49740E-02-4.02281E+00
 -1       884 9.94505E-01-3.72589E-02-3.90840E+00
 -1       885 8.38090E-01-5.43357E-02-3.01760E+00
 -1       886 6.73895E-01-9.07502E-03-1.24964E+00
 -1       887 7.27048E-01-3.34794E-02-1.42956E+00
 -1       888 0.00000E+00 0.00000E+00 0.00000E+00
 -1       889-1.53066E-01-3.11298E-02-1.19796E-01
 -1       890-3.03383E-01-2.33290E-02-4.99135E-01
 -1       891-6.12513E-01-1.57371E-02-1.32256E+00
 -1       892-7.00808E-01-4.55945E-02-1.57005E+00
 -1       893-8.68852E-01-8.12690E-03-4.29717E+00
 -1       894-1.09716E+00-1.09833E-02-4.46552E+00
 -1       895-1.12040E+00-1.41637E-02-5.81505E+00
 -1       896-9.15423E-01-1.22886E-02-5.95379E+00
 -1       897-1.12894E+00-9.36251E-03-6.33440E+00
 -1       898-1.14509E+00-1.18251E-02-7.50585E+00
 -1       899-9.08646E-01-2.27674E-02-7.84320E+00
 -1       900-1.12432E+00-2.20021E-02-8.73470E+00
 -1       901-1.22540E+00-2.00945E-02-9.53823E+00
 -1       902-8.85266E-01-2.15629E-02-1.51432E+01
 -1       903-8.10185E-01-1.60384E-02-1.63120E+01
 -1       904-4.00243E-01-1.98045E-02-1.75465E+01
 -1       905-2.68135E-01-2.74089E-02-1.80179E+01
 -1       906 2.37320E-01-8.52743E-02-1.81341E+01
 -1       907 1.72363E-01-1.03705E-01-1.81089E+01
 -1       908 2.46177E-01-6.14253E-02-1.80003E+01
 -1       909 7.01888E-01-7.43306E-02-1.51349E+01
 -1       910 7.84530E-01-9.19109E-02-1.33797E+01
 -1       911 1.12987E+00-8.71358E-02-1.18843E+01
 -1       912 8.28121E-01-9.36195E-02-1.18056E+01
 -1       913 1.14505E+00-9.54881E-02-1.13485E+01
 -1       914 1.20926E+00-9.74576E-02-9.69312E+00
 -1       915 1.11130E+00-9.45660E-02-8.94241E+00
 -1       916 1.16385E+00-8.98773E-02-8.09227E+00
 -1       917 1.22041E+00-9.02197E-02-7.65899E+00
 -1       918 8.11901E-01-6.88836E-02-2.73182E+00
 -1       919 6.50599E-01-5.34887E-02-1.62872E+00
 -1       920 3.27012E-01-2.39315E-02-5.72993E-01
 -1       921 2.02094E-01-3.49151E-02-1.83190E-01
 -1       922 1.52638E-01-4.00097E-02-9.34410E-02
 -1       923 0.00000E+00 0.00000E+00 0.00000E+00
 -1       924 0.00000E+00 0.00000E+00 0.00000E+00
 -1       925 0.00000E+00 0.00000E+00 0.00000E+00
 -1       926-6.33332E-01-5.66458E-02-1.96169E+00
 -1       927-6.98755E-01-6.53986E-02-2.10743E+00
 -1       928-9.87825E-01-1.76406E-02-4.98104E+00
 -1       929-1.23264E+00-1.98187E-02-9.42456E+00
 -1       930-9.59034E-01-1.69636E-02-1.24981E+01
 -1       931-1.12044E+00-2.61511E-02-1.31308E+01
 -1       932-7.68345E-01-1.07972E-02-1.58793E+01
 -1       933-8.35520E-01-1.33739E-02-1.61529E+01
 -1       934 2.35803E-01-5.60508E-02-1.79122E+01
 -1       935 7.56791E-01-4.61567E-02-1.57341E+01
 -1       936 1.01668E+00-8.31665E-02-1.24597E+01
 -1       937 1.21420E+00-9.00178E-02-8.25199E+00
 -1       938 9.26371E-01-9.51457E-02-5.24901E+00
 -1       939 1.07668E+00-7.89640E-02-4.62670E+00
 -1       940 6.60865E-01-6.93778E-02-2.01636E+00
 -1       941 7.51475E-01-6.01605E-02-1.78873E+00
 -1       942 0.00000E+00 0.00000E+00 0.00000E+00
 -1       943 0.00000E+00 0.00000E+00 0.00000E+00
 -1       944 0.00000E+00 0.00000E+00 0.00000E+00
 -1       945-1.27451E-01-4.20762E-02-2.28376E-01
 -1       946-1.57742E-01-3.06048E-02-1.85414E-01
 -1       947-2.92306E-01-3.59805E-02-4.10590E-01
 -1       948-6.94256E-01-4.67766E-02-1.74064E+00
 -1       949-6.79280E-01-4.79626E-02-2.34402E+00
 -1       950-8.03030E-01-4.93531E-02-2.45989E+00
 -1       951-1.03449E+00-8.92067E-03-4.42058E+00
 -1       952-1.03920E+00-1.21644E-02-4.73246E+00
 -1       953-8.77360E-01-1.42203E-02-5.48983E+00
 -1       954-1.13374E+00-1.37461E-02-5.67756E+00
 -1       955-1.17883E+00-1.79142E-02-8.06875E+00
 -1       956-9.43044E-01-2.24135E-02-9.08371E+00
 -1       957-1.07457E+00-2.24237E-02-1.17394E+01
 -1       958-1.12742E+00-1.76235E-02-1.20833E+01
 -1       959-9.19076E-01-1.65334E-02-1.53189E+01
 -1       960-4.04864E-01-1.88089E-02-1.76051E+01
 -1       961-2.83099E-01-5.36797E-03-1.78424E+01
 -1       962-2.69440E-01-2.08214E-02-1.79400E+01
 -1       963 1.88494E-01-5.24207E-02-1.78319E+01
 -1       964 3.66348E-01-5.97629E-02-1.75621E+01
 -1       965 7.47986E-01-7.01126E-02-1.61336E+01
 -1       966 6.84856E-01-5.95389E-02-1.56113E+01
 -1       967 8.68787E-01-5.79055E-02-1.53415E+01
 -1       968 1.04273E+00-8.69052E-02-1.32988E+01
 -1       969 9.55316E-01-8.51877E-02-1.27992E+01
 -1       970 8.65398E-01-8.96543E-02-1.22813E+01
 -1       971 1.14210E+00-8.67200E-02-1.20190E+01
 -1       972 1.11331E+00-9.80627E-02-9.72093E+00
 -1       973 1.20444E+00-9.65220E-02-9.45372E+00
 -1       974 9.27829E-01-9.34782E-02-8.59457E+00
 -1       975 1.08515E+00-8.85023E-02-5.85954E+00
 -1       976 8.51963E-01-7.29433E-02-2.58369E+00
 -1       977 3.27848E-01-2.72293E-02-5.03635E-01
 -1       978 1.90208E-01-4.61230E-02-3.08587E-01
 -1       979 0.00000E+00 0.00000E+00 0.00000E+00
 -1       980 9.98910E-01-8.79092E-02-1.30160E+01
 -1       981 1.74766E-01-3.34402E-02-2.48465E-01
 -1       982 0.00000E+00 0.00000E+00 0.00000E+00
 -1       983-1.15866E+00-2.12491E-02-9.06594E+00
 -1       984-1.14296E+00-2.18363E-02-9.33135E+00
 -1       985-9.86035E-01-2.63039E-02-9.68805E+00
 -1       986-7.91898E-01-3.34100E-02-1.53729E+01
 -1       987 1.13959E+00-9.02587E-02-8.58364E+00
 -1       988 1.12182E+00-9.02107E-02-8.32539E+00
 -1       989 1.12854E+00-8.90416E-02-8.08108E+00
 -1       990 7.81318E-01-6.01333E-02-2.53753E+00
 -1       991 8.10424E-01-6.22964E-02-2.73312E+00
 -1       992 7.60915E-01-5.13993E-02-1.96845E+00
 -1       993 7.01501E-01-5.92952E-02-1.70908E+00
 -1       994 0.00000E+00 0.00000E+00 0.00000E+00
 -1       995-2.03463E-01-1.51097E-02-2.79145E-01
 -1       996-1.83660E-01-1.98608E-02-2.08986E-01
 -1       997-6.06447E-01-3.50609E-02-1.90698E+00
 -1       998-7.33543E-01-4.06029E-02-1.68169E+00
 -1       999-7.11852E-01-2.96380E-02-2.13719E+00
 -1      1000-8.48637E-01-1.04404E-02-4.88415E+00
 -1      1001-1.07929E+00-1.09656E-02-4.55641E+00
 -1      1002-8.16317E-01-1.77337E-02-5.88306E+00
 -1      1003-1.11197E+00-1.19780E-02-5.68358E+00
 -1      1004-1.18143E+00-9.13046E-03-5.49384E+00
 -1      1005-1.22965E+00-1.52411E-02-8.17516E+00
 -1      1006-1.22028E+00-1.33139E-02-8.00688E+00
 -1      1007-1.06192E+00-1.84715E-02-8.33549E+00
 -1      1008-1.15166E+00-2.02125E-02-1.19253E+01
 -1      1009-9.60104E-01-3.46813E-02-1.25189E+01
 -1      1010-6.45958E-01-4.75410E-02-1.58674E+01
 -1      1011-3.63833E-01-4.76328E-02-1.76277E+01
 -1      1012-3.82539E-01-3.90080E-02-1.75562E+01
 -1      1013-3.73735E-01-3.98903E-02-1.74611E+01
 -1      1014-2.09039E-01-5.87246E-02-1.77731E+01
 -1      1015-2.68090E-01-3.30635E-02-1.78800E+01
 -1      1016-2.61356E-01-3.63240E-02-1.79089E+01
 -1      1017 1.90680E-01-7.85399E-02-1.77910E+01
 -1      1018 2.15915E-01-6.27069E-02-1.78841E+01
 -1      1019 2.35889E-01-9.70497E-02-1.76783E+01
 -1      1020 3.15471E-01-7.94357E-02-1.75882E+01
 -1      1021 2.62057E-01-8.07524E-02-1.74401E+01
 -1      1022 5.78057E-01-8.36223E-02-1.59475E+01
 -1      1023 7.74878E-01-7.10847E-02-1.61851E+01
 -1      1024 7.47957E-01-8.95623E-02-1.56786E+01
 -1      1025 1.09430E+00-8.78783E-02-1.31468E+01
 -1      1026 1.08791E+00-9.20539E-02-1.32847E+01
 -1      1027 1.13228E+00-8.55015E-02-1.18721E+01
 -1      1028 1.13762E+00-8.66924E-02-1.21066E+01
 -1      1029 1.21321E+00-9.45548E-02-9.47517E+00
 -1      1030 1.20328E+00-9.58226E-02-9.63617E+00
 -1      1031 1.04510E+00-9.42576E-02-9.31900E+00
 -1      1032 8.35924E-01-8.52671E-02-6.06627E+00
 -1      1033 1.11657E+00-8.32853E-02-5.77128E+00
 -1      1034 9.21452E-01-7.23195E-02-5.26565E+00
 -1      1035 7.95136E-01-7.28823E-02-4.99189E+00
 -1      1036 1.08406E+00-7.65826E-02-4.63364E+00
 -1      1037 2.59559E-01-1.43984E-02-4.01904E-01
 -1      1038 3.28634E-01-2.63480E-02-4.89114E-01
 -1      1039 2.08366E-01-1.39492E-02-2.55893E-01
 -1      1040 0.00000E+00 0.00000E+00 0.00000E+00
 -1      1041 0.00000E+00 0.00000E+00 0.00000E+00
 -1      1042-1.94462E-01-2.23701E-02-1.61596E-01
 -1      1043-2.11941E-01-4.90199E-03-3.32279E-01
 -1      1044-8.14415E-01-4.27276E-02-2.40866E+00
 -1      1045-1.07323E+00-6.96436E-03-4.42290E+00
 -1      1046-9.35194E-01-2.53072E-02-1.16433E+01
 -1      1047-1.15600E+00-1.53141E-02-1.12574E+01
 -1      1048-1.05914E+00-2.64302E-02-1.31770E+01
 -1      1049 2.24553E-01-7.31986E-02-1.78867E+01
 -1      1050 8.61199E-01-7.11562E-02-1.53830E+01
 -1      1051 7.88527E-01-9.93880E-02-1.24979E+01
 -1      1052 8.69590E-01-9.88553E-02-9.71182E+00
 -1      1053 1.20673E+00-8.86294E-02-1.01545E+01
 -1      1054 3.04402E-01-3.48112E-02-5.56694E-01
 -1      1055 0.00000E+00 0.00000E+00 0.00000E+00
 -1      1056 0.00000E+00 0.00000E+00 0.00000E+00
 -1      1057 0.00000E+00 0.00000E+00 0.00000E+00
 -1      1058 0.00000E+00 0.00000E+00 0.00000E+00
 -1      1059 0.00000E+00 0.00000E+00 0.00000E+00
 -1      1060-1.67317E-01-1.75351E-02-1.08429E-01
 -1      1061-2.96961E-01-2.47480E-02-5.05528E-01
 -1      1062-3.55116E-01-2.73143E-02-6.34799E-01
 -1      1063-6.56698E-01-7.31741E-02-1.19813E+00
 -1      1064-6.17746E-01-4.59986E-02-2.70234E+00
 -1      1065-8.44076E-01-4.95113E-02-2.89151E+00
 -1      1066-1.18903E+00-2.03940E-02-7.48923E+00
 -1      1067-1.24267E+00-2.22668E-02-9.82987E+00
 -1      1068-1.08834E+00-1.55392E-02-1.36926E+01
 -1      1069-7.46781E-01-2.42495E-02-1.64792E+01
 -1      1070-7.89176E-01-1.48486E-02-1.66326E+01
 -1      1071-2.41863E-01-2.59226E-02-1.79751E+01
 -1      1072-2.36484E-01-3.27598E-02-1.79997E+01
 -1      1073-1.79100E-01-2.86948E-03-1.80377E+01
 -1      1074 2.01151E-01-5.60224E-02-1.79685E+01
 -1      1075 3.87253E-01-5.68445E-02-1.72981E+01
 -1      1076 3.40285E-01-7.85003E-02-1.72967E+01
 -1      1077 7.55454E-01-6.10923E-02-1.66243E+01
 -1      1078 6.44231E-01-6.68238E-02-1.50637E+01
 -1      1079 8.67146E-01-5.89598E-02-1.48771E+01
 -1      1080 1.15523E+00-7.99865E-02-1.14259E+01
 -1      1081 8.17900E-01-8.95458E-02-1.17839E+01
 -1      1082 1.11773E+00-8.94546E-02-7.74449E+00
 -1      1083 1.12640E+00-9.00761E-02-6.32941E+00
 -1      1084 1.08735E+00-8.79281E-02-6.49468E+00
 -1      1085 1.05403E+00-8.36984E-02-4.06073E+00
 -1      1086 8.43067E-01-8.78924E-02-3.12728E+00
 -1      1087 7.08585E-01-7.23395E-02-1.38600E+00
 -1      1088 6.35843E-01-5.89123E-02-1.33292E+00
 -1      1089 3.65544E-01-4.78292E-02-6.46622E-01
 -1      1090 1.90022E-01-1.07031E-02-1.77801E-01
 -1      1091 1.46468E-01 1.10130E-02-9.90924E-02
 -1      1092 0.00000E+00 0.00000E+00 0.00000E+00
 -1      1093-1.09899E-01 1.58764E-02-8.16992E-02
 -1      1094-8.96824E-02-1.84513E-02-4.00974E-02
 -1      1095-1.13083E+00-2.94292E-02-1.00687E+01
 -1      1096-1.19590E+00-2.42214E-02-1.01527E+01
 -1      1097-9.95504E-01-2.40320E-02-1.37632E+01
 -1      1098 1.47846E-01-8.14981E-02-1.79788E+01
 -1      1099 1.29916E-01-2.47872E-02-1.80537E+01
 -1      1100 4.56728E-01-8.97134E-02-1.65979E+01
 -1      1101 1.04894E+00-6.85367E-02-1.38333E+01
 -1      1102 1.00496E+00-8.40358E-02-1.37574E+01
 -1      1103 1.11184E+00-8.76276E-02-7.57671E+00
 -1      1104 1.17491E+00-9.25113E-02-7.49830E+00
 -1      1105 2.69974E-01-3.45910E-02-6.62821E-01
 -1      1106 4.15044E-01-7.21737E-02-7.44955E-01
 -1      1107 1.44140E-01 2.24099E-02-7.97405E-02
 -1      1108 0.00000E+00 0.00000E+00 0.00000E+00
 -1      1109 0.00000E+00 0.00000E+00 0.00000E+00
 -1      1110-2.31192E-01 9.68642E-04-5.28590E-01
 -1      1111-7.69704E-01-4.33921E-02-2.94579E+00
 -1      1112-9.31523E-01-8.18933E-03-5.89460E+00
 -1      1113-1.05811E+00-1.53158E-02-6.29034E+00
 -1      1114-1.14479E+00-1.73428E-02-6.26241E+00
 -1      1115-1.01743E+00-1.47996E-02-7.89827E+00
 -1      1116-1.02481E+00-2.66252E-02-9.62704E+00
 -1      1117-1.13677E+00-2.26390E-02-1.14159E+01
 -1      1118-9.43579E-01-1.76250E-02-1.47507E+01
 -1      1119-9.13086E-01-2.73049E-02-1.47644E+01
 -1      1120-4.35936E-01-1.61349E-02-1.72755E+01
 -1      1121-2.92600E-01-4.78423E-02-1.72730E+01
 -1      1122 8.10453E-01-6.58095E-02-1.47897E+01
 -1      1123 6.93070E-01-8.68927E-02-1.51007E+01
 -1      1124 9.19252E-01-1.01417E-01-1.33670E+01
 -1      1125 1.05686E+00-8.46880E-02-1.13609E+01
 -1      1126 1.18297E+00-8.95998E-02-9.99513E+00
 -1      1127 1.00240E+00-9.63079E-02-9.72958E+00
 -1      1128 1.00374E+00-8.75427E-02-8.02049E+00
 -1      1129 1.10691E+00-7.97796E-02-6.24611E+00
 -1      1130 6.49892E-01-4.52074E-02-2.77115E+00
 -1      1131 5.96567E-01-4.27685E-02-1.61008E+00
 -1      1132-1.59372E-01-1.07299E-03-1.43603E-01
 -1      1133-6.23709E-01-2.12001E-02-1.53966E+00
 -1      1134-6.66774E-01-2.69444E-02-2.66631E+00
 -1      1135-9.53728E-01-3.21700E-02-1.16485E+01
 -1      1136-9.40527E-01-4.30174E-02-1.32707E+01
 -1      1137-7.08229E-01-5.20093E-02-1.49956E+01
 -1      1138 1.99518E-01-9.44499E-02-1.79054E+01
 -1      1139 6.54041E-01-9.88664E-02-1.63342E+01
 -1      1140 9.26343E-01-7.72034E-02-6.01734E+00
 -1      1141 9.03518E-01-6.33810E-02-4.43557E+00
 -1      1142 0.00000E+00 0.00000E+00 0.00000E+00
 -1      1143-1.83298E-01 1.76994E-03-1.17007E-01
 -1      1144-6.84387E-01 2.77104E-02-1.25597E+00
 -1      1145-7.62111E-01-2.17049E-02-2.89319E+00
 -1      1146-1.19060E+00-2.60452E-02-1.13570E+01
 -1      1147-1.12213E+00-4.05093E-02-1.34499E+01
 -1      1148-9.87162E-01-4.54873E-02-1.49004E+01
 -1      1149-6.93286E-01-5.87997E-02-1.62755E+01
 -1      1150 1.39449E-01-1.20175E-01-1.79882E+01
 -1      1151 8.51396E-01-9.98282E-02-1.47908E+01
 -1      1152 1.03410E+00-7.47962E-02-6.40794E+00
 -1      1153 1.07744E+00-5.23600E-02-4.25986E+00
 -1      1154 0.00000E+00 0.00000E+00 0.00000E+00
 -1      1155 0.00000E+00 0.00000E+00 0.00000E+00
 -1      1156-1.53574E-01 1.15097E-02-8.15010E-02
 -1      1157-3.62611E-01 3.24825E-02-6.83133E-01
 -1      1158-3.06032E-01 1.94995E-02-5.32760E-01
 -1      1159-8.14722E-01-3.75183E-04-2.97932E+00
 -1      1160-1.06176E+00 1.88224E-02-3.99087E+00
 -1      1161-1.10971E+00-1.81936E-03-6.33532E+00
 -1      1162-9.06791E-01-1.59680E-02-7.49515E+00
 -1      1163-1.18252E+00-3.79244E-03-7.56536E+00
 -1      1164-1.08699E+00-4.80138E-02-1.36482E+01
 -1      1165-2.26448E-01-8.58758E-02-1.79486E+01
 -1      1166 1.93069E-01-1.27957E-01-1.79669E+01
 -1      1167 3.96622E-01-1.27023E-01-1.72490E+01
 -1      1168 3.41683E-01-1.19468E-01-1.74178E+01
 -1      1169 7.08594E-01-1.33480E-01-1.65503E+01
 -1      1170 8.03696E-01-1.11582E-01-1.37485E+01
 -1      1171 1.13340E+00-9.78086E-02-1.12989E+01
 -1      1172 8.05824E-01-9.65326E-02-1.00269E+01
 -1      1173 1.20198E+00-1.01445E-01-1.00754E+01
 -1      1174 1.19419E+00-8.16900E-02-7.66054E+00
 -1      1175 1.07554E+00-6.86722E-02-6.02862E+00
 -1      1176 1.03529E+00-3.79520E-02-4.05872E+00
 -1      1177 3.56853E-01 8.96157E-03-6.83388E-01
 -1      1178 1.54579E-01 2.71131E-03-8.67648E-02
 -1      1179 0.00000E+00 0.00000E+00 0.00000E+00
 -1      1180-1.19688E+00-3.10538E-02-1.01011E+01
 -1      1181 8.44097E-01-1.13028E-01-1.47698E+01
 -1      1182 1.11152E+00-6.97695E-02-6.45388E+00
 -1      1183 0.00000E+00 0.00000E+00 0.00000E+00
 -1      1184-1.24941E-01 3.00033E-02-7.81386E-02
 -1      1185-9.02480E-01 3.98413E-05-5.92513E+00
 -1      1186-1.04389E+00 2.67766E-03-6.22371E+00
 -1      1187-1.07193E+00-3.65609E-02-1.12033E+01
 -1      1188-1.08242E+00-4.29556E-02-1.31062E+01
 -1      1189-8.66863E-01-5.39115E-02-1.33000E+01
 -1      1190-9.25162E-01-5.78800E-02-1.46639E+01
 -1      1191-8.61381E-01-7.10006E-02-1.47088E+01
 -1      1192-8.72298E-01-5.71255E-02-1.49814E+01
 -1      1193-7.89335E-01-7.15341E-02-1.61660E+01
 -1      1194-7.69983E-01-7.73859E-02-1.65496E+01
 -1      1195-4.33634E-01-8.48036E-02-1.72377E+01
 -1      1196-4.21134E-01-1.03763E-01-1.72553E+01
 -1      1197-2.61776E-01-7.88921E-02-1.78466E+01
 -1      1198 1.47534E-01-1.43178E-01-1.79562E+01
 -1      1199 2.19275E-01-1.14018E-01-1.78716E+01
 -1      1200 3.42741E-01-1.22633E-01-1.74836E+01
 -1      1201 7.18153E-01-9.19142E-02-1.56589E+01
 -1      1202 1.08881E+00-1.05600E-01-1.32510E+01
 -1      1203 1.00810E+00-1.22451E-01-1.37488E+01
 -1      1204 1.21409E+00-9.52011E-02-9.57942E+00
 -1      1205 1.09288E+00-9.13826E-02-8.92399E+00
 -1      1206 1.21413E+00-8.59090E-02-8.15561E+00
 -1      1207 9.42277E-01-5.27586E-02-4.48980E+00
 -1      1208 8.02603E-01-2.70632E-02-3.08574E+00
 -1      1209 8.07015E-01-1.44593E-02-3.01331E+00
 -1      1210 7.20955E-01-2.07534E-02-1.62425E+00
 -1      1211 7.06237E-01-8.18277E-03-1.29012E+00
 -1      1212 3.06519E-01 9.59640E-03-5.36980E-01
 -1      1213 1.93238E-01 2.22220E-02-1.61098E-01
 -1      1214 0.00000E+00 0.00000E+00 0.00000E+00
 -1      1215 0.00000E+00 0.00000E+00 0.00000E+00
 -1      1216-7.24611E-01-1.31400E-03-1.68322E+00
 -1      1217-1.07319E+00 1.09726E-02-4.46431E+00
 -1      1218-9.71204E-01 1.58533E-03-4.95287E+00
 -1      1219-1.10688E+00-1.79638E-02-8.68516E+00
 -1      1220-9.43219E-01-3.81363E-02-1.23969E+01
 -1      1221-1.10294E+00-4.39242E-02-1.30327E+01
 -1      1222-7.90054E-01-6.04814E-02-1.54731E+01
 -1      1223-8.08400E-01-7.25034E-02-1.60239E+01
 -1      1224 2.15585E-01-1.14533E-01-1.78060E+01
 -1      1225 7.40985E-01-1.13619E-01-1.60860E+01
 -1      1226 1.01517E+00-9.91445E-02-1.25229E+01
 -1      1227 1.22479E+00-9.24537E-02-9.15255E+00
 -1      1228 9.12845E-01-7.16970E-02-5.26189E+00
 -1      1229 1.05762E+00-5.25593E-02-4.62895E+00
 -1      1230 6.60962E-01-2.95206E-02-2.00538E+00
 -1      1231 7.47403E-01-1.92647E-02-1.77277E+00
 -1      1232 0.00000E+00 0.00000E+00 0.00000E+00
 -1      1233 0.00000E+00 0.00000E+00 0.00000E+00
 -1      1234 0.00000E+00 0.00000E+00 0.00000E+00
 -1      1235-1.52394E-01 1.48181E-02-2.73152E-01
 -1      1236-1.87475E-01 2.01609E-02-2.19308E-01
 -1      1237-2.33221E-01 8.97435E-03-3.75905E-01
 -1      1238-3.08077E-01 1.92030E-02-4.80690E-01
 -1      1239-6.26804E-01-9.59018E-03-1.88127E+00
 -1      1240-7.40141E-01-8.96393E-03-2.43013E+00
 -1      1241-9.99916E-01 7.86688E-03-4.67062E+00
 -1      1242-1.11918E+00 3.53254E-03-5.64705E+00
 -1      1243-1.15011E+00-1.06886E-02-8.01038E+00
 -1      1244-9.25072E-01-2.41078E-02-9.03205E+00
 -1      1245-1.21260E+00-2.34040E-02-9.36923E+00
 -1      1246-1.11188E+00-3.49197E-02-1.17753E+01
 -1      1247-8.98153E-01-5.95592E-02-1.51636E+01
 -1      1248-3.87986E-01-8.26156E-02-1.74518E+01
 -1      1249-2.79478E-01-7.42172E-02-1.76806E+01
 -1      1250-2.67355E-01-8.05691E-02-1.77607E+01
 -1      1251 1.72072E-01-1.10524E-01-1.77299E+01
 -1      1252 7.93712E-01-1.02518E-01-1.53319E+01
 -1      1253 1.03560E+00-1.08494E-01-1.32653E+01
 -1      1254 8.05106E-01-1.03033E-01-1.22362E+01
 -1      1255 1.12525E+00-9.98343E-02-1.19831E+01
 -1      1256 1.09099E+00-9.77982E-02-9.70136E+00
 -1      1257 1.18062E+00-9.55011E-02-9.43407E+00
 -1      1258 9.08185E-01-9.12239E-02-8.57525E+00
 -1      1259 1.19158E+00-8.59847E-02-8.23754E+00
 -1      1260 1.07333E+00-6.85562E-02-5.64626E+00
 -1      1261 1.00776E+00-6.81911E-02-6.00296E+00
 -1      1262 8.38619E-01-2.80608E-02-2.57515E+00
 -1      1263 2.97746E-01 1.67676E-02-4.58259E-01
 -1      1264 1.73973E-01 1.13716E-02-2.77903E-01
 -1      1265 1.90032E-01 2.17617E-02-2.01407E-01
 -1      1266 0.00000E+00 0.00000E+00 0.00000E+00
 -1      1267 9.85496E-01-1.06364E-01-1.29797E+01
 -1      1268-7.51444E-01-8.01755E-03-2.61188E+00
 -1      1269-7.65501E-01-7.30081E-03-2.54249E+00
 -1      1270-8.24870E-01-2.52226E-02-9.04545E+00
 -1      1271-1.21268E+00-1.95237E-02-9.39040E+00
 -1      1272-1.12000E+00-2.02481E-02-9.27713E+00
 -1      1273-1.11296E+00-4.08455E-02-1.30479E+01
 -1      1274-9.89268E-01-4.40264E-02-1.28610E+01
 -1      1275-7.79514E-01-7.59765E-02-1.52670E+01
 -1      1276-8.80144E-01-6.78653E-02-1.50158E+01
 -1      1277-7.91318E-01-9.33711E-02-1.55483E+01
 -1      1278-6.29096E-01-8.89972E-02-1.57847E+01
 -1      1279-7.92542E-01-7.86134E-02-1.61228E+01
 -1      1280-7.56518E-01-7.67074E-02-1.60949E+01
 -1      1281-2.46400E-01-9.51596E-02-1.77177E+01
 -1      1282-2.64266E-01-8.21772E-02-1.77973E+01
 -1      1283 1.12680E+00-8.98627E-02-8.57271E+00
 -1      1284 1.19118E+00-8.83380E-02-8.18190E+00
 -1      1285 1.10995E+00-8.89395E-02-8.31300E+00
 -1      1286 7.21898E-01-2.01644E-02-2.45233E+00
 -1      1287 8.16533E-01-2.38491E-02-2.67558E+00
 -1      1288 6.90880E-01-7.71534E-03-2.30969E+00
 -1      1289 7.50929E-01-8.17297E-04-1.93484E+00
 -1      1290 7.20164E-01-6.62680E-03-1.62473E+00
 -1      1291 7.24733E-01-8.06684E-03-1.75250E+00
 -1      1292 1.46472E-01 2.58995E-02-2.10537E-01
 -1      1293 1.40205E-01 2.28633E-02-1.28449E-01
 -1      1294 0.00000E+00 0.00000E+00 0.00000E+00
 -1      1295 0.00000E+00 0.00000E+00 0.00000E+00
 -1      1296-1.84141E-01 5.60072E-02-2.78994E-01
 -1      1297-1.86231E-01 4.34962E-02-2.08782E-01
 -1      1298-6.52713E-01 1.72213E-03-1.90042E+00
 -1      1299-7.13263E-01-4.99801E-03-1.66546E+00
 -1      1300-6.93346E-01 1.81427E-02-2.11864E+00
 -1      1301-9.17557E-01 6.53723E-03-4.80985E+00
 -1      1302-1.06356E+00 6.95258E-03-4.51843E+00
 -1      1303-9.99163E-01 1.20033E-02-4.98485E+00
 -1      1304-1.11865E+00 7.05833E-03-5.53338E+00
 -1      1305-1.11077E+00 2.82487E-03-5.76084E+00
 -1      1306-1.20206E+00-7.98358E-03-8.12477E+00
 -1      1307-9.51435E-01-8.06820E-03-7.81586E+00
 -1      1308-9.03960E-01-1.61752E-02-8.39872E+00
 -1      1309-8.94767E-01-1.79537E-02-8.65147E+00
 -1      1310-1.11606E+00-3.83780E-02-1.17839E+01
 -1      1311-4.00559E-01-9.36064E-02-1.74203E+01
 -1      1312-3.99505E-01-9.29081E-02-1.73354E+01
 -1      1313-3.45933E-01-1.11491E-01-1.75132E+01
 -1      1314 1.90381E-01-1.40103E-01-1.77319E+01
 -1      1315 2.20977E-01-1.27575E-01-1.78271E+01
 -1      1316 2.66766E-01-1.63545E-01-1.76409E+01
 -1      1317 6.26710E-01-1.21837E-01-1.58960E+01
 -1      1318 7.73895E-01-1.15417E-01-1.61469E+01
 -1      1319 7.37661E-01-1.31186E-01-1.56485E+01
 -1      1320 1.09056E+00-1.06122E-01-1.31175E+01
 -1      1321 1.13372E+00-1.02094E-01-1.20769E+01
 -1      1322 1.19496E+00-9.70972E-02-9.45680E+00
 -1      1323 1.18738E+00-9.93275E-02-9.61572E+00
 -1      1324 8.89228E-01-7.15371E-02-6.03247E+00
 -1      1325 1.09746E+00-6.45335E-02-5.78368E+00
 -1      1326 8.83315E-01-5.66361E-02-5.40565E+00
 -1      1327 9.92829E-01-4.71180E-02-5.24839E+00
 -1      1328 7.68753E-01-5.19281E-02-4.97948E+00
 -1      1329 1.05994E+00-5.47544E-02-4.61770E+00
 -1      1330 2.21829E-01 2.88941E-02-3.40107E-01
 -1      1331 2.97149E-01 9.50517E-03-4.30768E-01
 -1      1332 1.03745E-01 3.30370E-02-2.53636E-01
 -1      1333 0.00000E+00 0.00000E+00 0.00000E+00
 -1      1334 0.00000E+00 0.00000E+00 0.00000E+00
 -1      1335 0.00000E+00 0.00000E+00 0.00000E+00
 -1      1336 0.00000E+00 0.00000E+00 0.00000E+00
 -1      1337-1.60329E-01 3.99549E-02-1.40310E-01
 -1      1338-2.09399E-01 6.83616E-02-3.25616E-01
 -1      1339-7.05786E-01-2.29962E-03-1.61612E+00
 -1      1340-1.06021E+00 9.75734E-03-4.38217E+00
 -1      1341-9.43358E-01-5.26010E-02-1.24462E+01
 -1      1342-8.27145E-01-4.53848E-02-1.32593E+01
 -1      1343 2.17999E-01-1.33631E-01-1.78464E+01
 -1      1344 7.67278E-01-1.20476E-01-1.61971E+01
 -1      1345 8.20400E-01-1.05518E-01-1.50986E+01
 -1      1346 8.17590E-01-1.06275E-01-1.51797E+01
 -1      1347 7.75159E-01-6.02890E-02-4.37713E+00
 -1      1348 2.67447E-01-7.13666E-03-4.89368E-01
 -1      1349 1.77335E-01 4.79398E-02-2.89979E-01
 -1      1350 0.00000E+00 0.00000E+00 0.00000E+00
 -1      1351 0.00000E+00 0.00000E+00 0.00000E+00
 -1      1352-1.64697E-01 3.93196E-02-8.50795E-02
 -1      1353-2.54674E-01 1.61439E-02-5.45983E-01
 -1      1354-3.56513E-01 2.45852E-02-6.36921E-01
 -1      1355-6.79151E-01-2.24625E-02-1.30219E+00
 -1      1356-8.18802E-01-3.15869E-02-2.93157E+00
 -1      1357-9.93153E-01-1.62994E-02-3.92023E+00
 -1      1358-1.19275E+00 4.98306E-03-6.02241E+00
 -1      1359-8.96563E-01-8.37196E-03-5.91286E+00
 -1      1360-1.07922E+00-9.05664E-03-6.22435E+00
 -1      1361-1.14381E+00-7.98430E-03-7.41312E+00
 -1      1362-9.14976E-01-4.11115E-02-1.15572E+01
 -1      1363-1.18657E+00-3.64707E-02-1.13648E+01
 -1      1364-1.00227E+00-3.35602E-02-1.34842E+01
 -1      1365-1.10502E+00-3.63742E-02-1.35652E+01
 -1      1366-9.21932E-01-5.35196E-02-1.46618E+01
 -1      1367-7.59869E-01-6.65938E-02-1.64481E+01
 -1      1368-7.46757E-01-8.50877E-02-1.64682E+01
 -1      1369-4.39462E-01-8.06088E-02-1.72001E+01
 -1      1370-2.41286E-01-5.78590E-02-1.78846E+01
 -1      1371 1.51434E-01-9.67569E-02-1.78999E+01
 -1      1372 3.28262E-01-1.35410E-01-1.74335E+01
 -1      1373 3.75677E-01-1.28189E-01-1.72874E+01
 -1      1374 7.66663E-01-1.11626E-01-1.64645E+01
 -1      1375 8.69742E-01-8.92100E-02-1.48020E+01
 -1      1376 1.14741E+00-9.25328E-02-1.13924E+01
 -1      1377 9.07768E-01-9.41836E-02-1.17001E+01
 -1      1378 1.17080E+00-9.78463E-02-1.00689E+01
 -1      1379 1.11402E+00-8.19307E-02-7.59947E+00
 -1      1380 1.02079E+00-8.71071E-02-7.64564E+00
 -1      1381 1.05758E+00-7.62044E-02-6.35314E+00
 -1      1382 9.62013E-01-6.66848E-02-4.18403E+00
 -1      1383 1.01468E+00-6.99825E-02-4.00512E+00
 -1      1384 8.53103E-01-4.59665E-02-3.00706E+00
 -1      1385 7.02060E-01-2.47276E-02-1.30353E+00
 -1      1386 6.84779E-01-1.36010E-02-1.26809E+00
 -1      1387 3.14054E-01-3.34441E-02-5.75810E-01
 -1      1388 9.20096E-02 7.19898E-03-5.49033E-02
 -1      1389 0.00000E+00 0.00000E+00 0.00000E+00
 -1      1390-1.48420E-01 3.41857E-02-3.55791E-02
 -1      1391-8.42877E-02 1.88274E-02-2.67330E-02
 -1      1392-7.44712E-01-1.81976E-02-2.90539E+00
 -1      1393-9.45663E-01-1.20480E-02-3.82292E+00
 -1      1394-1.03055E+00-4.61906E-03-6.23901E+00
 -1      1395-4.18897E-01-8.49355E-02-1.71189E+01
 -1      1396-4.58344E-01-6.14371E-02-1.70324E+01
 -1      1397 1.12689E-01-1.06300E-01-1.79760E+01
 -1      1398 2.18536E-02-4.43686E-02-1.79683E+01
 -1      1399 7.14265E-01-9.89057E-02-1.66693E+01
 -1      1400 5.44102E-01-1.05956E-01-1.67113E+01
 -1      1401 7.86724E-01-1.23940E-01-1.64755E+01
 -1      1402 1.08646E+00-9.59322E-02-1.36936E+01
 -1      1403 1.04175E+00-7.61500E-02-6.44935E+00
 -1      1404 7.95034E-01-4.67988E-02-3.10422E+00
 -1      1405 3.86499E-01-6.56426E-02-7.27444E-01
 -1      1406 0.00000E+00 0.00000E+00 0.00000E+00
 -1      1407 0.00000E+00 0.00000E+00 0.00000E+00
 -1      1408 0.00000E+00 0.00000E+00 0.00000E+00
 -1      1409-1.21677E-01 4.63783E-02-3.35511E-02
 -1      1410-2.49099E-01 4.64621E-02-5.08358E-01
 -1      1411-5.05525E-01-1.06672E-02-1.19213E+00
 -1      1412-5.63556E-01 8.17129E-03-1.48559E+00
 -1      1413-7.59143E-01 3.06998E-03-2.66287E+00
 -1      1414-1.18730E+00-1.49462E-03-7.66241E+00
 -1      1415-1.19096E+00-2.57799E-02-9.97310E+00
 -1      1416-1.10477E+00-3.78625E-02-1.10997E+01
 -1      1417-8.62966E-01-5.50793E-02-1.45495E+01
 -1      1418 1.76826E-01-1.25412E-01-1.79141E+01
 -1      1419 2.87197E-01-1.54183E-01-1.74324E+01
 -1      1420 8.07074E-01-1.13473E-01-1.50479E+01
 -1      1421 9.65866E-01-1.00511E-01-1.38270E+01
 -1      1422 1.04808E+00-9.63104E-02-1.13372E+01
 -1      1423 1.09966E+00-9.98620E-02-1.00892E+01
 -1      1424 1.07691E+00-1.00590E-01-9.57242E+00
 -1      1425 0.00000E+00 0.00000E+00 0.00000E+00
 -1      1426 0.00000E+00 0.00000E+00 0.00000E+00
 -1      1427-8.11500E-01 9.17282E-03-4.30188E+00
 -1      1428-9.75479E-01-7.59662E-03-7.92666E+00
 -1      1429 6.15948E-01-1.31965E-01-1.61476E+01
 -1      1430 8.83623E-01-1.13068E-01-1.35078E+01
 -1      1431 1.45857E-01 4.39406E-02-9.41137E-02
 -1      1432-5.85516E-01 5.61370E-03-2.46975E+00
 -1      1433-8.53226E-01 5.45690E-03-5.60327E+00
 -1      1434-9.28318E-01-3.21951E-02-9.55863E+00
 -1      1435-8.05950E-01-8.92529E-02-1.51626E+01
 -1      1436-3.18864E-01-1.12352E-01-1.73393E+01
 -1      1437-3.08891E-01-1.17321E-01-1.77006E+01
 -1      1438-2.97395E-01-1.01315E-01-1.77927E+01
 -1      1439 2.50406E-01-1.58823E-01-1.75099E+01
 -1      1440 6.20425E-01-1.22438E-01-1.52560E+01
 -1      1441 8.71821E-01-1.15101E-01-1.31098E+01
 -1      1442 9.04007E-01-1.09472E-01-1.20997E+01
 -1      1443 7.47840E-01-1.14303E-03-2.52393E+00
 -1      1444 0.00000E+00 0.00000E+00 0.00000E+00
 -1      1445-1.58168E-01 6.11178E-02-2.37966E-01
 -1      1446-2.14001E-01-1.36196E-01-1.75681E+01
 -1      1447 9.56869E-01-4.30828E-02-4.74502E+00
 -1      1448 1.80059E-01 4.44999E-02-3.23782E-01
 -1      1449 1.44875E-01 4.74659E-02-2.53778E-01
 -1      1450-1.36335E-01-6.09084E-02-2.00338E-01
 -1      1451-1.60916E-01-6.70671E-02-2.86105E-01
 -1      1452-4.83492E-01-6.12239E-02-1.86762E+00
 -1      1453-5.44109E-01-6.71970E-02-2.16129E+00
 -1      1454-9.04556E-01-2.33908E-02-4.89392E+00
 -1      1455-7.66381E-01-2.40097E-02-5.20626E+00
 -1      1456-1.03487E+00-2.26247E-02-8.94094E+00
 -1      1457-8.69160E-01-2.04327E-02-1.24510E+01
 -1      1458-9.34548E-01-1.86580E-02-1.27402E+01
 -1      1459-6.47751E-01-1.26045E-02-1.57466E+01
 -1      1460 1.84246E-01-5.15027E-02-1.79123E+01
 -1      1461 5.29112E-01-6.19721E-02-1.60127E+01
 -1      1462 5.91364E-01-5.33629E-02-1.56890E+01
 -1      1463 8.34896E-01-8.20232E-02-1.24641E+01
 -1      1464 9.07022E-01-9.48787E-02-8.94283E+00
 -1      1465 8.39497E-01-9.46675E-02-5.30706E+00
 -1      1466 9.00427E-01-9.31261E-02-5.02879E+00
 -1      1467 5.37496E-01-8.54265E-02-2.17551E+00
 -1      1468 1.74305E-01-6.13839E-02-3.45453E-01
 -1      1469 0.00000E+00 0.00000E+00 0.00000E+00
 -1      1470 0.00000E+00 0.00000E+00 0.00000E+00
 -1      1471-2.12945E-01-4.82166E-02-4.73591E-01
 -1      1472-8.25648E-01-1.21147E-02-4.17459E+00
 -1      1473-8.75473E-01-2.65385E-02-1.31306E+01
 -1      1474-8.97310E-01-2.86916E-02-1.33977E+01
 -1      1475-2.43657E-01-3.67164E-02-1.81259E+01
 -1      1476 2.68405E-01-5.88263E-02-1.75579E+01
 -1      1477 6.46807E-01-8.00219E-02-1.65438E+01
 -1      1478 8.60442E-01-7.80316E-02-4.39240E+00
 -1      1479 1.64787E-01-5.46241E-02-1.32406E-01
 -1      1480-9.47745E-02-3.54105E-02-5.63381E-02
 -1      1481-2.03388E-01-3.05035E-02-5.71328E-01
 -1      1482-5.35456E-01-3.23053E-02-2.91004E+00
 -1      1483-7.60644E-01-1.56514E-02-6.33370E+00
 -1      1484-7.93195E-01-3.32785E-02-1.14446E+01
 -1      1485 2.19828E-01-8.30125E-02-1.81609E+01
 -1      1486 2.58685E-01-8.79849E-02-1.74214E+01
 -1      1487 5.69651E-01-8.20579E-02-1.48805E+01
 -1      1488 8.70188E-01-8.42223E-02-1.34485E+01
 -1      1489 7.56271E-01-9.70845E-02-1.13635E+01
 -1      1490 7.35663E-01-8.87731E-02-7.62214E+00
 -1      1491 7.80148E-01-8.61939E-02-6.14238E+00
 -1      1492 6.78711E-01-5.78096E-02-3.10559E+00
 -1      1493 4.81514E-01-3.32104E-02-1.30492E+00
 -1      1494 2.85641E-01-1.91654E-02-6.98616E-01
 -1      1495 0.00000E+00 0.00000E+00 0.00000E+00
 -1      1496 0.00000E+00 0.00000E+00 0.00000E+00
 -1      1497 0.00000E+00 0.00000E+00 0.00000E+00
 -1      1498-5.41084E-01 7.10398E-03-1.04250E+00
 -1      1499-5.26093E-01-3.21045E-02-1.25053E+00
 -1      1500-7.56398E-01-1.32434E-02-7.00230E+00
 -1      1501-9.67372E-01-2.13726E-02-7.44418E+00
 -1      1502 1.18592E-01-1.36300E-01-1.82120E+01
 -1      1503 5.41321E-01-1.08436E-01-1.67506E+01
 -1      1504 8.91794E-01-9.80094E-02-1.00529E+01
 -1      1505 4.67335E-01 2.43445E-02-9.76167E-01
 -1      1506 4.25820E-01 3.81238E-02-8.22468E-01
 -1      1507 0.00000E+00 0.00000E+00 0.00000E+00
 -1      1508 0.00000E+00 0.00000E+00 0.00000E+00
 -1      1509-8.52943E-01 3.26305E-02-3.49244E+00
 -1      1510-1.06206E+00-9.19520E-03-7.07127E+00
 -1      1511-1.03202E+00-3.40822E-02-1.07041E+01
 -1      1512-9.92352E-01-3.22554E-02-1.04376E+01
 -1      1513-8.57632E-01-6.43111E-02-1.42258E+01
 -1      1514-8.77789E-01-6.25215E-02-1.44760E+01
 -1      1515 5.43783E-01-1.68277E-01-1.69660E+01
 -1      1516 8.26071E-01-1.16089E-01-1.45167E+01
 -1      1517 8.62196E-01-1.30812E-01-1.42625E+01
 -1      1518 1.06766E+00-1.09925E-01-1.05895E+01
 -1      1519 1.03662E+00-8.17685E-02-6.78327E+00
 -1      1520 8.54781E-01-2.00876E-02-3.65245E+00
 -1      1521 8.19078E-01-3.46119E-02-3.31574E+00
 -1      1522 0.00000E+00 0.00000E+00 0.00000E+00
 -1      1523-4.32360E-01 3.17974E-02-8.39468E-01
 -1      1524-3.93578E-01 2.13959E-02-8.41808E-01
 -1      1525 9.43101E-01-1.07311E-01-1.08909E+01
 -1      1526 1.03239E+00-1.09013E-01-1.09300E+01
 -1      1527 0.00000E+00 0.00000E+00 0.00000E+00
 -1      1528 0.00000E+00 0.00000E+00 0.00000E+00
 -1      1529 0.00000E+00 0.00000E+00 0.00000E+00
 -1      1530-8.65223E-02-2.10097E-02-9.27331E-02
 -1      1531-2.39561E-01-1.44783E-02-5.09334E-01
 -1      1532-4.88767E-01 2.57835E-02-1.05355E+00
 -1      1533-4.70966E-01-3.51877E-02-1.52262E+00
 -1      1534-6.55923E-01-3.65828E-02-2.64964E+00
 -1      1535-8.15675E-01 2.09533E-02-3.24123E+00
 -1      1536-6.26332E-01-8.21378E-03-2.84370E+00
 -1      1537-7.64442E-01 2.34213E-02-3.16116E+00
 -1      1538-9.05206E-01 1.71504E-02-3.90313E+00
 -1      1539-8.37208E-01-2.30076E-02-5.18974E+00
 -1      1540-6.92508E-01-5.43202E-03-6.43576E+00
 -1      1541-1.00791E+00-7.37477E-03-6.75061E+00
 -1      1542-9.53873E-01-8.65509E-03-7.17384E+00
 -1      1543-9.89450E-01-2.53135E-02-9.69745E+00
 -1      1544-8.18309E-01-3.68608E-02-1.00612E+01
 -1      1545-9.56771E-01-3.49775E-02-1.09850E+01
 -1      1546-8.66032E-01-3.12210E-02-1.16558E+01
 -1      1547-7.38576E-01-7.61247E-02-1.39209E+01
 -1      1548-8.75362E-01-6.95979E-02-1.42248E+01
 -1      1549-7.05039E-01-8.02551E-03-1.57378E+01
 -1      1550-5.84064E-01-4.34100E-02-1.63993E+01
 -1      1551-3.29795E-01-4.92516E-02-1.75215E+01
 -1      1552-4.74522E-01-1.10303E-01-1.72287E+01
 -1      1553-1.74355E-01-6.10245E-02-1.80448E+01
 -1      1554-3.19872E-02-1.54604E-01-1.82280E+01
 -1      1555-6.62681E-02-1.20266E-01-1.82342E+01
 -1      1556 5.40345E-02-1.59851E-01-1.82180E+01
 -1      1557 1.44893E-01-8.92664E-02-1.80345E+01
 -1      1558 3.42236E-01-1.21788E-01-1.73806E+01
 -1      1559 4.48310E-01-1.33641E-01-1.71596E+01
 -1      1560 5.92121E-01-9.11081E-02-1.64189E+01
 -1      1561 6.45561E-01-9.54541E-02-1.49256E+01
 -1      1562 7.75544E-01-1.20039E-01-1.45981E+01
 -1      1563 7.45274E-01-1.07526E-01-1.12968E+01
 -1      1564 9.58795E-01-1.10823E-01-1.04777E+01
 -1      1565 9.31421E-01-1.06568E-01-1.01398E+01
 -1      1566 8.99003E-01-9.82459E-02-9.82510E+00
 -1      1567 8.95074E-01-8.65688E-02-7.91040E+00
 -1      1568 8.32397E-01-7.66037E-02-7.40275E+00
 -1      1569 9.77255E-01-7.94804E-02-7.08200E+00
 -1      1570 9.97629E-01-7.71435E-02-7.07262E+00
 -1      1571 8.41376E-01-7.55287E-02-6.59411E+00
 -1      1572 8.95753E-01-8.85368E-02-5.37982E+00
 -1      1573 6.94960E-01-2.22552E-02-3.85485E+00
 -1      1574 5.36420E-01-1.76439E-02-1.40537E+00
 -1      1575 2.64678E-01-1.39987E-02-5.86358E-01
 -1      1576 1.28685E-01-2.55413E-02-1.57266E-01
 -1      1577 0.00000E+00 0.00000E+00 0.00000E+00
 -1      1578 0.00000E+00 0.00000E+00 0.00000E+00
 -1      1579 0.00000E+00 0.00000E+00 0.00000E+00
 -1      1580 0.00000E+00 0.00000E+00 0.00000E+00
 -1      1581-1.05293E-01-2.30008E-02-1.52478E-01
 -1      1582-2.04449E-01-4.81968E-02-3.47263E-01
 -1      1583-7.86142E-01-1.80187E-02-5.33461E+00
 -1      1584-9.19394E-01-2.40633E-02-8.58684E+00
 -1      1585-8.42157E-01-2.97691E-02-1.28412E+01
 -1      1586-7.90719E-01-4.29164E-02-1.34702E+01
 -1      1587-6.51592E-01-3.56732E-02-1.64425E+01
 -1      1588-3.76603E-01-3.36770E-02-1.75100E+01
 -1      1589-2.98389E-01-4.43877E-02-1.76794E+01
 -1      1590-2.12514E-01-4.56347E-02-1.80063E+01
 -1      1591 2.69741E-01-5.66066E-02-1.76987E+01
 -1      1592 2.51030E-01-7.75026E-02-1.74661E+01
 -1      1593 6.20649E-01-6.32680E-02-1.59386E+01
 -1      1594 9.08370E-01-9.48880E-02-9.08957E+00
 -1      1595 8.97757E-01-8.34398E-02-4.93949E+00
 -1      1596 6.37549E-01-6.02606E-02-2.79829E+00
 -1      1597 2.86664E-01-1.75323E-02-6.04452E-01
 -1      1598 2.70790E-01-3.22779E-02-4.50560E-01
 -1      1599 0.00000E+00 0.00000E+00 0.00000E+00
 -1      1600-2.90041E-01-3.14838E-02-5.07489E-01
 -1      1601-9.62074E-01-1.41843E-02-5.98896E+00
 -1      1602-9.47590E-01-2.16285E-02-8.41814E+00
 -1      1603-9.97472E-01-2.52511E-02-9.76882E+00
 -1      1604-8.38733E-01-3.26095E-02-1.50918E+01
 -1      1605-7.40162E-01-2.63673E-02-1.54749E+01
 -1      1606-1.79403E-01-3.80614E-02-1.78587E+01
 -1      1607 1.61736E-01-8.78839E-02-1.80246E+01
 -1      1608 3.07079E-01-6.80428E-02-1.76168E+01
 -1      1609 3.18520E-01-6.77009E-02-1.74649E+01
 -1      1610 9.04217E-01-9.00962E-02-1.16566E+01
 -1      1611 9.37137E-01-9.58212E-02-9.25275E+00
 -1      1612 7.99543E-01-8.45590E-02-5.53763E+00
 -1      1613 8.79263E-01-7.53593E-02-4.33997E+00
 -1      1614 7.76292E-01-6.55775E-02-2.76333E+00
 -1      1615 5.91662E-01-5.50370E-02-1.51751E+00
 -1      1616 0.00000E+00 0.00000E+00 0.00000E+00
 -1      1617-5.34272E-01-4.24050E-02-1.67805E+00
 -1      1618-5.82088E-01-4.20197E-02-2.44731E+00
 -1      1619-7.06189E-01-3.70325E-02-2.69121E+00
 -1      1620-8.14849E-01-7.89492E-03-4.12534E+00
 -1      1621-9.30488E-01-9.83810E-03-4.34919E+00
 -1      1622-9.89239E-01-1.38725E-02-5.75418E+00
 -1      1623-1.05890E+00-1.85367E-02-8.03531E+00
 -1      1624-8.67662E-01-2.64181E-02-9.33235E+00
 -1      1625-1.05263E+00-2.39799E-02-9.63695E+00
 -1      1626-1.00487E+00-2.45726E-02-1.18227E+01
 -1      1627-8.14884E-01-3.17423E-02-1.14565E+01
 -1      1628-8.41043E-01-3.50305E-02-1.30992E+01
 -1      1629-6.33498E-01-4.46005E-02-1.53091E+01
 -1      1630-8.04229E-01-3.02313E-02-1.50719E+01
 -1      1631-6.05567E-01-3.83967E-02-1.61713E+01
 -1      1632-2.95449E-01-5.38017E-02-1.75763E+01
 -1      1633-3.50776E-01-3.86961E-02-1.75159E+01
 -1      1634-1.57234E-01-5.43699E-02-1.79005E+01
 -1      1635 1.40215E-01-7.74347E-02-1.79212E+01
 -1      1636 5.96242E-01-8.47779E-02-1.64750E+01
 -1      1637 5.66562E-01-8.06535E-02-1.61958E+01
 -1      1638 7.26055E-01-6.48474E-02-1.54536E+01
 -1      1639 7.55904E-01-6.96691E-02-1.51306E+01
 -1      1640 8.33326E-01-9.21897E-02-1.35519E+01
 -1      1641 9.46690E-01-8.99440E-02-1.32546E+01
 -1      1642 9.76117E-01-8.79587E-02-1.18040E+01
 -1      1643 1.04570E+00-9.75116E-02-9.62214E+00
 -1      1644 8.54487E-01-9.11756E-02-8.33411E+00
 -1      1645 1.05416E+00-8.83295E-02-8.06300E+00
 -1      1646 9.68748E-01-8.39407E-02-6.01872E+00
 -1      1647 8.12477E-01-7.72901E-02-4.64399E+00
 -1      1648 7.44864E-01-6.43680E-02-2.75193E+00
 -1      1649 5.83765E-01-6.73505E-02-2.42225E+00
 -1      1650 4.88409E-01-5.64058E-02-1.82032E+00
 -1      1651 6.15570E-01-5.63091E-02-1.68483E+00
 -1      1652 2.95975E-01-2.42154E-02-5.44811E-01
 -1      1653 2.51171E-01-2.73940E-02-4.93969E-01
 -1      1654 1.64899E-01-2.53959E-02-1.84978E-01
 -1      1655 1.17849E-01-2.58935E-02-2.31999E-01
 -1      1656 0.00000E+00 0.00000E+00 0.00000E+00
 -1      1657 0.00000E+00 0.00000E+00 0.00000E+00
 -1      1658 6.13855E-01-7.52094E-02-1.53490E+01
 -1      1659-1.05567E+00-1.77528E-02-7.86086E+00
 -1      1660-1.01262E+00-2.34431E-02-1.16473E+01
 -1      1661-9.00501E-01-2.96067E-02-1.21199E+01
 -1      1662-2.18413E-01-3.73103E-02-1.79656E+01
 -1      1663 8.00099E-01-6.21996E-02-1.51621E+01
 -1      1664 1.04418E+00-9.93189E-02-9.79167E+00
 -1      1665 1.43650E-01-2.10705E-02-1.38432E-01
 -1      1666 0.00000E+00 0.00000E+00 0.00000E+00
 -1      1667-2.70198E-01-2.23424E-02-3.95585E-01
 -1      1668-2.37475E-01-2.66042E-02-4.32276E-01
 -1      1669-5.42356E-01-4.57857E-02-1.50388E+00
 -1      1670-6.45164E-01-3.48546E-02-2.23215E+00
 -1      1671-7.55821E-01-4.97754E-02-2.61505E+00
 -1      1672-9.63070E-01-1.23004E-02-4.56171E+00
 -1      1673-7.64216E-01-9.63822E-03-4.35537E+00
 -1      1674-9.49249E-01-1.67084E-02-5.98583E+00
 -1      1675-8.82563E-01-1.98605E-02-7.93154E+00
 -1      1676-7.16771E-01-3.16303E-02-9.91763E+00
 -1      1677-7.88599E-01-3.86254E-02-1.27594E+01
 -1      1678-9.14896E-01-3.38881E-02-1.34148E+01
 -1      1679 2.53003E-01-8.06557E-02-1.75664E+01
 -1      1680 5.80096E-01-7.85668E-02-1.63810E+01
 -1      1681 6.78812E-01-8.48113E-02-1.55790E+01
 -1      1682 8.78272E-01-9.15553E-02-1.34832E+01
 -1      1683 7.72442E-01-9.67764E-02-1.33493E+01
 -1      1684 7.62115E-01-9.47507E-02-1.30860E+01
 -1      1685 8.34999E-01-9.22133E-02-1.28449E+01
 -1      1686 7.93027E-01-9.19969E-02-1.20790E+01
 -1      1687 1.01675E+00-8.65365E-02-1.17596E+01
 -1      1688 9.28246E-01-8.68189E-02-7.81040E+00
 -1      1689 9.41537E-01-8.12746E-02-5.62259E+00
 -1      1690 5.05356E-01-5.04841E-02-1.99377E+00
 -1      1691 0.00000E+00 0.00000E+00 0.00000E+00
 -1      1692 0.00000E+00 0.00000E+00 0.00000E+00
 -1      1693-1.11488E-01-2.86058E-02-9.77538E-02
 -1      1694-1.12021E-01-1.71682E-02-1.42831E-01
 -1      1695-2.36455E-01-1.44614E-02-3.58055E-01
 -1      1696-9.03239E-01-1.03683E-02-5.32128E+00
 -1      1697-9.25643E-01-3.25278E-02-1.22858E+01
 -1      1698-7.91367E-01-3.02668E-02-1.50011E+01
 -1      1699-5.85118E-01-4.26872E-02-1.63184E+01
 -1      1700-2.99253E-01-4.68009E-02-1.74216E+01
 -1      1701-2.81187E-01-6.29410E-02-1.76255E+01
 -1      1702 1.24798E-01-6.43462E-02-1.79418E+01
 -1      1703 2.55264E-01-9.39435E-02-1.76513E+01
 -1      1704 9.01903E-01-7.57074E-02-5.41995E+00
 -1      1705 8.09204E-01-7.49602E-02-4.39695E+00
 -1      1706 6.34820E-01-6.75925E-02-2.80117E+00
 -1      1707 5.97941E-01-5.49315E-02-2.38861E+00
 -1      1708 2.71664E-01-2.16909E-02-4.35072E-01
 -1      1709 0.00000E+00 0.00000E+00 0.00000E+00
 -1      1710-3.03914E-01-4.93057E-02-1.74353E+01
 -1      1711 9.29624E-01-9.28329E-02-9.06113E+00
 -1      1712 8.43552E-01-8.97630E-02-8.00130E+00
 -1      1713 7.09226E-01-7.70635E-02-5.44386E+00
 -1      1714 5.26318E-01-5.88295E-02-1.58430E+00
 -1      1715 0.00000E+00 0.00000E+00 0.00000E+00
 -1      1716-2.51990E-01-2.63429E-02-5.31763E-01
 -1      1717-4.04121E-01-7.17461E-02-7.65505E-01
 -1      1718-4.63262E-01-9.72757E-02-1.04561E+00
 -1      1719-4.72312E-01-9.46209E-02-9.16368E-01
 -1      1720-7.27019E-01-6.61303E-02-2.92193E+00
 -1      1721-8.02272E-01-8.09222E-02-3.33178E+00
 -1      1722-7.20044E-01-7.66743E-02-3.15938E+00
 -1      1723-8.63663E-01-5.79979E-02-3.68914E+00
 -1      1724-1.03125E+00-3.75961E-02-3.87191E+00
 -1      1725-9.29327E-01-2.38983E-02-6.31681E+00
 -1      1726-1.01454E+00-2.40433E-02-6.66169E+00
 -1      1727-9.78041E-01-2.52799E-02-1.01613E+01
 -1      1728-1.00459E+00-2.34753E-02-1.06490E+01
 -1      1729-1.04374E+00-1.47412E-02-1.10595E+01
 -1      1730-9.51587E-01-2.33528E-02-1.35183E+01
 -1      1731-8.06016E-01-1.04957E-02-1.38568E+01
 -1      1732-8.71647E-01-5.29916E-03-1.41156E+01
 -1      1733-8.52865E-01-2.25287E-03-1.45676E+01
 -1      1734-8.74316E-01 7.66270E-03-1.43195E+01
 -1      1735-6.89681E-01-3.68568E-02-1.49968E+01
 -1      1736-5.72267E-01 1.50900E-02-1.69030E+01
 -1      1737-4.93666E-01 3.74232E-02-1.71379E+01
 -1      1738-1.73321E-01-4.68157E-02-1.79478E+01
 -1      1739-5.49420E-02 1.12090E-02-1.81053E+01
 -1      1740-3.10125E-02 8.66916E-03-1.81062E+01
 -1      1741 3.38796E-01-5.41308E-02-1.73351E+01
 -1      1742 4.13738E-01-4.51451E-02-1.71641E+01
 -1      1743 4.88020E-01-2.81575E-02-1.68953E+01
 -1      1744 8.26769E-01-2.61401E-02-1.43828E+01
 -1      1745 7.45803E-01-3.21604E-02-1.45837E+01
 -1      1746 8.74889E-01-4.93988E-02-1.40173E+01
 -1      1747 9.26220E-01-7.83985E-02-1.13821E+01
 -1      1748 1.00859E+00-7.67106E-02-1.08565E+01
 -1      1749 1.03699E+00-8.47429E-02-1.04153E+01
 -1      1750 9.54474E-01-9.49833E-02-7.49525E+00
 -1      1751 1.01848E+00-9.87518E-02-7.10811E+00
 -1      1752 8.38117E-01-9.67566E-02-6.50247E+00
 -1      1753 1.04552E+00-9.78915E-02-6.79984E+00
 -1      1754 7.66050E-01-1.01201E-01-3.88223E+00
 -1      1755 8.28215E-01-1.08659E-01-3.54499E+00
 -1      1756 6.74325E-01-1.05507E-01-3.26145E+00
 -1      1757 4.93607E-01-1.13245E-01-1.07743E+00
 -1      1758 5.12562E-01-1.00179E-01-1.05973E+00
 -1      1759 2.82517E-01-5.95864E-02-6.02538E-01
 -1      1760 1.20114E-01-1.74526E-02-1.46573E-01
 -1      1761 0.00000E+00 0.00000E+00 0.00000E+00
 -1      1762 0.00000E+00 0.00000E+00 0.00000E+00
 -1      1763 0.00000E+00 0.00000E+00 0.00000E+00
 -1      1764 0.00000E+00 0.00000E+00 0.00000E+00
 -1      1765-7.05494E-01-4.95937E-02-3.50188E+00
 -1      1766-8.10575E-01-2.67705E-02-6.86714E+00
 -1      1767-1.03557E+00-2.95403E-02-7.16176E+00
 -1      1768-5.82486E-01-3.54564E-03-1.69380E+01
 -1      1769 1.16349E-02-3.22400E-02-1.81163E+01
 -1      1770 3.29979E-01-4.89124E-02-1.70823E+01
 -1      1771 7.24543E-01-5.63000E-02-1.41973E+01
 -1      1772 7.68312E-01-9.10262E-02-1.05859E+01
 -1      1773 9.57007E-01-9.51592E-02-7.07069E+00
 -1      1774 8.27949E-01-8.87864E-02-3.73229E+00
 -1      1775 0.00000E+00 0.00000E+00 0.00000E+00
 -1      1776 0.00000E+00 0.00000E+00 0.00000E+00
 -1      1777 0.00000E+00 0.00000E+00 0.00000E+00
 -1      1778 0.00000E+00 0.00000E+00 0.00000E+00
 -1      1779-2.89903E-01-1.78627E-02-6.70031E-01
 -1      1780-4.93611E-01-5.51154E-02-1.10870E+00
 -1      1781-7.26904E-01-2.83489E-02-1.08894E+01
 -1      1782-8.26283E-01-1.80281E-02-1.45324E+01
 -1      1783 5.70721E-01-6.66242E-02-3.02640E+00
 -1      1784 0.00000E+00 0.00000E+00 0.00000E+00
 -1      1785 0.00000E+00 0.00000E+00 0.00000E+00
 -1      1786 0.00000E+00 0.00000E+00 0.00000E+00
 -1      1787-4.93997E-01-3.19864E-02-1.31881E+00
 -1      1788-7.98327E-01-2.00047E-02-7.44636E+00
 -1      1789-7.69412E-01-3.07063E-02-1.12510E+01
 -1      1790-6.87948E-01-3.45528E-02-1.47507E+01
 -1      1791-6.49650E-01-3.48993E-02-1.65929E+01
 -1      1792 7.88190E-01-1.02472E-01-1.01784E+01
 -1      1793 8.03358E-01-8.64452E-02-7.62112E+00
 -1      1794 7.44299E-01-8.68689E-02-6.40464E+00
 -1      1795 8.20810E-01-7.11326E-02-4.06212E+00
 -1      1796 0.00000E+00 0.00000E+00 0.00000E+00
 -1      1797-6.89765E-01-1.12147E-02-4.01986E+00
 -1      1798-7.77794E-01-1.91884E-02-6.25294E+00
 -1      1799-8.29058E-01-3.63168E-02-1.00428E+01
 -1      1800-2.97405E-01-7.10658E-02-1.74031E+01
 -1      1801-2.27976E-01-6.65750E-02-1.78908E+01
 -1      1802 2.58721E-01-1.02335E-01-1.74309E+01
 -1      1803 7.53379E-01-9.19302E-02-1.37313E+01
 -1      1804 7.75208E-01-8.62482E-02-1.13917E+01
 -1      1805 2.36866E-01-1.29396E-02-5.54044E-01
 -1      1806 1.57967E-01 2.74589E-03-1.56348E-01
 -1      1807 0.00000E+00 0.00000E+00 0.00000E+00
 -1      1808-8.00215E-02-1.79748E-02-6.57238E-02
 -1      1809-2.19447E-01 1.91095E-02-6.00727E-01
 -1      1810-5.56509E-01-1.75134E-02-2.88494E+00
 -1      1811-7.47153E-01-5.03246E-03-6.29896E+00
 -1      1812-8.33458E-01-3.44436E-02-1.00251E+01
 -1      1813-9.43755E-01-3.60141E-02-1.12903E+01
 -1      1814-7.22852E-01-6.52078E-02-1.46114E+01
 -1      1815-3.21207E-01-9.42429E-02-1.72455E+01
 -1      1816-1.72314E-01-8.02816E-02-1.79521E+01
 -1      1817 2.40029E-01-1.17146E-01-1.73407E+01
 -1      1818 5.61059E-01-1.07762E-01-1.48420E+01
 -1      1819 7.49204E-01-9.93251E-02-1.13291E+01
 -1      1820 8.13725E-01-8.69675E-02-7.60918E+00
 -1      1821 2.48906E-01-6.50091E-03-6.64067E-01
 -1      1822 1.07492E-01-1.29515E-02-9.41414E-02
 -1      1823 0.00000E+00 0.00000E+00 0.00000E+00
 -1      1824-5.84295E-01 2.37543E-02-1.18443E+00
 -1      1825-7.58976E-01 1.01817E-03-3.12451E+00
 -1      1826-8.55403E-01 1.13380E-02-3.91666E+00
 -1      1827-4.69688E-01-1.17520E-01-1.70973E+01
 -1      1828 5.84461E-01-1.23658E-01-1.66519E+01
 -1      1829 1.05267E+00-1.00429E-01-1.03679E+01
 -1      1830 3.96592E-01 3.59742E-02-7.87040E-01
 -1      1831 0.00000E+00 0.00000E+00 0.00000E+00
 -1      1832 0.00000E+00 0.00000E+00 0.00000E+00
 -1      1833 0.00000E+00 0.00000E+00 0.00000E+00
 -1      1834-4.49416E-01 9.31827E-02-8.88224E-01
 -1      1835-8.43639E-01 4.87917E-02-3.51228E+00
 -1      1836-1.04879E+00 4.76205E-03-7.03171E+00
 -1      1837-1.03870E+00-3.61228E-02-1.08336E+01
 -1      1838-9.38030E-01-5.59675E-02-1.38748E+01
 -1      1839-8.85041E-01-7.71405E-02-1.40394E+01
 -1      1840-8.50206E-01-7.66546E-02-1.43667E+01
 -1      1841 8.61893E-02-1.57592E-01-1.80348E+01
 -1      1842 4.90105E-01-1.72275E-01-1.69722E+01
 -1      1843 8.19554E-01-1.35217E-01-1.44442E+01
 -1      1844 1.04759E+00-1.04449E-01-1.05648E+01
 -1      1845 1.00356E+00-6.76949E-02-6.80236E+00
 -1      1846 8.92995E-01-3.23257E-02-3.84460E+00
 -1      1847 8.85209E-01-1.16445E-02-3.76346E+00
 -1      1848 8.02583E-01-6.07234E-03-3.53393E+00
 -1      1849 0.00000E+00 0.00000E+00 0.00000E+00
 -1      1850-7.99607E-01 2.31359E-02-3.24700E+00
 -1      1851-7.44207E-01-5.03927E-02-1.05505E+01
 -1      1852-1.02410E+00-4.34326E-02-1.05210E+01
 -1      1853 4.64157E-01-1.78204E-01-1.70913E+01
 -1      1854 8.11259E-01-5.10474E-03-3.27388E+00
 -1      1855 0.00000E+00 0.00000E+00 0.00000E+00
 -1      1856 0.00000E+00 0.00000E+00 0.00000E+00
 -1      1857 0.00000E+00 0.00000E+00 0.00000E+00
 -1      1858 0.00000E+00 0.00000E+00 0.00000E+00
 -1      1859-1.10249E-01 2.29298E-02-1.24473E-01
 -1      1860-3.28213E-01 4.62680E-02-6.27178E-01
 -1      1861-3.60908E-01 8.51608E-02-7.25237E-01
 -1      1862-4.85437E-01 7.62321E-02-1.06313E+00
 -1      1863-4.76998E-01-1.31965E-03-1.54248E+00
 -1      1864-6.16729E-01-8.55329E-03-2.71366E+00
 -1      1865-8.89308E-01 3.19621E-02-3.89559E+00
 -1      1866-8.52943E-01 1.02086E-02-4.28007E+00
 -1      1867-8.26132E-01-5.80390E-03-5.16593E+00
 -1      1868-9.89794E-01 8.66421E-03-6.70590E+00
 -1      1869-8.37518E-01 7.72494E-04-7.13766E+00
 -1      1870-8.93021E-01-1.41735E-02-7.79728E+00
 -1      1871-9.74025E-01-2.95438E-02-9.65851E+00
 -1      1872-8.00268E-01-4.09327E-02-1.00093E+01
 -1      1873-9.35552E-01-4.66280E-02-1.09054E+01
 -1      1874-6.96789E-01-7.37653E-02-1.36277E+01
 -1      1875-5.71020E-01-9.04590E-02-1.62592E+01
 -1      1876-5.99000E-01-1.18637E-01-1.68028E+01
 -1      1877-1.77163E-01-9.73166E-02-1.78622E+01
 -1      1878-6.20619E-02-1.49603E-01-1.80396E+01
 -1      1879 3.75031E-02-1.79182E-01-1.80432E+01
 -1      1880 1.22576E-01-1.28196E-01-1.79028E+01
 -1      1881 2.75458E-01-1.30312E-01-1.74114E+01
 -1      1882 4.66174E-01-1.85903E-01-1.68560E+01
 -1      1883 5.01484E-01-1.21606E-01-1.63216E+01
 -1      1884 6.82982E-01-1.06553E-01-1.50590E+01
 -1      1885 7.13981E-01-1.43905E-01-1.45451E+01
 -1      1886 8.63365E-01-1.10674E-01-1.34006E+01
 -1      1887 8.15685E-01-1.02468E-01-1.17678E+01
 -1      1888 9.99122E-01-1.04583E-01-1.08838E+01
 -1      1889 9.36477E-01-1.06552E-01-1.04960E+01
 -1      1890 8.79343E-01-1.00692E-01-9.80501E+00
 -1      1891 8.76472E-01-8.65658E-02-7.89769E+00
 -1      1892 8.17002E-01-7.26010E-02-7.40467E+00
 -1      1893 9.64085E-01-7.10097E-02-7.09522E+00
 -1      1894 9.73015E-01-6.71238E-02-7.08077E+00
 -1      1895 8.26013E-01-6.79919E-02-6.07062E+00
 -1      1896 8.78442E-01-7.00660E-02-5.38470E+00
 -1      1897 8.02201E-01-2.59162E-02-4.06175E+00
 -1      1898 5.15617E-01-1.56308E-02-1.56237E+00
 -1      1899 5.13365E-01 4.19230E-02-1.03451E+00
 -1      1900 2.44494E-01 9.09105E-03-5.48840E-01
 -1      1901 1.24819E-01 2.11354E-02-1.41453E-01
 -1      1902 0.00000E+00 0.00000E+00 0.00000E+00
 -1      1903 0.00000E+00 0.00000E+00 0.00000E+00
 -1      1904-1.25709E-01 2.83753E-02-1.84385E-01
 -1      1905-2.72780E-01 2.29879E-02-5.53678E-01
 -1      1906-6.18403E-01 7.63450E-04-1.52434E+00
 -1      1907-6.36675E-01-1.81764E-02-2.21602E+00
 -1      1908-7.42268E-01-7.66277E-03-2.66216E+00
 -1      1909-7.73568E-01-3.49709E-03-5.30690E+00
 -1      1910-9.06806E-01-1.88321E-02-8.40006E+00
 -1      1911-8.42765E-01-4.49040E-02-1.27088E+01
 -1      1912-8.02618E-01-6.79151E-02-1.49524E+01
 -1      1913-6.00861E-01-7.46713E-02-1.58199E+01
 -1      1914-2.14863E-01-9.36840E-02-1.78488E+01
 -1      1915 2.36848E-01-1.19309E-01-1.75874E+01
 -1      1916 6.58730E-01-1.18128E-01-1.63231E+01
 -1      1917 6.05878E-01-1.07218E-01-1.58697E+01
 -1      1918 6.63043E-01-9.78769E-02-1.55730E+01
 -1      1919 9.46099E-01-1.03044E-01-1.27621E+01
 -1      1920 8.88744E-01-9.39841E-02-9.07229E+00
 -1      1921 8.80945E-01-6.27265E-02-4.93878E+00
 -1      1922 6.29053E-01-2.76991E-02-2.79477E+00
 -1      1923 5.92549E-01-3.32796E-02-2.38502E+00
 -1      1924 6.26158E-01-3.78834E-02-2.28239E+00
 -1      1925 2.40540E-01 8.59646E-03-4.03387E-01
 -1      1926 0.00000E+00 0.00000E+00 0.00000E+00
 -1      1927 0.00000E+00 0.00000E+00 0.00000E+00
 -1      1928-2.65497E-01 1.92935E-02-4.31381E-01
 -1      1929-8.74551E-01 8.33938E-03-4.24603E+00
 -1      1930-9.30843E-01 6.62785E-04-5.49220E+00
 -1      1931-9.84347E-01-3.02965E-02-9.69912E+00
 -1      1932-8.77147E-01-3.97173E-02-1.14335E+01
 -1      1933-9.21171E-01-4.16542E-02-1.20901E+01
 -1      1934-6.06741E-01-7.13389E-02-1.53598E+01
 -1      1935-3.68169E-01-9.41139E-02-1.73582E+01
 -1      1936-3.21382E-01-9.03205E-02-1.74968E+01
 -1      1937-2.75337E-01-8.46448E-02-1.75499E+01
 -1      1938-1.84112E-01-8.60927E-02-1.77052E+01
 -1      1939 1.58880E-01-1.22550E-01-1.79167E+01
 -1      1940 2.81313E-01-1.24107E-01-1.75429E+01
 -1      1941 3.18915E-01-1.28881E-01-1.74242E+01
 -1      1942 9.14713E-01-9.61209E-02-9.23587E+00
 -1      1943 7.67396E-01-2.52878E-02-2.75305E+00
 -1      1944 6.01587E-01-1.39589E-02-1.51175E+00
 -1      1945 2.76570E-01 1.14093E-02-5.40696E-01
 -1      1946 0.00000E+00 0.00000E+00 0.00000E+00
 -1      1947-2.86275E-01 2.25673E-02-5.36849E-01
 -1      1948-5.24917E-01-5.63191E-03-1.67632E+00
 -1      1949-7.01487E-01-1.04466E-02-2.66538E+00
 -1      1950-8.00411E-01 7.25762E-03-4.10033E+00
 -1      1951-9.38296E-01 4.64762E-03-4.38652E+00
 -1      1952-9.78476E-01 6.01649E-04-5.72165E+00
 -1      1953-9.49853E-01-2.23688E-04-5.95912E+00
 -1      1954-1.03584E+00-1.18263E-02-7.98584E+00
 -1      1955-8.52091E-01-2.75841E-02-9.27588E+00
 -1      1956-1.06143E+00-2.52793E-02-9.50812E+00
 -1      1957-9.96828E-01-3.90194E-02-1.16624E+01
 -1      1958-8.33343E-01-4.92721E-02-1.30107E+01
 -1      1959-6.17383E-01-7.53667E-02-1.51951E+01
 -1      1960-7.88831E-01-6.69526E-02-1.49570E+01
 -1      1961-5.28687E-01-8.68266E-02-1.59857E+01
 -1      1962-6.65813E-01-8.13716E-02-1.61288E+01
 -1      1963-6.23107E-01-8.12197E-02-1.63304E+01
 -1      1964-3.65175E-01-9.31763E-02-1.73897E+01
 -1      1965 1.43341E-01-1.23935E-01-1.78267E+01
 -1      1966 3.06148E-01-1.30800E-01-1.74212E+01
 -1      1967 5.54938E-01-1.14881E-01-1.61430E+01
 -1      1968 7.57016E-01-1.06394E-01-1.51157E+01
 -1      1969 7.29475E-01-1.07210E-01-1.50238E+01
 -1      1970 7.73860E-01-1.10009E-01-1.35009E+01
 -1      1971 9.28829E-01-1.07321E-01-1.33382E+01
 -1      1972 7.83749E-01-1.02460E-01-1.20510E+01
 -1      1973 9.24310E-01-1.00218E-01-1.16548E+01
 -1      1974 1.02450E+00-9.79207E-02-9.60275E+00
 -1      1975 8.41255E-01-1.00185E-01-9.95661E+00
 -1      1976 8.98345E-01-8.83303E-02-8.24713E+00
 -1      1977 9.63829E-01-6.86882E-02-5.99793E+00
 -1      1978 7.55412E-01-6.87651E-02-5.71112E+00
 -1      1979 7.89273E-01-5.76050E-02-4.63483E+00
 -1      1980 5.74503E-01-2.85593E-02-2.53288E+00
 -1      1981 7.36173E-01-2.87419E-02-2.74726E+00
 -1      1982 4.67278E-01-1.90751E-02-1.79515E+00
 -1      1983 6.34623E-01-1.54906E-02-1.59217E+00
 -1      1984 2.62278E-01 4.58440E-03-4.91329E-01
 -1      1985 2.17173E-01 2.04115E-03-4.39481E-01
 -1      1986 9.09673E-02 1.41252E-02-1.93316E-01
 -1      1987 1.37384E-01 2.59135E-02-1.49530E-01
 -1      1988 0.00000E+00 0.00000E+00 0.00000E+00
 -1      1989-5.68753E-01-1.13220E-02-2.45860E+00
 -1      1990 2.48282E-01-1.30407E-01-1.75023E+01
 -1      1991 5.91130E-01-1.06631E-01-1.52981E+01
 -1      1992 0.00000E+00 0.00000E+00 0.00000E+00
 -1      1993 0.00000E+00 0.00000E+00 0.00000E+00
 -1      1994-1.03026E+00-9.73938E-03-7.81297E+00
 -1      1995-8.22227E-01-1.69280E-02-8.19814E+00
 -1      1996-3.47490E-01-9.19853E-02-1.72998E+01
 -1      1997-1.61870E-01-9.48513E-02-1.77629E+01
 -1      1998-2.09699E-01-8.86347E-02-1.78490E+01
 -1      1999 5.00780E-01-1.10377E-01-1.54114E+01
 -1      2000 1.02418E+00-9.86021E-02-9.77196E+00
 -1      2001 9.90449E-01-9.76070E-02-9.30064E+00
 -1      2002 1.12479E-01 2.52098E-02-9.67970E-02
 -1      2003-1.45128E-01 4.32600E-02-2.49024E-01
 -1      2004-2.36035E-01 2.45915E-02-4.65769E-01
 -1      2005-2.77802E-01 4.10732E-02-4.16350E-01
 -1      2006-5.04420E-01-1.36438E-02-1.49987E+00
 -1      2007-8.37341E-01 1.77165E-03-4.27106E+00
 -1      2008-9.36705E-01-3.70255E-03-5.95367E+00
 -1      2009-9.53797E-01-2.95058E-02-9.62689E+00
 -1      2010-9.29587E-01-3.27863E-02-9.79648E+00
 -1      2011-8.98134E-01-4.57729E-02-1.20289E+01
 -1      2012 2.94251E-01-1.42678E-01-1.75580E+01
 -1      2013 5.84020E-01-1.16424E-01-1.64293E+01
 -1      2014 5.68464E-01-1.09354E-01-1.63553E+01
 -1      2015 8.58414E-01-1.07597E-01-1.33788E+01
 -1      2016 9.37258E-01-1.07588E-01-1.28152E+01
 -1      2017 7.32090E-01-9.99067E-02-1.15064E+01
 -1      2018 8.51474E-01-1.00744E-01-9.69423E+00
 -1      2019 9.36201E-01-8.78965E-02-7.91920E+00
 -1      2020 9.11862E-01-8.72187E-02-7.80042E+00
 -1      2021 9.24383E-01-6.40058E-02-5.61260E+00
 -1      2022 4.82768E-01-1.05919E-02-1.96266E+00
 -1      2023 0.00000E+00 0.00000E+00 0.00000E+00
 -1      2024 0.00000E+00 0.00000E+00 0.00000E+00
 -1      2025-2.37063E-01 5.43714E-02-3.67150E-01
 -1      2026-9.08634E-01-4.92370E-02-1.22080E+01
 -1      2027-6.00032E-01-7.20875E-02-1.47836E+01
 -1      2028-6.71604E-01-6.92696E-02-1.49034E+01
 -1      2029-3.02079E-01-1.07241E-01-1.74877E+01
 -1      2030 1.43653E-01-1.21232E-01-1.79145E+01
 -1      2031 1.17193E-01-1.16240E-01-1.78723E+01
 -1      2032 2.27230E-01-1.46352E-01-1.75992E+01
 -1      2033 6.70176E-01-1.18323E-01-1.55393E+01
 -1      2034 8.85633E-01-1.08475E-01-1.23283E+01
 -1      2035 7.97959E-01-9.57285E-02-9.09076E+00
 -1      2036 7.18380E-01-3.17020E-02-2.79064E+00
 -1      2037 2.40008E-01 1.33576E-02-3.78057E-01
 -1      2038 6.55886E-02 9.12113E-03-9.57772E-02
 -1      2039 0.00000E+00 0.00000E+00 0.00000E+00
 -1      2040-7.77106E-01 1.25591E-02-5.13713E+00
 -1      2041-5.69713E-01-8.18899E-02-1.62199E+01
 -1      2042-3.25391E-01-9.27934E-02-1.73070E+01
 -1      2043 8.91422E-01-7.73081E-02-1.40009E+01
 -1      2044 7.92139E-01-8.98546E-02-1.36978E+01
 -1      2045 9.21692E-01-9.42618E-02-8.91835E+00
 -1      2046 8.26278E-01-8.72813E-02-7.99309E+00
 -1      2047 6.20899E-01-3.62632E-02-2.77695E+00
 -1      2048 5.02258E-01-2.05417E-02-1.53522E+00
 -1      2049 0.00000E+00 0.00000E+00 0.00000E+00
 -1      2050 0.00000E+00 0.00000E+00 0.00000E+00
 -1      2051 0.00000E+00 0.00000E+00 0.00000E+00
 -1      2052-4.86300E-02 1.00157E-02-4.64097E-02
 -1      2053 0.00000E+00 0.00000E+00 0.00000E+00
 -1      2054-3.39989E-01-9.08945E-03-6.41024E-01
 -1      2055-4.15547E-01-4.15458E-02-7.91924E-01
 -1      2056-5.12828E-01-5.89007E-02-1.01805E+00
 -1      2057-5.98814E-01 3.64659E-03-2.21257E+00
 -1      2058-5.55674E-01-1.32860E-02-2.62946E+00
 -1      2059-5.87759E-01-5.92556E-02-3.06710E+00
 -1      2060-8.18895E-01-5.23169E-02-3.31406E+00
 -1      2061-1.00491E+00-1.75497E-02-6.65112E+00
 -1      2062-9.08474E-01-2.27701E-02-6.51050E+00
 -1      2063-9.48769E-01-3.02145E-02-1.02058E+01
 -1      2064-9.31991E-01-3.37937E-02-1.04973E+01
 -1      2065-1.02612E+00-3.18091E-02-1.07630E+01
 -1      2066-7.51841E-01-1.84661E-02-1.38949E+01
 -1      2067-8.70347E-01-2.05361E-02-1.40768E+01
 -1      2068-8.47317E-01-3.52778E-02-1.44397E+01
 -1      2069-5.91042E-01-4.64129E-02-1.67436E+01
 -1      2070-1.36763E-01-4.21011E-02-1.79229E+01
 -1      2071-7.99022E-02-2.75777E-02-1.79868E+01
 -1      2072-1.04336E-01-3.44487E-02-1.79678E+01
 -1      2073 3.27049E-01-9.96355E-02-1.73222E+01
 -1      2074 4.53885E-01-6.82354E-02-1.71260E+01
 -1      2075 5.94712E-01-9.32114E-02-1.66001E+01
 -1      2076 5.52922E-01-6.50785E-02-1.69009E+01
 -1      2077 5.82938E-01-1.04758E-01-1.50949E+01
 -1      2078 7.10908E-01-8.73919E-02-1.49043E+01
 -1      2079 7.12730E-01-5.97662E-02-1.46268E+01
 -1      2080 8.39574E-01-6.26402E-02-1.43633E+01
 -1      2081 9.16319E-01-8.55987E-02-1.10806E+01
 -1      2082 1.01163E+00-8.81367E-02-1.09271E+01
 -1      2083 7.00088E-01-9.04118E-02-3.73805E+00
 -1      2084 8.14877E-01-8.19852E-02-3.57827E+00
 -1      2085 5.16854E-01-4.37689E-02-1.33140E+00
 -1      2086 5.25730E-01-6.32233E-02-1.01133E+00
 -1      2087 3.72772E-02-1.25881E-02-5.77357E-02
 -1      2088 0.00000E+00 0.00000E+00 0.00000E+00
 -1      2089 0.00000E+00 0.00000E+00 0.00000E+00
 -1      2090 0.00000E+00 0.00000E+00 0.00000E+00
 -1      2091-7.00616E-01-3.88869E-02-3.47957E+00
 -1      2092-7.76475E-01-4.46640E-02-3.65074E+00
 -1      2093-9.98684E-01-1.53337E-02-6.99629E+00
 -1      2094-8.38185E-01-1.46638E-02-6.97169E+00
 -1      2095-1.01258E+00-4.02776E-02-1.09130E+01
 -1      2096 7.22743E-01-8.40852E-02-1.41819E+01
 -1      2097 1.00465E+00-9.20357E-02-1.05806E+01
 -1      2098 8.42537E-01-9.67404E-02-1.05892E+01
 -1      2099 1.03814E+00-8.79191E-02-7.26620E+00
 -1      2100 1.00763E+00-8.56898E-02-6.80940E+00
 -1      2101 8.71913E-01-8.79199E-02-7.05251E+00
 -1      2102-2.86712E-01 1.55158E-02-6.70721E-01
 -1      2103-8.11092E-01-7.48275E-03-7.36398E+00
 -1      2104-1.10500E+00-2.94876E-02-9.99041E+00
 -1      2105-5.97508E-01-4.00925E-02-1.38667E+01
 -1      2106-3.86492E-01-7.43607E-02-1.68330E+01
 -1      2107-2.07760E-01-7.39011E-02-1.79045E+01
 -1      2108 3.55731E-01-1.15501E-01-1.72090E+01
 -1      2109 6.71010E-01-8.50416E-02-6.73882E+00
 -1      2110 7.67391E-01-8.57728E-02-3.28009E+00
 -1      2111 3.23397E-01-5.89370E-02-9.05795E-01
 -1      2112 2.30431E-01-2.97494E-02-6.15167E-01
 -1      2113 4.62832E-02 1.30453E-02-1.48219E-02
 -1      2114 0.00000E+00 0.00000E+00 0.00000E+00
 -1      2115 0.00000E+00 0.00000E+00 0.00000E+00
 -1      2116-8.04089E-01-4.12171E-02-9.94077E+00
 -1      2117-7.49683E-01-4.67579E-02-1.11638E+01
 -1      2118-8.77513E-01-4.69241E-02-1.35863E+01
 -1      2119-6.54536E-01-7.21946E-02-1.47353E+01
 -1      2120-3.03027E-01-9.46812E-02-1.71403E+01
 -1      2121 2.38854E-01-1.17918E-01-1.73052E+01
 -1      2122 5.96039E-01-1.28243E-01-1.64397E+01
 -1      2123 6.71569E-01-9.29654E-02-1.47490E+01
 -1      2124 8.32080E-01-5.84806E-02-4.03796E+00
 -1      2125 6.04734E-01-4.01569E-02-2.95249E+00
 -1      2126 0.00000E+00 0.00000E+00 0.00000E+00
 -1      2127-1.57580E-01 5.50328E-02-8.85462E-02
 -1      2128-2.11712E-01 2.10519E-02-5.82802E-01
 -1      2129-7.32788E-01-3.78023E-03-3.93309E+00
 -1      2130-7.29888E-01-7.32457E-03-7.66008E+00
 -1      2131-9.03191E-01-5.38183E-02-1.32494E+01
 -1      2132-6.53627E-01-9.70961E-02-1.61429E+01
 -1      2133-1.91748E-01-1.04245E-01-1.78484E+01
 -1      2134 8.45561E-01-1.04966E-01-9.78595E+00
 -1      2135 8.61973E-01-4.79063E-02-4.36438E+00
 -1      2136 5.90072E-01 5.11677E-04-1.56811E+00
 -1      2137 1.92639E-01-2.58369E-03-5.05855E-01
 -1      2138 5.34732E-02 2.71655E-02-4.76459E-02
 -1      2139-6.79205E-01 9.57247E-03-1.64989E+00
 -1      2140-5.52252E-01 1.58503E-02-1.90216E+00
 -1      2141-8.71296E-01-1.21848E-02-8.26039E+00
 -1      2142-8.86989E-01-5.67712E-02-1.29340E+01
 -1      2143-3.09057E-01-1.26956E-01-1.74535E+01
 -1      2144 5.75331E-01-1.35960E-01-1.58727E+01
 -1      2145 7.81841E-01-1.15623E-01-1.28249E+01
 -1      2146 8.78986E-01-9.56535E-02-8.99204E+00
 -1      2147 0.00000E+00 0.00000E+00 0.00000E+00
 -1      2148-1.99095E-01 6.81889E-02-3.14073E-01
 -1      2149-5.43625E-01 1.67674E-02-2.15181E+00
 -1      2150-7.35629E-01 1.17605E-02-5.12330E+00
 -1      2151-7.88215E-01-5.83069E-02-1.22380E+01
 -1      2152-6.17394E-01-1.03085E-01-1.54520E+01
 -1      2153-2.84164E-01-1.33605E-01-1.75991E+01
 -1      2154 1.77899E-01-1.57448E-01-1.77460E+01
 -1      2155 1.97123E-01-1.63084E-01-1.76602E+01
 -1      2156 6.88003E-01-1.37384E-01-1.57083E+01
 -1      2157 8.91200E-01-1.13695E-01-1.25416E+01
 -1      2158 7.51640E-01-4.91688E-02-5.34421E+00
 -1      2159 5.93302E-01 5.31652E-03-2.19653E+00
 -1      2160 0.00000E+00 0.00000E+00 0.00000E+00
 -1      2161-8.45689E-01-2.63587E-02-8.74683E+00
 -1      2162 2.25622E-01-3.78045E-02-1.77553E+01
 -1      2163 6.72160E-01-8.45980E-02-1.30005E+01
 -1      2164 0.00000E+00 0.00000E+00 0.00000E+00
 -1      2165-1.34275E-01-5.30352E-02-3.84178E-01
 -1      2166-5.00866E-01-5.65579E-02-1.63703E+00
 -1      2167-4.50711E-01-5.58098E-02-2.35395E+00
 -1      2168-6.24632E-01-2.11864E-02-4.72402E+00
 -1      2169-9.11479E-01-2.57401E-02-8.05817E+00
 -1      2170-7.51916E-01-2.80184E-02-8.38234E+00
 -1      2171-8.37620E-01-2.48771E-02-9.35891E+00
 -1      2172-7.62883E-01-3.05641E-02-1.18725E+01
 -1      2173-6.99011E-01-2.81511E-02-1.21972E+01
 -1      2174-5.89530E-01-2.85580E-02-1.53353E+01
 -1      2175-4.18987E-01-4.30512E-02-1.63772E+01
 -1      2176-1.82922E-01-5.53935E-02-1.77401E+01
 -1      2177-1.67502E-01-5.16896E-02-1.79765E+01
 -1      2178 1.69584E-01-6.84046E-02-1.76666E+01
 -1      2179 5.37324E-01-6.70310E-02-1.53100E+01
 -1      2180 8.05646E-01-9.67776E-02-9.62541E+00
 -1      2181 7.43456E-01-9.56696E-02-9.30237E+00
 -1      2182 8.26173E-01-9.39566E-02-8.33205E+00
 -1      2183 7.39741E-01-8.66066E-02-5.86262E+00
 -1      2184 6.76241E-01-8.98695E-02-5.55025E+00
 -1      2185 6.66017E-01-8.02217E-02-4.61403E+00
 -1      2186 5.78015E-01-7.73731E-02-2.63817E+00
 -1      2187 4.57750E-01-8.10391E-02-2.42886E+00
 -1      2188 3.88350E-01-6.94714E-02-1.91056E+00
 -1      2189 3.83887E-01-5.68073E-02-1.61222E+00
 -1      2190 1.48412E-01-4.66287E-02-4.46176E-01
 -1      2191 1.28862E-01-4.73872E-02-2.44803E-01
 -1      2192 1.32335E-01-4.77608E-02-1.70195E-01
 -1      2193 0.00000E+00 0.00000E+00 0.00000E+00
 -1      2194-7.51706E-01-3.04236E-02-1.00928E+01
 -1      2195-7.55338E-01-4.68222E-02-1.37741E+01
 -1      2196-5.22303E-01-4.94986E-02-1.67406E+01
 -1      2197-3.02963E-01-6.07894E-02-1.74205E+01
 -1      2198-1.70905E-01-7.36569E-02-1.82093E+01
 -1      2199 1.23886E-01-9.13402E-02-1.81339E+01
 -1      2200 1.10644E-01-1.19662E-01-1.82152E+01
 -1      2201 7.53229E-01-8.30390E-02-6.42945E+00
 -1      2202 7.23829E-01-6.40604E-02-4.06704E+00
 -1      2203 9.76926E-02-4.02250E-02-5.48825E-02
 -1      2204 0.00000E+00 0.00000E+00 0.00000E+00
 -1      2205 0.00000E+00 0.00000E+00 0.00000E+00
 -1      2206 0.00000E+00 0.00000E+00 0.00000E+00
 -1      2207-2.38353E-01 1.47877E-02-7.48955E-01
 -1      2208-3.06761E-01-2.84852E-03-1.01893E+00
 -1      2209-5.49015E-01 7.96606E-03-3.21738E+00
 -1      2210-7.81416E-01-3.75939E-02-1.08796E+01
 -1      2211-5.27844E-01-7.40339E-02-1.46967E+01
 -1      2212-6.78601E-01-7.24260E-02-1.44322E+01
 -1      2213-3.50490E-01-8.39129E-02-1.70248E+01
 -1      2214-4.32303E-01-9.15368E-02-1.72049E+01
 -1      2215-5.09121E-02-1.38417E-01-1.83141E+01
 -1      2216 2.20781E-02-1.45486E-01-1.82817E+01
 -1      2217 5.62441E-01-1.14476E-01-1.45375E+01
 -1      2218 7.66465E-01-7.59398E-02-6.82335E+00
 -1      2219 5.35833E-01-3.74819E-02-3.71863E+00
 -1      2220 2.99183E-01 1.52542E-02-1.04078E+00
 -1      2221 2.75892E-01 1.37921E-02-8.08637E-01
 -1      2222 0.00000E+00 0.00000E+00 0.00000E+00
 -1      2223-5.55184E-01 2.10456E-02-3.49699E+00
 -1      2224 3.24916E-01-1.42896E-01-1.70213E+01
 -1      2225 6.72933E-01-1.21153E-01-1.42398E+01
 -1      2226 7.48739E-01-1.06689E-01-1.05911E+01
 -1      2227 7.00788E-01-3.03936E-02-3.42604E+00
 -1      2228 0.00000E+00 0.00000E+00 0.00000E+00
 -1      2229-8.32154E-01-2.69987E-02-8.73736E+00
 -1      2230-8.00416E-01-2.50383E-02-8.99153E+00
 -1      2231-5.56452E-01-9.65145E-02-1.70431E+01
 -1      2232 8.06327E-01-9.42883E-02-8.94318E+00
 -1      2233 8.02723E-01-9.38650E-02-8.69518E+00
 -1      2234-5.68751E-01-1.58881E-02-4.87532E+00
 -1      2235-6.93781E-01-4.50672E-02-1.50704E+01
 -1      2236-4.72914E-01-3.73453E-02-1.59236E+01
 -1      2237-1.78470E-01-3.60171E-02-1.78649E+01
 -1      2238 3.98157E-02-1.37648E-01-1.81448E+01
 -1      2239 2.26418E-01-8.01245E-02-1.75652E+01
 -1      2240 6.86589E-01-8.82005E-02-1.28215E+01
 -1      2241 7.98731E-01-8.38484E-02-1.25231E+01
 -1      2242 8.42180E-01-8.31742E-02-6.06323E+00
 -1      2243 6.65291E-01-8.14727E-02-2.30768E+00
 -1      2244 4.89310E-01-8.62886E-02-2.18078E+00
 -1      2245 4.98772E-01-7.08667E-02-2.04214E+00
 -1      2246 1.61889E-01-6.09902E-02-3.49810E-01
 -1      2247 0.00000E+00 0.00000E+00 0.00000E+00
 -1      2248 0.00000E+00 0.00000E+00 0.00000E+00
 -1      2249-1.35238E-02 3.24615E-03-2.30466E-02
 -1      2250-1.19435E-01-5.04598E-02-2.36508E-01
 -1      2251-2.95469E-01 3.46285E-02-6.98316E-01
 -1      2252-1.67583E-01 2.81051E-02-8.54002E-01
 -1      2253-2.69993E-01 1.95141E-02-1.10685E+00
 -1      2254-5.12951E-01 1.86570E-02-3.10151E+00
 -1      2255-6.22883E-01 3.32365E-02-3.65338E+00
 -1      2256-5.51827E-01 2.00770E-02-3.92844E+00
 -1      2257-8.08043E-01-1.47747E-02-7.46609E+00
 -1      2258-8.08672E-01-4.09427E-02-1.04102E+01
 -1      2259-5.46962E-01-5.05065E-02-1.10611E+01
 -1      2260-6.44725E-01-8.90155E-02-1.43679E+01
 -1      2261-6.61947E-01-7.78983E-02-1.46175E+01
 -1      2262-6.58986E-01-2.40872E-02-1.55976E+01
 -1      2263-4.19066E-01-1.00990E-01-1.68730E+01
 -1      2264-3.32721E-01-1.13626E-01-1.73028E+01
 -1      2265-3.13810E-02-1.93445E-01-1.82251E+01
 -1      2266 1.82524E-01-4.75358E-02-1.77868E+01
 -1      2267 3.36032E-01-1.63080E-01-1.72007E+01
 -1      2268 3.21403E-01-1.68035E-01-1.68228E+01
 -1      2269 5.20034E-01-1.17988E-01-1.46619E+01
 -1      2270 5.85657E-01-1.30695E-01-1.39827E+01
 -1      2271 6.30734E-01-1.13033E-01-1.07761E+01
 -1      2272 6.16693E-01-1.78881E-02-3.32222E+00
 -1      2273 3.57484E-01 2.39951E-02-1.15210E+00
 -1      2274 2.07523E-01 4.49010E-02-9.33915E-01
 -1      2275 2.74742E-01 3.62243E-02-7.82357E-01
 -1      2276 0.00000E+00 0.00000E+00 0.00000E+00
 -1      2277-7.42085E-02-2.38721E-02-7.97819E-02
 -1      2278-2.46695E-01-1.94026E-02-5.56068E-01
 -1      2279-4.68316E-01-4.09574E-02-1.83209E+00
 -1      2280-7.19830E-01-8.22917E-03-4.18700E+00
 -1      2281-7.28066E-01-1.37686E-02-4.77990E+00
 -1      2282-5.70868E-01-1.78032E-02-6.07349E+00
 -1      2283-7.97991E-01-2.15667E-02-7.66572E+00
 -1      2284-7.98044E-01-3.12254E-02-1.21867E+01
 -1      2285-6.86502E-01-4.30474E-02-1.49297E+01
 -1      2286-3.20127E-01-4.46432E-02-1.74369E+01
 -1      2287-1.33439E-01-6.74214E-02-1.80694E+01
 -1      2288 5.03249E-01-7.59740E-02-1.60325E+01
 -1      2289 7.35102E-01-9.41189E-02-1.29327E+01
 -1      2290 8.64521E-01-1.02466E-01-9.97574E+00
 -1      2291 7.23614E-01-8.02975E-02-6.16683E+00
 -1      2292 6.48170E-01-6.19897E-02-2.91433E+00
 -1      2293 4.24881E-01-5.51204E-02-1.45824E+00
 -1      2294-9.14548E-02-2.95148E-02-6.91085E-02
 -1      2295-3.94349E-01-3.89440E-02-1.42878E+00
 -1      2296-6.34472E-01-1.94387E-02-6.19861E+00
 -1      2297-7.97606E-01-3.20213E-02-1.19972E+01
 -1      2298-3.70177E-01-5.02909E-02-1.60522E+01
 -1      2299 6.54829E-01-8.74646E-02-7.77898E+00
 -1      2300 6.35577E-01-8.23188E-02-6.31924E+00
 -1      2301 1.34370E-01-2.19468E-02-1.20154E-01
 -1      2302 0.00000E+00 0.00000E+00 0.00000E+00
 -1      2303-5.42267E-01-3.65056E-02-2.81500E+00
 -1      2304-7.59010E-01-1.25136E-02-4.62538E+00
 -1      2305-7.84823E-01-1.47171E-02-5.61204E+00
 -1      2306-8.41141E-01-2.30040E-02-8.24505E+00
 -1      2307-6.06514E-01-3.96714E-02-1.64838E+01
 -1      2308 8.41661E-02-1.01502E-01-1.80578E+01
 -1      2309 8.24351E-01-9.62093E-02-9.41776E+00
 -1      2310 7.73533E-01-8.19587E-02-5.71928E+00
 -1      2311 5.88214E-01-6.39739E-02-2.55374E+00
 -1      2312 0.00000E+00 0.00000E+00 0.00000E+00
 -1      2313 0.00000E+00 0.00000E+00 0.00000E+00
 -1      2314-7.65108E-01-1.30223E-02-5.44943E+00
 -1      2315-5.64402E-01-2.47799E-02-7.68441E+00
 -1      2316-7.86548E-01-2.84966E-02-9.17226E+00
 -1      2317-5.90819E-01-5.11014E-02-1.36140E+01
 -1      2318-1.66660E-01-5.40438E-02-1.80281E+01
 -1      2319 5.81298E-01-7.56279E-02-1.49460E+01
 -1      2320 6.88142E-01-9.07236E-02-1.15080E+01
 -1      2321 5.52746E-01-1.04795E-01-9.96752E+00
 -1      2322 8.28910E-01-9.23782E-02-8.55524E+00
 -1      2323 6.34536E-01-8.37731E-02-6.25978E+00
 -1      2324 8.21253E-01-7.37827E-02-4.24682E+00
 -1      2325 5.66265E-01-6.45021E-02-2.92265E+00
 -1      2326 5.42892E-01-5.79988E-02-1.47217E+00
 -1      2327 2.50994E-01-2.80734E-02-6.10335E-01
 -1      2328-6.59551E-02-3.56252E-03-1.92101E-01
 -1      2329-1.98904E-01-1.62224E-02-3.89073E-01
 -1      2330-5.46913E-01-3.63057E-02-2.32956E+00
 -1      2331-6.10818E-01-4.70232E-02-1.48877E+01
 -1      2332-4.54441E-01-5.22779E-02-1.64119E+01
 -1      2333 8.85125E-02-9.03061E-02-1.79831E+01
 -1      2334 2.24981E-01-8.93278E-02-1.76082E+01
 -1      2335 5.85711E-01-8.31398E-02-1.54689E+01
 -1      2336 8.32549E-01-8.79793E-02-7.86486E+00
 -1      2337 6.14345E-01-7.20763E-02-4.27739E+00
 -1      2338 1.43018E-01-2.17875E-02-2.68695E-01
 -1      2339 0.00000E+00 0.00000E+00 0.00000E+00
 -1      2340-2.55640E-01-2.85384E-02-5.63995E-01
 -1      2341-7.73069E-01-3.84233E-02-1.33186E+01
 -1      2342 2.69702E-01-7.39039E-02-1.74087E+01
 -1      2343 7.68950E-01-9.32805E-02-1.22376E+01
 -1      2344 3.57101E-01-5.87066E-02-1.52857E+00
 -1      2345 1.19764E-01-1.55237E-02-2.81057E-01
 -1      2346-1.46426E-02-1.31666E-02 3.57251E-03
 -1      2347-1.14890E-01-5.45586E-03-2.58617E-01
 -1      2348-3.29125E-01-8.74175E-02-7.41512E-01
 -1      2349-3.25345E-01-7.93509E-02-1.20514E+00
 -1      2350-3.80759E-01-6.53913E-02-3.40636E+00
 -1      2351-5.21467E-01-5.75797E-02-3.64939E+00
 -1      2352-5.70050E-01-3.90514E-02-3.96087E+00
 -1      2353-7.53831E-01-6.88989E-03-5.17910E+00
 -1      2354-7.82808E-01-3.12418E-02-6.56188E+00
 -1      2355-6.50011E-01-3.38152E-02-7.01259E+00
 -1      2356-8.00185E-01-3.01792E-02-7.45178E+00
 -1      2357-7.56084E-01-2.74010E-02-9.02211E+00
 -1      2358-1.01943E+00-1.96030E-02-1.05784E+01
 -1      2359-6.83019E-01-2.97608E-02-1.03578E+01
 -1      2360-6.57436E-01-2.34118E-02-1.08518E+01
 -1      2361-7.92924E-01-2.35038E-02-1.13526E+01
 -1      2362-5.74904E-01-1.05512E-02-1.45070E+01
 -1      2363-3.34415E-01-3.43092E-03-1.68237E+01
 -1      2364-3.54498E-01 6.12308E-03-1.72863E+01
 -1      2365-9.67039E-04-1.23952E-02-1.80871E+01
 -1      2366 1.21878E-01-9.96266E-02-1.77579E+01
 -1      2367 3.51042E-01-2.84819E-02-1.71996E+01
 -1      2368 3.13996E-01-5.21844E-02-1.66900E+01
 -1      2369 4.82574E-01-9.15708E-02-1.55407E+01
 -1      2370 3.90210E-01-4.94188E-02-1.43088E+01
 -1      2371 5.34544E-01-5.39614E-02-1.40595E+01
 -1      2372 5.80632E-01-6.94896E-02-1.37422E+01
 -1      2373 7.71530E-01-7.85393E-02-1.10963E+01
 -1      2374 6.30176E-01-8.76504E-02-1.06351E+01
 -1      2375 7.91358E-01-9.23771E-02-1.01899E+01
 -1      2376 7.54477E-01-9.28264E-02-8.64800E+00
 -1      2377 6.63029E-01-9.64901E-02-7.30296E+00
 -1      2378 5.79763E-01-9.71322E-02-6.83153E+00
 -1      2379 4.61643E-01-4.84225E-02-2.07930E+00
 -1      2380 3.05722E-01-1.04709E-01-1.14179E+00
 -1      2381 4.73966E-01-1.25289E-01-8.79891E-01
 -1      2382 3.45338E-01-1.09122E-01-7.57173E-01
 -1      2383 0.00000E+00 0.00000E+00 0.00000E+00
 -1      2384 0.00000E+00 0.00000E+00 0.00000E+00
 -1      2385 0.00000E+00 0.00000E+00 0.00000E+00
 -1      2386-9.26011E-01-2.35006E-02-8.70682E+00
 -1      2387 4.82034E-01-4.28691E-02-2.19914E+00
 -1      2388 1.58762E-01-5.95647E-03-3.40695E-01
 -1      2389-3.60361E-01-7.28154E-02-8.56946E-01
 -1      2390-5.49499E-01-6.42530E-02-3.23623E+00
 -1      2391-4.71742E-01-2.08597E-02-1.42831E+01
 -1      2392-2.88074E-01-3.20621E-03-1.71096E+01
 -1      2393-9.67043E-02-3.10463E-02-1.80822E+01
 -1      2394 5.58391E-01-4.89339E-02-1.44792E+01
 -1      2395 7.42271E-01-8.46067E-02-1.09264E+01
 -1      2396 6.38935E-01-9.25694E-02-6.77606E+00
 -1      2397 4.97672E-01-9.09536E-02-3.37169E+00
 -1      2398 2.73729E-01-8.20106E-02-7.94771E-01
 -1      2399 0.00000E+00 0.00000E+00 0.00000E+00
 -1      2400 0.00000E+00 0.00000E+00 0.00000E+00
 -1      2401-2.09874E-01-5.04142E-02-7.14378E-01
 -1      2402-4.93871E-01-4.56485E-02-2.93013E+00
 -1      2403-7.41772E-01-4.27021E-02-1.36438E+01
 -1      2404-5.62456E-01-3.34729E-02-1.39581E+01
 -1      2405-5.98293E-01-3.30590E-02-1.45544E+01
 -1      2406-3.79982E-01-3.45751E-02-1.67344E+01
 -1      2407 2.14320E-01-6.59065E-02-1.72399E+01
 -1      2408 2.17652E-01-9.47132E-02-1.73476E+01
 -1      2409 4.99964E-01-7.04518E-02-1.48020E+01
 -1      2410 5.57809E-01-8.96048E-02-7.28398E+00
 -1      2411 5.23476E-01-8.09064E-02-3.75043E+00
 -1      2412 3.24364E-01-8.44012E-02-1.11183E+00
 -1      2413 0.00000E+00 0.00000E+00 0.00000E+00
 -1      2414 7.99013E-02 1.85607E-02-6.89790E-02
 -1      2415-1.82559E-01-1.84544E-02-5.98445E-01
 -1      2416-1.52116E-01-6.76072E-02-1.79718E+01
 -1      2417 0.00000E+00 0.00000E+00 0.00000E+00
 -1      2418-7.27749E-01-5.27463E-02-1.36558E+01
 -1      2419-5.34601E-01-7.91313E-02-1.65317E+01
 -1      2420 7.03514E-01-5.16977E-02-4.06545E+00
 -1      2421 5.69620E-01-2.74530E-02-3.13691E+00
 -1      2422 4.52708E-01-2.80806E-02-1.31175E+00
 -1      2423 0.00000E+00 0.00000E+00 0.00000E+00
 -1      2424-2.61085E-01 6.17977E-02-7.96880E-01
 -1      2425-5.77664E-01 2.39522E-02-3.46005E+00
 -1      2426-7.40250E-01-4.11412E-04-6.71549E+00
 -1      2427-6.47138E-01-5.21120E-02-1.10006E+01
 -1      2428-5.38095E-01-7.77327E-02-1.40569E+01
 -1      2429-4.20579E-01-1.16076E-01-1.70257E+01
 -1      2430-4.18194E-02-1.29942E-01-1.80582E+01
 -1      2431 2.89993E-01-1.64911E-01-1.71086E+01
 -1      2432 5.55106E-01-1.38935E-01-1.44752E+01
 -1      2433 5.35679E-01-1.38770E-01-1.42161E+01
 -1      2434 8.29206E-01-1.07015E-01-1.07078E+01
 -1      2435 7.26323E-01-7.42072E-02-6.63423E+00
 -1      2436 6.83951E-01-7.28327E-02-7.05823E+00
 -1      2437 5.14132E-01-2.74558E-02-3.66704E+00
 -1      2438 6.27438E-01-1.16631E-02-3.45047E+00
 -1      2439 2.62457E-01 4.88885E-03-1.01902E+00
 -1      2440 3.44902E-01 1.32445E-02-8.45609E-01
 -1      2441 0.00000E+00 0.00000E+00 0.00000E+00
 -1      2442 0.00000E+00 0.00000E+00 0.00000E+00
 -1      2443-3.36847E-01 4.92988E-02-1.04441E+00
 -1      2444-6.73771E-01-9.12874E-03-7.01223E+00
 -1      2445-7.15980E-01-7.53791E-02-1.42245E+01
 -1      2446-8.23371E-03-1.41959E-01-1.80834E+01
 -1      2447 3.26916E-01-1.65629E-01-1.69262E+01
 -1      2448 8.34416E-01-1.47174E-01-1.41887E+01
 -1      2449 0.00000E+00 0.00000E+00 0.00000E+00
 -1      2450-1.67888E-01 2.34229E-04-3.36312E-01
 -1      2451 7.88848E-01-9.34957E-02-8.92585E+00
 -1      2452 7.77508E-01-9.25116E-02-8.71176E+00
 -1      2453 4.80760E-01-4.54951E-02-2.19106E+00
 -1      2454 1.52838E-01-5.24119E-03-3.37776E-01
 -1      2455 1.24473E-01 3.09543E-03-2.82664E-01
 -1      2456-1.89524E-02 2.51982E-02-2.74247E-02
 -1      2457-2.51991E-01 2.40341E-02-5.38642E-01
 -1      2458-5.58716E-01-4.30597E-03-4.85131E+00
 -1      2459-6.76494E-01-7.14466E-02-1.49365E+01
 -1      2460-6.48788E-01-5.91155E-02-1.55982E+01
 -1      2461-3.19998E-01-1.00080E-01-1.73617E+01
 -1      2462-1.81709E-01-8.69490E-02-1.76939E+01
 -1      2463 4.16454E-02-1.62061E-01-1.79930E+01
 -1      2464 5.61678E-01-1.06911E-01-1.28067E+01
 -1      2465 7.92042E-01-9.91687E-02-1.24845E+01
 -1      2466 5.93427E-01-4.15643E-02-4.23075E+00
 -1      2467 7.29190E-01-3.73147E-04-3.43949E+00
 -1      2468 4.14939E-01-3.73980E-02-2.00754E+00
 -1      2469 1.91915E-01 1.96176E-03-3.79471E-01
 -1      2470 0.00000E+00 0.00000E+00 0.00000E+00
 -1      2471-2.42065E-01 8.46934E-02-8.64412E-01
 -1      2472-2.74375E-01 7.65118E-02-1.04934E+00
 -1      2473-2.91568E-01 4.85707E-02-1.23122E+00
 -1      2474-4.04440E-01-5.62835E-03-1.44424E+00
 -1      2475-5.65308E-01 3.15880E-02-3.20207E+00
 -1      2476-7.22439E-01 4.28890E-02-3.66244E+00
 -1      2477-4.83210E-01 3.20485E-02-3.76985E+00
 -1      2478-7.72839E-01 4.78873E-03-6.53165E+00
 -1      2479-7.10583E-01-9.96077E-03-7.42217E+00
 -1      2480-7.91452E-01-2.32193E-02-8.53070E+00
 -1      2481-6.71654E-01-5.10533E-02-1.03277E+01
 -1      2482-5.04184E-01-5.94439E-02-1.06229E+01
 -1      2483-5.35336E-01-5.98483E-02-1.09826E+01
 -1      2484-6.98012E-01-5.05635E-02-1.12846E+01
 -1      2485-7.41737E-01-4.60071E-02-1.26114E+01
 -1      2486-6.77334E-01-8.60548E-02-1.39364E+01
 -1      2487-6.20294E-01-9.24323E-02-1.44714E+01
 -1      2488-4.59135E-01-7.59337E-02-1.57860E+01
 -1      2489-4.65064E-01-1.29943E-01-1.66877E+01
 -1      2490-3.89866E-01-1.39870E-01-1.71081E+01
 -1      2491-3.03302E-01-1.07438E-01-1.73084E+01
 -1      2492-4.45960E-02-1.50915E-01-1.80125E+01
 -1      2493 3.73355E-01-1.76185E-01-1.71796E+01
 -1      2494 2.08280E-01-1.92088E-01-1.70123E+01
 -1      2495 3.11069E-01-1.67774E-01-1.66432E+01
 -1      2496 4.13994E-01-1.16732E-01-1.64146E+01
 -1      2497 4.91631E-01-1.04485E-01-1.58460E+01
 -1      2498 6.22658E-01-1.48560E-01-1.39784E+01
 -1      2499 7.80785E-01-1.08501E-01-1.10566E+01
 -1      2500 7.63688E-01-6.62648E-02-6.63099E+00
 -1      2501 6.63709E-01-7.03628E-02-5.04464E+00
 -1      2502 6.29661E-01-9.16333E-03-3.75209E+00
 -1      2503 5.90289E-01 8.19852E-04-3.23468E+00
 -1      2504 4.02999E-01-2.03461E-02-1.41963E+00
 -1      2505 3.49226E-01 2.62881E-02-1.10324E+00
 -1      2506 1.89125E-01 2.54863E-02-8.79231E-01
 -1      2507 2.45170E-01 3.60041E-02-7.49043E-01
 -1      2508 1.88196E-01-2.88844E-03-5.63626E-01
 -1      2509 0.00000E+00 0.00000E+00 0.00000E+00
 -1      2510 0.00000E+00 0.00000E+00 0.00000E+00
 -1      2511-9.06415E-02 2.21257E-02-1.04646E-01
 -1      2512-7.10118E-01 8.01792E-04-4.75071E+00
 -1      2513-6.71896E-01-7.25181E-02-1.48066E+01
 -1      2514-1.49195E-01-1.00803E-01-1.78964E+01
 -1      2515 2.64894E-01-1.30644E-01-1.73649E+01
 -1      2516 4.88326E-01-1.12597E-01-1.59724E+01
 -1      2517 5.26557E-01-1.04038E-01-1.54580E+01
 -1      2518 4.10032E-01-1.11485E-01-1.49737E+01
 -1      2519 7.21411E-01-1.08153E-01-1.28966E+01
 -1      2520 8.24557E-01-7.02798E-02-6.18634E+00
 -1      2521 7.47846E-01-6.92081E-02-5.53438E+00
 -1      2522 5.09120E-01-3.45830E-02-2.92942E+00
 -1      2523-1.28256E-01 2.59823E-02-9.95645E-02
 -1      2524-4.69967E-01-1.10394E-02-1.83831E+00
 -1      2525-5.76362E-01-4.16647E-02-9.84586E+00
 -1      2526-8.61777E-01-5.19839E-02-1.33973E+01
 -1      2527-3.27390E-01-9.98588E-02-1.72824E+01
 -1      2528 5.61318E-01-1.08936E-01-1.48914E+01
 -1      2529 7.16519E-01-8.76995E-02-7.79048E+00
 -1      2530 7.04527E-01-5.38062E-02-4.27481E+00
 -1      2531 2.36540E-01-1.92800E-03-5.72731E-01
 -1      2532 8.84252E-02 2.19657E-02-9.49231E-02
 -1      2533 0.00000E+00 0.00000E+00 0.00000E+00
 -1      2534-3.93835E-01-3.77654E-03-1.32800E+00
 -1      2535-7.41857E-01 1.78274E-03-4.59576E+00
 -1      2536-7.72851E-01-1.90949E-03-5.57524E+00
 -1      2537-6.20102E-01-9.69082E-03-6.14748E+00
 -1      2538-7.75002E-01-1.34429E-02-7.60007E+00
 -1      2539-7.76304E-01-4.64915E-02-1.19106E+01
 -1      2540-2.99311E-01-1.01852E-01-1.74411E+01
 -1      2541 6.33757E-01-1.12266E-01-1.36364E+01
 -1      2542 7.51050E-01-1.08287E-01-1.30503E+01
 -1      2543 8.06950E-01-9.83415E-02-9.39598E+00
 -1      2544 5.21771E-01-1.73945E-02-1.42329E+00
 -1      2545-4.75205E-01-8.78575E-03-2.34269E+00
 -1      2546-5.70466E-01-1.41338E-02-2.82119E+00
 -1      2547-7.49879E-01-5.09594E-04-5.41168E+00
 -1      2548-6.59084E-01-1.40507E-02-7.59080E+00
 -1      2549-7.51952E-01-5.09609E-02-1.27099E+01
 -1      2550 6.52722E-01-1.01386E-01-9.99482E+00
 -1      2551 2.08460E-01-8.68683E-03-5.52230E-01
 -1      2552 9.76404E-02 1.37321E-02-2.23510E-01
 -1      2553-1.09321E-01 2.61242E-02-1.00098E-01
 -1      2554-4.38168E-01 3.93259E-05-1.85984E+00
 -1      2555-6.60687E-01 4.06189E-03-4.82245E+00
 -1      2556-4.52458E-01-8.48957E-02-1.63061E+01
 -1      2557 2.27261E-01-1.33026E-01-1.75499E+01
 -1      2558 6.72607E-01-1.10753E-01-1.27984E+01
 -1      2559 8.40350E-01-8.95804E-02-8.57490E+00
 -1      2560 6.14324E-01-7.46364E-02-6.25637E+00
 -1      2561 5.75235E-01-5.42024E-02-4.15117E+00
 -1      2562 5.89791E-01-5.73022E-02-4.30777E+00
 -1      2563 5.52661E-01-3.64655E-02-2.90705E+00
 -1      2564-2.48384E-01 2.12267E-02-5.85081E-01
 -1      2565-6.52050E-01-9.06232E-02-1.54330E+01
 -1      2566-1.61299E-01-1.19622E-01-1.76679E+01
 -1      2567-1.75405E-01-8.57320E-02-1.78393E+01
 -1      2568 2.51780E-01-1.31381E-01-1.74327E+01
 -1      2569 2.03527E-01-1.30789E-01-1.73532E+01
 -1      2570 7.55077E-01-1.06881E-01-1.22103E+01
 -1      2571 3.27799E-01-2.47123E-02-1.48090E+00
 -1      2572 0.00000E+00 0.00000E+00 0.00000E+00
 -1      2573 0.00000E+00 0.00000E+00 0.00000E+00
 -1      2574-3.53372E-01-5.75872E-02-7.73112E-01
 -1      2575-1.97131E-01-5.67634E-02-9.15744E-01
 -1      2576-3.58226E-01-5.77706E-02-1.12297E+00
 -1      2577-5.22938E-01-3.04047E-02-3.89846E+00
 -1      2578-7.71155E-01-2.00324E-02-7.28874E+00
 -1      2579-7.30006E-01-2.66774E-02-8.96854E+00
 -1      2580-4.96119E-01-4.40235E-02-1.05892E+01
 -1      2581-6.61966E-01-4.03064E-02-1.09097E+01
 -1      2582-7.36656E-01-4.30717E-02-1.12699E+01
 -1      2583-4.27296E-01-3.15714E-02-1.41594E+01
 -1      2584-5.79803E-01-2.89487E-02-1.44238E+01
 -1      2585-6.01987E-01-9.74036E-02-1.56798E+01
 -1      2586-4.05200E-01-5.33903E-02-1.67317E+01
 -1      2587-2.34537E-01-4.59352E-02-1.69524E+01
 -1      2588-3.44462E-01-5.88207E-02-1.70694E+01
 -1      2589-2.56533E-02-3.86154E-02-1.80266E+01
 -1      2590 5.97741E-03-3.65454E-02-1.79824E+01
 -1      2591 1.21299E-01-1.47571E-01-1.77208E+01
 -1      2592 3.70972E-01-5.86504E-02-1.71568E+01
 -1      2593 2.74678E-01-5.93748E-02-1.69621E+01
 -1      2594 3.85463E-01-6.83481E-02-1.67539E+01
 -1      2595 5.36392E-01-1.21863E-01-1.55439E+01
 -1      2596 3.77749E-01-7.16632E-02-1.42914E+01
 -1      2597 5.44873E-01-7.90334E-02-1.40230E+01
 -1      2598 7.70100E-01-1.13788E-01-1.24741E+01
 -1      2599 7.72943E-01-9.64434E-02-1.02866E+01
 -1      2600 7.40621E-01-9.07390E-02-8.63888E+00
 -1      2601 7.69142E-01-9.34230E-02-7.27654E+00
 -1      2602 4.73524E-01-9.64099E-02-6.98882E+00
 -1      2603 6.39864E-01-9.17952E-02-6.66884E+00
 -1      2604 7.50202E-01-8.20373E-02-6.30856E+00
 -1      2605 5.01528E-01-8.63749E-02-3.23263E+00
 -1      2606 3.67037E-01-7.85340E-02-1.00889E+00
 -1      2607 2.73794E-01-8.13027E-02-6.73810E-01
 -1      2608 0.00000E+00 0.00000E+00 0.00000E+00
 -1      2609 0.00000E+00 0.00000E+00 0.00000E+00
 -1      2610 0.00000E+00 0.00000E+00 0.00000E+00
 -1      2611-5.72534E-01-1.05789E-01-1.55474E+01
 -1      2612 0.00000E+00 0.00000E+00 0.00000E+00
 -1      2613-3.86585E-01-4.88143E-02-9.26345E-01
 -1      2614 2.14550E-01-1.64276E-01-1.76503E+01
 -1      2615 4.34029E-01-8.30505E-02-1.69600E+01
 -1      2616 0.00000E+00 0.00000E+00 0.00000E+00
 -1      2617-2.73333E-01-2.78797E-02-7.69916E-01
 -1      2618-5.78920E-01-3.54691E-02-3.21675E+00
 -1      2619-7.64678E-01-2.40134E-02-6.66504E+00
 -1      2620-6.05081E-01-4.81585E-02-1.43174E+01
 -1      2621-2.55847E-01-7.12079E-02-1.69840E+01
 -1      2622 2.72673E-01-8.26982E-02-1.71561E+01
 -1      2623 5.18754E-01-7.41730E-02-1.44548E+01
 -1      2624 7.67307E-01-9.16463E-02-1.09007E+01
 -1      2625 1.94354E-01-5.84768E-02-7.58426E-01
 -1      2626-4.80107E-01-2.93438E-02-2.88862E+00
 -1      2627-7.51569E-01-1.48309E-02-6.20088E+00
 -1      2628-6.33617E-01-4.63878E-02-1.07978E+01
 -1      2629-4.12778E-01-1.03194E-01-1.64438E+01
 -1      2630-1.06851E-01-8.59384E-02-1.79350E+01
 -1      2631 6.83249E-01-1.11914E-01-1.37107E+01
 -1      2632 7.59777E-01-9.80184E-02-1.13723E+01
 -1      2633 7.23509E-01-1.07335E-01-1.00882E+01
 -1      2634 6.36214E-01-8.40159E-02-7.50304E+00
 -1      2635 7.22056E-01-7.56277E-02-6.38624E+00
 -1      2636 5.47473E-01-7.54709E-02-3.72033E+00
 -1      2637 5.01832E-01-6.95979E-02-3.30472E+00
 -1      2638 4.27816E-01-2.61413E-02-1.15061E+00
 -1      2639 0.00000E+00 0.00000E+00 0.00000E+00
 -1      2640-5.73696E-01-4.61604E-03-2.66671E+00
 -1      2641-5.42646E-01-8.72763E-02-1.50316E+01
 -1      2642-2.35422E-01-1.15510E-01-1.77539E+01
 -1      2643 5.59461E-01-1.07291E-01-1.49678E+01
 -1      2644 5.09435E-01-1.23619E-01-1.33820E+01
 -1      2645 7.32373E-01-8.25321E-02-7.77681E+00
 -1      2646 8.37199E-01-7.00455E-02-6.15496E+00
 -1      2647 6.46686E-01-6.43805E-02-5.81470E+00
 -1      2648 4.72285E-01-1.90378E-02-2.57699E+00
 -1      2649 3.58596E-01-1.45942E-02-1.35322E+00
 -1      2650 1.02987E-01 3.71223E-02-1.19447E-01
 -1      2651 0.00000E+00 0.00000E+00 0.00000E+00
 -1      2652-9.66426E-02 4.20554E-02-1.28425E-01
 -1      2653-1.65789E-01 5.38664E-02-4.04975E-01
 -1      2654-4.69424E-01 4.38677E-03-1.63000E+00
 -1      2655-4.26024E-01 5.38926E-03-2.34530E+00
 -1      2656-6.33692E-01 9.17538E-03-4.70718E+00
 -1      2657-6.02500E-01 3.69674E-03-5.39861E+00
 -1      2658-6.19580E-01-5.53543E-02-1.18596E+01
 -1      2659-4.51285E-01-1.03949E-01-1.53484E+01
 -1      2660-1.64795E-01-1.29344E-01-1.74619E+01
 -1      2661-1.83492E-01-1.26702E-01-1.76756E+01
 -1      2662 1.10688E-01-1.25310E-01-1.78676E+01
 -1      2663 1.62779E-01-1.57489E-01-1.75651E+01
 -1      2664 4.80098E-01-1.35828E-01-1.56554E+01
 -1      2665 4.45693E-01-1.26506E-01-1.53917E+01
 -1      2666 6.50143E-01-1.01138E-01-9.39635E+00
 -1      2667 6.71737E-01-4.80726E-02-4.57926E+00
 -1      2668 4.47153E-01-2.84259E-03-2.30300E+00
 -1      2669 4.00841E-01-2.89106E-03-1.87080E+00
 -1      2670 1.28657E-01-2.43994E-03-4.45392E-01
 -1      2671 1.03678E-01 3.07122E-02-3.34907E-01
 -1      2672 7.84314E-02 3.69160E-02-1.77695E-01
 -1      2673 0.00000E+00 0.00000E+00 0.00000E+00
 -1      2674-8.81908E-01-1.69939E-02-8.55990E+00
 -1      2675-8.97645E-01-2.06649E-02-8.86250E+00
 -1      2676-8.50255E-01-5.78900E-02-1.25576E+01
 -1      2677 0.00000E+00 0.00000E+00 0.00000E+00
 -1      2678-4.00308E-01-4.07548E-02-2.57976E+00
 -1      2679-5.75647E-01-3.59345E-02-1.28811E+01
 -1      2680-4.15253E-01-4.09631E-02-1.55586E+01
 -1      2681 4.22636E-01-6.85130E-02-1.55012E+01
 -1      2682 6.35652E-01-8.48406E-02-1.26048E+01
 -1      2683 6.03396E-01-8.74971E-02-1.21783E+01
 -1      2684 6.89068E-01-9.39576E-02-8.94265E+00
 -1      2685 6.18699E-01-9.21560E-02-8.55868E+00
 -1      2686 5.56191E-01-8.29177E-02-4.88847E+00
 -1      2687 0.00000E+00 0.00000E+00 0.00000E+00
 -1      2688-5.34370E-02-3.26741E-02-9.36439E-02
 -1      2689-4.50470E-02-3.22932E-02-5.22307E-02
 -1      2690-1.56982E-01-2.36307E-02-4.87579E-01
 -1      2691-3.65283E-01-4.48743E-02-1.38403E+00
 -1      2692-5.19736E-01-4.07105E-03-3.90421E+00
 -1      2693-5.12973E-01-1.14362E-02-4.30444E+00
 -1      2694-6.54149E-01-1.79093E-02-5.84717E+00
 -1      2695-6.06048E-01-2.22914E-02-5.53580E+00
 -1      2696-6.66498E-01-3.14740E-02-7.57593E+00
 -1      2697-6.05065E-01-3.42267E-02-7.88319E+00
 -1      2698-7.15557E-01-2.73755E-02-9.58844E+00
 -1      2699-6.99060E-01-3.69469E-02-1.32284E+01
 -1      2700-5.54862E-01-5.43345E-02-1.49623E+01
 -1      2701-4.69471E-01-6.18405E-02-1.51033E+01
 -1      2702-2.29389E-01-5.98855E-02-1.75917E+01
 -1      2703-1.61825E-01-5.87343E-02-1.80883E+01
 -1      2704 9.85922E-02-8.28585E-02-1.80100E+01
 -1      2705 2.12778E-01-5.28015E-02-1.79788E+01
 -1      2706 1.84711E-01-1.00346E-01-1.75166E+01
 -1      2707 4.14228E-01-8.98000E-02-1.65347E+01
 -1      2708 5.97301E-01-8.81894E-02-1.32890E+01
 -1      2709 6.55608E-01-9.20158E-02-1.18946E+01
 -1      2710 7.04320E-01-9.23595E-02-8.10137E+00
 -1      2711 4.67766E-01-5.13089E-02-2.93278E+00
 -1      2712 4.30336E-01-5.70370E-02-2.77885E+00
 -1      2713 1.93337E-01-1.47449E-02-6.33959E-01
 -1      2714 1.70239E-01-2.33231E-02-5.51030E-01
 -1      2715 0.00000E+00 0.00000E+00 0.00000E+00
 -1      2716 0.00000E+00 0.00000E+00 0.00000E+00
 -1      2717 0.00000E+00 0.00000E+00 0.00000E+00
 -1      2718-6.36421E-01-1.20444E-02-6.70595E+00
 -1      2719-6.46241E-01-4.38232E-02-1.05714E+01
 -1      2720-4.29572E-01-8.43512E-02-1.40731E+01
 -1      2721 2.83054E-01-1.51790E-01-1.72034E+01
 -1      2722 6.23562E-01-1.10912E-01-1.09720E+01
 -1      2723 6.30276E-01-7.79949E-02-7.12615E+00
 -1      2724-1.23975E-01-4.98750E-02-3.30679E-01
 -1      2725-1.29723E-01-6.42464E-02-2.84244E-01
 -1      2726-6.53787E-01-3.01991E-02-1.27129E+01
 -1      2727-6.78229E-01-2.66150E-02-1.25091E+01
 -1      2728-4.02891E-01-4.31834E-02-1.58699E+01
 -1      2729-5.26604E-01-2.64747E-02-1.57647E+01
 -1      2730 6.21111E-01-8.76803E-02-5.00778E+00
 -1      2731 6.58267E-01-9.10012E-02-5.24140E+00
 -1      2732-3.98130E-01-5.09869E-02-1.89177E+00
 -1      2733-4.65483E-01-6.45857E-02-2.09463E+00
 -1      2734-4.58685E-01-5.16199E-02-2.24197E+00
 -1      2735-6.97002E-01-2.84027E-02-8.51712E+00
 -1      2736-4.29316E-01-4.67500E-02-1.55957E+01
 -1      2737 1.83885E-01-7.27812E-02-1.76957E+01
 -1      2738 4.39938E-01-7.01175E-02-1.59697E+01
 -1      2739 5.01614E-01-5.77771E-02-1.57548E+01
 -1      2740 4.80043E-01-7.19306E-02-1.55838E+01
 -1      2741 6.11073E-01-9.47784E-02-9.11476E+00
 -1      2742 0.00000E+00 0.00000E+00 0.00000E+00
 -1      2743-5.85026E-02-3.06287E-02-1.36878E-01
 -1      2744-1.85853E-01-1.32518E-02-5.31097E-01
 -1      2745-1.68994E-01-2.74401E-02-4.44533E-01
 -1      2746-6.30149E-01-1.93477E-02-5.35789E+00
 -1      2747-4.45987E-01-1.74337E-02-5.80301E+00
 -1      2748-6.33466E-01-1.58446E-02-5.76610E+00
 -1      2749-6.71681E-01-1.18902E-02-6.13129E+00
 -1      2750-7.55382E-01-2.67956E-02-8.06343E+00
 -1      2751-6.54330E-01-3.10784E-02-9.69352E+00
 -1      2752-6.82821E-01-2.87145E-02-9.67081E+00
 -1      2753-6.85287E-01-3.21639E-02-1.27903E+01
 -1      2754-6.13845E-01-4.23295E-02-1.31705E+01
 -1      2755-6.01352E-01-5.88766E-02-1.35631E+01
 -1      2756-5.12901E-01-5.43394E-02-1.52627E+01
 -1      2757-4.30067E-01-4.77491E-02-1.62368E+01
 -1      2758-3.85130E-01-6.95231E-02-1.65805E+01
 -1      2759-2.22744E-01-6.53115E-02-1.76159E+01
 -1      2760-2.60825E-01-6.41260E-02-1.74777E+01
 -1      2761-1.23667E-01-6.61846E-02-1.79945E+01
 -1      2762-7.72793E-02-9.94552E-02-1.81185E+01
 -1      2763 9.28588E-02-8.48858E-02-1.79705E+01
 -1      2764 2.06949E-01-8.01359E-02-1.76503E+01
 -1      2765 4.68449E-01-7.84115E-02-1.54786E+01
 -1      2766 3.70283E-01-9.00320E-02-1.51350E+01
 -1      2767 5.28325E-01-7.63531E-02-1.52721E+01
 -1      2768 6.39767E-01-9.06798E-02-1.23209E+01
 -1      2769 6.11807E-01-9.93269E-02-1.15986E+01
 -1      2770 6.06197E-01-9.20523E-02-9.79009E+00
 -1      2771 7.48385E-01-9.67598E-02-9.60803E+00
 -1      2772 6.54557E-01-8.28219E-02-5.45756E+00
 -1      2773 3.77862E-01-6.05974E-02-2.55010E+00
 -1      2774 3.35021E-01-1.62137E-02-1.41813E+00
 -1      2775 1.15625E-01-4.48274E-02-2.92416E-01
 -1      2776 1.06927E-01-3.99193E-02-2.82273E-01
 -1      2777 8.39654E-02-2.28577E-02-1.34280E-01
 -1      2778 9.32851E-02-3.32783E-02-2.01579E-01
 -1      2779 5.20745E-02-2.37293E-02-1.01019E-01
 -1      2780 0.00000E+00 0.00000E+00 0.00000E+00
 -1      2781-4.64856E-02-3.34149E-02-1.82748E-01
 -1      2782-4.79503E-01-4.36233E-02-2.31358E+00
 -1      2783-6.38682E-01-1.30520E-02-7.18732E+00
 -1      2784-5.12529E-01-4.89745E-02-1.54476E+01
 -1      2785-2.30114E-01-5.03796E-02-1.77166E+01
 -1      2786 7.70390E-03-1.76421E-01-1.81986E+01
 -1      2787 1.12452E-01-6.80966E-02-1.78605E+01
 -1      2788 3.49354E-01-9.18950E-02-1.64272E+01
 -1      2789 4.33563E-01-8.60177E-02-1.51290E+01
 -1      2790 6.31581E-01-1.13505E-01-1.04656E+01
 -1      2791 6.45199E-01-8.98973E-02-8.03516E+00
 -1      2792 5.16686E-01-7.71725E-02-4.81131E+00
 -1      2793 5.86129E-01-7.55365E-02-4.60045E+00
 -1      2794 6.53059E-01-7.32429E-02-4.25888E+00
 -1      2795 3.28652E-01-5.63822E-02-1.88421E+00
 -1      2796 1.60436E-01-4.28677E-02-4.06098E-01
 -1      2797 1.89098E-01-2.33824E-02-5.17126E-01
 -1      2798 0.00000E+00 0.00000E+00 0.00000E+00
 -1      2799-4.38887E-01-2.91141E-02-2.74361E+00
 -1      2800-4.06599E-01 3.57615E-02-3.39752E+00
 -1      2801-6.35472E-01-8.74189E-03-6.87788E+00
 -1      2802-6.07067E-01-2.86277E-02-8.32909E+00
 -1      2803-6.52520E-01-3.24286E-02-9.90355E+00
 -1      2804-5.12169E-01-4.97737E-02-1.06956E+01
 -1      2805-5.34334E-01-4.21893E-02-1.16228E+01
 -1      2806-6.52716E-01-3.50557E-02-1.22584E+01
 -1      2807-4.60982E-01-6.20290E-02-1.49885E+01
 -1      2808-3.61211E-01-6.21524E-02-1.64318E+01
 -1      2809-2.33407E-01-1.23830E-01-1.71099E+01
 -1      2810 6.47020E-02-1.04921E-01-1.80310E+01
 -1      2811 2.02709E-01-8.29622E-02-1.73965E+01
 -1      2812 4.87729E-01-8.39423E-02-1.49805E+01
 -1      2813 5.13042E-01-1.31926E-01-1.43829E+01
 -1      2814 5.42058E-01-9.86704E-02-1.36600E+01
 -1      2815 6.37935E-01-9.33240E-02-1.15370E+01
 -1      2816 5.62342E-01-9.61233E-02-9.40038E+00
 -1      2817 5.80425E-01-6.99448E-02-6.82489E+00
 -1      2818 4.32630E-01-5.89318E-02-2.86224E+00
 -1      2819 1.91459E-01-2.09447E-02-6.02659E-01
 -1      2820 0.00000E+00 0.00000E+00 0.00000E+00
 -1      2821 0.00000E+00 0.00000E+00 0.00000E+00
 -1      2822 0.00000E+00 0.00000E+00 0.00000E+00
 -1      2823-4.33355E-02-2.55951E-02-6.67034E-02
 -1      2824-1.61159E-01-1.30876E-02-5.76200E-01
 -1      2825-4.02827E-01-3.99580E-02-1.32524E+00
 -1      2826-4.65382E-01-3.09108E-02-2.86493E+00
 -1      2827-5.01451E-01-8.01334E-03-4.06271E+00
 -1      2828-5.19049E-01-5.70525E-02-1.48218E+01
 -1      2829-4.19261E-01-5.70221E-02-1.65774E+01
 -1      2830-2.46257E-01-5.93211E-02-1.73892E+01
 -1      2831 3.70558E-01-9.66696E-02-1.65826E+01
 -1      2832 5.55245E-01-7.13508E-02-4.13592E+00
 -1      2833 4.71605E-01-6.19384E-02-3.00356E+00
 -1      2834 2.06637E-01-2.32852E-02-6.50621E-01
 -1      2835 7.71093E-02-2.19727E-02-9.34535E-02
 -1      2836 6.17085E-01-8.65925E-02-7.75235E+00
 -1      2837 3.78639E-01-5.73129E-02-1.37905E+00
 -1      2838-1.57599E-01-1.58726E-02-5.61601E-01
 -1      2839-5.75755E-01-9.08956E-03-4.19714E+00
 -1      2840-6.05263E-01-4.91149E-02-1.35592E+01
 -1      2841 1.55602E-01-8.87526E-02-1.74036E+01
 -1      2842 5.33677E-01-9.97750E-02-1.35834E+01
 -1      2843 5.58026E-01-1.05391E-01-1.00432E+01
 -1      2844 5.23495E-02-2.34739E-02-1.22277E-01
 -1      2845 0.00000E+00 0.00000E+00 0.00000E+00
 -1      2846 0.00000E+00 0.00000E+00 0.00000E+00
 -1      2847 0.00000E+00 0.00000E+00 0.00000E+00
 -1      2848-3.73687E-01-3.92808E-02-1.47111E+00
 -1      2849-6.55389E-01-3.66278E-02-1.14302E+01
 -1      2850-5.56896E-01-5.45329E-02-1.54461E+01
 -1      2851-3.72895E-01-6.70329E-02-1.59945E+01
 -1      2852 8.57788E-02-9.71439E-02-1.78848E+01
 -1      2853 3.55633E-01-9.36500E-02-1.64161E+01
 -1      2854 5.84236E-01-6.98435E-02-4.62368E+00
 -1      2855 0.00000E+00 0.00000E+00 0.00000E+00
 -1      2856 0.00000E+00 0.00000E+00 0.00000E+00
 -1      2857-2.36151E-01-8.73920E-02-8.95398E-01
 -1      2858-4.54348E-01-2.96118E-02-2.29314E+00
 -1      2859-4.70447E-01-7.37322E-02-3.12236E+00
 -1      2860-5.65143E-01-1.59874E-02-5.66217E+00
 -1      2861-5.14395E-01-2.67432E-02-7.92326E+00
 -1      2862-6.84000E-01-2.46745E-02-8.47928E+00
 -1      2863-6.64843E-01-4.10214E-02-1.22076E+01
 -1      2864-4.76198E-01-2.11962E-02-1.39525E+01
 -1      2865-4.23631E-01-1.83300E-02-1.42579E+01
 -1      2866-2.50338E-01 1.56792E-03-1.70878E+01
 -1      2867-1.05863E-01-6.87868E-02-1.79838E+01
 -1      2868-2.87746E-02 6.51106E-04-1.81130E+01
 -1      2869 1.84939E-01-9.96717E-02-1.76191E+01
 -1      2870 2.80576E-01-4.02119E-02-1.69192E+01
 -1      2871 1.94402E-01-4.69206E-02-1.70856E+01
 -1      2872 3.47662E-01-8.91040E-02-1.52687E+01
 -1      2873 4.93071E-01-3.85201E-02-1.46106E+01
 -1      2874 5.02033E-01-1.01984E-01-9.72429E+00
 -1      2875 6.67747E-01-9.52105E-02-9.16732E+00
 -1      2876 6.85320E-01-7.95504E-02-5.53155E+00
 -1      2877 3.59791E-01-9.01390E-02-3.76525E+00
 -1      2878 3.92489E-01-9.95023E-02-3.49778E+00
 -1      2879 2.15915E-01-1.20800E-01-9.16738E-01
 -1      2880 7.84552E-02-2.08631E-02-1.41839E-01
 -1      2881 0.00000E+00 0.00000E+00 0.00000E+00
 -1      2882-1.74255E-01-1.06756E-02-3.75952E-01
 -1      2883-1.77925E-01-7.31477E-02-6.97676E-01
 -1      2884-4.26451E-01-2.80790E-02-1.92728E+00
 -1      2885-3.79105E-01-3.30177E-02-1.66065E+00
 -1      2886-3.77077E-01-5.44171E-02-2.88124E+00
 -1      2887-5.57413E-01-2.18512E-02-5.93860E+00
 -1      2888-5.97017E-01-3.49641E-02-9.67133E+00
 -1      2889-1.86796E-01-8.26208E-02-1.75703E+01
 -1      2890-1.22208E-02-2.16174E-02-1.80895E+01
 -1      2891 2.04874E-01-9.24620E-02-1.75027E+01
 -1      2892 1.70250E-01-9.62934E-02-1.74436E+01
 -1      2893 3.75959E-01-9.43655E-02-1.63431E+01
 -1      2894 4.43936E-01-9.21439E-02-1.59118E+01
 -1      2895 5.34198E-01-1.02353E-01-1.23492E+01
 -1      2896 5.48537E-01-9.02095E-02-1.17302E+01
 -1      2897 5.78359E-01-8.76471E-02-7.97050E+00
 -1      2898 5.91905E-01-7.08334E-02-4.98535E+00
 -1      2899 3.42358E-01-6.74644E-02-1.41578E+00
 -1      2900 1.68673E-01-2.64031E-02-4.58730E-01
 -1      2901 0.00000E+00 0.00000E+00 0.00000E+00
 -1      2902 0.00000E+00 0.00000E+00 0.00000E+00
 -1      2903-6.63984E-02-2.31341E-03-1.23993E-01
 -1      2904-3.23367E-01-2.67068E-02-1.51426E+00
 -1      2905-5.12383E-01-2.53610E-02-2.13242E+00
 -1      2906-5.98668E-01-9.37946E-03-4.87879E+00
 -1      2907-6.36428E-01-2.47843E-02-7.70359E+00
 -1      2908-8.49498E-01-3.99549E-02-1.24282E+01
 -1      2909-1.43443E-01-7.84121E-02-1.77828E+01
 -1      2910 5.30104E-01-9.65827E-02-1.56802E+01
 -1      2911 4.08780E-01-7.76053E-02-1.50837E+01
 -1      2912 5.17911E-01-8.02349E-02-1.52161E+01
 -1      2913 6.01510E-01-9.97679E-02-1.28108E+01
 -1      2914 5.94510E-01-1.06096E-01-9.81599E+00
 -1      2915 4.27971E-01-5.33083E-02-2.38554E+00
 -1      2916 3.88307E-01-5.25561E-02-1.73802E+00
 -1      2917 1.98880E-01-2.92710E-02-5.06267E-01
 -1      2918-1.48600E-01 2.62765E-04-3.27587E-01
 -1      2919-6.94973E-01-2.69948E-02-8.70338E+00
 -1      2920-2.04850E-01-8.13968E-02-1.76695E+01
 -1      2921 1.59544E-01-1.06930E-01-1.76737E+01
 -1      2922 6.86520E-01-9.48304E-02-8.93207E+00
 -1      2923 6.48555E-01-7.18195E-02-5.26339E+00
 -1      2924 0.00000E+00 0.00000E+00 0.00000E+00
 -1      2925-5.02268E-01-3.63996E-02-1.04723E+01
 -1      2926-4.18994E-01-6.23732E-02-1.64689E+01
 -1      2927 4.27246E-01-5.08900E-02-1.42325E+00
 -1      2928-9.08022E-02-2.27367E-03-1.54928E-01
 -1      2929-9.73817E-02 2.85533E-03-2.41255E-01
 -1      2930-5.84116E-01-1.06049E-02-5.51805E+00
 -1      2931-6.31371E-01-1.23997E-02-5.78468E+00
 -1      2932-6.68143E-01-2.08375E-02-8.00198E+00
 -1      2933-6.37191E-01-2.46029E-02-8.31438E+00
 -1      2934-5.87955E-01-3.61043E-02-1.16066E+01
 -1      2935-6.32835E-01-4.89559E-02-1.29061E+01
 -1      2936-6.69536E-01-5.08285E-02-1.33466E+01
 -1      2937-4.97286E-01-5.92578E-02-1.50600E+01
 -1      2938-5.02642E-01-6.71744E-02-1.55646E+01
 -1      2939-4.10419E-01-7.30707E-02-1.59010E+01
 -1      2940-5.19319E-01-6.59405E-02-1.56075E+01
 -1      2941-4.07074E-01-6.93275E-02-1.62291E+01
 -1      2942 9.86937E-02-1.01600E-01-1.78930E+01
 -1      2943 4.19876E-01-1.03199E-01-1.60568E+01
 -1      2944 5.91239E-01-1.06301E-01-1.32832E+01
 -1      2945 5.84204E-01-1.03688E-01-1.29966E+01
 -1      2946 6.63342E-01-9.23005E-02-8.40030E+00
 -1      2947 6.66622E-01-9.46149E-02-8.92846E+00
 -1      2948 5.67684E-01-8.55559E-02-6.06734E+00
 -1      2949 6.09905E-01-6.81078E-02-4.78330E+00
 -1      2950 5.08858E-01-6.17342E-02-4.40452E+00
 -1      2951 4.54138E-01-5.31601E-02-2.70150E+00
 -1      2952 1.80876E-01-3.15417E-02-5.55603E-01
 -1      2953 1.72215E-01-2.17766E-02-5.23036E-01
 -1      2954 1.34067E-01-1.05108E-02-4.29586E-01
 -1      2955 0.00000E+00 0.00000E+00 0.00000E+00
 -1      2956 0.00000E+00 0.00000E+00 0.00000E+00
 -1      2957 0.00000E+00 0.00000E+00 0.00000E+00
 -1      2958-5.61516E-02 1.99775E-03-1.32690E-01
 -1      2959-1.65256E-01 1.07357E-02-5.01755E-01
 -1      2960-3.73123E-01-4.50935E-03-1.37330E+00
 -1      2961-4.15714E-01-2.16958E-02-1.78205E+00
 -1      2962-4.37857E-01-2.51526E-02-2.18975E+00
 -1      2963-4.45538E-01-2.52725E-02-2.13257E+00
 -1      2964-4.15133E-01-2.27000E-02-2.56817E+00
 -1      2965-3.98568E-01-2.50842E-02-2.37907E+00
 -1      2966-5.58894E-01 4.21266E-03-3.95526E+00
 -1      2967-5.92085E-01-5.22560E-03-4.68288E+00
 -1      2968-5.05429E-01-1.94605E-03-4.29271E+00
 -1      2969-6.28885E-01-5.17082E-02-1.13665E+01
 -1      2970-6.80748E-01-4.96921E-02-1.31202E+01
 -1      2971-5.50541E-01-6.97911E-02-1.48040E+01
 -1      2972-4.59871E-01-7.76066E-02-1.49591E+01
 -1      2973-4.57424E-01-7.63827E-02-1.62238E+01
 -1      2974-2.35778E-01-9.86075E-02-1.73463E+01
 -1      2975-1.50000E-01-8.53371E-02-1.77719E+01
 -1      2976-2.12897E-01-8.00023E-02-1.76454E+01
 -1      2977-1.49413E-01-8.49352E-02-1.78817E+01
 -1      2978 1.01533E-01-1.14995E-01-1.79536E+01
 -1      2979 1.24507E-01-1.06126E-01-1.78130E+01
 -1      2980 1.62360E-01-1.16389E-01-1.74848E+01
 -1      2981 3.33718E-01-1.27650E-01-1.65822E+01
 -1      2982 4.21850E-01-1.00945E-01-1.51554E+01
 -1      2983 4.04661E-01-9.67377E-02-1.54071E+01
 -1      2984 5.05711E-01-1.10721E-01-1.33833E+01
 -1      2985 6.08147E-01-7.08625E-02-6.28578E+00
 -1      2986 6.11762E-01-6.43423E-02-4.56670E+00
 -1      2987 4.54086E-01-3.38197E-02-2.90392E+00
 -1      2988 4.24418E-01-3.32689E-02-2.78811E+00
 -1      2989 3.94094E-01-4.74487E-02-2.44847E+00
 -1      2990 4.00688E-01-3.67349E-02-1.62610E+00
 -1      2991 3.73250E-01-4.49036E-02-1.93303E+00
 -1      2992 1.57296E-01-5.80143E-03-5.41187E-01
 -1      2993 9.47736E-02 2.24164E-03-1.54049E-01
 -1      2994 1.08002E-01-3.62129E-03-2.49529E-01
 -1      2995 0.00000E+00 0.00000E+00 0.00000E+00
 -1      2996 0.00000E+00 0.00000E+00 0.00000E+00
 -1      2997-4.86163E-01 1.09280E-02-3.21233E+00
 -1      2998-2.89259E-01-1.14036E-01-1.68401E+01
 -1      2999 6.16418E-01-1.09393E-01-1.09338E+01
 -1      3000-4.12550E-01-2.24407E-02-1.96866E+00
 -1      3001-3.98772E-01-7.41403E-02-1.57241E+01
 -1      3002-1.32781E-01-9.10597E-02-1.76956E+01
 -1      3003 6.43691E-01-7.27299E-02-5.26231E+00
 -1      3004-1.41005E-01 3.47922E-03-3.76834E-01
 -1      3005-4.62998E-01-1.78988E-02-2.27534E+00
 -1      3006-8.18538E-01-2.34580E-02-8.68917E+00
 -1      3007-5.07880E-01-7.35159E-02-1.54232E+01
 -1      3008 1.14714E-01-1.08373E-01-1.77336E+01
 -1      3009 1.88453E-01-1.04375E-01-1.76567E+01
 -1      3010 1.66145E-01-1.16649E-01-1.76031E+01
 -1      3011 4.49463E-01-9.69307E-02-1.56708E+01
 -1      3012 4.72220E-01-1.03165E-01-1.55102E+01
 -1      3013 5.89390E-01-9.58792E-02-9.09862E+00
 -1      3014 4.75154E-01-4.04128E-02-2.34734E+00
 -1      3015 3.58899E-01-4.62298E-02-2.29297E+00
 -1      3016 0.00000E+00 0.00000E+00 0.00000E+00
 -1      3017-7.35926E-02 1.51395E-02-1.66940E-01
 -1      3018-1.88971E-01 1.97859E-02-4.82540E-01
 -1      3019-2.01861E-01 2.21423E-02-5.59795E-01
 -1      3020-3.18866E-01-7.77952E-03-1.50543E+00
 -1      3021-4.99259E-01-1.59437E-02-2.56713E+00
 -1      3022-4.15481E-01-1.53122E-02-2.70405E+00
 -1      3023-6.18681E-01-6.60211E-03-5.33426E+00
 -1      3024-5.90633E-01-2.83176E-02-7.83620E+00
 -1      3025-6.63996E-01-2.14448E-02-8.03550E+00
 -1      3026-6.72296E-01-2.90862E-02-9.00992E+00
 -1      3027-5.55566E-01-3.67237E-02-9.59739E+00
 -1      3028-5.92696E-01-3.18824E-02-9.65301E+00
 -1      3029-7.04714E-01-4.75715E-02-1.17671E+01
 -1      3030-5.61158E-01-5.63360E-02-1.32242E+01
 -1      3031-1.31672E-01-9.69985E-02-1.78177E+01
 -1      3032-1.14432E-01-9.55575E-02-1.78853E+01
 -1      3033 9.00870E-02-1.18341E-01-1.78496E+01
 -1      3034 2.04209E-01-1.32958E-01-1.73888E+01
 -1      3035 2.00139E-01-1.27601E-01-1.74769E+01
 -1      3036 3.18626E-01-1.20939E-01-1.63505E+01
 -1      3037 5.08666E-01-1.05113E-01-1.51911E+01
 -1      3038 6.18973E-01-1.02275E-01-1.23078E+01
 -1      3039 7.36487E-01-1.02896E-01-1.01007E+01
 -1      3040 6.52169E-01-9.88184E-02-9.56801E+00
 -1      3041 5.52134E-01-9.21471E-02-8.26846E+00
 -1      3042 5.73892E-01-9.19582E-02-7.96757E+00
 -1      3043 5.72962E-01-7.14797E-02-5.48691E+00
 -1      3044 5.71036E-01-6.31162E-02-4.59681E+00
 -1      3045 0.00000E+00 0.00000E+00 0.00000E+00
 -1      3046-9.32411E-02 1.03652E-02-2.56957E-01
 -1      3047-2.18933E-01 7.08294E-02-6.47446E-01
 -1      3048-4.73458E-01-1.43612E-02-2.33729E+00
 -1      3049-4.58126E-01-1.42833E-02-2.72439E+00
 -1      3050-5.01426E-01 7.74770E-04-4.23635E+00
 -1      3051-4.78262E-01-1.03593E-02-5.91109E+00
 -1      3052-6.21927E-01-6.34140E-03-5.74420E+00
 -1      3053-5.10765E-01 7.68254E-04-6.45232E+00
 -1      3054-5.87720E-01-2.39096E-02-8.29373E+00
 -1      3055-6.15620E-01-5.33375E-02-1.20392E+01
 -1      3056-6.51408E-01-5.02982E-02-1.21608E+01
 -1      3057-4.17461E-01-8.58451E-02-1.61022E+01
 -1      3058-4.10390E-01-9.01176E-02-1.63743E+01
 -1      3059 3.22890E-02-1.80251E-01-1.80278E+01
 -1      3060 2.13771E-01-1.65839E-01-1.72633E+01
 -1      3061 2.82428E-01-1.86983E-01-1.68245E+01
 -1      3062 4.16863E-01-1.07707E-01-1.50449E+01
 -1      3063 6.08408E-01-1.06783E-01-1.15123E+01
 -1      3064 3.79188E-01-3.04346E-02-1.70747E+00
 -1      3065 1.70881E-01-1.44517E-03-4.83446E-01
 -1      3066 5.76460E-02 4.18155E-03-2.21924E-01
 -1      3067 3.00459E-02 6.94610E-03-5.72296E-02
 -1      3068 0.00000E+00 0.00000E+00 0.00000E+00
 -1      3069 0.00000E+00 0.00000E+00 0.00000E+00
 -1      3070-3.70654E-01-1.81243E-02-2.82494E+00
 -1      3071-6.07192E-01-5.18812E-03-5.48098E+00
 -1      3072-5.77057E-01-2.57020E-03-6.96459E+00
 -1      3073-5.13615E-01-5.19099E-02-1.15292E+01
 -1      3074-4.17896E-01-9.60906E-02-1.41902E+01
 -1      3075-4.46693E-01-8.16946E-02-1.48626E+01
 -1      3076-2.14898E-01-1.48118E-01-1.69372E+01
 -1      3077-2.53156E-01-1.49892E-01-1.71195E+01
 -1      3078 1.18775E-02-1.73197E-01-1.80570E+01
 -1      3079 6.01714E-02-1.28071E-01-1.79186E+01
 -1      3080 4.66381E-01-1.53909E-01-1.44284E+01
 -1      3081 6.23442E-01-1.01405E-01-1.14762E+01
 -1      3082 6.19673E-01-1.12986E-01-1.07394E+01
 -1      3083 6.40819E-01-1.09757E-01-1.04234E+01
 -1      3084 5.43970E-01-9.62522E-02-9.34439E+00
 -1      3085 4.88992E-01-6.65218E-02-6.95927E+00
 -1      3086 4.82159E-01-7.33693E-02-6.08749E+00
 -1      3087 4.81180E-01-7.19267E-03-3.47295E+00
 -1      3088 0.00000E+00 0.00000E+00 0.00000E+00
 -1      3089 0.00000E+00 0.00000E+00 0.00000E+00
 -1      3090-6.76523E-02 2.07624E-02-7.39777E-02
 -1      3091-1.65137E-01 2.00078E-02-6.03199E-01
 -1      3092-4.81194E-01 2.72168E-03-4.03269E+00
 -1      3093-6.34669E-01-4.54259E-02-1.12819E+01
 -1      3094-5.75336E-01-5.90867E-02-1.35212E+01
 -1      3095-5.05821E-01-7.78935E-02-1.47052E+01
 -1      3096-4.13364E-01-8.66582E-02-1.64525E+01
 -1      3097-2.48404E-01-1.11109E-01-1.72452E+01
 -1      3098 7.80913E-02-1.24830E-01-1.79692E+01
 -1      3099 2.03966E-01-1.30772E-01-1.73335E+01
 -1      3100 3.52943E-01-1.18151E-01-1.65380E+01
 -1      3101 6.16551E-01-7.42595E-02-6.32305E+00
 -1      3102 1.73809E-01-9.55728E-03-5.98391E-01
 -1      3103 0.00000E+00 0.00000E+00 0.00000E+00
 -1      3104-6.14960E-01-4.17480E-02-9.84973E+00
 -1      3105 5.39265E-01-1.13126E-01-1.35762E+01
 -1      3106 6.04117E-01-8.75520E-02-7.74509E+00
 -1      3107 4.41416E-01-3.89169E-02-3.00462E+00
 -1      3108 3.51216E-01-2.30803E-02-1.33094E+00
 -1      3109-1.59208E-01 1.76119E-02-5.81918E-01
 -1      3110-5.76697E-01 4.36410E-03-4.05156E+00
 -1      3111-6.17248E-01-1.07686E-02-6.14745E+00
 -1      3112-6.32924E-01-4.56336E-02-1.13409E+01
 -1      3113-1.21998E-01-1.00023E-01-1.79218E+01
 -1      3114 4.74973E-01-1.01673E-01-1.00079E+01
 -1      3115 5.09616E-02 2.03201E-02-5.87562E-02
 -1      3116 2.11729E-02 1.03363E-02-7.75365E-02
 -1      3117 0.00000E+00 0.00000E+00 0.00000E+00
 -1      3118 0.00000E+00 0.00000E+00 0.00000E+00
 -1      3119 0.00000E+00 0.00000E+00 0.00000E+00
 -1      3120-6.40495E-02 3.25692E-02-2.06958E-01
 -1      3121-1.80905E-01 3.28503E-02-4.19463E-01
 -1      3122-3.31595E-01-1.00113E-02-1.45488E+00
 -1      3123-5.54337E-01-5.75022E-02-1.33282E+01
 -1      3124-4.93779E-01-8.41280E-02-1.52909E+01
 -1      3125-3.23718E-01-1.02722E-01-1.59492E+01
 -1      3126-8.31148E-02-1.01842E-01-1.78751E+01
 -1      3127 5.63723E-02-1.28402E-01-1.77955E+01
 -1      3128 3.42173E-01-1.16905E-01-1.63823E+01
 -1      3129 6.43946E-01-9.91223E-02-9.30734E+00
 -1      3130 5.54769E-01-5.57717E-02-4.61262E+00
 -1      3131 4.52291E-01-2.49705E-02-2.42426E+00
 -1      3132 4.85552E-02 1.04671E-02-2.07125E-01
 -1      3133 0.00000E+00 0.00000E+00 0.00000E+00
 -1      3134-1.93889E-01 1.40005E-02-5.48781E-01
 -1      3135-3.71339E-01-5.40538E-02-3.39093E+00
 -1      3136-4.91004E-01-4.45076E-02-3.64274E+00
 -1      3137-5.30584E-01 2.16766E-03-4.22733E+00
 -1      3138-5.47329E-01-7.94427E-03-5.62508E+00
 -1      3139-7.00726E-01-7.65614E-03-5.78159E+00
 -1      3140-5.98286E-01-3.25862E-02-6.50586E+00
 -1      3141-5.60214E-01-2.90725E-02-6.96287E+00
 -1      3142-6.27835E-01-3.72661E-02-1.02774E+01
 -1      3143-6.84556E-01-5.25861E-02-1.20927E+01
 -1      3144-4.55841E-02-6.09890E-02-1.79810E+01
 -1      3145 2.06360E-01-1.30263E-01-1.74054E+01
 -1      3146 3.77840E-01-6.80115E-02-1.45968E+01
 -1      3147 5.99594E-01-8.92062E-02-1.10889E+01
 -1      3148 5.61087E-01-9.28686E-02-1.06208E+01
 -1      3149 4.54798E-01-1.01070E-01-9.63111E+00
 -1      3150 5.77255E-01-6.37835E-02-5.53478E+00
 -1      3151 3.79015E-01-9.64149E-02-3.49159E+00
 -1      3152 4.51803E-01-3.88980E-02-2.76933E+00
 -1      3153 1.72046E-01-8.25500E-02-8.67845E-01
 -1      3154 3.36942E-02 1.00732E-02-9.26323E-02
 -1      3155 0.00000E+00 0.00000E+00 0.00000E+00
 -1      3156-9.84004E-02 4.49024E-02-2.50239E-01
 -1      3157-1.79180E-01-1.76002E-02-6.09190E-01
 -1      3158-3.53311E-01-2.59938E-02-1.35052E+00
 -1      3159-4.00297E-01 6.59987E-03-1.93128E+00
 -1      3160-6.52017E-01 4.05727E-03-4.36549E+00
 -1      3161-5.36507E-01-1.75581E-02-5.89172E+00
 -1      3162-6.87516E-01-2.07767E-02-8.43715E+00
 -1      3163-5.71937E-01-4.17000E-02-9.60912E+00
 -1      3164-6.53194E-01-5.55058E-02-1.21510E+01
 -1      3165-4.30852E-01-1.03887E-01-1.57727E+01
 -1      3166-1.98476E-01-1.16433E-01-1.74453E+01
 -1      3167 1.49703E-01-1.30958E-01-1.74895E+01
 -1      3168 1.77957E-01-1.25567E-01-1.74239E+01
 -1      3169 3.65310E-01-1.02676E-01-1.64866E+01
 -1      3170 3.77318E-01-1.22462E-01-1.61595E+01
 -1      3171 4.22776E-01-1.26334E-01-1.58848E+01
 -1      3172 5.61888E-01-1.12100E-01-1.23456E+01
 -1      3173 5.68262E-01-9.73209E-02-1.15481E+01
 -1      3174 5.61645E-01-8.76500E-02-7.96001E+00
 -1      3175 5.79376E-01-4.86372E-02-5.04300E+00
 -1      3176 3.94070E-01-7.76243E-03-1.99640E+00
 -1      3177 3.00369E-01-3.96357E-02-1.35222E+00
 -1      3178 1.97762E-01-2.77918E-02-5.13467E-01
 -1      3179 1.35016E-01-6.37075E-03-4.00270E-01
 -1      3180 5.32945E-02 1.37758E-02-1.30457E-01
 -1      3181 0.00000E+00 0.00000E+00 0.00000E+00
 -1      3182 0.00000E+00 0.00000E+00 0.00000E+00
 -1      3183 0.00000E+00 0.00000E+00 0.00000E+00
 -1      3184 0.00000E+00 0.00000E+00 0.00000E+00
 -1      3185-6.01368E-02 3.69534E-02-1.08175E-01
 -1      3186-9.86160E-02 3.96221E-02-1.57185E-01
 -1      3187-1.41023E-01 4.11720E-02-3.67231E-01
 -1      3188-1.95033E-01 2.82444E-02-4.83257E-01
 -1      3189-3.64897E-01-2.49569E-03-1.65225E+00
 -1      3190-4.14433E-01-2.76236E-04-2.25795E+00
 -1      3191-6.11389E-01-1.50076E-02-7.66441E+00
 -1      3192-7.52529E-01-1.21867E-02-7.94764E+00
 -1      3193-4.67327E-01-5.15687E-02-1.15862E+01
 -1      3194-6.39305E-01-4.79753E-02-1.16104E+01
 -1      3195-8.33818E-01-5.79842E-02-1.23578E+01
 -1      3196 4.08210E-01-1.03009E-01-1.50640E+01
 -1      3197 3.40494E-01-9.32334E-02-1.39038E+01
 -1      3198 6.68014E-01-1.12065E-01-1.32726E+01
 -1      3199 7.04201E-01-9.94548E-02-1.18186E+01
 -1      3200 5.76637E-01-1.06248E-01-9.79783E+00
 -1      3201 8.01362E-01-4.65159E-02-5.24473E+00
 -1      3202 4.98654E-01-2.85656E-02-2.62923E+00
 -1      3203 4.43462E-01-1.56456E-02-2.32796E+00
 -1      3204 3.58267E-01-1.84507E-02-1.69511E+00
 -1      3205 1.60834E-01-9.66237E-03-4.39861E-01
 -1      3206 3.25134E-02 1.29918E-02-8.61975E-02
 -1      3207-4.60936E-01 1.71825E-02-2.10714E+00
 -1      3208-6.69965E-01-2.43509E-02-8.64291E+00
 -1      3209 1.60233E-01-1.64196E-01-1.76585E+01
 -1      3210 6.72245E-01-9.48583E-02-8.91924E+00
 -1      3211 4.58555E-01 2.98209E-03-2.15712E+00
 -1      3212 1.11024E-01 3.99595E-02-2.76156E-01
 -1      3213-6.01824E-01-4.39380E-02-1.04333E+01
 -1      3214 5.87982E-01-9.01512E-02-7.11864E+00
 -1      3215 6.26606E-01-4.75943E-02-5.24321E+00
 -1      3216-5.90766E-01-5.91685E-02-1.34253E+01
 -1      3217-4.45372E-02-6.07808E-02-1.79964E+01
 -1      3218 3.69950E-01-1.17346E-01-1.65296E+01
 -1      3219 5.54620E-01-5.17781E-02-4.19643E+00
 -1      3220 0.00000E+00 0.00000E+00 0.00000E+00
 -1      3221 0.00000E+00 0.00000E+00 0.00000E+00
 -1      3222-1.75767E-01 3.32388E-02-4.82148E-01
 -1      3223-8.54068E-02 1.94872E-02-4.26062E-01
 -1      3224-1.76043E-01 2.95667E-03-6.19117E-01
 -1      3225-3.16122E-01-4.18687E-04-1.49212E+00
 -1      3226-3.96330E-01-1.62231E-02-2.65497E+00
 -1      3227-5.01435E-01 3.62941E-03-4.25403E+00
 -1      3228-6.30059E-01-5.75590E-03-5.74930E+00
 -1      3229-6.62566E-01-1.52632E-02-8.10566E+00
 -1      3230-7.21181E-01-3.36569E-02-9.39701E+00
 -1      3231-8.76955E-01-4.50845E-02-1.14056E+01
 -1      3232-6.71106E-01-5.95117E-02-1.30627E+01
 -1      3233-6.17498E-01-6.18115E-02-1.27416E+01
 -1      3234-3.52992E-01-1.06058E-01-1.56999E+01
 -1      3235-4.24175E-01-1.04539E-01-1.61282E+01
 -1      3236-2.13180E-01-1.13275E-01-1.73444E+01
 -1      3237-2.19832E-01-1.02657E-01-1.72168E+01
 -1      3238-1.60796E-01-1.16056E-01-1.77805E+01
 -1      3239 4.50270E-01-1.27141E-01-1.62023E+01
 -1      3240 4.36536E-01-8.66972E-02-1.47918E+01
 -1      3241 6.36143E-01-1.02404E-01-1.18341E+01
 -1      3242 7.17689E-01-8.68305E-02-8.16398E+00
 -1      3243 3.66648E-01-1.33152E-02-1.60732E+00
 -1      3244 1.40915E-01-3.52762E-02-5.40472E-01
 -1      3245 1.62843E-02 1.21871E-02-1.44029E-01
 -1      3246 4.47713E-02 1.86736E-02-1.03427E-01
 -1      3247 0.00000E+00 0.00000E+00 0.00000E+00
 -1      3248-1.48172E-01 6.09868E-02-3.11965E-01
 -1      3249-3.81046E-01 9.45852E-03-1.84692E+00
 -1      3250-5.13969E-01-2.59994E-02-8.37182E+00
 -1      3251-6.54765E-01-3.04716E-02-9.09603E+00
 -1      3252-4.56111E-01-1.09008E-01-1.58218E+01
 -1      3253 3.94680E-01-1.28793E-01-1.59344E+01
 -1      3254 6.18900E-01-1.16140E-01-1.25462E+01
 -1      3255 6.07304E-01-1.10399E-01-1.21880E+01
 -1      3256 5.11963E-01-9.58777E-02-9.13769E+00
 -1      3257 6.52236E-01-9.04009E-02-8.46024E+00
 -1      3258 5.86357E-01-4.80261E-02-4.85481E+00
 -1      3259 6.75749E-02 9.51209E-03-3.68471E-01
 -1      3260-6.26259E-01-3.07744E-02-9.13142E+00
 -1      3261-4.11174E-01-4.34319E-02-1.60650E+01
 -1      3262 0.00000E+00 0.00000E+00 0.00000E+00
 -1      3263-6.84814E-02-3.94062E-02-1.23755E-01
 -1      3264-4.45645E-02-3.88194E-02-1.88452E-01
 -1      3265-2.33052E-01-4.51683E-02-1.66414E+00
 -1      3266-6.11785E-01-2.44337E-02-5.18899E+00
 -1      3267-6.39348E-01-2.95203E-02-8.81179E+00
 -1      3268-4.70889E-01-3.32311E-02-1.23373E+01
 -1      3269-9.95618E-02-6.75066E-02-1.79013E+01
 -1      3270 2.33280E-01-8.91078E-02-1.62438E+01
 -1      3271 4.58474E-01-8.62089E-02-5.41197E+00
 -1      3272 9.80495E-02-3.05897E-02-4.44617E-01
 -1      3273 5.08242E-02-2.63696E-02-2.16985E-01
 -1      3274 0.00000E+00 0.00000E+00 0.00000E+00
 -1      3275-3.11427E-01-3.65730E-02-1.48092E+00
 -1      3276-4.11837E-01-3.42480E-02-2.65587E+00
 -1      3277-5.67228E-01-1.48658E-02-5.94280E+00
 -1      3278-4.27435E-01-1.18468E-02-6.45842E+00
 -1      3279-3.86522E-01-4.96601E-02-1.03937E+01
 -1      3280-4.56541E-01-5.30938E-02-1.10028E+01
 -1      3281-5.81213E-01-4.21291E-02-1.16967E+01
 -1      3282-5.40032E-01-4.78365E-02-1.33862E+01
 -1      3283-3.90497E-01-9.43765E-02-1.45132E+01
 -1      3284-4.18494E-01-7.85630E-02-1.48508E+01
 -1      3285-2.96262E-01-7.50380E-02-1.66744E+01
 -1      3286-2.59466E-01-1.10337E-01-1.73286E+01
 -1      3287-2.32995E-01-8.04552E-02-1.74769E+01
 -1      3288-7.32136E-02-1.06486E-01-1.81778E+01
 -1      3289-1.13274E-01-7.45471E-02-1.80770E+01
 -1      3290-9.47195E-03-1.65672E-01-1.82429E+01
 -1      3291 8.04085E-02-9.15580E-02-1.80403E+01
 -1      3292 1.85154E-01-1.18375E-01-1.74263E+01
 -1      3293 2.05332E-01-1.66634E-01-1.68591E+01
 -1      3294 2.91443E-01-9.14283E-02-1.52159E+01
 -1      3295 3.83955E-01-1.01377E-01-1.48685E+01
 -1      3296 4.53737E-01-1.08304E-01-1.37746E+01
 -1      3297 3.55328E-01-1.32284E-01-1.42443E+01
 -1      3298 5.23270E-01-9.05585E-02-1.34378E+01
 -1      3299 5.63255E-01-9.89246E-02-1.17577E+01
 -1      3300 4.11863E-01-1.12887E-01-1.12211E+01
 -1      3301 4.40603E-01-6.78624E-02-6.69338E+00
 -1      3302 5.65633E-01-7.80765E-02-6.02499E+00
 -1      3303 5.16475E-01-7.08717E-02-4.39018E+00
 -1      3304 3.64604E-01-2.96654E-02-3.29680E+00
 -1      3305 3.17446E-01-2.61035E-02-1.36664E+00
 -1      3306 3.62955E-02-2.47473E-02-6.30120E-02
 -1      3307 8.07225E-02-3.43010E-02-1.46787E-01
 -1      3308 0.00000E+00 0.00000E+00 0.00000E+00
 -1      3309 0.00000E+00 0.00000E+00 0.00000E+00
 -1      3310 0.00000E+00 0.00000E+00 0.00000E+00
 -1      3311 0.00000E+00 0.00000E+00 0.00000E+00
 -1      3312 0.00000E+00 0.00000E+00 0.00000E+00
 -1      3313-4.24844E-01-2.13664E-02-5.32309E+00
 -1      3314-3.84806E-01-3.34054E-02-8.52074E+00
 -1      3315-1.84969E-01-5.44218E-02-1.77768E+01
 -1      3316-2.81950E-02-1.82843E-01-1.83041E+01
 -1      3317 3.32323E-01-9.37176E-02-1.23291E+01
 -1      3318 0.00000E+00 0.00000E+00 0.00000E+00
 -1      3319 0.00000E+00 0.00000E+00 0.00000E+00
 -1      3320-4.00020E-04-1.23435E-02-3.25355E-02
 -1      3321-5.83517E-02-3.94014E-02-2.05070E-01
 -1      3322-2.57491E-01-4.74167E-02-2.22908E+00
 -1      3323-4.96139E-01-4.05397E-02-2.52686E+00
 -1      3324-7.18303E-01-3.52768E-02-1.18640E+01
 -1      3325-5.66169E-01-4.55467E-02-1.14757E+01
 -1      3326-1.63825E-01-8.87730E-02-1.75040E+01
 -1      3327-7.64058E-02-9.66870E-02-1.80756E+01
 -1      3328 2.10611E-02-1.27281E-01-1.81376E+01
 -1      3329 1.07658E-01-8.68916E-02-1.77200E+01
 -1      3330 3.42514E-01-7.43824E-02-1.56516E+01
 -1      3331 2.73488E-01-9.98532E-02-1.29120E+01
 -1      3332 4.96247E-01-8.08295E-02-7.62256E+00
 -1      3333 5.54524E-01-7.64654E-02-6.23937E+00
 -1      3334 6.94880E-01-8.24919E-02-5.86256E+00
 -1      3335 5.20985E-01-6.46623E-02-2.65299E+00
 -1      3336 3.56633E-01-2.87615E-02-3.12301E+00
 -1      3337 2.90514E-01-5.14602E-02-2.79232E+00
 -1      3338 3.65375E-01-6.59545E-02-2.02428E+00
 -1      3339 3.82399E-01-5.31452E-02-1.72772E+00
 -1      3340 2.31924E-01-4.49828E-02-1.56817E+00
 -1      3341 1.81425E-01 7.25654E-03-6.60885E-01
 -1      3342 1.22407E-01-1.32794E-02-6.05436E-01
 -1      3343-3.68159E-01-3.65713E-02-2.49524E+00
 -1      3344-5.34079E-01-1.52265E-02-5.56061E+00
 -1      3345-5.21354E-01-2.69833E-02-7.55539E+00
 -1      3346-5.50274E-01-2.97139E-02-8.11895E+00
 -1      3347-5.81358E-01-3.08960E-02-9.38929E+00
 -1      3348-5.25865E-01-4.14734E-02-1.19069E+01
 -1      3349-3.61603E-01-5.49167E-02-1.33042E+01
 -1      3350-3.71889E-01-1.01003E-01-1.46412E+01
 -1      3351-1.41643E-01-9.50834E-02-1.75538E+01
 -1      3352 1.67374E-01-9.21146E-02-1.75714E+01
 -1      3353 2.72547E-01-1.27143E-01-1.66478E+01
 -1      3354 3.86976E-01-8.41404E-02-1.53040E+01
 -1      3355 4.94615E-01-9.75910E-02-1.31052E+01
 -1      3356 5.47376E-01-9.66980E-02-9.55107E+00
 -1      3357 5.68697E-01-9.16934E-02-8.29074E+00
 -1      3358 3.88668E-01-7.43948E-02-7.30156E+00
 -1      3359 4.21394E-01-6.90504E-02-6.61078E+00
 -1      3360 3.10489E-01-6.54533E-02-4.38666E+00
 -1      3361 4.52407E-01-3.18552E-02-3.98246E+00
 -1      3362 3.81327E-01-7.51222E-02-2.30105E+00
 -1      3363 1.03618E-01-1.36447E-02-5.50642E-01
 -1      3364 0.00000E+00 0.00000E+00 0.00000E+00
 -1      3365-1.73295E-01 3.20359E-02-7.01233E-01
 -1      3366-3.10377E-01-3.83126E-02-1.68501E+00
 -1      3367-3.05996E-01 6.88955E-03-3.08587E+00
 -1      3368-4.58755E-01-1.01103E-02-4.29305E+00
 -1      3369-4.91727E-01-1.26887E-02-4.61638E+00
 -1      3370-5.26328E-01-2.70250E-02-7.85871E+00
 -1      3371-5.08799E-01-4.19440E-02-1.19769E+01
 -1      3372-3.46806E-01-9.71415E-02-1.39910E+01
 -1      3373 7.00738E-02-8.33326E-02-1.78959E+01
 -1      3374 1.58802E-01-9.23564E-02-1.74787E+01
 -1      3375 1.84875E-01-1.64500E-01-1.73112E+01
 -1      3376 3.42326E-01-9.76490E-02-1.64578E+01
 -1      3377 3.34188E-01-8.66785E-02-1.61987E+01
 -1      3378 3.09614E-01-1.20452E-01-1.46735E+01
 -1      3379 4.50481E-01-1.00660E-01-1.33908E+01
 -1      3380 4.97644E-01-9.66561E-02-1.17618E+01
 -1      3381 5.46844E-01-9.68932E-02-1.20493E+01
 -1      3382 5.16975E-01-1.01680E-01-9.76745E+00
 -1      3383 5.15620E-01-7.74910E-02-5.81654E+00
 -1      3384 4.31453E-01-7.29192E-02-4.45221E+00
 -1      3385 2.07292E-01-5.64900E-02-1.56970E+00
 -1      3386 0.00000E+00 0.00000E+00 0.00000E+00
 -1      3387-4.51771E-01-1.25760E-02-4.57652E+00
 -1      3388-1.89931E-01-8.04610E-02-1.75756E+01
 -1      3389 4.56511E-01-1.01336E-01-1.31347E+01
 -1      3390 4.93395E-01-9.74541E-02-1.20324E+01
 -1      3391 4.46969E-01-7.83592E-02-5.86427E+00
 -1      3392 6.96148E-02-2.97208E-02-2.44880E-01
 -1      3393-1.70344E-01-2.68127E-02-4.09591E-01
 -1      3394-2.10539E-01-3.60937E-02-1.40879E+00
 -1      3395-2.47252E-01-3.53117E-02-1.67862E+00
 -1      3396-4.77549E-01-3.42878E-02-9.48975E+00
 -1      3397-3.11434E-01-6.35078E-02-1.61183E+01
 -1      3398 1.55817E-01-9.38789E-02-1.75722E+01
 -1      3399 2.58873E-01-9.59320E-02-1.61987E+01
 -1      3400 5.09778E-01-9.84192E-02-9.45854E+00
 -1      3401 4.97629E-01-8.09263E-02-5.75889E+00
 -1      3402 4.94447E-02-2.75823E-02-2.19275E-01
 -1      3403-5.02600E-01-9.78914E-03-4.62642E+00
 -1      3404-4.71957E-01-1.74932E-02-5.69153E+00
 -1      3405-4.76906E-01-3.50156E-02-9.43815E+00
 -1      3406 1.49727E-01-9.72921E-02-1.75607E+01
 -1      3407 5.06425E-01-1.01203E-01-1.30710E+01
 -1      3408 4.81303E-01-9.71110E-02-1.20308E+01
 -1      3409 4.59389E-01-9.08983E-02-8.23852E+00
 -1      3410 4.44443E-01-7.46356E-02-4.68008E+00
 -1      3411 0.00000E+00 0.00000E+00 0.00000E+00
 -1      3412-4.75764E-02-1.06232E-02-1.71974E-01
 -1      3413-3.43867E-01-3.33427E-02-2.51595E+00
 -1      3414-4.76389E-01-4.40066E-02-1.18772E+01
 -1      3415-6.05553E-01-4.72716E-02-1.30985E+01
 -1      3416-4.63618E-01-5.90860E-02-1.53386E+01
 -1      3417-3.76346E-01-6.64154E-02-1.52180E+01
 -1      3418-1.75502E-01-7.69146E-02-1.74541E+01
 -1      3419-2.18551E-01-7.44536E-02-1.75858E+01
 -1      3420-1.00284E-01-7.83495E-02-1.78483E+01
 -1      3421 3.16404E-01-9.46753E-02-1.61004E+01
 -1      3422 4.59265E-01-8.24065E-02-5.81386E+00
 -1      3423 4.31945E-01-6.02254E-02-2.51917E+00
 -1      3424 3.73985E-01-5.82961E-02-2.54576E+00
 -1      3425 1.52573E-01-3.04472E-02-5.75623E-01
 -1      3426 1.90251E-01-2.78930E-02-4.75457E-01
 -1      3427 7.13127E-02-2.07279E-02-2.37728E-01
 -1      3428-6.20396E-02-1.95216E-02-1.19743E-01
 -1      3429-5.13879E-01-1.94061E-02-5.98060E+00
 -1      3430-5.07805E-01-3.39275E-02-6.43422E+00
 -1      3431-5.15911E-01-2.81075E-02-8.20010E+00
 -1      3432-5.92876E-01-3.35787E-02-9.66150E+00
 -1      3433-4.91203E-01-5.13959E-02-1.32471E+01
 -1      3434 1.30273E-01-1.02196E-01-1.75318E+01
 -1      3435 1.63962E-01-5.06299E-02-1.72710E+01
 -1      3436 3.24273E-01-9.42570E-02-1.61832E+01
 -1      3437 4.55292E-01-1.01326E-01-1.33424E+01
 -1      3438 4.65153E-01-8.01663E-02-1.11388E+01
 -1      3439 5.05204E-01-8.86622E-02-8.00403E+00
 -1      3440 4.39674E-01-8.24807E-02-6.03536E+00
 -1      3441 3.54642E-01-6.27706E-02-2.76085E+00
 -1      3442 1.95914E-01-9.87951E-02-7.59320E-01
 -1      3443 0.00000E+00 0.00000E+00 0.00000E+00
 -1      3444 0.00000E+00 0.00000E+00 0.00000E+00
 -1      3445-1.39510E-01-1.19591E-02-4.58042E-01
 -1      3446-2.00837E-01-1.81497E-02-4.81959E-01
 -1      3447-4.54750E-01-1.28991E-02-5.36714E+00
 -1      3448-6.03783E-01-2.60487E-02-8.17690E+00
 -1      3449-5.71443E-01-3.21124E-02-9.32053E+00
 -1      3450-7.14545E-01-3.62124E-02-1.18097E+01
 -1      3451-5.29388E-01-5.56263E-02-1.33402E+01
 -1      3452-4.30386E-01-6.01855E-02-1.61458E+01
 -1      3453-1.27694E-01-6.97161E-02-1.78853E+01
 -1      3454 5.61722E-01-9.56570E-02-1.20094E+01
 -1      3455 4.58468E-01-9.59679E-02-1.17618E+01
 -1      3456 7.02994E-01-9.08298E-02-1.16617E+01
 -1      3457 5.88527E-01-9.82596E-02-9.46654E+00
 -1      3458 5.44057E-01-9.05280E-02-8.29180E+00
 -1      3459 4.70907E-01-7.21009E-02-4.48390E+00
 -1      3460 3.26058E-01-8.07219E-02-3.84133E+00
 -1      3461 4.46744E-01-9.32356E-02-3.08825E+00
 -1      3462 9.04860E-02-1.58314E-02-1.90586E-01
 -1      3463 0.00000E+00 0.00000E+00 0.00000E+00
 -1      3464 0.00000E+00 0.00000E+00 0.00000E+00
 -1      3465 9.74996E-03 7.27204E-04-1.65232E-02
 -1      3466-1.38397E-01-1.54420E-02-5.17708E-01
 -1      3467-1.73090E-01-3.84598E-02-6.12308E-01
 -1      3468-5.03241E-01-3.77617E-02-2.56187E+00
 -1      3469-4.51984E-01-3.17728E-02-9.05578E+00
 -1      3470-5.20811E-01-3.44101E-02-1.13018E+01
 -1      3471-4.25607E-01-5.42157E-02-1.27338E+01
 -1      3472-4.63333E-01-5.76284E-02-1.49981E+01
 -1      3473-5.61167E-01-5.19226E-02-1.51481E+01
 -1      3474-2.59658E-01-7.64539E-02-1.54025E+01
 -1      3475-2.78750E-01-7.90011E-02-1.58748E+01
 -1      3476-2.94363E-01-5.48181E-02-1.65413E+01
 -1      3477-6.89356E-02-5.86234E-02-1.80274E+01
 -1      3478 6.67097E-02-9.23993E-02-1.79331E+01
 -1      3479 1.31840E-01-1.03536E-01-1.74636E+01
 -1      3480 3.79707E-01-6.41149E-02-1.48589E+01
 -1      3481 5.01369E-01-8.86647E-02-6.36156E+00
 -1      3482 4.73423E-01-7.92520E-02-5.59598E+00
 -1      3483 4.33559E-01-6.39060E-02-2.79218E+00
 -1      3484 5.20620E-01-5.96262E-02-2.66237E+00
 -1      3485 2.79074E-02 4.50460E-03-4.66804E-02
 -1      3486 0.00000E+00 0.00000E+00 0.00000E+00
 -1      3487 0.00000E+00 0.00000E+00 0.00000E+00
 -1      3488-1.67483E-01-2.05453E-02-5.33051E-01
 -1      3489-2.53053E-01-2.51163E-02-1.53786E+00
 -1      3490-4.06284E-01-3.97379E-02-2.68217E+00
 -1      3491-5.19060E-01-5.41951E-03-4.29403E+00
 -1      3492-6.00105E-01-1.73949E-02-7.86830E+00
 -1      3493-3.62948E-01-3.55051E-02-8.47370E+00
 -1      3494-4.80367E-01-5.30618E-02-1.22911E+01
 -1      3495-4.05868E-01-7.30226E-02-1.55329E+01
 -1      3496-2.72092E-01-8.23610E-02-1.63398E+01
 -1      3497-2.23803E-01-7.05882E-02-1.75052E+01
 -1      3498-2.06498E-01-7.47272E-02-1.74301E+01
 -1      3499-1.43439E-01-9.25571E-02-1.74209E+01
 -1      3500-1.18859E-01-9.18070E-02-1.77385E+01
 -1      3501-1.15055E-01-7.19643E-02-1.79294E+01
 -1      3502 1.22621E-01-1.10881E-01-1.76428E+01
 -1      3503 2.19096E-01-1.06823E-01-1.59346E+01
 -1      3504 3.26731E-01-1.04080E-01-1.55833E+01
 -1      3505 5.19927E-01-1.04549E-01-1.34073E+01
 -1      3506 3.90215E-01-9.16662E-02-8.57315E+00
 -1      3507 4.62701E-01-7.50651E-02-5.40048E+00
 -1      3508 3.43276E-01-4.86772E-02-1.59031E+00
 -1      3509 1.32421E-01-2.87021E-02-5.75353E-01
 -1      3510 9.55812E-02-8.50427E-03-2.93911E-01
 -1      3511 7.80861E-02-1.07208E-02-1.44553E-01
 -1      3512 0.00000E+00 0.00000E+00 0.00000E+00
 -1      3513 0.00000E+00 0.00000E+00 0.00000E+00
 -1      3514-2.28753E-01-7.66123E-02-9.13494E-01
 -1      3515-3.56269E-01-6.51271E-02-3.33627E+00
 -1      3516-4.47955E-01-4.71887E-02-3.58750E+00
 -1      3517-5.73393E-01-7.16110E-03-5.10189E+00
 -1      3518-5.35362E-01-2.93230E-02-6.58138E+00
 -1      3519-4.41159E-01-3.15088E-02-7.19817E+00
 -1      3520-6.67475E-01-4.65564E-02-1.24208E+01
 -1      3521-4.20783E-01-4.33574E-02-1.47673E+01
 -1      3522-3.65434E-02-1.88581E-02-1.81080E+01
 -1      3523 1.27704E-01-1.05267E-01-1.74640E+01
 -1      3524 3.64566E-01-4.90497E-02-1.43717E+01
 -1      3525 4.59985E-01-6.73880E-02-1.41100E+01
 -1      3526 6.81073E-01-1.00955E-01-1.24769E+01
 -1      3527 3.99026E-01-7.26827E-02-2.98704E+00
 -1      3528 2.68931E-01-4.84993E-02-2.01821E+00
 -1      3529 2.83464E-01-5.85521E-02-1.36288E+00
 -1      3530 0.00000E+00 0.00000E+00 0.00000E+00
 -1      3531-1.42217E-01 6.59711E-04-3.30532E-01
 -1      3532-1.30797E-01 1.45225E-03-4.14881E-01
 -1      3533-2.37883E-01-2.47412E-02-1.57171E+00
 -1      3534-3.09224E-01-2.37986E-02-2.23256E+00
 -1      3535-6.75913E-01-3.02158E-02-9.23055E+00
 -1      3536-5.43759E-01-3.81412E-02-1.00064E+01
 -1      3537-2.16087E-01-5.19418E-02-1.73124E+01
 -1      3538-2.10830E-01-8.02439E-02-1.74525E+01
 -1      3539-9.77758E-02-8.42281E-02-1.78490E+01
 -1      3540 1.41776E-01-1.11072E-01-1.75673E+01
 -1      3541 2.16852E-01-6.26266E-02-1.69483E+01
 -1      3542 4.45982E-01-9.82365E-02-1.19513E+01
 -1      3543 5.28923E-01-8.30362E-02-1.13172E+01
 -1      3544 5.09927E-01-1.06387E-01-1.01503E+01
 -1      3545 4.57658E-01-1.01101E-01-9.61171E+00
 -1      3546 4.92086E-01-6.64260E-02-4.14735E+00
 -1      3547 1.77551E-01-5.89999E-02-6.41757E-01
 -1      3548 1.46633E-01-5.28193E-03-3.25741E-01
 -1      3549 6.70623E-02-9.57544E-03-1.93192E-01
 -1      3550-6.38069E-01-8.16314E-03-5.18016E+00
 -1      3551-3.99849E-01-4.52466E-02-1.17956E+01
 -1      3552-5.81031E-01-4.76649E-02-1.20587E+01
 -1      3553-4.35178E-01-6.88420E-02-1.53422E+01
 -1      3554-1.76593E-01-8.83084E-02-1.75522E+01
 -1      3555 1.59695E-01-1.07094E-01-1.76512E+01
 -1      3556 5.89663E-01-1.00379E-01-1.21366E+01
 -1      3557 6.19506E-01-9.71579E-02-9.31161E+00
 -1      3558 5.55660E-01-7.57721E-02-5.60824E+00
 -1      3559 2.68625E-01-4.53412E-02-1.76166E+00
 -1      3560 0.00000E+00 0.00000E+00 0.00000E+00
 -1      3561 0.00000E+00 0.00000E+00 0.00000E+00
 -1      3562 0.00000E+00 0.00000E+00 0.00000E+00
 -1      3563-3.37852E-01-7.74849E-03-4.53664E+00
 -1      3564-5.54423E-01-6.22594E-03-5.91954E+00
 -1      3565-4.47269E-01-2.71678E-02-8.12492E+00
 -1      3566-6.26837E-01-2.81067E-02-8.75861E+00
 -1      3567-4.01216E-01-3.39241E-02-9.55088E+00
 -1      3568-4.54644E-01-5.51782E-02-1.18201E+01
 -1      3569-6.64242E-01-4.68044E-02-1.24053E+01
 -1      3570-3.56834E-01-6.21277E-02-1.31273E+01
 -1      3571-9.70225E-02-1.00085E-01-1.78392E+01
 -1      3572 1.06021E-01-1.06256E-01-1.77072E+01
 -1      3573 4.48951E-01-9.79423E-02-1.56404E+01
 -1      3574 3.32169E-01-1.08953E-01-1.31361E+01
 -1      3575 3.29202E-01-1.07066E-01-1.18308E+01
 -1      3576 5.09123E-01-1.00116E-01-9.57203E+00
 -1      3577 3.82841E-01-9.21049E-02-8.07295E+00
 -1      3578 4.12781E-02 5.25990E-04-2.18631E-01
 -1      3579 0.00000E+00 0.00000E+00 0.00000E+00
 -1      3580 0.00000E+00 0.00000E+00 0.00000E+00
 -1      3581 0.00000E+00 0.00000E+00 0.00000E+00
 -1      3582 0.00000E+00 0.00000E+00 0.00000E+00
 -1      3583-8.46210E-02 2.66876E-03-2.83256E-01
 -1      3584-1.72514E-01 2.03411E-02-5.33071E-01
 -1      3585-1.70879E-01 4.48998E-02-6.10411E-01
 -1      3586-3.98725E-01-2.89529E-03-2.89521E+00
 -1      3587-5.61972E-01-2.36461E-02-7.48048E+00
 -1      3588-5.67867E-01-5.37388E-02-1.15968E+01
 -1      3589-4.86840E-01-6.55201E-02-1.35348E+01
 -1      3590-4.55866E-01-8.83369E-02-1.44313E+01
 -1      3591-4.07683E-01-8.66209E-02-1.47126E+01
 -1      3592-3.71267E-01-8.98744E-02-1.62735E+01
 -1      3593-2.50814E-01-1.31529E-01-1.71472E+01
 -1      3594-2.33685E-01-1.05193E-01-1.74392E+01
 -1      3595-7.98006E-02-1.11860E-01-1.79550E+01
 -1      3596-1.21729E-02-1.61490E-01-1.80617E+01
 -1      3597 7.60086E-02-1.19710E-01-1.78966E+01
 -1      3598 1.21303E-01-1.12352E-01-1.76262E+01
 -1      3599 1.81672E-01-1.29919E-01-1.74177E+01
 -1      3600 1.76002E-01-1.43731E-01-1.73282E+01
 -1      3601 3.98164E-01-1.22618E-01-1.48520E+01
 -1      3602 4.73843E-01-1.20705E-01-1.37657E+01
 -1      3603 5.52990E-01-1.07163E-01-1.17180E+01
 -1      3604 4.42899E-01-1.12294E-01-1.06410E+01
 -1      3605 5.07219E-01-1.02271E-01-1.01485E+01
 -1      3606 5.84626E-01-9.85569E-02-9.77904E+00
 -1      3607 3.95863E-01-7.84826E-02-7.36014E+00
 -1      3608 4.42472E-01-6.87433E-02-6.76077E+00
 -1      3609 5.49620E-01-6.89414E-02-6.04592E+00
 -1      3610 5.02714E-01-5.98917E-02-4.40532E+00
 -1      3611 3.52258E-01-1.35848E-02-3.30730E+00
 -1      3612 2.49621E-01-2.12868E-02-1.33597E+00
 -1      3613 2.04031E-01 7.06347E-03-7.55639E-01
 -1      3614 2.78845E-02-9.87219E-03-7.46853E-02
 -1      3615 6.79964E-02 4.88190E-03-1.40637E-01
 -1      3616 0.00000E+00 0.00000E+00 0.00000E+00
 -1      3617 0.00000E+00 0.00000E+00 0.00000E+00
 -1      3618-1.63735E-01 7.28395E-02-9.22544E-01
 -1      3619-3.32571E-01-1.49881E-02-5.36228E+00
 -1      3620-1.84394E-01-9.53112E-02-1.75726E+01
 -1      3621 3.08452E-01-1.02499E-01-1.22844E+01
 -1      3622 0.00000E+00 0.00000E+00 0.00000E+00
 -1      3623 0.00000E+00 0.00000E+00 0.00000E+00
 -1      3624-3.13608E-01-1.32517E-02-1.70072E+00
 -1      3625-2.61109E-01-2.30779E-02-2.26885E+00
 -1      3626-5.37155E-01-6.25516E-03-6.13898E+00
 -1      3627-5.28441E-01-2.66905E-02-8.49359E+00
 -1      3628-4.78234E-01-4.58099E-02-1.00208E+01
 -1      3629-4.15829E-01-6.73316E-02-1.10680E+01
 -1      3630-4.34180E-01-5.21361E-02-1.22002E+01
 -1      3631-4.41043E-01-8.00930E-02-1.51618E+01
 -1      3632-3.18188E-01-8.07986E-02-1.54236E+01
 -1      3633-8.37725E-02-1.06331E-01-1.78890E+01
 -1      3634 2.86207E-02-1.44062E-01-1.79897E+01
 -1      3635 3.13411E-01-1.14689E-01-1.61138E+01
 -1      3636 3.20605E-01-1.01576E-01-1.55704E+01
 -1      3637 6.79715E-01-7.11774E-02-5.87990E+00
 -1      3638 4.19604E-01-7.47644E-02-5.46437E+00
 -1      3639 4.12959E-01-3.49025E-02-2.58998E+00
 -1      3640 3.41263E-01-4.47658E-02-2.06806E+00
 -1      3641 1.67505E-01 1.19161E-02-6.34889E-01
 -1      3642 1.10670E-01-1.17639E-02-3.96724E-01
 -1      3643 8.44818E-02 1.10260E-02-1.82725E-01
 -1      3644-2.33720E-01 2.43900E-02-1.29230E+00
 -1      3645-3.65852E-01-1.69380E-02-2.53095E+00
 -1      3646-5.11640E-01-2.07242E-02-7.51312E+00
 -1      3647-5.71288E-01-3.24468E-02-9.34437E+00
 -1      3648-5.09872E-01-5.54924E-02-1.18099E+01
 -1      3649-1.51722E-01-1.36998E-01-1.67785E+01
 -1      3650-2.10333E-01-1.21799E-01-1.72737E+01
 -1      3651 3.60687E-01-1.07118E-01-1.52273E+01
 -1      3652 4.72173E-01-1.11377E-01-1.31008E+01
 -1      3653 4.97820E-01-7.15278E-02-7.30542E+00
 -1      3654 4.16883E-01-6.79943E-02-6.54827E+00
 -1      3655 4.80434E-01-7.28144E-02-5.72580E+00
 -1      3656 3.30857E-01-7.09192E-02-5.92621E+00
 -1      3657 0.00000E+00 0.00000E+00 0.00000E+00
 -1      3658 0.00000E+00 0.00000E+00 0.00000E+00
 -1      3659-6.12091E-02 1.63299E-02-2.20975E-01
 -1      3660-3.31873E-01 1.49574E-02-3.08107E+00
 -1      3661-4.67457E-01-2.57663E-03-4.62915E+00
 -1      3662-3.98792E-01-1.57729E-02-7.19052E+00
 -1      3663-4.98095E-01-2.05140E-02-7.84760E+00
 -1      3664-4.82769E-01-5.49974E-02-1.29254E+01
 -1      3665-4.39024E-01-6.07013E-02-1.32130E+01
 -1      3666-3.19581E-01-9.02660E-02-1.39237E+01
 -1      3667-3.29082E-01-1.01108E-01-1.44425E+01
 -1      3668-3.60006E-01-8.57191E-02-1.59227E+01
 -1      3669-2.94239E-01-9.22734E-02-1.62193E+01
 -1      3670-2.01890E-01-1.18181E-01-1.73367E+01
 -1      3671-1.07644E-02-1.56593E-01-1.80349E+01
 -1      3672 6.80304E-02-1.16607E-01-1.77870E+01
 -1      3673 3.40270E-01-1.08411E-01-1.52913E+01
 -1      3674 3.28384E-01-1.50735E-01-1.46477E+01
 -1      3675 5.11107E-01-1.04636E-01-1.20142E+01
 -1      3676 5.05763E-01-1.11981E-01-1.11425E+01
 -1      3677 4.88845E-01-1.01383E-01-9.74898E+00
 -1      3678 4.13167E-01-6.18627E-02-4.45442E+00
 -1      3679 3.01303E-01-2.43303E-02-3.81201E+00
 -1      3680 3.29637E-01-6.84842E-03-3.20318E+00
 -1      3681 2.45943E-01-2.65485E-02-1.58053E+00
 -1      3682 4.78029E-01-1.04880E-01-1.19995E+01
 -1      3683 3.24426E-01-3.48025E-02-2.59704E+00
 -1      3684-1.76953E-01 2.37157E-02-4.46874E-01
 -1      3685-2.47022E-01-1.52717E-02-1.68443E+00
 -1      3686-3.53448E-01-1.56557E-02-2.47088E+00
 -1      3687-4.93986E-01-5.49090E-02-1.18789E+01
 -1      3688-4.52597E-01-8.08572E-02-1.52423E+01
 -1      3689-3.21102E-01-9.36357E-02-1.59908E+01
 -1      3690 1.63594E-01-1.32966E-01-1.75012E+01
 -1      3691 4.97673E-01-1.00072E-01-9.44660E+00
 -1      3692 4.08441E-01-7.29213E-02-5.81192E+00
 -1      3693-2.88187E-01-1.23668E-02-1.72402E+00
 -1      3694-4.57222E-01-2.52155E-03-4.58186E+00
 -1      3695-4.91054E-01-5.36162E-02-1.18790E+01
 -1      3696 2.48177E-01-1.15853E-01-1.61611E+01
 -1      3697 4.65702E-01-1.11766E-01-1.30609E+01
 -1      3698 5.08249E-01-8.94898E-02-8.27085E+00
 -1      3699-4.53345E-01-8.31820E-03-5.65518E+00
 -1      3700-4.59427E-01-3.99601E-02-9.38332E+00
 -1      3701-4.05073E-01-6.05890E-02-1.30020E+01
 -1      3702 4.67553E-01-1.05026E-01-1.20015E+01
 -1      3703 4.23729E-01-6.17737E-02-4.66728E+00
 -1      3704-3.13617E-02 1.97967E-02-1.07820E-01
 -1      3705-1.42964E-01 1.89550E-02-4.75514E-01
 -1      3706-2.17572E-01-1.15159E-02-1.40328E+00
 -1      3707-4.92606E-01-2.19347E-02-8.15426E+00
 -1      3708-5.90419E-01-5.78956E-02-1.30120E+01
 -1      3709-4.50404E-01-8.29590E-02-1.52270E+01
 -1      3710-1.73276E-01-1.19616E-01-1.73224E+01
 -1      3711-2.28776E-01-1.12478E-01-1.74491E+01
 -1      3712-7.65020E-02-1.03526E-01-1.77810E+01
 -1      3713 8.07511E-03-1.26667E-01-1.79230E+01
 -1      3714 4.96024E-02-1.26148E-01-1.78102E+01
 -1      3715 4.25261E-01-1.13386E-01-1.33390E+01
 -1      3716 5.60058E-01-8.97183E-02-8.34770E+00
 -1      3717 1.11436E-01-1.42812E-02-5.37437E-01
 -1      3718 1.55686E-01-2.90192E-03-4.18268E-01
 -1      3719 0.00000E+00 0.00000E+00 0.00000E+00
 -1      3720-6.25008E-02 2.42040E-02-1.25421E-01
 -1      3721-1.56530E-01-4.95022E-02-7.21776E-01
 -1      3722-4.88013E-01-1.89747E-02-7.83823E+00
 -1      3723-4.63571E-01-3.12935E-02-1.38638E+01
 -1      3724-1.27726E-01-1.10410E-01-1.77743E+01
 -1      3725 2.68579E-02-1.24868E-01-1.78916E+01
 -1      3726 1.68933E-01-6.80228E-02-1.72170E+01
 -1      3727 4.81718E-01-1.02775E-01-1.17085E+01
 -1      3728 4.95196E-01-8.84780E-02-7.99628E+00
 -1      3729 4.54471E-01-9.59692E-02-7.32600E+00
 -1      3730 5.43667E-01-7.47051E-02-6.06365E+00
 -1      3731 4.19285E-01-8.53222E-02-3.78445E+00
 -1      3732 1.41990E-01-6.52982E-02-1.10607E+00
 -1      3733 0.00000E+00 0.00000E+00 0.00000E+00
 -1      3734-3.99832E-01-1.20899E-02-2.45817E+00
 -1      3735-5.09219E-01 2.39428E-03-4.51380E+00
 -1      3736-4.56363E-01-1.11933E-03-5.31513E+00
 -1      3737-5.81165E-01-1.99979E-02-8.12792E+00
 -1      3738-5.01515E-01-3.67582E-02-9.26355E+00
 -1      3739-5.55700E-01-5.30614E-02-1.18620E+01
 -1      3740-3.11427E-01-8.65025E-02-1.64272E+01
 -1      3741 1.70230E-01-8.54054E-02-1.67265E+01
 -1      3742 3.62222E-01-1.19663E-01-1.54665E+01
 -1      3743 4.14169E-01-1.09261E-01-1.52826E+01
 -1      3744 4.15376E-01-8.67722E-02-1.49037E+01
 -1      3745 5.15940E-01-1.14064E-01-1.31152E+01
 -1      3746 5.50007E-01-1.03150E-01-1.19826E+01
 -1      3747 5.77062E-01-1.00050E-01-9.45003E+00
 -1      3748 4.37262E-01-7.19899E-02-5.80540E+00
 -1      3749 1.78619E-01-7.03572E-02-5.99538E-01
 -1      3750 7.17473E-03 4.05198E-03-1.52411E-01
 -1      3751 0.00000E+00 0.00000E+00 0.00000E+00
 -1      3752-3.76068E-01-2.01465E-02-3.93258E+00
 -1      3753-4.17541E-01-3.35234E-02-9.00050E+00
 -1      3754-4.10173E-01-6.85574E-02-1.26604E+01
 -1      3755-5.15084E-01-6.07776E-02-1.32691E+01
 -1      3756-4.44190E-01-8.10739E-02-1.49120E+01
 -1      3757-3.64306E-01-8.73072E-02-1.51149E+01
 -1      3758-5.45083E-01-8.18091E-02-1.50645E+01
 -1      3759-3.87379E-01-9.54745E-02-1.53478E+01
 -1      3760-4.71320E-01-9.37457E-02-1.60776E+01
 -1      3761-7.37512E-02-9.47713E-02-1.79125E+01
 -1      3762 4.68666E-02-1.13196E-01-1.78787E+01
 -1      3763 1.16394E-01-1.41466E-01-1.75809E+01
 -1      3764 5.43020E-01-7.56857E-02-6.05175E+00
 -1      3765 4.82278E-01-5.20156E-02-4.38106E+00
 -1      3766 3.36990E-01-3.58167E-02-2.58291E+00
 -1      3767 4.55445E-03 1.15238E-02-1.94901E-01
 -1      3768 0.00000E+00 0.00000E+00 0.00000E+00
 -1      3769-4.60975E-02 1.85190E-02-1.26273E-01
 -1      3770-1.56881E-01 1.76755E-02-5.27049E-01
 -1      3771-5.77244E-01-9.22783E-03-7.82005E+00
 -1      3772-3.39645E-01-3.51239E-02-8.42233E+00
 -1      3773-4.64531E-01-6.13126E-02-1.22167E+01
 -1      3774-3.88567E-01-1.05127E-01-1.54515E+01
 -1      3775-3.69820E-01-1.04605E-01-1.62062E+01
 -1      3776-2.37783E-01-1.09110E-01-1.73833E+01
 -1      3777-2.12937E-01-1.06758E-01-1.73088E+01
 -1      3778-1.50620E-01-1.15577E-01-1.72895E+01
 -1      3779-1.41609E-01-1.28999E-01-1.74948E+01
 -1      3780-9.25818E-02-1.32971E-01-1.76621E+01
 -1      3781-1.22510E-01-1.09614E-01-1.78278E+01
 -1      3782 7.65118E-02-1.16134E-01-1.78935E+01
 -1      3783 1.18197E-01-1.52900E-01-1.76158E+01
 -1      3784 3.22597E-01-1.22324E-01-1.63427E+01
 -1      3785 2.32117E-01-1.24385E-01-1.58812E+01
 -1      3786 3.22155E-01-1.26613E-01-1.55562E+01
 -1      3787 5.34823E-01-9.62837E-02-1.17095E+01
 -1      3788 4.44090E-01-5.82858E-02-5.38059E+00
 -1      3789 4.07017E-01-4.10346E-02-2.76366E+00
 -1      3790 3.09851E-01-1.78952E-02-1.53142E+00
 -1      3791 1.40635E-01-1.93149E-02-4.84761E-01
 -1      3792 9.60477E-02-2.36086E-02-5.05684E-01
 -1      3793 0.00000E+00 0.00000E+00 0.00000E+00
 -1      3794-2.29509E-01-4.99085E-02-9.37972E-01
 -1      3795-4.35201E-01-3.81283E-02-3.54634E+00
 -1      3796-5.59074E-01 4.74980E-03-5.05569E+00
 -1      3797-5.24656E-01-3.27261E-02-6.48830E+00
 -1      3798-4.39392E-01-3.25398E-02-6.78210E+00
 -1      3799-5.34685E-01-2.18332E-02-7.07940E+00
 -1      3800-6.53637E-01-6.36477E-02-1.23521E+01
 -1      3801-3.83555E-01-4.37651E-02-1.43963E+01
 -1      3802 2.38335E-01-8.75089E-02-1.69113E+01
 -1      3803 4.47734E-01-9.30411E-02-1.40728E+01
 -1      3804 5.24025E-01-9.12745E-02-1.10788E+01
 -1      3805 4.36041E-01-9.56322E-02-1.07840E+01
 -1      3806 5.34604E-01-1.00679E-01-1.04849E+01
 -1      3807 3.58066E-01-1.01772E-01-9.57735E+00
 -1      3808 2.87702E-01-1.10238E-02-1.98037E+00
 -1      3809 4.91934E-02 2.45690E-02-2.14538E-01
 -1      3810 0.00000E+00 0.00000E+00 0.00000E+00
 -1      3811 0.00000E+00 0.00000E+00 0.00000E+00
 -1      3812-3.14836E-02 3.16197E-02-2.52801E-02
 -1      3813-2.42019E-01-4.76991E-03-1.64676E+00
 -1      3814-3.86623E-01 1.36004E-04-4.49905E+00
 -1      3815-4.85195E-01-2.85487E-02-6.21862E+00
 -1      3816-4.01646E-01-2.11379E-02-7.26402E+00
 -1      3817-5.44066E-01-4.73359E-02-9.99628E+00
 -1      3818-4.38459E-02-7.61203E-02-1.79838E+01
 -1      3819-2.37672E-02-6.01173E-02-1.80049E+01
 -1      3820 2.13633E-01-1.19552E-01-1.61189E+01
 -1      3821 5.27809E-01-9.69634E-02-1.14218E+01
 -1      3822 4.03130E-01-1.04835E-01-1.03036E+01
 -1      3823 3.08348E-01-7.13544E-02-3.12142E+00
 -1      3824 3.89078E-01-5.23121E-02-2.93593E+00
 -1      3825 1.50192E-01-5.63677E-02-1.08471E+00
 -1      3826 1.83457E-03 5.24475E-03-1.22268E-02
 -1      3827 0.00000E+00 0.00000E+00 0.00000E+00
 -1      3828 0.00000E+00 0.00000E+00 0.00000E+00
 -1      3829 0.00000E+00 0.00000E+00 0.00000E+00
 -1      3830 0.00000E+00 0.00000E+00 0.00000E+00
 -1      3831-1.06787E-01 4.17501E-02-3.53577E-01
 -1      3832-3.40144E-01-1.14648E-02-5.61372E+00
 -1      3833-3.69878E-01-3.99593E-02-9.32566E+00
 -1      3834-5.30442E-01-6.26039E-02-1.21372E+01
 -1      3835-3.45710E-01-7.09099E-02-1.29979E+01
 -1      3836 4.12611E-01-1.16226E-01-1.31519E+01
 -1      3837 5.47850E-01-1.15854E-01-1.28287E+01
 -1      3838 3.38802E-01-1.06271E-01-1.19727E+01
 -1      3839 3.73438E-01-9.15211E-02-8.23490E+00
 -1      3840 4.62115E-01-5.63411E-02-5.46267E+00
 -1      3841 3.34592E-01-5.38446E-02-4.60822E+00
 -1      3842 2.50540E-01-2.35030E-02-2.43390E+00
 -1      3843 8.10152E-02-1.35343E-01-1.77995E+01
 -1      3844 0.00000E+00 0.00000E+00 0.00000E+00
 -1      3845-6.98754E-02-3.18822E-02-3.97209E-01
 -1      3846-2.75056E-01-5.08081E-02-1.88366E+00
 -1      3847-2.10483E-01-3.51934E-02-2.49793E+00
 -1      3848-3.38359E-01-1.42075E-02-4.51002E+00
 -1      3849-2.96085E-01-1.87553E-02-4.83805E+00
 -1      3850-3.08178E-01-1.73587E-02-5.67202E+00
 -1      3851-4.07248E-01-3.11401E-02-8.23345E+00
 -1      3852-3.57934E-01-3.12798E-02-9.10772E+00
 -1      3853-3.72078E-01-3.21836E-02-9.44155E+00
 -1      3854-4.00213E-01-4.51462E-02-1.19194E+01
 -1      3855-3.79308E-01-4.88969E-02-1.32375E+01
 -1      3856-2.85004E-01-6.22677E-02-1.53831E+01
 -1      3857-2.19812E-01-7.03877E-02-1.60626E+01
 -1      3858-7.23474E-02-8.85683E-02-1.79701E+01
 -1      3859-7.40648E-02-9.58522E-02-1.80477E+01
 -1      3860 7.57935E-02-7.74130E-02-1.79011E+01
 -1      3861 7.70884E-02-1.06644E-01-1.76428E+01
 -1      3862 2.60012E-01-7.65745E-02-1.59971E+01
 -1      3863 2.15323E-01-9.04055E-02-1.53872E+01
 -1      3864 3.34382E-01-9.39376E-02-1.31847E+01
 -1      3865 3.02173E-01-9.86828E-02-1.20385E+01
 -1      3866 3.91812E-01-9.74212E-02-9.48051E+00
 -1      3867 4.49831E-01-9.59115E-02-9.15339E+00
 -1      3868 3.55935E-01-9.11000E-02-8.20419E+00
 -1      3869 3.90857E-01-7.84563E-02-5.81601E+00
 -1      3870 3.69513E-01-7.35757E-02-4.53768E+00
 -1      3871 2.61286E-01-6.95075E-02-2.45496E+00
 -1      3872 2.92474E-01-5.65681E-02-2.72494E+00
 -1      3873-3.08217E-02-2.26768E-02-1.03226E-01
 -1      3874-1.82382E-01-3.12051E-02-1.46488E+00
 -1      3875-2.08851E-01-4.60616E-02-1.85469E+00
 -1      3876-4.03614E-01-3.10944E-02-9.67879E+00
 -1      3877-3.64591E-01-3.89082E-02-1.28058E+01
 -1      3878 4.43205E-02-8.60653E-02-1.78891E+01
 -1      3879 1.95115E-01-1.01904E-01-1.64541E+01
 -1      3880 2.96916E-01-9.37714E-02-1.34762E+01
 -1      3881 3.98969E-01-9.22581E-02-8.62957E+00
 -1      3882 3.41216E-01-8.10699E-02-4.95728E+00
 -1      3883 1.02986E-01-2.59461E-02-4.25234E-01
 -1      3884 0.00000E+00 0.00000E+00 0.00000E+00
 -1      3885 0.00000E+00 0.00000E+00 0.00000E+00
 -1      3886 0.00000E+00 0.00000E+00 0.00000E+00
 -1      3887-4.02304E-02-2.70238E-02-9.93075E-02
 -1      3888-1.38184E-01 2.16528E-02-6.93505E-01
 -1      3889-9.28944E-02 2.22003E-02-9.03656E-01
 -1      3890-1.43038E-01 7.48864E-03-1.08125E+00
 -1      3891-2.36169E-01 4.00759E-02-3.43661E+00
 -1      3892-3.19904E-01 2.56095E-02-3.74249E+00
 -1      3893-3.18236E-01-1.47355E-02-6.92422E+00
 -1      3894-3.90253E-01-1.88796E-02-7.22852E+00
 -1      3895-3.95251E-01-3.41970E-02-9.79506E+00
 -1      3896-1.62063E-01-1.19574E-01-1.70363E+01
 -1      3897-1.70335E-01-1.25543E-01-1.73251E+01
 -1      3898-1.85387E-02-1.75722E-01-1.82496E+01
 -1      3899 1.32389E-01-1.81979E-01-1.70603E+01
 -1      3900 2.30485E-01-8.07687E-02-1.60046E+01
 -1      3901 3.68077E-01-1.14860E-01-1.05101E+01
 -1      3902 2.97808E-01-2.18412E-02-3.73918E+00
 -1      3903 2.36013E-01-6.04571E-02-1.97967E+00
 -1      3904 1.60647E-01 2.30538E-02-1.12723E+00
 -1      3905 1.44672E-01 3.42488E-02-8.10490E-01
 -1      3906 0.00000E+00 0.00000E+00 0.00000E+00
 -1      3907 0.00000E+00 0.00000E+00 0.00000E+00
 -1      3908-3.73218E-01-1.53086E-02-6.03063E+00
 -1      3909-3.56087E-01-3.35019E-02-8.37226E+00
 -1      3910-1.48150E-01-7.91911E-02-1.77171E+01
 -1      3911 4.76176E-02-1.01356E-01-1.80490E+01
 -1      3912 2.99337E-01-1.38079E-01-1.40364E+01
 -1      3913 3.61471E-01-1.01859E-01-1.16697E+01
 -1      3914 2.46722E-01-7.75871E-02-5.57344E+00
 -1      3915 5.40253E-02-2.83650E-02-2.61089E-01
 -1      3916 5.36774E-02-1.51467E-02-1.43137E-01
 -1      3917 0.00000E+00 0.00000E+00 0.00000E+00
 -1      3918 0.00000E+00 0.00000E+00 0.00000E+00
 -1      3919-3.09127E-01-1.04180E-02-4.34673E+00
 -1      3920-3.56102E-01-6.58290E-02-1.53788E+01
 -1      3921-1.36991E-01-8.92799E-02-1.61124E+01
 -1      3922-3.45108E-02-2.06721E-01-1.82686E+01
 -1      3923 3.80637E-02-9.60522E-02-1.79827E+01
 -1      3924 2.11009E-01-9.17491E-02-1.55078E+01
 -1      3925 3.55052E-01-9.78856E-02-9.28932E+00
 -1      3926 2.48520E-01-8.71006E-02-7.82511E+00
 -1      3927 1.53722E-01-4.59071E-02-1.79368E+00
 -1      3928 3.05641E-02-1.01857E-02-2.03514E-01
 -1      3929 1.48146E-01-1.74393E-01-1.70483E+01
 -1      3930 2.54849E-01-1.37584E-01-1.43017E+01
 -1      3931 3.14246E-01-1.15652E-01-1.08182E+01
 -1      3932 3.29186E-01-6.87412E-02-7.04813E+00
 -1      3933 2.60040E-01-2.27260E-02-3.49517E+00
 -1      3934 0.00000E+00 0.00000E+00 0.00000E+00
 -1      3935-1.32472E-02-1.90922E-02-9.87535E-02
 -1      3936-2.37966E-02-1.95204E-02-1.49399E-01
 -1      3937-1.24240E-01-1.19880E-02-5.00259E-01
 -1      3938-3.19912E-01-2.87079E-02-2.57440E+00
 -1      3939-4.51466E-01-2.90825E-02-8.10439E+00
 -1      3940-3.95791E-01-5.61822E-02-1.32696E+01
 -1      3941-2.77621E-01-1.05073E-01-1.42501E+01
 -1      3942-3.54518E-01-6.70719E-02-1.52029E+01
 -1      3943-3.23789E-01-7.30174E-02-1.49663E+01
 -1      3944-6.25217E-02-8.73487E-02-1.80249E+01
 -1      3945 3.02101E-02-1.00256E-01-1.79340E+01
 -1      3946 3.25690E-01-9.14655E-02-1.52929E+01
 -1      3947 4.41508E-01-9.02944E-02-8.09949E+00
 -1      3948 3.86322E-01-8.04037E-02-6.14476E+00
 -1      3949 3.35773E-01-6.12600E-02-2.65993E+00
 -1      3950 3.05215E-01-5.98694E-02-2.87072E+00
 -1      3951 1.48267E-01-2.90715E-02-5.28332E-01
 -1      3952 2.76253E-02-2.54545E-02-1.68843E-01
 -1      3953 0.00000E+00 0.00000E+00 0.00000E+00
 -1      3954 0.00000E+00 0.00000E+00 0.00000E+00
 -1      3955-2.98723E-01-2.62945E-02-2.78186E+00
 -1      3956-3.71854E-01-1.97812E-02-6.03169E+00
 -1      3957-4.03329E-01-2.81910E-02-7.76884E+00
 -1      3958-3.89100E-01-4.68102E-02-1.15707E+01
 -1      3959-3.30087E-01-6.01696E-02-1.34225E+01
 -1      3960-2.03536E-01-7.52665E-02-1.64160E+01
 -1      3961-1.61883E-01-7.97771E-02-1.74366E+01
 -1      3962-6.56016E-02-8.18164E-02-1.79107E+01
 -1      3963 6.21810E-03-1.14387E-01-1.80154E+01
 -1      3964 1.15350E-01-9.56074E-02-1.74337E+01
 -1      3965 2.73252E-01-9.44617E-02-1.50626E+01
 -1      3966 3.72661E-01-9.77461E-02-1.16512E+01
 -1      3967 3.12628E-01-7.07839E-02-4.33525E+00
 -1      3968 1.37890E-01-2.79670E-02-6.05989E-01
 -1      3969-4.08158E-01-3.73791E-02-9.85409E+00
 -1      3970-4.19183E-01-5.34803E-02-1.30854E+01
 -1      3971-2.82156E-01-7.51037E-02-1.50715E+01
 -1      3972-1.75464E-01-8.10468E-02-1.75318E+01
 -1      3973 2.17402E-01-9.88063E-02-1.62755E+01
 -1      3974 3.26309E-01-9.05256E-02-1.52791E+01
 -1      3975 3.97192E-01-8.78208E-02-7.81407E+00
 -1      3976 2.67396E-01-6.10891E-02-2.76212E+00
 -1      3977 2.55037E-01-5.64813E-02-1.77741E+00
 -1      3978 1.84312E-01-5.74019E-02-1.52164E+00
 -1      3979-3.07488E-01-2.79755E-02-2.72083E+00
 -1      3980-4.11872E-01-4.60115E-02-1.16030E+01
 -1      3981 0.00000E+00 0.00000E+00 0.00000E+00
 -1      3982-2.42145E-01-3.61524E-02-1.57574E+00
 -1      3983-3.94335E-01-1.00780E-02-4.41977E+00
 -1      3984-4.12934E-02-9.25068E-02-1.80133E+01
 -1      3985 1.72329E-02-1.09497E-01-1.79680E+01
 -1      3986 1.79269E-01-1.03647E-01-1.64417E+01
 -1      3987 2.39105E-01-5.69348E-02-1.66273E+00
 -1      3988-2.33508E-02-1.69143E-02-1.15540E-01
 -1      3989-3.44511E-01-3.61185E-02-1.06023E+01
 -1      3990 3.61514E-01-9.48825E-02-7.03618E+00
 -1      3991 0.00000E+00 0.00000E+00 0.00000E+00
 -1      3992-1.40579E-01-7.02760E-02-1.04999E+00
 -1      3993-2.86905E-01-6.93554E-02-3.13999E+00
 -1      3994-2.83891E-01-4.86996E-02-3.66522E+00
 -1      3995-4.07122E-01-3.81385E-02-1.02962E+01
 -1      3996-3.33099E-01-3.55335E-02-1.39472E+01
 -1      3997-1.60167E-01-1.03390E-02-1.68411E+01
 -1      3998-2.17617E-01-2.07980E-02-1.72121E+01
 -1      3999-3.00766E-02-1.48833E-02-1.81121E+01
 -1      4000 3.02667E-01-4.92121E-02-1.46081E+01
 -1      4001 1.99061E-01-5.25568E-02-1.43396E+01
 -1      4002 3.25217E-01-8.56379E-02-1.09259E+01
 -1      4003 3.21615E-01-9.39818E-02-7.05649E+00
 -1      4004 3.90212E-01-9.23683E-02-7.35932E+00
 -1      4005 2.67182E-01-6.25675E-02-4.50522E+00
 -1      4006 2.78630E-01-6.66958E-02-2.84507E+00
 -1      4007 1.61751E-01-9.46364E-02-1.12061E+00
 -1      4008 0.00000E+00 0.00000E+00 0.00000E+00
 -1      4009-4.67262E-02 3.24104E-03-1.27677E-01
 -1      4010-9.64844E-02 9.40559E-04-3.84410E-01
 -1      4011-1.08450E-01-2.59674E-02-1.76125E+00
 -1      4012-1.75905E-01-3.13570E-02-2.60753E+00
 -1      4013-4.00148E-01-2.73844E-02-3.92348E+00
 -1      4014-3.03071E-01-1.01006E-02-4.43726E+00
 -1      4015-2.62389E-01-1.88766E-02-4.79698E+00
 -1      4016-2.98532E-01-2.51605E-02-5.99104E+00
 -1      4017-3.85605E-01-3.41373E-02-6.51944E+00
 -1      4018-3.84766E-01-3.67955E-02-9.57708E+00
 -1      4019-3.92426E-01-3.02690E-02-1.10080E+01
 -1      4020-2.58531E-01-5.55914E-02-1.20145E+01
 -1      4021-3.44165E-01-6.97873E-02-1.32970E+01
 -1      4022-2.76147E-01-8.07071E-02-1.33704E+01
 -1      4023-3.29664E-01-3.22568E-02-1.45166E+01
 -1      4024-3.44197E-01-6.97136E-02-1.50140E+01
 -1      4025-7.01812E-02-9.65472E-02-1.77935E+01
 -1      4026-3.84284E-03-3.66607E-02-1.81115E+01
 -1      4027 2.18666E-02-1.10559E-01-1.79477E+01
 -1      4028 3.61359E-02-1.05193E-01-1.79496E+01
 -1      4029 9.88786E-02-1.09715E-01-1.76117E+01
 -1      4030 1.11625E-01-6.50166E-02-1.69033E+01
 -1      4031 1.84816E-01-7.53428E-02-1.66660E+01
 -1      4032 2.16453E-01-1.02049E-01-1.63989E+01
 -1      4033 1.45014E-01-9.41266E-02-1.51225E+01
 -1      4034 2.97292E-01-6.95942E-02-1.40201E+01
 -1      4035 3.03158E-01-1.07876E-01-1.32671E+01
 -1      4036 3.28201E-01-1.13511E-01-1.34904E+01
 -1      4037 3.58177E-01-9.52714E-02-1.16428E+01
 -1      4038 3.97789E-01-8.24920E-02-1.12250E+01
 -1      4039 3.69730E-01-1.02093E-01-1.04525E+01
 -1      4040 3.22562E-01-8.83484E-02-7.92513E+00
 -1      4041 3.70780E-01-9.16447E-02-6.65164E+00
 -1      4042 3.56022E-01-6.88102E-02-4.98184E+00
 -1      4043 3.10927E-01-8.99588E-02-3.25237E+00
 -1      4044 2.35359E-01-5.67692E-02-1.91612E+00
 -1      4045 1.27747E-01-8.37244E-02-7.56798E-01
 -1      4046 5.47968E-02-1.17289E-02-2.46772E-01
 -1      4047 0.00000E+00 0.00000E+00 0.00000E+00
 -1      4048 0.00000E+00 0.00000E+00 0.00000E+00
 -1      4049-5.98133E-02 4.40327E-04-2.45104E-01
 -1      4050-1.53343E-01-7.22484E-02-7.66717E-01
 -1      4051-2.26617E-01-2.15125E-02-1.87164E+00
 -1      4052-3.44732E-01-2.64369E-02-7.75536E+00
 -1      4053-1.34516E-01-9.66764E-02-1.76051E+01
 -1      4054 3.64849E-01-9.17072E-02-9.15286E+00
 -1      4055 1.23212E-01-1.44645E-02-4.08308E-01
 -1      4056 0.00000E+00 0.00000E+00 0.00000E+00
 -1      4057 0.00000E+00 0.00000E+00 0.00000E+00
 -1      4058-3.97031E-01-1.18277E-02-5.37231E+00
 -1      4059-3.22867E-01-3.51170E-02-6.82751E+00
 -1      4060-5.15415E-02-4.21700E-02-9.39728E+00
 -1      4061 2.66769E-02-1.07114E-01-1.78913E+01
 -1      4062 5.59523E-02-1.14552E-01-1.77748E+01
 -1      4063 1.48876E-01-5.46330E-02-1.71809E+01
 -1      4064 3.42878E-01-1.05069E-01-1.28711E+01
 -1      4065 3.89008E-01-1.07465E-01-1.22914E+01
 -1      4066 3.60479E-01-9.35743E-02-8.55197E+00
 -1      4067 2.48820E-01-9.31316E-02-3.50271E+00
 -1      4068 2.67746E-01-6.35179E-02-2.74100E+00
 -1      4069 2.95167E-02-5.65794E-02-1.69927E+00
 -1      4070 1.14298E-01-1.12258E-01-9.09598E-01
 -1      4071 0.00000E+00 0.00000E+00 0.00000E+00
 -1      4072-2.21357E-02 3.21357E-04-1.42989E-01
 -1      4073-4.27313E-02 2.80727E-03-1.93154E-01
 -1      4074-2.39408E-01-2.87106E-02-2.48270E+00
 -1      4075-2.11016E-01-1.48115E-02-4.55083E+00
 -1      4076-3.61392E-01-1.54492E-02-5.65951E+00
 -1      4077-3.92226E-01-2.90275E-02-8.16383E+00
 -1      4078-4.41036E-01-3.49394E-02-9.05929E+00
 -1      4079-3.72589E-01-3.80962E-02-9.38921E+00
 -1      4080-3.27130E-01-6.48176E-02-1.29982E+01
 -1      4081-1.39424E-01-8.36800E-02-1.50612E+01
 -1      4082-1.13458E-01-9.81318E-02-1.74376E+01
 -1      4083 1.29201E-01-1.10301E-01-1.61757E+01
 -1      4084 2.25661E-01-9.72665E-02-1.52972E+01
 -1      4085 3.34016E-01-1.04885E-01-1.31373E+01
 -1      4086 3.81628E-01-8.91545E-02-8.24543E+00
 -1      4087 3.14673E-01-7.00366E-02-4.69669E+00
 -1      4088 1.20521E-01-2.81263E-02-5.59434E-01
 -1      4089-9.60284E-02-6.49988E-03-4.62718E-01
 -1      4090-2.89711E-01-7.43553E-02-1.52396E+01
 -1      4091-2.55439E-01-8.15981E-02-1.60169E+01
 -1      4092 8.91723E-02-1.12779E-01-1.75309E+01
 -1      4093 3.57821E-01-7.44452E-02-5.64276E+00
 -1      4094 2.60517E-01-5.37111E-02-2.54942E+00
 -1      4095 1.03166E-01-1.35309E-02-4.64886E-01
 -1      4096-8.13088E-02-1.58648E-03-4.12513E-01
 -1      4097-2.53298E-01-2.57338E-02-1.91494E+00
 -1      4098-2.09937E-01-2.49480E-02-2.42701E+00
 -1      4099-2.84939E-01-9.46863E-03-4.80684E+00
 -1      4100-3.49125E-01-8.35708E-03-5.81165E+00
 -1      4101-4.42637E-01-2.80598E-02-8.49175E+00
 -1      4102-3.23609E-01-3.82146E-02-9.06155E+00
 -1      4103-3.49910E-01-3.77169E-02-9.24946E+00
 -1      4104-2.04253E-01-9.05345E-02-1.59058E+01
 -1      4105-2.34356E-01-8.90996E-02-1.61963E+01
 -1      4106-1.27797E-01-1.11771E-01-1.74359E+01
 -1      4107-7.56422E-02-1.04604E-01-1.77723E+01
 -1      4108 3.65521E-01-1.08618E-01-1.28287E+01
 -1      4109 4.35683E-01-9.93079E-02-9.13046E+00
 -1      4110 3.29434E-01-9.22632E-02-8.37854E+00
 -1      4111 3.07013E-01-6.66258E-02-4.48006E+00
 -1      4112 1.86193E-01-4.75476E-02-1.91163E+00
 -1      4113 2.22113E-01-3.91487E-02-1.68861E+00
 -1      4114 9.82767E-02-1.31909E-02-5.14731E-01
 -1      4115 0.00000E+00 0.00000E+00 0.00000E+00
 -1      4116-3.42654E-02 7.05793E-04-1.56471E-01
 -1      4117-1.97266E-01-1.85886E-02-1.63561E+00
 -1      4118-1.69745E-01-2.21248E-02-2.61788E+00
 -1      4119-2.97603E-01-7.22104E-03-4.24142E+00
 -1      4120-3.33501E-01-5.71863E-02-1.26970E+01
 -1      4121 4.73278E-02-1.14810E-01-1.77679E+01
 -1      4122 1.92598E-01-1.12948E-01-1.61678E+01
 -1      4123 2.07172E-01-1.19866E-01-1.63307E+01
 -1      4124 1.61209E-01-1.10433E-01-1.59622E+01
 -1      4125 2.68913E-01-1.06390E-01-1.33858E+01
 -1      4126 3.65655E-01-1.11114E-01-1.04419E+01
 -1      4127 3.25947E-01-7.56831E-02-4.97160E+00
 -1      4128 0.00000E+00 0.00000E+00 0.00000E+00
 -1      4129 0.00000E+00 0.00000E+00 0.00000E+00
 -1      4130 0.00000E+00 0.00000E+00 0.00000E+00
 -1      4131-4.12485E-02-9.71988E-03-1.38211E-01
 -1      4132-1.27551E-01 6.74036E-02-7.17368E-01
 -1      4133-1.42725E-01 5.52745E-02-1.09487E+00
 -1      4134-2.00631E-01-9.64561E-03-1.47555E+00
 -1      4135-2.52501E-01 1.96027E-02-3.46554E+00
 -1      4136-3.46247E-01 1.79560E-02-3.80484E+00
 -1      4137-2.75415E-01-9.46730E-03-6.04742E+00
 -1      4138-3.79829E-01-4.19925E-03-6.49793E+00
 -1      4139-3.12420E-01-8.15573E-03-6.88128E+00
 -1      4140-3.17249E-01-4.13962E-02-9.77429E+00
 -1      4141-3.29574E-01-6.38394E-02-1.06557E+01
 -1      4142-3.96018E-01-5.72398E-02-1.03212E+01
 -1      4143-1.44095E-01-1.56433E-01-1.70941E+01
 -1      4144-1.29177E-02-1.44807E-01-1.80393E+01
 -1      4145-1.09872E-02-1.78891E-01-1.80713E+01
 -1      4146 1.29850E-01-1.69522E-01-1.71862E+01
 -1      4147 1.03601E-01-1.88601E-01-1.69897E+01
 -1      4148 1.75346E-01-1.67187E-01-1.67112E+01
 -1      4149 2.56258E-01-1.56642E-01-1.42534E+01
 -1      4150 3.39375E-01-1.39957E-01-1.38993E+01
 -1      4151 3.69620E-01-1.14503E-01-1.11049E+01
 -1      4152 3.79912E-01-9.21475E-02-8.61438E+00
 -1      4153 2.73119E-01-9.05486E-02-7.82949E+00
 -1      4154 3.37279E-01-1.98058E-02-3.09017E+00
 -1      4155 2.00849E-01-3.94639E-02-1.54469E+00
 -1      4156 1.25438E-01 9.63248E-03-1.06531E+00
 -1      4157 1.18334E-01 1.39782E-02-7.86962E-01
 -1      4158 0.00000E+00 0.00000E+00 0.00000E+00
 -1      4159-3.40747E-02 3.41338E-03-2.13518E-01
 -1      4160-1.55033E-01-2.03229E-02-1.83293E+00
 -1      4161-3.22802E-01-3.54489E-02-7.78540E+00
 -1      4162-2.84610E-01-6.24537E-02-1.20377E+01
 -1      4163-8.13462E-02-1.04434E-01-1.77578E+01
 -1      4164 4.51401E-02-1.18160E-01-1.79145E+01
 -1      4165 1.84471E-01-1.10369E-01-1.54071E+01
 -1      4166 3.47158E-01-1.07778E-01-1.16321E+01
 -1      4167 2.06431E-01-4.79941E-02-2.42072E+00
 -1      4168 4.87137E-02-1.27613E-03-2.41607E-01
 -1      4169 5.25185E-02 3.28297E-03-1.29237E-01
 -1      4170 0.00000E+00 0.00000E+00 0.00000E+00
 -1      4171-2.06369E-01-1.34816E-02-5.89488E+00
 -1      4172-3.16280E-01-3.24426E-02-7.88432E+00
 -1      4173-1.69339E-01-1.01419E-01-1.60125E+01
 -1      4174 3.14377E-01-1.01471E-01-9.20631E+00
 -1      4175 3.14347E-01-9.08055E-02-7.95780E+00
 -1      4176 1.63925E-01-4.99667E-02-2.83830E+00
 -1      4177 1.47815E-01-4.42046E-02-1.78099E+00
 -1      4178 0.00000E+00 0.00000E+00 0.00000E+00
 -1      4179-1.06298E-01 7.45632E-02-9.13568E-01
 -1      4180-2.97542E-01 2.20864E-02-3.44187E+00
 -1      4181-3.40332E-01-6.49658E-02-1.31961E+01
 -1      4182 2.93415E-01-1.58444E-01-1.42541E+01
 -1      4183 3.14453E-01-1.17706E-01-1.07840E+01
 -1      4184 2.86004E-01-6.91520E-02-7.07641E+00
 -1      4185 0.00000E+00 0.00000E+00 0.00000E+00
 -1      4186-1.95423E-02 2.05541E-02-1.26003E-01
 -1      4187-3.40339E-02 2.18156E-02-1.84310E-01
 -1      4188-1.32133E-01 2.40842E-02-5.33621E-01
 -1      4189-3.11044E-01-1.73122E-02-2.67327E+00
 -1      4190-3.67917E-01-3.20730E-03-4.47283E+00
 -1      4191-4.07265E-01-1.00873E-02-5.69868E+00
 -1      4192-4.30610E-01-2.28333E-02-8.07394E+00
 -1      4193-3.08945E-01-8.61947E-02-1.48487E+01
 -1      4194-1.94193E-01-1.17155E-01-1.74255E+01
 -1      4195-6.55467E-02-1.05177E-01-1.78666E+01
 -1      4196 3.25166E-02-1.24961E-01-1.78316E+01
 -1      4197 1.44408E-01-1.33360E-01-1.74261E+01
 -1      4198 4.23562E-01-1.04053E-01-1.17084E+01
 -1      4199 4.26375E-01-9.02903E-02-8.08754E+00
 -1      4200 2.43439E-01-1.89700E-02-3.55767E+00
 -1      4201 2.69960E-01-4.04644E-02-2.85951E+00
 -1      4202 1.08621E-01-1.23574E-02-5.49801E-01
 -1      4203 1.16464E-01-9.23415E-03-4.75766E-01
 -1      4204 8.10581E-03 4.78099E-03-1.31483E-01
 -1      4205 0.00000E+00 0.00000E+00 0.00000E+00
 -1      4206-3.55946E-01-1.37469E-02-6.00244E+00
 -1      4207-4.01445E-01-1.97750E-02-7.65929E+00
 -1      4208-3.64818E-01-5.48481E-02-1.14781E+01
 -1      4209-2.00891E-01-9.54809E-02-1.62964E+01
 -1      4210 1.32442E-01-1.31524E-01-1.73840E+01
 -1      4211 2.81996E-01-1.11998E-01-1.49227E+01
 -1      4212 3.72307E-01-1.04073E-01-1.15826E+01
 -1      4213 3.52996E-01-7.57975E-02-6.14631E+00
 -1      4214 2.95611E-01-6.17824E-02-4.32942E+00
 -1      4215 2.21409E-01-2.82335E-02-1.74674E+00
 -1      4216-2.03317E-01-1.41509E-02-1.59150E+00
 -1      4217-3.16298E-01-1.82182E-02-2.51407E+00
 -1      4218-3.07533E-01-8.65828E-02-1.49559E+01
 -1      4219 3.39407E-01-1.15344E-01-1.35217E+01
 -1      4220 3.69417E-01-1.13313E-01-1.31815E+01
 -1      4221 3.83578E-01-8.83765E-02-7.80346E+00
 -1      4222 2.81664E-01-4.06338E-02-2.74367E+00
 -1      4223 1.48523E-01-3.04095E-02-1.49889E+00
 -1      4224-2.40796E-01-2.08587E-02-2.66817E+00
 -1      4225 3.20182E-01-1.07959E-01-1.52266E+01
 -1      4226 2.33588E-01-1.10833E-01-1.50631E+01
 -1      4227 3.77546E-01-7.59333E-02-6.08497E+00
 -1      4228 0.00000E+00 0.00000E+00 0.00000E+00
 -1      4229-3.01117E-01-6.49208E-02-1.32915E+01
 -1      4230-2.71030E-01-9.59185E-02-1.61411E+01
 -1      4231 1.60046E-01-1.17495E-01-1.63944E+01
 -1      4232 2.05254E-01-2.92215E-02-1.62318E+00
 -1      4233 0.00000E+00 0.00000E+00 0.00000E+00
 -1      4234-3.73006E-01-2.26745E-03-4.38503E+00
 -1      4235-2.49071E-01-3.69680E-02-6.83122E+00
 -1      4236-3.18449E-02-5.70386E-02-1.80157E+01
 -1      4237 1.10922E-01-7.59339E-02-1.69696E+01
 -1      4238 2.72364E-01-9.50774E-02-1.08689E+01
 -1      4239-1.75872E-01-3.89510E-02-1.15015E+00
 -1      4240-2.28462E-01-5.38027E-02-3.25264E+00
 -1      4241-3.62663E-01-3.97691E-02-6.49516E+00
 -1      4242-3.66991E-01-4.75344E-02-1.03338E+01
 -1      4243-3.25720E-01-3.70581E-02-1.38684E+01
 -1      4244-1.76527E-01-7.97257E-02-1.67270E+01
 -1      4245-1.36334E-01-5.81933E-02-1.69701E+01
 -1      4246 3.88730E-01-9.13989E-02-1.11672E+01
 -1      4247 2.40486E-01-5.27995E-02-4.48853E+00
 -1      4248 2.91522E-01-8.53899E-02-3.77279E+00
 -1      4249 2.54457E-01-4.91183E-02-2.82639E+00
 -1      4250 0.00000E+00 0.00000E+00 0.00000E+00
 -1      4251 0.00000E+00 0.00000E+00 0.00000E+00
 -1      4252-6.68186E-02-4.51881E-03-5.71725E-01
 -1      4253-2.25209E-01 1.95242E-04-1.89814E+00
 -1      4254-3.20286E-01-5.39041E-02-2.96105E+00
 -1      4255-2.82790E-01-3.90335E-02-3.64721E+00
 -1      4256-2.12702E-01-9.89440E-03-4.65983E+00
 -1      4257-2.89983E-01-3.43050E-03-4.75314E+00
 -1      4258-4.50057E-01-1.92456E-02-7.92466E+00
 -1      4259-3.20190E-01-1.91400E-02-7.71368E+00
 -1      4260-3.69251E-01-4.50061E-02-9.51300E+00
 -1      4261-3.08618E-01-4.80318E-02-9.66020E+00
 -1      4262-3.67805E-01-5.16247E-02-1.09213E+01
 -1      4263-3.00699E-01-6.19446E-02-1.20668E+01
 -1      4264-2.67670E-01-7.04210E-02-1.30514E+01
 -1      4265-2.62075E-01-8.13337E-02-1.32916E+01
 -1      4266-1.92155E-01-1.09637E-01-1.57995E+01
 -1      4267-1.83496E-01-7.34664E-02-1.70643E+01
 -1      4268-8.00691E-02-1.28844E-01-1.76868E+01
 -1      4269-7.69391E-04-6.67479E-02-1.79934E+01
 -1      4270 2.95956E-01-7.17583E-02-1.46351E+01
 -1      4271 1.14994E-01-1.09125E-01-1.30065E+01
 -1      4272 3.68783E-01-1.12517E-01-1.27555E+01
 -1      4273 3.39241E-01-9.74185E-02-1.16179E+01
 -1      4274 2.17861E-01-9.45540E-02-9.34961E+00
 -1      4275 2.65836E-01-9.23668E-02-8.50709E+00
 -1      4276 2.64424E-01-9.36444E-02-8.09681E+00
 -1      4277 3.86148E-01-9.15376E-02-7.40468E+00
 -1      4278 3.58398E-01-9.41352E-02-6.64534E+00
 -1      4279 3.30092E-01-5.01575E-02-4.96252E+00
 -1      4280 2.61874E-01-2.63004E-02-2.37313E+00
 -1      4281 2.00254E-01-1.85326E-02-1.93032E+00
 -1      4282 1.27334E-01-6.82140E-02-6.82847E-01
 -1      4283-3.98557E-02 3.00272E-02-2.15343E-01
 -1      4284 2.27485E-02-1.06250E-01-1.79093E+01
 -1      4285 1.44886E-01-1.24048E-01-1.74297E+01
 -1      4286 1.41262E-01-1.24793E-01-1.64287E+01
 -1      4287 3.46546E-01-9.42483E-02-9.13471E+00
 -1      4288 8.01794E-02 7.01886E-03-3.43387E-01
 -1      4289-1.12012E-02 1.00688E-02-1.26396E-01
 -1      4290-3.76952E-01-2.41104E-03-5.32631E+00
 -1      4291-2.66953E-01-4.01628E-02-1.41538E+01
 -1      4292-8.08988E-02-1.17151E-01-1.61433E+01
 -1      4293-1.39184E-01-1.14060E-01-1.73047E+01
 -1      4294 5.56967E-02-1.42443E-01-1.77517E+01
 -1      4295 2.22515E-01-1.11771E-01-1.29883E+01
 -1      4296 2.10393E-01-1.10871E-01-1.21806E+01
 -1      4297 3.77359E-01-1.12140E-01-1.22709E+01
 -1      4298 3.60238E-01-9.14811E-02-8.53092E+00
 -1      4299 3.12785E-01-9.73012E-02-7.08945E+00
 -1      4300 2.35782E-01-9.06523E-02-3.42847E+00
 -1      4301 1.77845E-02-3.93240E-02-1.63495E+00
 -1      4302 5.39649E-02-2.49850E-02-4.70039E-01
 -1      4303 0.00000E+00 0.00000E+00 0.00000E+00
 -1      4304-2.00751E-01-4.13968E-05-1.49819E+00
 -1      4305-3.71520E-01-2.52222E-02-8.11543E+00
 -1      4306-3.94960E-01-3.40299E-02-9.05528E+00
 -1      4307-3.43808E-01-7.04055E-02-1.27421E+01
 -1      4308-2.87473E-01-9.82350E-02-1.52407E+01
 -1      4309-2.33236E-01-1.13588E-01-1.60141E+01
 -1      4310-8.93396E-02-1.25416E-01-1.77429E+01
 -1      4311 3.19117E-01-5.30619E-02-4.86106E+00
 -1      4312 2.01125E-01-2.03711E-02-1.71543E+00
 -1      4313 0.00000E+00 0.00000E+00 0.00000E+00
 -1      4314-2.37434E-01-2.72514E-03-2.25628E+00
 -1      4315-2.50287E-01-7.90748E-03-2.44814E+00
 -1      4316-3.60145E-01-5.96399E-02-1.18525E+01
 -1      4317-2.98250E-01-8.81387E-02-1.49625E+01
 -1      4318 9.96689E-02-1.34752E-01-1.75144E+01
 -1      4319 2.53031E-01-1.15571E-01-1.52809E+01
 -1      4320 3.36989E-01-6.73546E-02-5.72485E+00
 -1      4321-5.70429E-02-1.15075E-01-1.76115E+01
 -1      4322-1.06714E-01-9.25995E-02-1.77154E+01
 -1      4323 1.97809E-01-5.03187E-02-1.84922E+00
 -1      4324 4.49205E-02-1.00586E-02-5.56952E-01
 -1      4325 0.00000E+00 0.00000E+00 0.00000E+00
 -1      4326 0.00000E+00 0.00000E+00 0.00000E+00
 -1      4327-7.05377E-02-3.64085E-02-3.56322E-01
 -1      4328-2.53353E-01-2.04441E-02-5.45726E+00
 -1      4329-3.06800E-01-1.57781E-02-5.91590E+00
 -1      4330-1.43962E-01-5.89518E-02-1.17767E+01
 -1      4331-2.52585E-01-4.97613E-02-1.21709E+01
 -1      4332-1.90667E-01-6.13468E-02-1.34336E+01
 -1      4333-2.09856E-01-7.11998E-02-1.54867E+01
 -1      4334-2.64686E-01-6.77044E-02-1.64105E+01
 -1      4335 1.87334E-02-1.10243E-01-1.80433E+01
 -1      4336 3.00952E-01-1.04439E-01-1.17871E+01
 -1      4337 1.02821E-01-7.04934E-02-5.95899E+00
 -1      4338 1.83573E-01-6.03291E-02-2.42661E+00
 -1      4339-2.65592E-01-3.72215E-02-7.85786E+00
 -1      4340-3.09019E-01-3.28608E-02-7.75897E+00
 -1      4341-2.32247E-01-7.11029E-02-1.64446E+01
 -1      4342-1.08879E-01-1.02492E-01-1.75011E+01
 -1      4343 1.64507E-01-9.79208E-02-1.50241E+01
 -1      4344 5.20692E-02-9.62079E-02-9.40726E+00
 -1      4345 2.03573E-01-5.08594E-02-2.88340E+00
 -1      4346 7.34566E-02-1.06424E-02-6.20073E-01
 -1      4347 0.00000E+00 0.00000E+00 0.00000E+00
 -1      4348 0.00000E+00 0.00000E+00 0.00000E+00
 -1      4349-2.75734E-02-2.74846E-02-1.70765E-01
 -1      4350-5.56134E-02-1.38969E-02-5.02767E-01
 -1      4351-7.44148E-02-1.45445E-02-5.33708E-01
 -1      4352-2.04063E-01-3.69879E-02-2.34000E+00
 -1      4353-1.54902E-01-9.01210E-02-1.50495E+01
 -1      4354-1.99122E-01-8.13624E-02-1.49618E+01
 -1      4355-1.17798E-01-1.31718E-01-1.71763E+01
 -1      4356-4.45805E-02-1.15245E-01-1.80946E+01
 -1      4357 8.80267E-02-1.03030E-01-1.76565E+01
 -1      4358 2.43706E-01-9.89393E-02-1.21858E+01
 -1      4359 2.91796E-01-9.43564E-02-9.86266E+00
 -1      4360 2.59482E-01-9.31587E-02-9.96111E+00
 -1      4361 2.60111E-01-7.16024E-02-6.18885E+00
 -1      4362-3.44169E-02-2.56052E-02-1.12953E-01
 -1      4363-7.21062E-02-1.86098E-02-3.99475E-01
 -1      4364-1.50717E-01-3.48892E-02-1.47428E+00
 -1      4365-1.26518E-01-1.16264E-02-4.62548E+00
 -1      4366-2.71175E-01-3.34671E-02-9.25836E+00
 -1      4367-2.38509E-01-3.70150E-02-9.80309E+00
 -1      4368-1.72646E-01-5.81804E-02-1.30329E+01
 -1      4369-2.55677E-01-7.03715E-02-1.62705E+01
 -1      4370 2.95661E-02-1.03331E-01-1.80332E+01
 -1      4371 6.22228E-02-1.12973E-01-1.75502E+01
 -1      4372 7.18670E-02-1.22282E-01-1.74721E+01
 -1      4373 1.33314E-01-1.05979E-01-1.63743E+01
 -1      4374 9.84257E-02-9.41131E-02-1.61320E+01
 -1      4375 1.48612E-01-9.83097E-02-1.51548E+01
 -1      4376 2.03844E-01-1.01093E-01-1.33780E+01
 -1      4377 1.18113E-01-1.01124E-01-1.30854E+01
 -1      4378 2.21267E-01-9.16388E-02-8.48266E+00
 -1      4379 2.54181E-01-8.96036E-02-8.36859E+00
 -1      4380 1.22848E-01-6.86619E-02-4.80166E+00
 -1      4381 2.27586E-01-6.75689E-02-4.70567E+00
 -1      4382 0.00000E+00 0.00000E+00 0.00000E+00
 -1      4383 0.00000E+00 0.00000E+00 0.00000E+00
 -1      4384 0.00000E+00 0.00000E+00 0.00000E+00
 -1      4385-2.91776E-02-2.20896E-02-1.48969E-01
 -1      4386-6.72564E-02-1.68928E-02-4.54819E-01
 -1      4387-1.37361E-01-2.89685E-02-1.64054E+00
 -1      4388-1.52476E-01-3.26760E-02-2.53984E+00
 -1      4389-1.44468E-01-2.74496E-02-2.77159E+00
 -1      4390-2.14884E-01-1.90246E-02-5.92607E+00
 -1      4391-2.26614E-01-3.59946E-02-7.94605E+00
 -1      4392-2.87424E-01-3.55598E-02-9.55235E+00
 -1      4393-2.63630E-01-5.24716E-02-1.15286E+01
 -1      4394-2.50687E-01-5.47060E-02-1.18506E+01
 -1      4395-8.18364E-02-8.79460E-02-1.50503E+01
 -1      4396-2.33125E-01-7.75176E-02-1.52382E+01
 -1      4397-4.57943E-02-1.07935E-01-1.79862E+01
 -1      4398-3.10314E-02-1.20738E-01-1.80727E+01
 -1      4399 2.00477E-01-1.01494E-01-1.17661E+01
 -1      4400 2.23869E-01-9.50565E-02-9.72261E+00
 -1      4401 2.79026E-01-8.71119E-02-8.12615E+00
 -1      4402 2.74119E-01-7.90943E-02-5.86804E+00
 -1      4403 1.78832E-01-5.17333E-02-2.67172E+00
 -1      4404 1.60296E-01-4.61029E-02-1.57879E+00
 -1      4405 2.05552E-02-1.23995E-03-1.40366E-01
 -1      4406 0.00000E+00 0.00000E+00 0.00000E+00
 -1      4407 0.00000E+00 0.00000E+00 0.00000E+00
 -1      4408-3.17441E-01-1.00523E-02-4.25099E+00
 -1      4409 3.06157E-01-1.04420E-01-1.34269E+01
 -1      4410 3.50649E-01-1.03358E-01-9.77223E+00
 -1      4411 0.00000E+00 0.00000E+00 0.00000E+00
 -1      4412 0.00000E+00 0.00000E+00 0.00000E+00
 -1      4413-3.77980E-02-2.91376E-03-1.67235E-01
 -1      4414-5.15610E-02-4.86104E-03-4.98823E-01
 -1      4415-4.56132E-02-1.26910E-03-4.32710E-01
 -1      4416-2.59376E-02-6.43693E-03-5.67832E-01
 -1      4417-8.42761E-02-1.28294E-02-5.68733E-01
 -1      4418-1.10706E-01-7.90144E-02-8.55246E-01
 -1      4419-5.07998E-02-1.27214E-02-1.39781E+00
 -1      4420-9.08104E-02-1.80475E-02-1.53567E+00
 -1      4421-1.55037E-01-2.77173E-02-2.41591E+00
 -1      4422-1.98168E-01-6.52744E-02-3.37316E+00
 -1      4423-2.19237E-01-1.70929E-02-4.64849E+00
 -1      4424-1.88701E-01-3.21000E-02-7.95688E+00
 -1      4425-1.60394E-01-3.91824E-02-9.30333E+00
 -1      4426-2.54563E-01-5.14995E-02-1.17010E+01
 -1      4427-3.01317E-01-6.07110E-02-1.30238E+01
 -1      4428-2.41542E-01-3.11692E-02-1.42802E+01
 -1      4429-2.08053E-01-8.03882E-02-1.50880E+01
 -1      4430-1.91337E-01-7.77932E-02-1.48920E+01
 -1      4431-9.50460E-02-1.00225E-01-1.60395E+01
 -1      4432-2.09512E-01-8.75205E-02-1.62471E+01
 -1      4433-1.37932E-01-6.78833E-03-1.70906E+01
 -1      4434-5.04453E-02-1.18563E-01-1.74443E+01
 -1      4435-9.47801E-02-1.07033E-01-1.75238E+01
 -1      4436-7.66212E-02-1.02205E-01-1.79225E+01
 -1      4437-7.19006E-02-1.07394E-01-1.79632E+01
 -1      4438 1.76270E-02-1.09163E-01-1.78734E+01
 -1      4439 5.41769E-02-1.18926E-01-1.74981E+01
 -1      4440 4.90991E-02-1.15831E-01-1.75730E+01
 -1      4441 6.40320E-02-1.19436E-01-1.73981E+01
 -1      4442 8.55494E-02-5.46366E-02-1.70951E+01
 -1      4443 1.38276E-01-1.06863E-01-1.63371E+01
 -1      4444 1.09180E-01-1.10686E-01-1.61845E+01
 -1      4445 1.33718E-01-1.11384E-01-1.60410E+01
 -1      4446 1.21736E-01-1.05923E-01-1.53956E+01
 -1      4447 1.55280E-01-1.04468E-01-1.30035E+01
 -1      4448 2.08114E-01-9.99477E-02-1.17796E+01
 -1      4449 1.36659E-01-1.03722E-01-1.20870E+01
 -1      4450 2.55425E-01-1.07063E-01-9.92943E+00
 -1      4451 2.92414E-01-9.94385E-02-9.52586E+00
 -1      4452 2.53909E-01-8.22114E-02-6.17882E+00
 -1      4453 2.23187E-01-7.90455E-02-5.97618E+00
 -1      4454 2.59768E-01-7.68225E-02-5.55577E+00
 -1      4455 1.55140E-01-6.86115E-02-4.72939E+00
 -1      4456 1.98491E-01-6.18189E-02-2.72518E+00
 -1      4457 5.48231E-02-6.48356E-02-1.83070E+00
 -1      4458 1.75655E-01-5.46577E-02-1.65487E+00
 -1      4459 1.68189E-01-4.85608E-02-1.51945E+00
 -1      4460 5.62386E-02-2.25772E-02-5.53388E-01
 -1      4461 6.87236E-02-6.62073E-03-1.64900E-01
 -1      4462 4.49484E-02 4.75320E-03-1.12391E-01
 -1      4463 5.66614E-02-7.72532E-04-1.20948E-01
 -1      4464 0.00000E+00 0.00000E+00 0.00000E+00
 -1      4465 0.00000E+00 0.00000E+00 0.00000E+00
 -1      4466 0.00000E+00 0.00000E+00 0.00000E+00
 -1      4467-3.80986E-02-2.50128E-02-2.42945E+00
 -1      4468-9.04208E-02-3.33083E-02-2.82707E+00
 -1      4469-1.95184E-01-5.65686E-03-4.18363E+00
 -1      4470-2.01254E-01-6.44260E-03-4.22356E+00
 -1      4471-2.51401E-01-1.60342E-02-5.48671E+00
 -1      4472-1.24640E-01-2.31908E-02-5.84599E+00
 -1      4473-1.63219E-01-4.95533E-02-1.14548E+01
 -1      4474-2.88452E-01-5.89862E-02-1.21545E+01
 -1      4475-6.21241E-02-1.12677E-01-1.75455E+01
 -1      4476 6.85675E-02-9.15972E-02-1.49378E+01
 -1      4477 1.94037E-01-1.15926E-01-1.35021E+01
 -1      4478 2.03838E-01-1.06797E-01-1.21873E+01
 -1      4479 4.54419E-02-9.55723E-02-9.40378E+00
 -1      4480 2.83446E-01-8.79313E-02-8.11446E+00
 -1      4481-4.51686E-02 3.76955E-03-1.19565E-01
 -1      4482-5.80619E-02-1.02167E-02-5.50517E-01
 -1      4483-1.71190E-01-3.60866E-02-2.70543E+00
 -1      4484-6.29311E-02-1.13799E-01-1.73794E+01
 -1      4485 4.84647E-02-1.16197E-01-1.75841E+01
 -1      4486 4.02112E-02-1.21604E-01-1.74341E+01
 -1      4487 9.81075E-03-1.08769E-01-1.53574E+01
 -1      4488 1.52943E-01-8.80971E-02-1.50599E+01
 -1      4489 1.36850E-01-6.42477E-02-2.84331E+00
 -1      4490 6.35945E-02-2.42635E-02-5.98128E-01
 -1      4491-2.44825E-01-4.53706E-03-4.32418E+00
 -1      4492-4.78117E-02-2.12579E-02-5.65767E+00
 -1      4493-3.22314E-01-2.94627E-02-7.89943E+00
 -1      4494-6.54097E-02-1.05267E-01-1.61710E+01
 -1      4495-3.00027E-02-1.23479E-01-1.78799E+01
 -1      4496 1.63987E-01-1.17095E-01-1.34177E+01
 -1      4497 1.97358E-01-9.84759E-02-1.17837E+01
 -1      4498 1.66271E-01-9.97539E-02-9.52413E+00
 -1      4499 9.87498E-02-7.72803E-02-5.79198E+00
 -1      4500 4.28156E-02-1.02555E-03-1.48429E-01
 -1      4501-2.18523E-01-4.26781E-02-9.62245E+00
 -1      4502 1.65555E-01-5.22677E-02-2.45416E+00
 -1      4503 5.47746E-02-2.25068E-02-5.21813E-01
 -1      4504-4.67795E-02 1.36437E-03-2.14318E-01
 -1      4505-9.33339E-02-1.10154E-01-1.75258E+01
 -1      4506 7.39496E-02-1.15426E-01-1.75683E+01
 -1      4507 1.95893E-01-1.04418E-01-1.53516E+01
 -1      4508 1.57044E-01-1.07574E-01-1.51436E+01
 -1      4509 2.29242E-01-1.03372E-01-9.41356E+00
 -1      4510 2.80633E-01-7.28018E-02-5.73797E+00
 -1      4511 1.09177E-01-7.21532E-02-4.81584E+00
 -1      4512 0.00000E+00 0.00000E+00 0.00000E+00
 -1      4513-5.20460E-02 6.48163E-03-5.37224E-01
 -1      4514-1.45672E-01-6.22502E-02-1.15691E+01
 -1      4515-2.30630E-01-6.16999E-02-1.20534E+01
 -1      4516-2.96390E-01-6.59169E-02-1.33288E+01
 -1      4517-5.08262E-02-1.21759E-01-1.74085E+01
 -1      4518 1.97863E-02-1.21311E-01-1.78861E+01
 -1      4519 2.86560E-02-1.14757E-01-1.78054E+01
 -1      4520 1.37629E-02-1.28665E-01-1.74471E+01
 -1      4521 2.16507E-01-7.28906E-02-5.59040E+00
 -1      4522 2.17100E-02-2.53563E-02-4.87621E-01
 -1      4523 0.00000E+00 0.00000E+00 0.00000E+00
 -1      4524-8.90486E-02 2.91187E-03-4.00929E-01
 -1      4525-7.93158E-02 9.18834E-03-5.70542E-01
 -1      4526-1.59999E-01-2.57452E-02-2.80145E+00
 -1      4527-5.08526E-02-3.50486E-02-8.15138E+00
 -1      4528-2.39901E-01-5.82705E-02-1.14437E+01
 -1      4529-8.69405E-02-9.26785E-02-1.50355E+01
 -1      4530-1.81432E-01-8.41586E-02-1.48314E+01
 -1      4531-1.80059E-01-8.59201E-02-1.53304E+01
 -1      4532-1.81595E-01-9.17775E-02-1.63214E+01
 -1      4533-9.66872E-02-1.22039E-01-1.73323E+01
 -1      4534-1.16982E-01-1.07661E-01-1.75468E+01
 -1      4535 7.72848E-02-1.20278E-01-1.75785E+01
 -1      4536 6.58354E-02-1.29290E-01-1.73697E+01
 -1      4537 1.44665E-01-9.97935E-02-1.49489E+01
 -1      4538 8.89269E-02-7.44162E-02-5.96771E+00
 -1      4539 2.32158E-01-7.55487E-02-6.18387E+00
 -1      4540 8.05000E-02-4.86211E-02-2.74704E+00
 -1      4541 1.91848E-01-4.54372E-02-2.88853E+00
 -1      4542 8.31318E-02-2.05264E-02-5.76609E-01
 -1      4543-2.04243E-01-2.18088E-02-2.37556E+00
 -1      4544-1.63882E-01-1.67912E-02-5.53923E+00
 -1      4545-2.15481E-01-2.95211E-02-8.27990E+00
 -1      4546-1.45031E-01-1.16762E-01-1.73450E+01
 -1      4547-4.46848E-02-1.16815E-01-1.79092E+01
 -1      4548 1.86569E-01-1.10106E-01-1.29528E+01
 -1      4549 2.33068E-01-1.02901E-01-1.21454E+01
 -1      4550 3.40861E-02-9.10216E-04-1.29084E-01
 -1      4551 0.00000E+00 0.00000E+00 0.00000E+00
 -1      4552-5.17394E-02-1.66500E-02-1.28824E-01
 -1      4553-5.15835E-02-7.85759E-03-1.56609E-01
 -1      4554-2.33514E-01-3.04019E-03-4.25852E+00
 -1      4555-2.84435E-01-3.87585E-02-9.18913E+00
 -1      4556-2.12063E-01-6.05153E-02-1.28525E+01
 -1      4557-1.32632E-01-8.47633E-02-1.48880E+01
 -1      4558-1.68337E-01-9.57694E-02-1.62483E+01
 -1      4559 2.59346E-02-1.18064E-01-1.79099E+01
 -1      4560 2.40353E-02-1.20892E-01-1.78500E+01
 -1      4561 6.66510E-02-1.25808E-01-1.74692E+01
 -1      4562 8.79399E-02-1.26784E-01-1.64135E+01
 -1      4563 9.98019E-02-1.25324E-01-1.61731E+01
 -1      4564 2.28861E-01-1.11864E-01-1.34165E+01
 -1      4565 1.89842E-01-1.05843E-01-1.17312E+01
 -1      4566 2.18544E-01-9.32923E-02-8.43989E+00
 -1      4567 2.11424E-01-6.98091E-02-4.70965E+00
 -1      4568 1.02595E-01-4.80618E-02-2.54086E+00
 -1      4569 1.03826E-01-1.34541E-02-5.11047E-01
 -1      4570 0.00000E+00 0.00000E+00 0.00000E+00
 -1      4571 0.00000E+00 0.00000E+00 0.00000E+00
 -1      4572 0.00000E+00 0.00000E+00 0.00000E+00
 -1      4573-7.89977E-02 3.92667E-03-4.80842E-01
 -1      4574-7.52274E-02-2.14525E-02-1.67827E+00
 -1      4575-1.61930E-01-2.39709E-02-2.57647E+00
 -1      4576-1.66642E-01-4.18691E-02-9.36383E+00
 -1      4577-3.23179E-01-3.89356E-02-9.57611E+00
 -1      4578-2.53262E-01-6.10435E-02-1.17268E+01
 -1      4579-1.72320E-01-6.67017E-02-1.30254E+01
 -1      4580-5.85896E-02-1.09971E-01-1.78177E+01
 -1      4581-4.18055E-02-1.16899E-01-1.78793E+01
 -1      4582 1.77667E-01-1.03792E-01-1.51389E+01
 -1      4583 2.41252E-01-1.10617E-01-9.93392E+00
 -1      4584 2.01661E-01-1.06575E-01-9.70420E+00
 -1      4585 1.61825E-01-9.29559E-02-8.24841E+00
 -1      4586 1.45549E-01-4.31984E-02-1.56662E+00
 -1      4587 3.60873E-02-4.62511E-03-1.63366E-01
 -1      4588 2.49220E-02-3.10604E-03-1.16142E-01
 -1      4589-2.99017E-01-1.98590E-03-4.21945E+00
 -1      4590 3.28549E-01-1.02054E-01-9.75276E+00
 -1      4591-3.42102E-01-4.59555E-02-9.65800E+00
 -1      4592 0.00000E+00 0.00000E+00 0.00000E+00
 -1      4593 0.00000E+00 0.00000E+00 0.00000E+00
 -1      4594 0.00000E+00 0.00000E+00 0.00000E+00
 -1      4595-1.10764E-02 8.88553E-04-1.48839E-01
 -1      4596-2.01551E-02 8.84310E-03-1.83779E-01
 -1      4597-6.83653E-02 1.71724E-03-5.16062E-01
 -1      4598-9.94238E-02-4.88564E-02-9.15419E-01
 -1      4599-9.40565E-02-4.54394E-03-1.53379E+00
 -1      4600-4.80555E-02-1.65854E-02-1.72276E+00
 -1      4601-1.77323E-01-9.36183E-03-4.14127E+00
 -1      4602-2.01060E-01-9.19647E-03-4.40364E+00
 -1      4603-1.35467E-01-1.90743E-02-5.55013E+00
 -1      4604-2.09320E-01-2.52518E-02-5.84839E+00
 -1      4605-2.69478E-01-2.73616E-02-6.01391E+00
 -1      4606-2.34110E-01-2.73159E-02-7.99592E+00
 -1      4607-2.57437E-01-5.96359E-02-1.16996E+01
 -1      4608-1.26253E-01-6.31209E-02-1.13760E+01
 -1      4609-1.75632E-01-9.28730E-02-1.49869E+01
 -1      4610-1.85039E-01-8.82486E-02-1.47980E+01
 -1      4611-1.90560E-01-9.46797E-02-1.52194E+01
 -1      4612-1.88359E-01-1.11113E-01-1.61457E+01
 -1      4613-8.45410E-02-1.08186E-01-1.59631E+01
 -1      4614-1.80152E-01-1.18092E-01-1.62871E+01
 -1      4615-5.09932E-02-1.26934E-01-1.73014E+01
 -1      4616-9.70238E-02-1.22650E-01-1.73779E+01
 -1      4617-7.07075E-02-1.23700E-01-1.77997E+01
 -1      4618-6.78611E-02-1.26472E-01-1.78499E+01
 -1      4619-2.04366E-02-1.14265E-01-1.78914E+01
 -1      4620-1.18196E-03-1.20885E-01-1.78477E+01
 -1      4621 7.04468E-02-1.25986E-01-1.74538E+01
 -1      4622 2.54336E-02-1.27760E-01-1.75371E+01
 -1      4623 7.77849E-02-1.23701E-01-1.73652E+01
 -1      4624 1.38799E-01-1.15051E-01-1.62268E+01
 -1      4625 4.28491E-02-1.11693E-01-1.60913E+01
 -1      4626 1.28546E-01-1.17379E-01-1.60063E+01
 -1      4627 1.50102E-01-1.07087E-01-1.49250E+01
 -1      4628 1.41658E-01-1.08176E-01-1.50891E+01
 -1      4629 1.73275E-01-7.62651E-02-1.43299E+01
 -1      4630 2.16470E-01-1.22718E-01-1.35076E+01
 -1      4631 1.96018E-01-1.15218E-01-1.32312E+01
 -1      4632 1.20431E-01-1.06734E-01-1.20602E+01
 -1      4633 1.95190E-01-1.01907E-01-1.17529E+01
 -1      4634 2.29827E-01-1.07646E-01-9.91074E+00
 -1      4635 1.83143E-01-1.03366E-01-9.68973E+00
 -1      4636 1.93870E-01-9.14697E-02-8.34070E+00
 -1      4637 2.23323E-01-7.31247E-02-5.96685E+00
 -1      4638 1.16212E-01-7.85954E-02-6.19708E+00
 -1      4639 1.18478E-01-5.79712E-02-4.72693E+00
 -1      4640 1.58141E-01-4.71025E-02-2.70981E+00
 -1      4641 1.53953E-01-3.94329E-02-2.48160E+00
 -1      4642 4.22162E-02-5.06961E-02-1.78201E+00
 -1      4643 1.63338E-01-3.41305E-02-1.61501E+00
 -1      4644 1.49227E-01-2.54275E-02-1.47082E+00
 -1      4645 5.31569E-02-7.30889E-02-8.77225E-01
 -1      4646 2.83349E-02-2.50710E-02-5.08039E-01
 -1      4647 5.56290E-02-2.04452E-02-4.42341E-01
 -1      4648-9.70205E-03-7.67474E-03-1.10010E-01
 -1      4649 0.00000E+00 0.00000E+00 0.00000E+00
 -1      4650 0.00000E+00 0.00000E+00 0.00000E+00
 -1      4651 3.01230E-04 3.01128E-03-1.81369E-01
 -1      4652-6.08525E-02 1.42971E-02-3.99670E-01
 -1      4653-3.33513E-02-2.22472E-02-2.41255E+00
 -1      4654-1.62740E-01-1.81332E-02-2.59748E+00
 -1      4655-1.54508E-01-1.78499E-02-2.79100E+00
 -1      4656-1.92084E-01-1.13272E-02-5.44730E+00
 -1      4657-8.38436E-02-5.25814E-02-9.70056E+00
 -1      4658-4.86979E-02-8.90676E-02-1.34504E+01
 -1      4659-1.99239E-01-9.85267E-02-1.53095E+01
 -1      4660-3.32724E-02-1.26901E-01-1.74366E+01
 -1      4661 2.20171E-02-1.10444E-01-1.53308E+01
 -1      4662 1.75209E-01-1.21065E-01-1.34999E+01
 -1      4663 2.32258E-01-6.63253E-02-5.54129E+00
 -1      4664-1.68606E-01-1.87486E-02-2.67382E+00
 -1      4665-6.51223E-02-1.24533E-01-1.72580E+01
 -1      4666 5.64042E-02-1.35113E-01-1.75681E+01
 -1      4667 1.40629E-01-5.63382E-02-2.86191E+00
 -1      4668 1.42509E-01-3.26807E-02-2.41652E+00
 -1      4669 2.67334E-02-2.59733E-02-5.17378E-01
 -1      4670-2.09680E-02 1.02369E-02-1.07031E-01
 -1      4671-2.09465E-02-7.04697E-03-5.05806E-01
 -1      4672-1.84193E-01-2.52738E-02-5.82812E+00
 -1      4673-2.00264E-01-2.57229E-02-7.93103E+00
 -1      4674-3.85011E-02-9.24922E-02-1.49807E+01
 -1      4675 2.75205E-02-1.18667E-01-1.78716E+01
 -1      4676 7.03395E-03-1.25532E-01-1.74578E+01
 -1      4677 1.63372E-01-1.05652E-01-1.50450E+01
 -1      4678 2.22064E-01-1.18212E-01-1.33479E+01
 -1      4679 1.79131E-01-1.00213E-01-1.17626E+01
 -1      4680-1.61407E-02-7.69615E-03-1.16171E-01
 -1      4681 3.31837E-03 9.62982E-04-9.40553E-02
 -1      4682 0.00000E+00 0.00000E+00 0.00000E+00
 -1      4683-1.02021E-01-1.19968E-01-1.73804E+01
 -1      4684-2.78528E-02-1.31548E-01-1.77866E+01
 -1      4685 1.78379E-01-1.18988E-01-1.54470E+01
 -1      4686 2.56757E-02-9.24097E-02-9.38610E+00
 -1      4687 1.36193E-01-4.64437E-02-4.36414E+00
 -1      4688 1.13035E-01-5.40687E-02-2.71407E+00
 -1      4689-1.28121E-01-1.00535E-02-1.75050E+00
 -1      4690-1.87477E-02-1.46300E-02-1.26768E-01
 -1      4691-1.87644E-02-1.23241E-02-4.16829E-01
 -1      4692-4.37128E-02-1.91414E-02-1.64966E+00
 -1      4693-4.77746E-02-2.95089E-02-2.39442E+00
 -1      4694-4.19954E-02-1.48925E-02-4.55423E+00
 -1      4695-1.63572E-01-1.77664E-02-4.26733E+00
 -1      4696-6.12981E-02-1.90276E-02-5.78947E+00
 -1      4697-1.47124E-01-1.68335E-02-6.12678E+00
 -1      4698-5.95230E-02-3.81662E-02-8.20161E+00
 -1      4699 8.24350E-02-4.60210E-02-9.28007E+00
 -1      4700-7.10634E-02-4.20317E-02-9.56700E+00
 -1      4701-7.66817E-02-6.58355E-02-1.31633E+01
 -1      4702-7.79513E-02-9.33738E-02-1.52552E+01
 -1      4703-1.08175E-01-9.17980E-02-1.64438E+01
 -1      4704-2.17205E-02-1.19518E-01-1.79683E+01
 -1      4705-1.80230E-02-1.26836E-01-1.80341E+01
 -1      4706-1.04356E-02-1.18525E-01-1.79915E+01
 -1      4707-4.54896E-03-1.11032E-01-1.79389E+01
 -1      4708-6.90799E-03-1.21928E-01-1.76402E+01
 -1      4709-2.42939E-03-1.34087E-01-1.74944E+01
 -1      4710 2.72043E-02-1.09591E-01-1.62448E+01
 -1      4711 3.22489E-02-1.07952E-01-1.31739E+01
 -1      4712 5.21343E-02-1.03252E-01-1.19122E+01
 -1      4713 1.34113E-01-1.03536E-01-1.15721E+01
 -1      4714 8.58977E-02-9.66200E-02-9.61185E+00
 -1      4715 1.28970E-01-8.63072E-02-7.88858E+00
 -1      4716 6.28535E-02-8.67999E-02-8.13612E+00
 -1      4717 4.61293E-02-6.55241E-02-4.61309E+00
 -1      4718 1.36842E-01-6.58959E-02-4.35864E+00
 -1      4719-9.79297E-04-5.00020E-02-2.60006E+00
 -1      4720 1.17121E-01-5.32254E-02-2.73481E+00
 -1      4721 2.52143E-02-3.87500E-02-1.58695E+00
 -1      4722 1.29328E-02-1.17172E-02-4.77939E-01
 -1      4723 1.90353E-02-4.96086E-03-2.32291E-01
 -1      4724 1.60879E-02-9.06974E-04-1.96487E-01
 -1      4725 2.74895E-02-1.80941E-03-1.44717E-01
 -1      4726-7.46245E-02-2.56401E-02-1.75531E+00
 -1      4727-1.73886E-01-1.57247E-02-4.11229E+00
 -1      4728-1.06537E-01-4.11833E-02-9.89623E+00
 -1      4729-1.70046E-01-6.72619E-02-1.35752E+01
 -1      4730-3.62017E-02-1.22761E-01-1.76833E+01
 -1      4731 9.02196E-02-4.46977E-02-1.85577E+00
 -1      4732 0.00000E+00 0.00000E+00 0.00000E+00
 -1      4733 0.00000E+00 0.00000E+00 0.00000E+00
 -1      4734-7.93725E-03-1.78275E-02-8.81834E-02
 -1      4735 1.61828E-02-3.94894E-02-8.19569E+00
 -1      4736-1.64024E-02-1.08193E-01-1.65172E+01
 -1      4737-3.75625E-02-1.16935E-01-1.74478E+01
 -1      4738-2.16143E-02-1.14309E-01-1.80655E+01
 -1      4739 1.47956E-02-6.22237E-02-4.19641E+00
 -1      4740 1.00390E-02-1.09091E-02-6.54405E-01
 -1      4741-4.52289E-02-2.03782E-02-1.38285E+00
 -1      4742-9.49234E-02-2.05322E-02-5.58896E+00
 -1      4743-9.16180E-02-9.50592E-02-1.53725E+01
 -1      4744-6.27414E-02-1.15890E-01-1.76299E+01
 -1      4745 1.40657E-02-1.30984E-01-1.74374E+01
 -1      4746 6.28531E-02-1.11803E-01-1.65361E+01
 -1      4747 1.66125E-01-1.03862E-01-1.36146E+01
 -1      4748 2.74601E-02-7.20969E-02-5.67137E+00
 -1      4749 6.71531E-02-5.19639E-02-2.95437E+00
 -1      4750 1.26081E-02-5.05504E-02-2.50478E+00
 -1      4751 2.80741E-02-3.84235E-02-1.45637E+00
 -1      4752 3.73082E-02-1.31994E-02-4.92280E-01
 -1      4753-2.87764E-02-1.01421E-02-5.37333E-01
 -1      4754-5.20908E-02-6.22947E-02-1.15937E+01
 -1      4755-7.16510E-02-6.17154E-02-1.20523E+01
 -1      4756-3.56756E-02-1.18354E-01-1.74972E+01
 -1      4757 3.48407E-02-1.05168E-01-1.54207E+01
 -1      4758 1.02572E-01-7.52424E-02-6.03022E+00
 -1      4759 3.96188E-03-5.22958E-02-2.84358E+00
 -1      4760 1.68597E-02-1.36308E-02-5.97257E-01
 -1      4761 0.00000E+00 0.00000E+00 0.00000E+00
 -1      4762 0.00000E+00 0.00000E+00 0.00000E+00
 -1      4763 0.00000E+00 0.00000E+00 0.00000E+00
 -1      4764-2.13873E-02-3.68475E-04-1.85104E-01
 -1      4765 6.51054E-02-2.71601E-02-2.74321E+00
 -1      4766-3.91333E-02-4.10574E-02-8.27425E+00
 -1      4767-1.17436E-01-6.92910E-02-1.29577E+01
 -1      4768-9.24420E-03-9.26554E-02-1.48631E+01
 -1      4769 5.92587E-03-1.18496E-01-1.64264E+01
 -1      4770-2.13262E-02-1.25945E-01-1.73609E+01
 -1      4771-3.48312E-02-1.21739E-01-1.78564E+01
 -1      4772-3.83692E-02-1.25020E-01-1.79892E+01
 -1      4773 8.50016E-02-1.08721E-01-1.64826E+01
 -1      4774 1.07293E-02-1.04897E-01-9.87140E+00
 -1      4775 1.17986E-01-9.06822E-02-8.34006E+00
 -1      4776 2.04258E-02-6.02592E-02-2.82934E+00
 -1      4777 7.32547E-02-6.52004E-02-2.95819E+00
 -1      4778-3.83349E-02-4.24400E-02-1.56529E+00
 -1      4779-4.18136E-03-3.90087E-02-1.46791E+00
 -1      4780 2.69696E-02-2.08991E-02-6.25729E-01
 -1      4781 4.13911E-02-5.74661E-03-2.11775E-01
 -1      4782 0.00000E+00 0.00000E+00 0.00000E+00
 -1      4783-2.78127E-02 2.38219E-03-4.24881E-01
 -1      4784-1.95344E-01-2.80935E-02-6.13546E+00
 -1      4785-2.04906E-01-4.39150E-02-9.89183E+00
 -1      4786-5.47429E-02-6.35704E-02-1.19893E+01
 -1      4787-7.00828E-02-9.14783E-02-1.35221E+01
 -1      4788-2.18240E-02-1.27962E-01-1.79738E+01
 -1      4789 1.01531E-01-1.21957E-01-1.36083E+01
 -1      4790 1.83482E-01-9.73186E-02-1.15283E+01
 -1      4791 4.87346E-02-8.87301E-02-8.24934E+00
 -1      4792 1.22357E-01-8.99027E-02-7.74973E+00
 -1      4793 1.08675E-01-4.88566E-02-4.20943E+00
 -1      4794 5.78421E-02-2.14004E-02-4.50788E-01
 -1      4795 0.00000E+00 0.00000E+00 0.00000E+00
 -1      4796-1.79197E-02 6.26335E-03-1.07798E-01
 -1      4797-6.77440E-02-1.37068E-02-1.44812E+00
 -1      4798-5.02245E-02-7.54524E-02-1.30721E+01
 -1      4799-3.92882E-03-1.20751E-01-1.79503E+01
 -1      4800-9.74652E-03-1.17595E-01-1.78545E+01
 -1      4801 2.28493E-02-1.15929E-01-1.63423E+01
 -1      4802 4.50298E-02-6.25120E-02-4.62790E+00
 -1      4803 1.37190E-01-5.38027E-02-4.37474E+00
 -1      4804 0.00000E+00 0.00000E+00 0.00000E+00
 -1      4805-7.27358E-02-1.77304E-02-1.65746E+00
 -1      4806-9.82660E-02-3.00474E-02-7.69583E+00
 -1      4807-2.40482E-02-3.95623E-02-8.12751E+00
 -1      4808-4.03056E-02-1.20179E-01-1.74403E+01
 -1      4809 2.66742E-02-1.09623E-01-1.31847E+01
 -1      4810 0.00000E+00 0.00000E+00 0.00000E+00
 -1      4811-8.01894E-03 8.07898E-04-4.80188E-01
 -1      4812-8.89657E-02-5.94757E-02-1.17780E+01
 -1      4813-3.88834E-02-9.49636E-02-1.52633E+01
 -1      4814-2.38673E-02-1.31397E-01-1.74938E+01
 -1      4815 6.78124E-02-5.83819E-02-2.67456E+00
 -1      4816 3.33985E-02-4.19923E-03-1.80488E-01
 -1      4817 0.00000E+00 0.00000E+00 0.00000E+00
 -1      4818 0.00000E+00 0.00000E+00 0.00000E+00
 -1      4819 0.00000E+00 0.00000E+00 0.00000E+00
 -1      4820-2.66323E-02-1.96386E-03-4.61374E-01
 -1      4821-4.56952E-02-2.21261E-02-1.68186E+00
 -1      4822-1.10849E-01-1.63853E-02-5.75543E+00
 -1      4823-5.32903E-02-4.56214E-02-9.37526E+00
 -1      4824 4.83291E-03-6.66274E-02-1.18575E+01
 -1      4825-4.90028E-02-7.26157E-02-1.30453E+01
 -1      4826-4.06133E-02-1.09921E-01-1.60931E+01
 -1      4827-2.19441E-02-1.18651E-01-1.74948E+01
 -1      4828-3.02954E-02-1.18561E-01-1.77978E+01
 -1      4829-1.99786E-02-1.21190E-01-1.78663E+01
 -1      4830 5.65697E-03-1.18137E-01-1.61580E+01
 -1      4831 5.08295E-02-1.21878E-01-1.63270E+01
 -1      4832 2.07468E-02-1.09912E-01-1.53420E+01
 -1      4833 3.55700E-02-1.04826E-01-1.18515E+01
 -1      4834 1.23839E-01-1.08494E-01-1.15363E+01
 -1      4835 3.75424E-02-1.02655E-01-9.45607E+00
 -1      4836 3.45007E-02-7.05059E-02-4.63268E+00
 -1      4837 4.01808E-02-4.76485E-02-1.74075E+00
 -1      4838 3.34464E-02-4.87491E-02-1.55377E+00
 -1      4839 1.75286E-02-5.75395E-03-1.62161E-01
 -1      4840 2.12901E-02-4.96979E-03-2.04454E-01
 -1      4841-1.11599E-01-1.65064E-02-1.49633E+00
 -1      4842-8.98481E-02-4.75753E-02-9.85049E+00
 -1      4843-5.96420E-02-9.76836E-02-1.52640E+01
 -1      4844-1.94973E-02-1.18581E-01-1.79355E+01
 -1      4845-1.92949E-03-1.23049E-01-1.78119E+01
 -1      4846 1.67147E-01-1.08098E-01-1.35832E+01
 -1      4847 9.32520E-02-6.51088E-02-4.20920E+00
 -1      4848 0.00000E+00 0.00000E+00 0.00000E+00
 -1      4849 0.00000E+00 0.00000E+00 0.00000E+00
 -1      4850 1.54332E-02-1.69555E-02-1.39375E+00
 -1      4851-5.32568E-02-8.20834E-02-1.34811E+01
 -1      4852-1.69900E-02-1.16142E-01-1.59807E+01
 -1      4853-2.94270E-02-1.26551E-01-1.72915E+01
 -1      4854 9.32279E-02-1.07604E-01-9.94433E+00
 -1      4855 7.80972E-02-4.81468E-02-1.85548E+00
 -1      4856 1.21630E-02-4.87390E-02-1.45994E+00
 -1      4857-2.73913E-02-2.27801E-02-1.19988E-01
 -1      4858-3.69250E-02-6.04532E-03-1.82707E-01
 -1      4859-1.71222E-01-6.57969E-03-4.10010E+00
 -1      4860-8.39622E-03-1.27357E-02-4.50359E+00
 -1      4861-2.11045E-01-3.84157E-02-7.63702E+00
 -1      4862-5.67096E-02-1.15709E-01-1.74750E+01
 -1      4863-1.68531E-02-1.18284E-01-1.79250E+01
 -1      4864 3.74510E-02-1.09790E-01-1.31292E+01
 -1      4865 1.13323E-01-8.74887E-02-7.75119E+00
 -1      4866 5.55692E-02-7.14098E-02-5.69198E+00
 -1      4867 5.90783E-02-6.64348E-02-4.24601E+00
 -1      4868 5.71963E-02-5.55798E-02-2.94804E+00
 -1      4869 3.41887E-02-2.07432E-02-4.49851E-01
 -1      4870 8.84855E-03-2.25312E-02-4.35886E-01
 -1      4871 4.30548E-03-4.32129E-03-5.29185E-01
 -1      4872-4.13699E-02-1.66922E-02-1.48292E+00
 -1      4873 4.02571E-02-3.00849E-02-2.73249E+00
 -1      4874-6.13872E-02-6.15764E-02-1.15017E+01
 -1      4875-1.64581E-02-6.74591E-02-1.19502E+01
 -1      4876-3.75417E-02-8.04468E-02-1.33907E+01
 -1      4877-8.44570E-03-1.06829E-01-1.62563E+01
 -1      4878-1.76090E-02-1.03717E-01-1.63930E+01
 -1      4879-3.99636E-02-1.22222E-01-1.73518E+01
 -1      4880-3.35029E-02-1.30032E-01-1.74066E+01
 -1      4881 6.08043E-02-7.70166E-02-6.12269E+00
 -1      4882 1.45050E-02-3.35847E-02-6.05973E-01
 -1      4883 1.65628E-02-2.88480E-02-5.39411E-01
 -1      4884 2.99377E-02-8.94547E-02-1.33240E+01
 -1      4885 0.00000E+00 0.00000E+00 0.00000E+00
 -1      4886 0.00000E+00 0.00000E+00 0.00000E+00
 -1      4887 2.41099E-03-4.41806E-03-1.08639E-01
 -1      4888-2.95258E-02-7.72021E-04-4.42626E-01
 -1      4889 5.84050E-03-1.39216E-02-5.74139E-01
 -1      4890 2.27285E-02-5.31442E-03-1.37596E+00
 -1      4891-5.25505E-02-1.95721E-02-2.46412E+00
 -1      4892 7.39715E-02-2.24281E-02-2.74653E+00
 -1      4893-9.11315E-02-2.41909E-02-7.76710E+00
 -1      4894-4.00768E-02-3.79381E-02-8.18803E+00
 -1      4895-1.09246E-01-4.35084E-02-9.25180E+00
 -1      4896 6.18252E-02-6.66844E-02-1.14800E+01
 -1      4897-5.02790E-02-6.63837E-02-1.19175E+01
 -1      4898 5.74961E-02-9.37198E-02-1.47726E+01
 -1      4899 3.47984E-03-1.31216E-01-1.62764E+01
 -1      4900 3.82239E-02-1.33527E-01-1.63430E+01
 -1      4901-2.03994E-02-1.29220E-01-1.72250E+01
 -1      4902-1.81166E-02-1.33528E-01-1.77299E+01
 -1      4903-3.61314E-02-1.35801E-01-1.78727E+01
 -1      4904-4.55206E-03-1.24536E-01-1.78146E+01
 -1      4905-9.05675E-03-1.24482E-01-1.73542E+01
 -1      4906-2.63810E-02-1.16741E-01-1.64038E+01
 -1      4907 6.28356E-02-1.11733E-01-1.52463E+01
 -1      4908 1.83606E-02-1.17316E-01-1.34633E+01
 -1      4909 1.15791E-01-7.23277E-02-5.67684E+00
 -1      4910-2.68229E-02-6.04778E-02-2.81837E+00
 -1      4911 4.10687E-02-6.13200E-02-2.94447E+00
 -1      4912-1.30095E-02-3.10979E-02-1.49829E+00
 -1      4913-5.04841E-02-2.91785E-02-1.42638E+00
 -1      4914-4.07509E-03-2.72884E-02-5.50916E-01
 -1      4915 9.13604E-03-2.36428E-02-3.96029E-01
 -1      4916-3.36830E-02-4.76675E-02-9.33314E+00
 -1      4917-1.85749E-01-5.30992E-02-9.83250E+00
 -1      4918-9.85153E-02-7.47670E-02-1.28833E+01
 -1      4919 1.68544E-01-9.81761E-02-1.15026E+01
 -1      4920 1.76335E-01-9.25206E-02-7.75197E+00
 -1      4921 7.88572E-02-4.34375E-02-4.19147E+00
 -1      4922-9.85673E-03-5.00138E-02-2.48008E+00
 -1      4923-1.57740E-02-1.39917E-02-1.62999E-01
 -1      4924 0.00000E+00 0.00000E+00 0.00000E+00
 -1      4925-2.47970E-02-5.74290E-03-1.47630E+00
 -1      4926-1.26086E-02-1.88269E-02-2.73413E+00
 -1      4927-7.46225E-02-1.44098E-02-4.22705E+00
 -1      4928-3.57852E-02-7.81214E-02-1.30065E+01
 -1      4929-8.55507E-03-1.09638E-01-1.79247E+01
 -1      4930-2.02855E-03-1.12270E-01-1.79124E+01
 -1      4931 3.00308E-02-1.18206E-01-1.63436E+01
 -1      4932 3.28133E-02-9.19012E-02-8.23743E+00
 -1      4933 1.97028E-02-5.85785E-02-4.60189E+00
 -1      4934 0.00000E+00 0.00000E+00 0.00000E+00
 -1      4935 0.00000E+00 0.00000E+00 0.00000E+00
 -1      4936-7.60562E-02-2.26610E-02-7.66045E+00
 -1      4937-4.66739E-02-1.27513E-01-1.73290E+01
 -1      4938 6.60239E-02-1.15717E-01-1.61757E+01
 -1      4939 0.00000E+00 0.00000E+00 0.00000E+00
 -1      4940 1.85542E-02-1.80548E-02-4.56579E+00
 -1      4941-9.26347E-02-6.40243E-02-1.16918E+01
 -1      4942-1.19151E-02-9.64336E-02-1.51820E+01
 -1      4943 5.30417E-02-7.66705E-02-5.86446E+00
 -1      4944 0.00000E+00 0.00000E+00 0.00000E+00
 -1      4945-2.29782E-02-2.79444E-02-2.59319E+00
 -1      4946-7.12226E-02-9.91017E-02-1.62472E+01
 -1      4947-1.45195E-02-1.27673E-01-1.75905E+01
 -1      4948 8.99939E-03-1.06688E-01-1.52099E+01
 -1      4949-4.66184E-03-3.90429E-02-1.74973E+00
 -1      4950 5.25415E-02-1.89672E-02-4.12238E+00
 -1      4951 1.05307E-01-2.30321E-02-5.53136E+00
 -1      4952 1.03235E-01-4.37014E-02-7.70145E+00
 -1      4953 3.40415E-03-3.97195E-02-7.89212E+00
 -1      4954 1.95776E-01-5.21553E-02-9.75333E+00
 -1      4955-8.13011E-02-1.23406E-01-1.65248E+01
 -1      4956-6.13566E-02-1.13683E-01-1.36043E+01
 -1      4957-2.55802E-02-1.03032E-01-1.21227E+01
 -1      4958-3.84971E-02-8.73264E-02-8.40283E+00
 -1      4959-1.01743E-01-5.34564E-02-2.81740E+00
 -1      4960-1.44357E-02-9.45723E-03-4.00468E-01
 -1      4961-1.12288E-02-7.59704E-03-5.41973E-01
 -1      4962-4.84600E-03-2.42116E-02-2.78868E+00
 -1      4963 6.71083E-02-6.58441E-02-1.14861E+01
 -1      4964-1.06251E-02-9.09709E-02-1.49069E+01
 -1      4965-1.91346E-01-9.58934E-02-9.95928E+00
 -1      4966-6.81778E-02-8.51495E-02-7.77070E+00
 -1      4967-7.66654E-03-7.63567E-02-6.24040E+00
 -1      4968 0.00000E+00 0.00000E+00 0.00000E+00
 -1      4969 5.37691E-02-4.58912E-02-9.41341E+00
 -1      4970 8.32257E-02-4.75931E-02-9.91831E+00
 -1      4971-1.11094E-02-6.36804E-02-4.70329E+00
 -1      4972-8.34469E-03-1.55360E-02-1.22462E-01
 -1      4973 1.29497E-02-5.68525E-03-4.91187E-01
 -1      4974 1.61274E-02-1.31594E-02-1.42567E+00
 -1      4975 3.27213E-02-1.17295E-02-1.58859E+00
 -1      4976 6.07443E-02-2.47992E-02-2.62330E+00
 -1      4977 1.22766E-02-1.60067E-02-4.22609E+00
 -1      4978 2.49333E-02-1.55775E-02-4.49206E+00
 -1      4979 6.23800E-02-1.82564E-02-5.92275E+00
 -1      4980 8.96759E-02-1.67370E-02-6.15053E+00
 -1      4981 6.62688E-03-4.02710E-02-7.79240E+00
 -1      4982-3.56291E-03-4.45278E-02-9.78348E+00
 -1      4983 4.97337E-02-7.74415E-02-1.33973E+01
 -1      4984 5.05753E-02-1.20760E-01-1.62413E+01
 -1      4985-2.49918E-02-1.06004E-01-1.64027E+01
 -1      4986-2.02666E-02-1.22287E-01-1.79990E+01
 -1      4987-4.26914E-02-1.35100E-01-1.75011E+01
 -1      4988-7.46813E-02-1.24043E-01-1.63130E+01
 -1      4989-5.41742E-02-1.11493E-01-1.50775E+01
 -1      4990-8.88290E-02-1.13431E-01-1.49859E+01
 -1      4991-2.61655E-02-1.13595E-01-1.34874E+01
 -1      4992-3.52468E-02-1.10634E-01-1.32204E+01
 -1      4993-1.46857E-01-1.07757E-01-1.18643E+01
 -1      4994-1.33425E-02-1.05278E-01-1.16742E+01
 -1      4995-1.02667E-01-1.04793E-01-1.15456E+01
 -1      4996-1.34081E-02-9.53964E-02-9.87919E+00
 -1      4997-4.75730E-02-9.68704E-02-9.47698E+00
 -1      4998-3.72292E-02-5.98083E-02-4.30481E+00
 -1      4999 5.91655E-03-3.93511E-02-1.55546E+00
 -1      5000-5.60556E-04-9.36135E-04-1.76419E-01
 -1      5001 0.00000E+00 0.00000E+00 0.00000E+00
 -1      5002 0.00000E+00 0.00000E+00 0.00000E+00
 -1      5003 1.79066E-03-1.37023E-01-1.80140E+01
 -1      5004 2.77011E-02-8.64967E-02-7.88797E+00
 -1      5005-6.22431E-02-3.61245E-02-1.69708E+00
 -1      5006 0.00000E+00 0.00000E+00 0.00000E+00
 -1      5007-1.28717E-02-2.17078E-03-1.82130E-01
 -1      5008-2.26625E-02 5.47131E-03-1.26286E-01
 -1      5009 3.10890E-01-1.51821E-02-2.53661E+00
 -1      5010 3.25811E-04-9.59419E-03-4.23818E+00
 -1      5011 5.19741E-02-1.80977E-02-4.55858E+00
 -1      5012 4.82019E-02-2.72643E-02-6.12233E+00
 -1      5013 5.56618E-04-4.74243E-02-9.77694E+00
 -1      5014 1.24407E-01-4.66182E-02-9.47440E+00
 -1      5015 2.15513E-01-7.97285E-02-1.20777E+01
 -1      5016 4.33056E-02-6.16473E-02-1.15627E+01
 -1      5017 7.41167E-02-9.23161E-02-1.33510E+01
 -1      5018 1.37755E-01-8.60267E-02-1.30718E+01
 -1      5019 6.30354E-02-1.01641E-01-1.50460E+01
 -1      5020 3.08667E-04-1.17844E-01-1.63722E+01
 -1      5021 1.18170E-01-1.26754E-01-1.60807E+01
 -1      5022 3.45847E-06-1.30415E-01-1.75616E+01
 -1      5023-2.91642E-03-1.42231E-01-1.79625E+01
 -1      5024-1.92710E-02-1.23096E-01-1.78683E+01
 -1      5025-2.29714E-02-1.28599E-01-1.79648E+01
 -1      5026-2.28779E-02-1.35313E-01-1.74450E+01
 -1      5027-1.74995E-01-1.57413E-01-1.75254E+01
 -1      5028-3.05168E-02-1.19790E-01-1.64455E+01
 -1      5029-5.09653E-02-1.20946E-01-1.61811E+01
 -1      5030-6.02570E-02-1.02849E-01-1.50304E+01
 -1      5031-5.48660E-02-1.10268E-01-1.53178E+01
 -1      5032-1.71953E-02-1.19563E-01-1.34850E+01
 -1      5033-1.90387E-02-1.02594E-01-1.16535E+01
 -1      5034-1.10075E-01-1.06152E-01-1.19439E+01
 -1      5035-1.26588E-01-8.92230E-02-8.09414E+00
 -1      5036-1.04999E-01-8.03060E-02-6.22783E+00
 -1      5037-9.62349E-02-7.66772E-02-6.03676E+00
 -1      5038-3.76852E-02-4.86158E-02-4.25321E+00
 -1      5039-1.02753E-01-5.76149E-02-4.50666E+00
 -1      5040 2.45829E-02 4.61867E-03-1.49145E-01
 -1      5041 0.00000E+00 0.00000E+00 0.00000E+00
 -1      5042 0.00000E+00 0.00000E+00 0.00000E+00
 -1      5043 5.11761E-02-1.32045E-02-1.71459E+00
 -1      5044 6.88409E-02-9.78930E-03-4.12043E+00
 -1      5045-5.05392E-02-1.82563E-02-5.59644E+00
 -1      5046 3.06187E-02-3.25750E-02-7.76536E+00
 -1      5047 9.92180E-02-3.23285E-02-7.64993E+00
 -1      5048 9.20796E-02-4.94675E-02-9.90108E+00
 -1      5049-1.81133E-02-9.91906E-02-1.52956E+01
 -1      5050-5.40981E-02-1.42743E-01-1.73861E+01
 -1      5051-1.10690E-01-1.03369E-01-1.15217E+01
 -1      5052-1.67938E-02-1.09121E-01-9.99472E+00
 -1      5053 9.84729E-03-7.26184E-02-5.69303E+00
 -1      5054 2.26308E-02-1.69557E-02-4.67879E-01
 -1      5055 2.94679E-02-1.37881E-02-1.75406E+00
 -1      5056 8.54002E-02-1.85856E-02-4.68445E+00
 -1      5057-2.18887E-02-1.28447E-01-1.75701E+01
 -1      5058-3.82994E-02-1.19952E-01-1.61004E+01
 -1      5059 4.23382E-02-1.04345E-01-1.20071E+01
 -1      5060 1.39184E-02-5.30852E-02-2.52424E+00
 -1      5061 0.00000E+00 0.00000E+00 0.00000E+00
 -1      5062 3.30961E-02 1.61375E-03-5.65079E-01
 -1      5063 1.02925E-01-2.66627E-02-6.08636E+00
 -1      5064 1.16447E-02-4.76171E-02-9.80391E+00
 -1      5065 1.28848E-01-1.05862E-01-1.48966E+01
 -1      5066 1.12469E-02-1.45425E-01-1.79602E+01
 -1      5067-5.22056E-02-1.21314E-01-1.64637E+01
 -1      5068-2.29015E-02-1.01854E-01-1.16131E+01
 -1      5069-9.69148E-02-8.79135E-02-7.82101E+00
 -1      5070-9.58276E-02-7.77239E-02-6.10482E+00
 -1      5071-4.61606E-02-5.73361E-02-2.85662E+00
 -1      5072 1.85983E-02 3.12926E-03-1.29013E-01
 -1      5073-1.48003E-02-1.23481E-02-4.33703E+00
 -1      5074-1.90661E-02-1.23613E-01-1.79020E+01
 -1      5075-1.48846E-01-1.21248E-01-1.35018E+01
 -1      5076-1.08524E-01-1.07563E-01-1.30149E+01
 -1      5077 4.66513E-03-1.35593E-02-1.55607E+00
 -1      5078-2.81858E-02-1.00371E-02-1.70027E-01
 -1      5079-1.82127E-02-2.75893E-02-2.64380E+00
 -1      5080-4.02837E-02-1.24044E-02-4.54182E+00
 -1      5081-1.24655E-02-1.22504E-01-1.78502E+01
 -1      5082-2.37153E-03-1.05120E-01-1.51278E+01
 -1      5083 3.19910E-02-1.11544E-01-1.31277E+01
 -1      5084 5.04165E-02-9.05509E-02-8.24629E+00
 -1      5085-1.19866E-02-5.40811E-02-2.53403E+00
 -1      5086-1.48156E-02 2.55215E-03-5.83647E-01
 -1      5087-1.89663E-02-2.60337E-02-2.42637E+00
 -1      5088 8.84172E-02-1.36964E-02-4.12471E+00
 -1      5089 6.13308E-03-2.30645E-02-5.54370E+00
 -1      5090 5.40601E-02-1.96975E-02-6.10821E+00
 -1      5091 1.03271E-01-4.29754E-02-7.62951E+00
 -1      5092 2.66153E-01-5.65954E-02-9.61900E+00
 -1      5093 1.63919E-02-5.97939E-02-1.13431E+01
 -1      5094 1.20098E-01-9.29299E-02-1.48962E+01
 -1      5095-4.84416E-03-1.28206E-01-1.75397E+01
 -1      5096-1.19695E-02-1.31490E-01-1.73522E+01
 -1      5097-1.00024E-01-1.19716E-01-1.64467E+01
 -1      5098-6.43528E-02-1.08093E-01-1.35771E+01
 -1      5099-1.09066E-01-1.05229E-01-1.21522E+01
 -1      5100-2.70236E-01-8.62361E-02-8.00661E+00
 -1      5101-8.00829E-02-8.44116E-02-7.75571E+00
 -1      5102-2.64932E-02-7.89348E-02-6.29227E+00
 -1      5103-4.60625E-02-7.19266E-02-5.71800E+00
 -1      5104-1.31111E-02-5.88999E-02-2.90293E+00
 -1      5105-1.64777E-02-6.40636E-03-4.32967E-01
 -1      5106 3.75866E-02-3.14108E-02-2.83682E+00
 -1      5107-1.21740E-02-7.05838E-02-1.29331E+01
 -1      5108 1.35138E-02-8.67866E-02-1.47567E+01
 -1      5109 5.19057E-03-1.19631E-01-1.60903E+01
 -1      5110-1.47591E-01-1.04723E-01-9.95674E+00
 -1      5111 0.00000E+00 0.00000E+00 0.00000E+00
 -1      5112 1.02620E-01-5.27698E-02-9.87223E+00
 -1      5113-6.93449E-02-1.04313E-01-1.19946E+01
 -1      5114-8.34621E-02-7.15723E-02-4.64045E+00
 -1      5115 1.44630E-02-1.00817E-02-1.85459E-01
 -1      5116 0.00000E+00 0.00000E+00 0.00000E+00
 -1      5117-3.48267E-02-2.13217E-02-1.30506E-01
 -1      5118 1.15710E-02-1.04325E-02-4.20799E+00
 -1      5119-5.38981E-03-2.04963E-02-5.70096E+00
 -1      5120 9.87469E-02-2.20879E-02-5.93822E+00
 -1      5121 4.22851E-03-4.03601E-02-7.75128E+00
 -1      5122 1.38629E-01-4.02212E-02-8.05908E+00
 -1      5123 1.83795E-02-4.91821E-02-9.73908E+00
 -1      5124 1.14641E-01-7.94675E-02-1.31705E+01
 -1      5125 6.70430E-02-9.18503E-02-1.49537E+01
 -1      5126-2.08526E-02-1.21336E-01-1.77919E+01
 -1      5127-2.87917E-02-1.19451E-01-1.78703E+01
 -1      5128-3.79405E-02-1.02752E-01-1.50152E+01
 -1      5129-1.30616E-01-9.78102E-02-1.49418E+01
 -1      5130-2.34758E-02-1.09107E-01-1.34676E+01
 -1      5131-1.10745E-01-1.08211E-01-1.15116E+01
 -1      5132-1.14076E-01-1.07547E-01-1.16851E+01
 -1      5133-3.29432E-02-1.05884E-01-9.85794E+00
 -1      5134-1.50861E-01-1.00193E-01-9.55080E+00
 -1      5135-9.68499E-02-6.83319E-02-4.41647E+00
 -1      5136 3.23188E-03-4.81253E-02-1.79149E+00
 -1      5137 2.34137E-03-4.81610E-02-1.56202E+00
 -1      5138 0.00000E+00 0.00000E+00 0.00000E+00
 -1      5139 0.00000E+00 0.00000E+00 0.00000E+00
 -1      5140 1.30025E-01-4.86326E-02-9.35419E+00
 -1      5141-1.93483E-02-1.22609E-01-1.78353E+01
 -1      5142-9.16233E-02-1.19729E-01-1.62998E+01
 -1      5143-2.27167E-02-8.89899E-02-7.97093E+00
 -1      5144-1.35030E-01-9.03752E-02-8.25667E+00
 -1      5145-3.97876E-02-5.92313E-02-2.80006E+00
 -1      5146 1.36296E-02-8.62382E-03-1.45987E-01
 -1      5147 0.00000E+00 0.00000E+00 0.00000E+00
 -1      5148 0.00000E+00 0.00000E+00 0.00000E+00
 -1      5149 0.00000E+00 0.00000E+00 0.00000E+00
 -1      5150 1.16497E-02-1.73968E-02-1.94873E-01
 -1      5151 6.71788E-02-1.92137E-02-4.73703E-01
 -1      5152 1.58839E-02-1.36197E-02-4.19859E+00
 -1      5153 7.30717E-02-1.83697E-02-4.52332E+00
 -1      5154 8.46599E-03-3.28863E-02-5.97425E+00
 -1      5155 1.14286E-01-2.91339E-02-5.69229E+00
 -1      5156 1.42676E-01-4.98382E-02-9.41072E+00
 -1      5157 2.08545E-01-7.54382E-02-1.20056E+01
 -1      5158 1.71602E-02-9.59104E-02-1.49644E+01
 -1      5159-1.78288E-03-1.41004E-01-1.78345E+01
 -1      5160-1.52948E-02-1.24565E-01-1.74321E+01
 -1      5161-8.25629E-02-1.25562E-01-1.74970E+01
 -1      5162-2.21225E-01-1.11251E-01-1.62855E+01
 -1      5163-2.96302E-02-1.09997E-01-1.50097E+01
 -1      5164-3.00957E-02-1.02128E-01-1.16259E+01
 -1      5165-1.43834E-01-1.05574E-01-1.19164E+01
 -1      5166-3.26361E-02-8.91726E-02-7.86694E+00
 -1      5167-1.61214E-01-9.05713E-02-8.16808E+00
 -1      5168-1.32404E-01-8.16585E-02-6.22161E+00
 -1      5169-1.24508E-01-7.77651E-02-6.02686E+00
 -1      5170-4.06247E-02-4.89062E-02-4.26558E+00
 -1      5171-2.47730E-02-5.70743E-02-4.58105E+00
 -1      5172-1.96530E-02-1.81767E-02-1.44169E-01
 -1      5173 0.00000E+00 0.00000E+00 0.00000E+00
 -1      5174 4.04053E-02-1.91054E-02-5.82656E-01
 -1      5175 1.15627E-02-1.98623E-02-2.83867E+00
 -1      5176 1.01986E-01-3.81252E-02-6.09400E+00
 -1      5177 1.13164E-01-2.43351E-02-7.61487E+00
 -1      5178 1.09750E-01-5.88264E-02-9.83875E+00
 -1      5179 9.66620E-03-9.82752E-02-1.52025E+01
 -1      5180-3.17012E-02-1.26974E-01-1.78188E+01
 -1      5181-2.84685E-02-1.11242E-01-1.48751E+01
 -1      5182-7.02537E-02-1.19412E-01-1.35841E+01
 -1      5183-1.22000E-01-1.01115E-01-1.14985E+01
 -1      5184-1.25089E-01-1.03882E-01-9.85556E+00
 -1      5185-3.61908E-02-1.07649E-01-9.97759E+00
 -1      5186-1.29375E-01-8.88322E-02-7.77522E+00
 -1      5187 5.55343E-03-1.17896E-02-4.35763E-01
 -1      5188-6.38370E-02-1.08902E-01-1.60648E+01
 -1      5189 2.57445E-02-1.05951E-01-1.19831E+01
 -1      5190-6.96756E-02-7.17938E-02-5.63207E+00
 -1      5191 1.12603E-01-1.76592E-02-4.09318E+00
 -1      5192 8.10081E-02-3.46898E-02-5.98267E+00
 -1      5193 3.08390E-02-5.66084E-02-9.73988E+00
 -1      5194 2.32780E-02-9.26393E-02-1.47891E+01
 -1      5195 8.41372E-03-1.14617E-01-1.60119E+01
 -1      5196 1.74428E-02-1.40065E-01-1.78425E+01
 -1      5197-5.95139E-02-1.15325E-01-1.64497E+01
 -1      5198-2.66594E-03-1.11394E-01-1.49815E+01
 -1      5199-1.59042E-01-1.14040E-01-1.34739E+01
 -1      5200-1.19988E-01-1.02617E-01-1.29863E+01
 -1      5201-3.71023E-02-1.00061E-01-1.15935E+01
 -1      5202-1.37199E-01-6.29366E-02-2.79102E+00
 -1      5203-2.25046E-02-1.97676E-02-9.95460E-02
 -1      5204-3.80462E-02-2.22546E-02-5.61416E+00
 -1      5205-2.81428E-02-1.09118E-01-1.32421E+01
 -1      5206-2.60733E-01-9.77788E-02-9.65945E+00
 -1      5207-3.43806E-02-5.47407E-02-2.58055E+00
 -1      5208 1.25400E-01-3.50124E-02-7.85393E+00
 -1      5209 1.32621E-02-2.39378E-02-4.30441E-01
 -1      5210 2.83043E-01-2.11855E-02-5.92888E+00
 -1      5211 2.35908E-01-4.74751E-02-8.13248E+00
 -1      5212 2.01678E-02-1.06290E-01-1.53733E+01
 -1      5213 9.55868E-02-1.02368E-01-1.50456E+01
 -1      5214-2.24495E-01-1.16688E-01-1.31772E+01
 -1      5215-2.07025E-01-1.12741E-01-1.21748E+01
 -1      5216-2.55320E-01-1.07623E-01-1.18089E+01
 -1      5217-2.25262E-01-8.35920E-02-8.06772E+00
 -1      5218-1.32161E-01-8.85344E-02-8.40656E+00
 -1      5219-1.35292E-01-7.02816E-02-5.77330E+00
 -1      5220-1.52128E-01-7.53464E-02-6.18982E+00
 -1      5221 0.00000E+00 0.00000E+00 0.00000E+00
 -1      5222 1.73524E-02-8.14503E-03-4.76823E-01
 -1      5223 1.07990E-01-1.71350E-02-2.35231E+00
 -1      5224 1.12824E-01-1.35393E-01-1.60687E+01
 -1      5225 2.33106E-02-1.33783E-01-1.75574E+01
 -1      5226 8.22164E-03-1.40679E-01-1.80915E+01
 -1      5227-1.31915E-01-1.27849E-01-1.54704E+01
 -1      5228-9.56606E-02-3.56371E-02-1.91181E+00
 -1      5229-1.43033E-01-1.12787E-02-6.03917E-01
 -1      5230-2.18007E-03 7.36367E-04-1.50878E-01
 -1      5231-3.68898E-03 2.49017E-03-1.75666E-01
 -1      5232 6.39809E-02-1.43977E-03-1.77342E+00
 -1      5233 1.97427E-01-8.51123E-02-1.28868E+01
 -1      5234 8.95283E-02-8.17311E-02-1.35737E+01
 -1      5235-4.84951E-02-1.48453E-01-1.79161E+01
 -1      5236-1.34052E-01-1.28360E-01-1.61035E+01
 -1      5237-1.54900E-01-5.75489E-02-4.83524E+00
 -1      5238 0.00000E+00 0.00000E+00 0.00000E+00
 -1      5239 1.94317E-01-1.27910E-02-4.70436E+00
 -1      5240-2.03836E-01-1.16857E-01-1.30141E+01
 -1      5241-2.08058E-01-8.46241E-02-7.90835E+00
 -1      5242 1.46804E-01-8.33762E-02-1.31176E+01
 -1      5243-1.28000E-01-8.47356E-02-8.19344E+00
 -1      5244-1.56547E-01-5.76036E-02-4.50704E+00
 -1      5245 2.06171E-01 3.57182E-03-1.57910E+00
 -1      5246 7.67375E-02-3.98187E-02-8.11183E+00
 -1      5247-1.19871E-01-1.13690E-01-1.32087E+01
 -1      5248-7.84461E-02-9.67900E-02-9.53706E+00
 -1      5249-1.56243E-01-8.91485E-02-7.79356E+00
 -1      5250 2.69842E-01-4.55020E-02-9.28639E+00
 -1      5251-1.57183E-01-1.24611E-01-1.35896E+01
 -1      5252-2.07683E-01-9.19869E-02-9.27491E+00
 -1      5253-3.90419E-01-9.12263E-02-8.38873E+00
 -1      5254-9.44900E-03-3.71361E-03-2.03461E-01
 -1      5255 3.52314E-02 4.01916E-03-4.58515E-01
 -1      5256 1.49568E-01-1.73220E-02-5.50264E+00
 -1      5257 1.44472E-01-4.37961E-02-9.22574E+00
 -1      5258 1.26924E-01-8.11827E-02-1.28696E+01
 -1      5259-5.11528E-02-1.32957E-01-1.78217E+01
 -1      5260-1.64885E-01-1.07850E-01-1.21659E+01
 -1      5261-1.53219E-01-8.93707E-02-8.42922E+00
 -1      5262-7.59388E-03-1.64440E-02-4.39264E-01
 -1      5263 7.22945E-02-4.90871E-03-1.41164E+00
 -1      5264 1.21070E-01-7.33484E-02-1.19950E+01
 -1      5265-1.30781E-01-7.16303E-02-5.60042E+00
 -1      5266-1.26645E-01-6.60520E-02-4.83869E+00
 -1      5267-2.07813E-01-5.31386E-02-4.29570E+00
 -1      5268-3.42373E-02-5.48572E-02-2.54162E+00
 -1      5269 1.28149E-01-2.06750E-02-2.57089E+00
 -1      5270 2.22564E-01-2.22919E-02-5.78288E+00
 -1      5271 2.07459E-01-3.92215E-02-7.83379E+00
 -1      5272 1.98765E-01-6.79986E-02-1.14728E+01
 -1      5273 1.27891E-01-1.08315E-01-1.49879E+01
 -1      5274 5.90869E-02-1.20554E-01-1.59667E+01
 -1      5275 4.56409E-02-1.46705E-01-1.74019E+01
 -1      5276 3.68969E-03-1.40824E-01-1.79160E+01
 -1      5277-1.40788E-01-1.15500E-01-1.52308E+01
 -1      5278-1.73554E-01-1.08515E-01-1.49797E+01
 -1      5279-2.73025E-01-9.73705E-02-9.71507E+00
 -1      5280-1.37270E-01-5.83115E-02-4.42930E+00
 -1      5281-7.93695E-02-5.71377E-02-1.89361E+00
 -1      5282-9.28747E-02-4.69750E-02-1.61571E+00
 -1      5283-2.63553E-02-1.17715E-02-5.78833E-01
 -1      5284-3.20301E-02-1.53184E-02-4.85723E-01
 -1      5285 0.00000E+00 0.00000E+00 0.00000E+00
 -1      5286 2.38767E-01-2.00237E-02-4.55120E+00
 -1      5287 2.21533E-01-1.79600E-02-4.33487E+00
 -1      5288 1.94418E-01-2.59221E-02-4.64258E+00
 -1      5289 1.98360E-01-2.46400E-02-5.51693E+00
 -1      5290 2.42061E-01-2.83383E-02-5.87847E+00
 -1      5291 1.39258E-01-4.77386E-02-9.21759E+00
 -1      5292 1.07539E-01-1.02801E-01-1.51863E+01
 -1      5293 7.86718E-02-1.29342E-01-1.73766E+01
 -1      5294-2.21544E-01-1.09415E-01-1.21315E+01
 -1      5295-2.12685E-01-1.03686E-01-1.16819E+01
 -1      5296-2.07484E-01-8.09276E-02-6.13654E+00
 -1      5297-1.55014E-01-6.03194E-02-2.60378E+00
 -1      5298-1.27389E-01-5.20025E-02-1.54910E+00
 -1      5299 2.31205E-02-5.37937E-03-5.26291E-01
 -1      5300 1.43193E-01-3.05923E-02-2.47315E+00
 -1      5301 1.59037E-01-6.39822E-02-1.14331E+01
 -1      5302 1.65638E-01-1.10175E-01-1.53589E+01
 -1      5303 1.13666E-01-1.22449E-01-1.63028E+01
 -1      5304-6.75809E-02-1.30369E-01-1.73982E+01
 -1      5305-1.78423E-01-1.12421E-01-1.53039E+01
 -1      5306-2.47794E-01-1.04220E-01-1.34592E+01
 -1      5307-1.76393E-01-6.41355E-02-4.24741E+00
 -1      5308-1.00492E-01-5.00123E-02-1.90742E+00
 -1      5309-2.53493E-02-9.90577E-03-1.96771E-01
 -1      5310-4.09315E-02-1.25695E-01-1.78058E+01
 -1      5311-1.15389E-01-1.16595E-01-1.60192E+01
 -1      5312 0.00000E+00 0.00000E+00 0.00000E+00
 -1      5313 8.64641E-02-2.22626E-02-1.80569E+00
 -1      5314 1.82110E-01-2.43094E-02-4.68682E+00
 -1      5315-3.76636E-03-1.27703E-01-1.77698E+01
 -1      5316-2.07097E-01-1.08922E-01-1.29734E+01
 -1      5317-1.60113E-01-9.17110E-02-8.45079E+00
 -1      5318-2.19776E-01-8.64867E-02-7.89379E+00
 -1      5319 0.00000E+00 0.00000E+00 0.00000E+00
 -1      5320 1.44570E-01-8.79140E-02-1.34546E+01
 -1      5321 1.55214E-01-1.24806E-01-1.61903E+01
 -1      5322 4.02246E-02-1.26888E-01-1.73881E+01
 -1      5323 1.59825E-02-1.29893E-01-1.79017E+01
 -1      5324-2.52901E-01-5.95279E-02-1.74971E+00
 -1      5325-4.64317E-02-3.52406E-02-5.12942E-01
 -1      5326 1.66327E-01-4.24988E-02-8.14300E+00
 -1      5327-1.31209E-01-1.10844E-01-1.52332E+01
 -1      5328-1.33753E-01-1.08591E-01-1.31747E+01
 -1      5329-2.12949E-01-9.07588E-02-9.39348E+00
 -1      5330-2.27600E-01-4.85780E-02-1.60923E+00
 -1      5331 2.79021E-01-4.81745E-02-9.22401E+00
 -1      5332 2.41830E-01-1.36734E-01-1.61548E+01
 -1      5333-3.65295E-02-1.12928E-01-1.79151E+01
 -1      5334-2.29519E-01-1.05941E-01-1.21367E+01
 -1      5335-2.40584E-01-9.19708E-02-8.40696E+00
 -1      5336-2.48601E-01-7.10127E-02-5.60258E+00
 -1      5337-2.08516E-01-6.84967E-02-4.72477E+00
 -1      5338 3.81608E-02-4.25175E-02-2.26261E-01
 -1      5339 2.20497E-01-2.90642E-02-5.45908E+00
 -1      5340 1.64079E-01-4.64759E-02-9.16415E+00
 -1      5341 2.10287E-01-8.36214E-02-1.28947E+01
 -1      5342 1.48512E-01-8.11056E-02-1.27956E+01
 -1      5343-3.99850E-02-1.15886E-01-1.79025E+01
 -1      5344-1.49835E-01-6.65182E-02-4.81514E+00
 -1      5345-1.51094E-01-5.29031E-02-4.22545E+00
 -1      5346 0.00000E+00 0.00000E+00 0.00000E+00
 -1      5347 2.44725E-02-1.70313E-02-1.18633E-01
 -1      5348 1.03876E-01-1.14422E-01-1.59049E+01
 -1      5349-2.40151E-02-1.21188E-01-1.75495E+01
 -1      5350-7.46402E-02-1.24435E-01-1.73714E+01
 -1      5351 0.00000E+00 0.00000E+00 0.00000E+00
 -1      5352 6.82712E-02-2.20671E-02-1.74022E+00
 -1      5353 1.61095E-01-2.96927E-02-5.48800E+00
 -1      5354 1.20312E-01-7.22975E-02-1.18884E+01
 -1      5355 2.06710E-01-8.79622E-02-1.32783E+01
 -1      5356 1.04840E-01-1.26594E-01-1.61825E+01
 -1      5357 5.04733E-02-1.35885E-01-1.72884E+01
 -1      5358-2.74382E-02-1.22746E-01-1.78216E+01
 -1      5359-2.58922E-01-1.00015E-01-1.21542E+01
 -1      5360-2.11266E-01-6.41379E-02-4.72362E+00
 -1      5361-1.64970E-01-6.07747E-02-4.40568E+00
 -1      5362-1.05058E-01-5.62285E-02-1.82510E+00
 -1      5363-1.02327E-01-4.15021E-02-1.55426E+00
 -1      5364-3.34441E-02-2.70104E-02-4.81180E-01
 -1      5365-3.77798E-02-3.66876E-02-3.70950E-01
 -1      5366 0.00000E+00 0.00000E+00 0.00000E+00
 -1      5367 0.00000E+00 0.00000E+00 0.00000E+00
 -1      5368 3.86995E-03 4.66484E-03-1.23885E-01
 -1      5369 1.26973E-02 3.56815E-04-7.33868E-02
 -1      5370 3.46625E-02 7.39325E-03-4.00679E-01
 -1      5371 1.12206E-01-1.88594E-03-1.64085E+00
 -1      5372 1.24938E-01-4.21240E-03-1.50356E+00
 -1      5373 3.20325E-01-1.37769E-02-2.60578E+00
 -1      5374 2.33311E-01-1.95660E-02-4.45770E+00
 -1      5375 2.44843E-01-1.67282E-02-5.56870E+00
 -1      5376 5.95701E-01-5.00317E-02-7.89511E+00
 -1      5377 4.13419E-01-5.83056E-02-9.55410E+00
 -1      5378 4.88578E-01-8.33819E-02-1.17129E+01
 -1      5379 2.37142E-01-9.35533E-02-1.31927E+01
 -1      5380 2.48827E-01-9.50890E-02-1.34498E+01
 -1      5381 1.36180E-01-1.16523E-01-1.53166E+01
 -1      5382 1.10868E-01-1.36539E-01-1.60349E+01
 -1      5383 1.45717E-01-1.39302E-01-1.62808E+01
 -1      5384 4.47662E-02-1.56020E-01-1.76669E+01
 -1      5385 4.52365E-02-1.72857E-01-1.79572E+01
 -1      5386 4.39463E-02-1.65377E-01-1.80627E+01
 -1      5387-6.37409E-02-1.48248E-01-1.79943E+01
 -1      5388-6.21081E-02-1.31877E-01-1.80592E+01
 -1      5389-8.96708E-02-1.45461E-01-1.74772E+01
 -1      5390-1.00345E-01-1.45171E-01-1.76441E+01
 -1      5391-1.69960E-01-1.36133E-01-1.61363E+01
 -1      5392-1.57484E-01-1.32833E-01-1.63612E+01
 -1      5393-3.88296E-01-1.30563E-01-1.51932E+01
 -1      5394-2.56972E-01-1.17221E-01-1.34473E+01
 -1      5395-5.84718E-01-9.99641E-02-9.80052E+00
 -1      5396-2.53696E-01-9.56359E-02-9.54861E+00
 -1      5397-3.51184E-01-9.64270E-02-9.25634E+00
 -1      5398-4.86973E-01-7.35509E-02-6.02346E+00
 -1      5399-2.74531E-01-5.25394E-02-4.58907E+00
 -1      5400-2.27911E-01-5.25635E-02-4.34066E+00
 -1      5401-1.54723E-01-4.45334E-02-2.58903E+00
 -1      5402-6.10759E-02-6.27413E-03-4.97842E-01
 -1      5403-1.06923E-02 1.35041E-02-2.58676E-01
 -1      5404-2.52143E-02 1.24858E-02-1.84359E-01
 -1      5405 0.00000E+00 0.00000E+00 0.00000E+00
 -1      5406 0.00000E+00 0.00000E+00 0.00000E+00
 -1      5407 0.00000E+00 0.00000E+00 0.00000E+00
 -1      5408 0.00000E+00 0.00000E+00 0.00000E+00
 -1      5409 4.82166E-02 1.19340E-02-3.50912E-01
 -1      5410 4.34665E-02-5.59214E-03-5.21067E-01
 -1      5411 1.42729E-01-6.29516E-03-1.44397E+00
 -1      5412 1.71791E-01-2.51650E-02-2.72772E+00
 -1      5413 2.92306E-01-2.36204E-02-4.22953E+00
 -1      5414 2.10212E-01-4.93434E-02-8.41944E+00
 -1      5415 4.21839E-01-5.10505E-02-8.42861E+00
 -1      5416 3.89868E-01-5.65065E-02-9.75011E+00
 -1      5417 1.48636E-01-1.35471E-01-1.64418E+01
 -1      5418 1.60901E-01-1.65482E-01-1.75283E+01
 -1      5419 7.17320E-02-1.72784E-01-1.77442E+01
 -1      5420 2.62375E-02-1.64137E-01-1.79325E+01
 -1      5421 2.82259E-02-1.49681E-01-1.80982E+01
 -1      5422-1.30537E-01-1.60413E-01-1.77256E+01
 -1      5423-1.76483E-01-1.13598E-01-1.29688E+01
 -1      5424-2.85547E-01-1.11532E-01-1.22535E+01
 -1      5425-3.77393E-01-1.10111E-01-1.17042E+01
 -1      5426-3.95330E-01-8.14440E-02-7.93412E+00
 -1      5427-3.69591E-01-5.72759E-02-5.41111E+00
 -1      5428-2.32377E-01-6.29945E-02-5.53175E+00
 -1      5429-2.49105E-01-2.94121E-02-2.33667E+00
 -1      5430-7.05384E-02 1.78240E-03-4.35484E-01
 -1      5431-1.86809E-02 1.69584E-04-1.34806E-01
 -1      5432 0.00000E+00 0.00000E+00 0.00000E+00
 -1      5433 1.95872E-01-1.11223E-02-2.29345E+00
 -1      5434 1.47523E-01-1.31796E-01-1.64186E+01
 -1      5435 8.47253E-02-1.57033E-01-1.76608E+01
 -1      5436-2.28120E-01-1.34420E-01-1.55345E+01
 -1      5437-2.45014E-01-5.06673E-02-4.29265E+00
 -1      5438-2.07337E-01-5.20134E-02-2.84487E+00
 -1      5439-2.81430E-01-3.65257E-02-2.39727E+00
 -1      5440-1.27677E-01-3.69080E-02-1.51821E+00
 -1      5441-1.50575E-01-3.87172E-02-1.55421E+00
 -1      5442 0.00000E+00 0.00000E+00 0.00000E+00
 -1      5443 1.91147E-02 8.05062E-03-1.29217E-01
 -1      5444 2.97381E-01-1.32279E-02-2.49451E+00
 -1      5445 4.38069E-01-2.09415E-02-5.66629E+00
 -1      5446 4.69172E-01-5.08026E-02-8.18417E+00
 -1      5447 4.32139E-01-5.72336E-02-9.44288E+00
 -1      5448 2.00095E-01-1.11499E-01-1.50298E+01
 -1      5449 1.52081E-01-1.17330E-01-1.53813E+01
 -1      5450 2.66732E-01-1.41285E-01-1.55460E+01
 -1      5451 8.36934E-02-1.48365E-01-1.74996E+01
 -1      5452 3.92601E-02-1.67571E-01-1.79794E+01
 -1      5453-4.90757E-02-1.43105E-01-1.79324E+01
 -1      5454-1.57531E-01-1.56605E-01-1.76009E+01
 -1      5455-3.42354E-01-1.26339E-01-1.52625E+01
 -1      5456-3.20596E-01-9.70545E-02-9.30927E+00
 -1      5457-2.67073E-01-7.16115E-02-6.12787E+00
 -1      5458-3.90706E-01-5.34554E-02-4.59848E+00
 -1      5459-1.49590E-01-4.71867E-02-2.50058E+00
 -1      5460-1.81922E-01-2.99892E-02-1.90390E+00
 -1      5461-6.10091E-02-1.00526E-02-6.27458E-01
 -1      5462-1.29101E-01 6.09623E-03-4.54339E-01
 -1      5463 9.35366E-02 6.58408E-03-4.23179E-01
 -1      5464 3.53571E-01-2.51520E-02-4.42326E+00
 -1      5465 2.50258E-01-5.20083E-02-9.71596E+00
 -1      5466 2.19685E-01-7.22051E-02-1.16245E+01
 -1      5467 3.77468E-01-1.31799E-01-1.52148E+01
 -1      5468 1.58909E-01-1.68724E-01-1.75714E+01
 -1      5469-4.27921E-01-1.19726E-01-1.31462E+01
 -1      5470-4.55382E-01-1.13387E-01-1.20337E+01
 -1      5471-5.55803E-01-9.75175E-02-9.62210E+00
 -1      5472-2.76352E-01-8.41944E-02-8.37053E+00
 -1      5473-5.07506E-01-6.84360E-02-5.87219E+00
 -1      5474-3.81500E-01-4.88529E-02-2.66322E+00
 -1      5475-1.23687E-01-2.47203E-03-5.45505E-01
 -1      5476-2.93151E-02 9.34733E-03-2.01160E-01
 -1      5477 0.00000E+00 0.00000E+00 0.00000E+00
 -1      5478 5.05778E-01-8.70799E-02-1.18703E+01
 -1      5479 0.00000E+00 0.00000E+00 0.00000E+00
 -1      5480 0.00000E+00 0.00000E+00 0.00000E+00
 -1      5481 1.19567E-02 3.31667E-03-1.30727E-01
 -1      5482 1.03789E-01 9.77365E-03-4.72101E-01
 -1      5483 3.60437E-02 2.22667E-03-5.23052E-01
 -1      5484 3.39820E-01-2.04611E-02-4.45589E+00
 -1      5485 4.29732E-01-2.32771E-02-5.75085E+00
 -1      5486 4.58859E-01-4.81283E-02-8.08131E+00
 -1      5487 3.99967E-01-5.25457E-02-9.53623E+00
 -1      5488 4.38832E-01-8.52080E-02-1.18427E+01
 -1      5489 2.35903E-01-1.46297E-01-1.62416E+01
 -1      5490 1.45293E-01-1.68747E-01-1.75221E+01
 -1      5491 6.32646E-02-1.49953E-01-1.73923E+01
 -1      5492 5.12301E-02-1.65580E-01-1.79072E+01
 -1      5493-8.52998E-02-1.49915E-01-1.79011E+01
 -1      5494-2.89719E-01-1.39601E-01-1.61980E+01
 -1      5495-3.52470E-01-1.26870E-01-1.52458E+01
 -1      5496-4.31325E-01-1.20470E-01-1.32298E+01
 -1      5497-4.56764E-01-1.12647E-01-1.19212E+01
 -1      5498-4.72134E-01-9.88482E-02-9.56895E+00
 -1      5499-1.48224E-01-5.40256E-02-2.70030E+00
 -1      5500-1.53525E-01-5.54386E-02-2.90146E+00
 -1      5501-2.55159E-01-4.16261E-02-1.73759E+00
 -1      5502-1.06138E-01-5.55013E-03-5.07426E-01
 -1      5503-4.36376E-02-1.20610E-02-5.99539E-01
 -1      5504 0.00000E+00 0.00000E+00 0.00000E+00
 -1      5505 3.12026E-01-1.89524E-02-5.50877E+00
 -1      5506 3.22183E-01-1.26366E-01-1.51930E+01
 -1      5507 3.35269E-02-1.58232E-01-1.79596E+01
 -1      5508-3.99558E-01-1.13385E-01-1.21547E+01
 -1      5509-2.03388E-01-1.06058E-01-9.94181E+00
 -1      5510-2.72240E-01-6.48697E-02-4.74754E+00
 -1      5511-3.10990E-01-4.96455E-02-2.62402E+00
 -1      5512-2.50017E-01-5.04245E-02-1.91240E+00
 -1      5513-1.56691E-01-3.74053E-02-1.53653E+00
 -1      5514-7.95441E-02-1.20499E-02-4.43739E-01
 -1      5515 9.88594E-03-4.46521E-03-2.26024E-01
 -1      5516 0.00000E+00 0.00000E+00 0.00000E+00
 -1      5517 4.82228E-02 1.56531E-03-3.92588E-01
 -1      5518 1.94848E-01-1.18208E-02-1.91181E+00
 -1      5519 1.58511E-01-1.94564E-02-2.33134E+00
 -1      5520 1.63723E-01-2.23798E-02-2.78293E+00
 -1      5521 2.17500E-01-4.50917E-02-8.40424E+00
 -1      5522 2.37353E-01-1.19640E-01-1.54544E+01
 -1      5523 9.74366E-02-1.47922E-01-1.76183E+01
 -1      5524-1.20946E-01-1.36394E-01-1.76328E+01
 -1      5525-1.01551E-01-1.14362E-01-1.60182E+01
 -1      5526-2.17793E-01-1.18993E-01-1.54897E+01
 -1      5527-1.89910E-01-5.37808E-02-2.39602E+00
 -1      5528 0.00000E+00 0.00000E+00 0.00000E+00
 -1      5529-1.50812E-04-1.47863E-03-1.14993E-01
 -1      5530 2.72998E-01-5.15342E-02-9.78563E+00
 -1      5531-2.99889E-01-1.07638E-01-1.16372E+01
 -1      5532-3.78889E-01-6.95393E-02-5.47084E+00
 -1      5533 1.62237E-02-9.03567E-03-2.37585E-01
 -1      5534 2.01827E-03 8.13795E-03-1.28717E-01
 -1      5535 0.00000E+00 0.00000E+00 0.00000E+00
 -1      5536-1.16928E-02-4.36484E-03-1.66571E-01
 -1      5537 4.91833E-02 5.98161E-03-5.33868E-01
 -1      5538 1.36343E-01-4.98698E-03-1.49378E+00
 -1      5539 2.67679E-01-1.71057E-02-4.29022E+00
 -1      5540 2.92765E-01-7.83909E-02-1.17738E+01
 -1      5541 2.64302E-01-8.74346E-02-1.28006E+01
 -1      5542 2.68195E-01-9.62354E-02-1.31902E+01
 -1      5543 2.72309E-01-1.03567E-01-1.34122E+01
 -1      5544 1.80894E-01-1.12252E-01-1.51684E+01
 -1      5545 1.57426E-01-1.27375E-01-1.59152E+01
 -1      5546 1.54708E-01-1.31720E-01-1.63097E+01
 -1      5547 5.62555E-02-1.45349E-01-1.75004E+01
 -1      5548 2.49488E-02-1.39373E-01-1.77947E+01
 -1      5549-5.60889E-02-1.37894E-01-1.79402E+01
 -1      5550-5.33589E-02-1.31309E-01-1.78603E+01
 -1      5551-1.80748E-01-1.54885E-01-1.74670E+01
 -1      5552-1.73822E-01-1.32304E-01-1.63832E+01
 -1      5553-4.02739E-01-9.38729E-02-9.13897E+00
 -1      5554-2.47975E-01-6.55799E-02-4.87419E+00
 -1      5555-1.65923E-01-5.30174E-02-1.93020E+00
 -1      5556 0.00000E+00 0.00000E+00 0.00000E+00
 -1      5557 0.00000E+00 0.00000E+00 0.00000E+00
 -1      5558 1.42397E-01-7.48567E-03-1.66961E+00
 -1      5559 4.34250E-01-4.39966E-02-8.03697E+00
 -1      5560 4.16039E-01-5.05050E-02-8.52747E+00
 -1      5561 2.63668E-01-4.92904E-02-9.62325E+00
 -1      5562 2.91914E-01-5.19225E-02-9.33162E+00
 -1      5563 1.87321E-01-1.33898E-01-1.61224E+01
 -1      5564 4.22805E-02-1.49726E-01-1.78707E+01
 -1      5565-1.84349E-01-1.25605E-01-1.61686E+01
 -1      5566-1.77407E-01-1.17695E-01-1.59624E+01
 -1      5567-3.39056E-01-1.18558E-01-1.32789E+01
 -1      5568-3.26545E-01-1.11924E-01-1.29313E+01
 -1      5569-3.33243E-01-1.10344E-01-1.18294E+01
 -1      5570-2.74328E-01-9.15625E-02-8.01852E+00
 -1      5571-2.96783E-01-8.92633E-02-8.29971E+00
 -1      5572-2.75395E-01-7.28693E-02-5.86298E+00
 -1      5573-3.09398E-01-6.10822E-02-4.57705E+00
 -1      5574-1.73547E-01-5.46526E-02-2.62101E+00
 -1      5575-1.98449E-01-4.91379E-02-1.73083E+00
 -1      5576 1.00348E-02-9.18515E-03-1.77916E-01
 -1      5577 0.00000E+00 0.00000E+00 0.00000E+00
 -1      5578 0.00000E+00 0.00000E+00 0.00000E+00
 -1      5579-2.73545E-02-1.02574E-02-1.61495E-01
 -1      5580-1.23275E-02-2.28907E-02-1.24204E-01
 -1      5581 1.92135E-01-1.53781E-02-1.86572E+00
 -1      5582 3.45292E-01-3.86235E-02-2.66288E+00
 -1      5583 1.70477E-01-4.34628E-02-8.37137E+00
 -1      5584 2.69842E-01-4.16273E-02-7.98989E+00
 -1      5585 3.82237E-01-5.27085E-02-9.23090E+00
 -1      5586 2.26589E-01-7.45910E-02-1.18420E+01
 -1      5587 5.14177E-01-7.48470E-02-1.16100E+01
 -1      5588 2.65528E-01-8.28317E-02-1.27612E+01
 -1      5589 2.63060E-01-8.90433E-02-1.30618E+01
 -1      5590 2.73710E-01-9.19890E-02-1.33357E+01
 -1      5591 1.52430E-01-1.28786E-01-1.58782E+01
 -1      5592 1.78443E-01-1.30405E-01-1.61109E+01
 -1      5593 4.50378E-02-1.46937E-01-1.77427E+01
 -1      5594 4.52337E-02-1.38213E-01-1.78467E+01
 -1      5595-6.15725E-02-1.28140E-01-1.78414E+01
 -1      5596-6.57470E-02-1.22324E-01-1.79089E+01
 -1      5597-6.92353E-02-1.31557E-01-1.77692E+01
 -1      5598-1.16627E-01-1.39026E-01-1.76140E+01
 -1      5599-9.19911E-02-1.33625E-01-1.74892E+01
 -1      5600-1.64492E-01-1.16360E-01-1.60925E+01
 -1      5601-1.83929E-01-1.19442E-01-1.63199E+01
 -1      5602-3.96887E-01-1.08375E-01-1.50801E+01
 -1      5603-2.23134E-01-1.08796E-01-1.31272E+01
 -1      5604-1.79423E-01-1.07513E-01-1.29203E+01
 -1      5605-4.02946E-01-1.08268E-01-1.18801E+01
 -1      5606-3.20322E-01-9.56578E-02-9.58797E+00
 -1      5607-5.56361E-01-9.81121E-02-9.59227E+00
 -1      5608-3.53283E-01-9.49233E-02-9.23983E+00
 -1      5609-3.84025E-01-9.14581E-02-8.39268E+00
 -1      5610-2.17421E-01-7.32032E-02-5.81746E+00
 -1      5611-2.65276E-01-7.09893E-02-4.91043E+00
 -1      5612-2.67628E-01-6.66732E-02-4.62441E+00
 -1      5613-2.41495E-01-6.46171E-02-4.35465E+00
 -1      5614-1.60085E-01-4.75435E-02-1.72546E+00
 -1      5615-3.43674E-03-1.79451E-02-2.47240E-01
 -1      5616-1.40241E-02-1.20124E-02-1.78972E-01
 -1      5617 0.00000E+00 0.00000E+00 0.00000E+00
 -1      5618 0.00000E+00 0.00000E+00 0.00000E+00
 -1      5619 0.00000E+00 0.00000E+00 0.00000E+00
 -1      5620 0.00000E+00 0.00000E+00 0.00000E+00
 -1      5621 3.74798E-02-6.12372E-03-4.35453E-01
 -1      5622 6.48218E-02-7.45167E-03-3.71288E-01
 -1      5623 4.51946E-02-5.75900E-03-5.59032E-01
 -1      5624 1.54291E-01-2.47703E-02-1.47355E+00
 -1      5625 2.05931E-01-2.81517E-02-2.32530E+00
 -1      5626 1.88689E-01-3.87951E-02-2.76995E+00
 -1      5627 4.17838E-01-6.01272E-02-9.69466E+00
 -1      5628 2.89840E-01-7.95483E-02-1.21047E+01
 -1      5629 8.67180E-02-1.31834E-01-1.73414E+01
 -1      5630 5.44872E-02-1.34467E-01-1.74882E+01
 -1      5631 7.88492E-02-1.41793E-01-1.75697E+01
 -1      5632-2.42423E-01-1.14267E-01-1.54591E+01
 -1      5633-1.95790E-01-9.54257E-02-9.24275E+00
 -1      5634-4.10073E-01-8.75572E-02-7.91869E+00
 -1      5635-1.91582E-01-6.82574E-02-2.87398E+00
 -1      5636-2.70130E-01-5.73864E-02-2.33314E+00
 -1      5637-6.20254E-02-3.97118E-02-5.52995E-01
 -1      5638-7.78172E-02-4.41504E-02-5.65358E-01
 -1      5639-5.72259E-02-2.48323E-02-4.01831E-01
 -1      5640 1.12331E-03-1.73942E-02-2.33615E-01
 -1      5641-1.26044E-02-1.31022E-02-1.21010E-01
 -1      5642 2.51700E-01-2.92512E-02-5.43728E+00
 -1      5643 3.04041E-01-4.24175E-02-8.31876E+00
 -1      5644 2.25678E-01-9.49671E-02-1.48840E+01
 -1      5645 1.44496E-01-1.21324E-01-1.63278E+01
 -1      5646 1.24007E-01-1.33344E-01-1.74603E+01
 -1      5647-1.08428E-01-1.30806E-01-1.75664E+01
 -1      5648-3.28057E-01-9.63769E-02-9.29397E+00
 -1      5649-2.92248E-01-6.98766E-02-5.50571E+00
 -1      5650 0.00000E+00 0.00000E+00 0.00000E+00
 -1      5651-1.75338E-02-2.90072E-02-1.24210E-01
 -1      5652-1.12514E-02-2.81855E-02-1.56566E-01
 -1      5653 8.98183E-02-2.23984E-02-4.56851E-01
 -1      5654 3.23055E-01-3.69395E-02-2.55795E+00
 -1      5655 4.12469E-01-3.38417E-02-5.76311E+00
 -1      5656 2.05831E-01-6.55213E-02-1.15006E+01
 -1      5657 4.29795E-01-9.35470E-02-1.30011E+01
 -1      5658 4.12854E-01-1.10012E-01-1.50914E+01
 -1      5659 2.78039E-01-1.33452E-01-1.60484E+01
 -1      5660 5.33395E-02-1.40710E-01-1.78172E+01
 -1      5661-6.82067E-02-1.18435E-01-1.79122E+01
 -1      5662-1.97256E-01-1.18273E-01-1.60991E+01
 -1      5663-3.64436E-01-1.09117E-01-1.52074E+01
 -1      5664-2.76844E-01-8.04752E-02-6.13688E+00
 -1      5665-4.22671E-01-6.69460E-02-4.66492E+00
 -1      5666-3.86204E-01-7.48471E-02-2.65519E+00
 -1      5667-1.03638E-01-5.32635E-02-1.52220E+00
 -1      5668-1.26646E-01-4.38612E-02-4.92814E-01
 -1      5669-1.55513E-02-1.96628E-02-1.74696E-01
 -1      5670 1.05545E-01-2.26499E-02-1.59229E+00
 -1      5671 4.13044E-01-2.90367E-02-4.52198E+00
 -1      5672 2.69932E-01-5.45809E-02-9.66870E+00
 -1      5673 2.35656E-02-1.31262E-01-1.78517E+01
 -1      5674-8.51392E-02-1.25108E-01-1.78427E+01
 -1      5675-1.65938E-01-1.28329E-01-1.75070E+01
 -1      5676-4.42963E-01-1.08491E-01-1.31440E+01
 -1      5677-1.13963E-02-1.71470E-02-1.44269E-01
 -1      5678 4.92712E-01-5.80549E-02-9.36979E+00
 -1      5679 5.30888E-01-7.97424E-02-1.17810E+01
 -1      5680-1.93151E-01-1.04770E-01-1.51244E+01
 -1      5681-4.43501E-01-1.06443E-01-1.18648E+01
 -1      5682-4.93787E-01-8.95935E-02-8.24049E+00
 -1      5683-5.22655E-01-7.84373E-02-5.86596E+00
 -1      5684 0.00000E+00 0.00000E+00 0.00000E+00
 -1      5685 0.00000E+00 0.00000E+00 0.00000E+00
 -1      5686 4.05349E-02-2.26991E-02-1.44560E-01
 -1      5687 1.40269E-01-3.14040E-02-4.83449E-01
 -1      5688 2.28420E-01-2.58446E-02-1.56417E+00
 -1      5689 3.30959E-01-3.14177E-02-2.53545E+00
 -1      5690 1.48393E-01-2.68829E-02-2.50724E+00
 -1      5691 3.80152E-01-3.75344E-02-5.76810E+00
 -1      5692 4.39991E-01-4.62863E-02-8.08749E+00
 -1      5693 4.14998E-01-5.70761E-02-9.47871E+00
 -1      5694 4.53417E-01-8.05293E-02-1.18001E+01
 -1      5695 3.76432E-01-9.20172E-02-1.31521E+01
 -1      5696 3.69069E-01-1.07178E-01-1.50745E+01
 -1      5697 1.08396E-01-1.39210E-01-1.73187E+01
 -1      5698-6.32459E-02-1.28230E-01-1.78909E+01
 -1      5699-1.68459E-01-1.25826E-01-1.74836E+01
 -1      5700-1.04878E-01-1.24415E-01-1.74115E+01
 -1      5701-3.65116E-01-1.09557E-01-1.52054E+01
 -1      5702-3.82859E-01-1.09157E-01-1.32174E+01
 -1      5703-4.12190E-01-1.04881E-01-1.18393E+01
 -1      5704-4.58752E-01-9.69914E-02-9.49646E+00
 -1      5705-4.28883E-01-8.96592E-02-8.10335E+00
 -1      5706-3.68169E-01-6.23761E-02-4.47934E+00
 -1      5707-3.35751E-01-7.12918E-02-2.61315E+00
 -1      5708-1.93921E-01-6.91147E-02-2.87669E+00
 -1      5709-9.69798E-02-3.13965E-02-4.92605E-01
 -1      5710 0.00000E+00 0.00000E+00 0.00000E+00
 -1      5711 2.81907E-01-3.58860E-02-2.33850E+00
 -1      5712 2.17952E-01-6.95947E-02-1.13917E+01
 -1      5713 3.87757E-01-1.08701E-01-1.52797E+01
 -1      5714 9.85222E-02-1.25520E-01-1.74773E+01
 -1      5715 6.32086E-02-1.42921E-01-1.77875E+01
 -1      5716 4.26445E-02-1.44468E-01-1.78447E+01
 -1      5717-1.35848E-01-1.05304E-01-1.60365E+01
 -1      5718-1.74469E-01-1.11942E-01-1.49509E+01
 -1      5719-7.66425E-02-3.92300E-02-3.91753E-01
 -1      5720-3.16640E-02-3.17021E-02-1.41115E-01
 -1      5721 1.02368E-01-3.71891E-02-4.14054E-01
 -1      5722 1.71463E-01-2.32227E-02-2.76007E+00
 -1      5723 2.07847E-01-2.49507E-02-4.65117E+00
 -1      5724 3.04033E-01-1.02957E-01-1.53948E+01
 -1      5725 3.46257E-02-1.31530E-01-1.76951E+01
 -1      5726-9.30351E-02-1.14620E-01-1.75858E+01
 -1      5727-2.41915E-01-1.01001E-01-1.54605E+01
 -1      5728-3.18620E-01-8.95769E-02-9.16804E+00
 -1      5729-2.23766E-01-6.93581E-02-2.36573E+00
 -1      5730-2.03958E-02-3.05618E-02-1.75564E-01
 -1      5731 0.00000E+00 0.00000E+00 0.00000E+00
 -1      5732 8.60018E-02-3.96490E-02-3.78529E-01
 -1      5733 2.96111E-01-5.82353E-02-9.72028E+00
 -1      5734 2.06060E-01-9.87276E-02-1.48148E+01
 -1      5735-3.09993E-01-1.03732E-01-1.16172E+01
 -1      5736-7.32972E-02-2.73200E-02-5.16502E-01
 -1      5737-2.38374E-02-2.03582E-02-1.08456E-01
 -1      5738 0.00000E+00 0.00000E+00 0.00000E+00
 -1      5739 0.00000E+00 0.00000E+00 0.00000E+00
 -1      5740 1.74848E-01-3.34542E-02-5.15170E-01
 -1      5741 1.62174E-01-2.22666E-02-1.44246E+00
 -1      5742 1.78701E-01-2.60691E-02-2.54953E+00
 -1      5743 2.60657E-01-2.46890E-02-4.35392E+00
 -1      5744 3.68022E-01-5.37404E-02-9.50253E+00
 -1      5745 5.31415E-01-7.91101E-02-1.16120E+01
 -1      5746 2.78357E-01-8.11501E-02-1.27518E+01
 -1      5747 1.90819E-01-1.14145E-01-1.58373E+01
 -1      5748 1.90706E-01-1.38368E-01-1.62792E+01
 -1      5749 6.71645E-02-1.23764E-01-1.74228E+01
 -1      5750 3.35507E-02-1.29928E-01-1.77359E+01
 -1      5751-6.41090E-02-1.14503E-01-1.77688E+01
 -1      5752-1.62794E-01-1.11868E-01-1.63679E+01
 -1      5753-1.39788E-01-1.02816E-01-1.53829E+01
 -1      5754-1.85187E-01-1.09559E-01-1.51845E+01
 -1      5755-4.45171E-01-9.07209E-02-9.14799E+00
 -1      5756-3.02419E-01-9.22596E-02-7.99003E+00
 -1      5757-5.38975E-01-7.79366E-02-5.96878E+00
 -1      5758-2.97482E-01-7.89236E-02-2.29050E+00
 -1      5759-1.90225E-01-5.44833E-02-1.73773E+00
 -1      5760-1.74245E-01-3.79134E-02-1.47875E+00
 -1      5761-7.50396E-02-4.87205E-02-3.30619E-01
 -1      5762 0.00000E+00 0.00000E+00 0.00000E+00
 -1      5763 4.19817E-02-2.74411E-02-1.53967E-01
 -1      5764 7.45607E-02-2.92215E-02-4.58071E-01
 -1      5765 2.49854E-01-3.23105E-02-1.57777E+00
 -1      5766 3.08418E-01-3.51428E-02-5.73513E+00
 -1      5767 3.36339E-01-4.27928E-02-7.97183E+00
 -1      5768 4.27015E-01-5.08004E-02-8.44934E+00
 -1      5769 3.33724E-01-8.87318E-02-1.30540E+01
 -1      5770 2.23125E-01-1.25288E-01-1.60538E+01
 -1      5771-1.06277E-01-1.21161E-01-1.74731E+01
 -1      5772-2.94007E-01-1.04143E-01-1.62087E+01
 -1      5773-3.50109E-01-1.10187E-01-1.32500E+01
 -1      5774-3.61788E-01-1.01779E-01-1.28406E+01
 -1      5775-3.45534E-01-1.04689E-01-1.18138E+01
 -1      5776-3.68230E-01-9.34037E-02-8.26648E+00
 -1      5777-5.85360E-02-4.04925E-02-4.17098E-01
 -1      5778-2.99351E-02-2.95773E-02-1.24901E-01
 -1      5779 2.32601E-01 2.28145E-03-2.21958E+00
 -1      5780-2.70778E-01-1.44968E-01-1.56139E+01
 -1      5781 0.00000E+00 0.00000E+00 0.00000E+00
 -1      5782 0.00000E+00 0.00000E+00 0.00000E+00
 -1      5783 4.98321E-02 2.21603E-02-8.25730E-02
 -1      5784 7.83663E-02 2.85269E-02-3.16879E-01
 -1      5785 1.78823E-01 6.39962E-03-1.84023E+00
 -1      5786 4.59578E-01-1.45135E-02-4.75840E+00
 -1      5787 3.65124E-01-1.28759E-02-4.89661E+00
 -1      5788 4.08504E-01-5.43814E-02-9.26564E+00
 -1      5789 4.55714E-01-5.72876E-02-9.04228E+00
 -1      5790 4.72949E-01-9.78733E-02-1.21695E+01
 -1      5791 5.85539E-01-1.09574E-01-1.25167E+01
 -1      5792 3.39459E-01-1.26533E-01-1.51359E+01
 -1      5793 1.75331E-01-1.85060E-01-1.75879E+01
 -1      5794-1.48772E-01-1.68811E-01-1.80319E+01
 -1      5795-1.63542E-01-1.86421E-01-1.77639E+01
 -1      5796-4.70193E-01-1.24743E-01-1.29748E+01
 -1      5797-3.82718E-01-1.22492E-01-1.28241E+01
 -1      5798-4.22852E-01-8.67142E-02-8.42941E+00
 -1      5799-4.67717E-01-8.80807E-02-8.64127E+00
 -1      5800-4.54186E-01-6.22829E-02-5.73060E+00
 -1      5801-4.16004E-01-4.49271E-02-2.74170E+00
 -1      5802-2.19887E-01-3.12875E-02-1.68199E+00
 -1      5803-1.56796E-01 2.22159E-03-5.58171E-01
 -1      5804-5.91605E-02 2.65754E-02-2.86945E-01
 -1      5805 0.00000E+00 0.00000E+00 0.00000E+00
 -1      5806 4.03488E-01-1.43062E-02-5.30869E+00
 -1      5807 4.16383E-01-5.09778E-02-8.58445E+00
 -1      5808 2.67347E-01-8.33113E-02-1.22035E+01
 -1      5809 5.36828E-01-9.83592E-02-1.23010E+01
 -1      5810-1.40834E-01-1.76405E-01-1.79641E+01
 -1      5811-2.13011E-01-1.35874E-01-1.64667E+01
 -1      5812-2.13876E-01-1.39968E-01-1.59861E+01
 -1      5813-4.16265E-01-1.22205E-01-1.24051E+01
 -1      5814-4.32580E-01-9.54557E-02-9.09969E+00
 -1      5815 4.76995E-01-1.83362E-02-5.40515E+00
 -1      5816 5.62693E-01-2.24271E-02-5.94054E+00
 -1      5817 3.42509E-01-4.51644E-02-6.74092E+00
 -1      5818 2.47071E-01-4.45469E-02-6.73689E+00
 -1      5819 3.21527E-01-4.93167E-02-7.02030E+00
 -1      5820 3.41768E-01-5.42968E-02-1.06052E+01
 -1      5821 2.32475E-01-4.93295E-02-1.05852E+01
 -1      5822 3.08730E-01-5.40416E-02-1.10263E+01
 -1      5823 4.23227E-01-8.81637E-02-1.42420E+01
 -1      5824 1.94762E-01-7.32327E-02-1.41461E+01
 -1      5825 1.95636E-01-7.93936E-02-1.44693E+01
 -1      5826 8.81958E-04-7.84171E-02-1.82655E+01
 -1      5827 3.77942E-03-6.98023E-02-1.82379E+01
 -1      5828 5.23298E-03-8.91523E-02-1.82995E+01
 -1      5829-3.50599E-01-9.27526E-02-1.09372E+01
 -1      5830-2.50754E-01-9.18179E-02-1.09383E+01
 -1      5831-3.28052E-01-8.97680E-02-1.06483E+01
 -1      5832-4.08753E-01-7.28854E-02-3.55830E+00
 -1      5833-2.04307E-01-8.04244E-02-3.70346E+00
 -1      5834-2.70763E-01-7.96849E-02-3.31526E+00
 -1      5835-1.58861E-01-8.14796E-02-9.87014E-01
 -1      5836-7.47241E-02-8.49602E-02-1.04255E+00
 -1      5837-1.18418E-01-7.56869E-02-8.34940E-01
 -1      5838 0.00000E+00 0.00000E+00 0.00000E+00
 -1      5839 2.07697E-01-1.80525E-03-1.58773E+00
 -1      5840 2.54926E-01-6.19705E-02-3.42650E+00
 -1      5841 2.61052E-01-5.83019E-02-3.76780E+00
 -1      5842 1.87529E-01-6.90779E-02-3.21272E+00
 -1      5843 3.70224E-01-9.67076E-02-1.32301E+01
 -1      5844-1.84070E-01-1.60093E-01-1.75463E+01
 -1      5845-2.76636E-01-1.37350E-01-1.62975E+01
 -1      5846-2.55378E-01-8.66684E-02-6.80813E+00
 -1      5847-2.47267E-01-8.58383E-02-7.10906E+00
 -1      5848-4.04711E-01-8.75816E-02-7.04601E+00
 -1      5849 1.07940E-01 1.61378E-03-4.93378E-01
 -1      5850 2.51692E-01-1.46554E-01-1.62056E+01
 -1      5851-1.93310E-02-6.71339E-02-1.82313E+01
 -1      5852-4.53885E-01-8.68270E-02-8.17460E+00
 -1      5853-3.40630E-01-8.43652E-02-3.51368E+00
 -1      5854-2.44900E-01-3.60020E-02-1.74949E+00
 -1      5855-5.82693E-02-1.46184E-01-1.79288E+01
 -1      5856-5.30254E-02-1.41133E-01-1.79785E+01
 -1      5857-4.00070E-02-1.35737E-01-1.80188E+01
 -1      5858-1.48735E-01-1.53994E-01-1.75133E+01
 -1      5859-1.70555E-01-1.58167E-01-1.74000E+01
 -1      5860-1.37234E-01-1.50734E-01-1.74877E+01
 -1      5861-2.96724E-01-1.17335E-01-1.32975E+01
 -1      5862-3.45216E-01-1.18493E-01-1.34366E+01
 -1      5863-3.94065E-01-1.22028E-01-1.35630E+01
 -1      5864-4.46097E-01-1.13648E-01-1.20044E+01
 -1      5865-4.15040E-01-1.08984E-01-1.15582E+01
 -1      5866-3.40038E-01-1.10715E-01-1.18910E+01
 -1      5867 2.15924E-01-2.10332E-02-2.66777E+00
 -1      5868 2.48799E-01-1.67072E-02-2.54399E+00
 -1      5869 3.72083E-01-1.52843E-02-2.74823E+00
 -1      5870 2.58181E-01-1.16723E-01-1.49018E+01
 -1      5871 3.04034E-01-1.21995E-01-1.49192E+01
 -1      5872 2.15587E-01-1.16898E-01-1.51058E+01
 -1      5873-3.69323E-01-9.71488E-02-9.75275E+00
 -1      5874-3.19749E-01-9.73301E-02-9.87686E+00
 -1      5875-4.41512E-01-9.68344E-02-9.49296E+00
 -1      5876 1.61910E-02 2.72387E-03-1.56624E-01
 -1      5877 7.39134E-02 5.40774E-02-7.95516E-01
 -1      5878 6.87801E-02 5.24762E-02-9.35807E-01
 -1      5879 1.65291E-01 6.35254E-02-8.18591E-01
 -1      5880 2.42447E-01 4.31835E-03-3.20904E+00
 -1      5881 1.62056E-01 8.74750E-03-3.52528E+00
 -1      5882 3.31138E-01 1.35090E-02-3.43069E+00
 -1      5883 2.91242E-01-1.56331E-02-4.22580E+00
 -1      5884 3.70744E-01-4.07781E-02-7.79494E+00
 -1      5885 5.20691E-01-7.92636E-02-1.05417E+01
 -1      5886 2.93728E-01-6.91141E-02-1.04322E+01
 -1      5887 3.27579E-01-7.54594E-02-1.08738E+01
 -1      5888 3.82763E-01-1.00938E-01-1.31808E+01
 -1      5889 4.38057E-01-9.40836E-02-1.28074E+01
 -1      5890 3.43837E-01-1.53746E-01-1.42124E+01
 -1      5891 2.22564E-01-1.42014E-01-1.40045E+01
 -1      5892 2.13600E-01-1.45792E-01-1.44104E+01
 -1      5893-9.30511E-02-1.95949E-01-1.71543E+01
 -1      5894-9.05258E-02-1.97887E-01-1.69829E+01
 -1      5895-1.97113E-01-2.07060E-01-1.70572E+01
 -1      5896-3.84055E-01-1.12352E-01-1.29201E+01
 -1      5897-4.06183E-01-8.71072E-02-8.11775E+00
 -1      5898-4.40401E-01-6.92305E-02-5.84662E+00
 -1      5899-3.75252E-01-5.64852E-02-4.53721E+00
 -1      5900-3.49528E-01-1.55239E-02-3.53012E+00
 -1      5901-2.26761E-01-1.86016E-02-3.71745E+00
 -1      5902-2.22469E-01-2.50701E-02-3.33560E+00
 -1      5903-5.37865E-03 2.08911E-03-1.77584E-01
 -1      5904 0.00000E+00 0.00000E+00 0.00000E+00
 -1      5905 4.12043E-01-3.02313E-02-4.89531E+00
 -1      5906 5.45730E-01-2.54590E-02-5.93061E+00
 -1      5907 3.48157E-01-4.84790E-02-9.02825E+00
 -1      5908 5.69970E-01-8.94799E-02-1.16628E+01
 -1      5909 8.43426E-02-1.64982E-01-1.77851E+01
 -1      5910-1.16627E-01-1.56862E-01-1.79403E+01
 -1      5911-3.33501E-01-1.24585E-01-1.58785E+01
 -1      5912-5.85730E-01-1.25658E-01-1.33622E+01
 -1      5913-3.48261E-01-9.10868E-02-8.61719E+00
 -1      5914-3.53396E-01-8.93899E-02-7.89269E+00
 -1      5915-5.67605E-01-6.84520E-02-6.01487E+00
 -1      5916 2.74724E-01 8.98172E-03-3.53459E+00
 -1      5917 3.65210E-01-2.73015E-02-5.35450E+00
 -1      5918 6.11712E-01-4.86936E-02-7.91931E+00
 -1      5919 3.72472E-01-7.39447E-02-1.08634E+01
 -1      5920 3.01801E-01-1.48584E-01-1.43014E+01
 -1      5921 1.26009E-01-2.03056E-01-1.71340E+01
 -1      5922 8.65728E-02-2.07553E-01-1.71385E+01
 -1      5923 5.99673E-02-2.01004E-01-1.69288E+01
 -1      5924-4.41533E-01-1.28557E-01-1.51179E+01
 -1      5925-3.17675E-01-1.37766E-01-1.42041E+01
 -1      5926-1.99308E-01-1.39491E-01-1.42212E+01
 -1      5927-2.79356E-01-1.47161E-01-1.45368E+01
 -1      5928-4.25484E-01-1.12453E-01-1.27529E+01
 -1      5929-4.09635E-01-1.11404E-01-1.23580E+01
 -1      5930-2.94644E-01-2.13857E-02-3.42684E+00
 -1      5931-7.39916E-02-1.96162E-02-3.89362E-01
 -1      5932-1.36734E-02-2.55226E-03-9.81516E-02
 -1      5933 3.58501E-01-1.67695E-02-2.64445E+00
 -1      5934 3.93378E-01-8.49034E-02-1.22713E+01
 -1      5935 7.60632E-02-1.72500E-01-1.79477E+01
 -1      5936-5.69547E-01-9.91366E-02-9.75062E+00
 -1      5937-3.55136E-01-4.50980E-02-1.63902E+00
 -1      5938 0.00000E+00 0.00000E+00 0.00000E+00
 -1      5939 2.76528E-02-5.20289E-03-9.62254E-02
 -1      5940 1.05626E-01 7.80097E-03-5.11618E-01
 -1      5941 7.42261E-02-4.99536E-03-3.63277E-01
 -1      5942 2.48613E-01-2.06306E-02-2.28289E+00
 -1      5943 3.08507E-01-7.97588E-02-1.20500E+01
 -1      5944 1.59728E-01-1.77421E-01-1.74097E+01
 -1      5945 1.46512E-01-1.56801E-01-1.75587E+01
 -1      5946-1.12878E-01-1.48458E-01-1.79098E+01
 -1      5947-1.68693E-01-1.43730E-01-1.75748E+01
 -1      5948-1.05955E-01-1.39261E-01-1.75180E+01
 -1      5949-2.96330E-01-1.17673E-01-1.55202E+01
 -1      5950-6.01352E-01-1.11333E-01-1.21326E+01
 -1      5951-6.08963E-01-6.86097E-02-5.25885E+00
 -1      5952-3.76489E-01-5.90184E-02-2.45799E+00
 -1      5953-1.17512E-01-6.29504E-03-5.73474E-01
 -1      5954 0.00000E+00 0.00000E+00 0.00000E+00
 -1      5955 0.00000E+00 0.00000E+00 0.00000E+00
 -1      5956-1.22308E-01-1.35557E-01-1.78979E+01
 -1      5957-1.38623E-01-4.12621E-02-5.28252E-01
 -1      5958-6.18564E-02-2.15681E-02-4.13289E-01
 -1      5959 0.00000E+00 0.00000E+00 0.00000E+00
 -1      5960 0.00000E+00 0.00000E+00 0.00000E+00
 -1      5961 3.19008E-02-7.56759E-03-1.11964E-01
 -1      5962 9.37664E-02-2.54252E-03-4.13616E-01
 -1      5963 1.15034E-01-1.77211E-02-5.19420E-01
 -1      5964 3.39620E-01-4.53214E-02-8.38660E+00
 -1      5965 4.25688E-01-4.76564E-02-8.54316E+00
 -1      5966 4.32472E-01-5.07509E-02-8.95565E+00
 -1      5967 6.12882E-01-9.58283E-02-1.24084E+01
 -1      5968 3.94543E-01-1.12643E-01-1.50347E+01
 -1      5969 2.32210E-01-1.16371E-01-1.53201E+01
 -1      5970 1.76869E-01-1.50674E-01-1.74166E+01
 -1      5971-1.78018E-01-1.30782E-01-1.74343E+01
 -1      5972-3.61607E-01-1.13029E-01-1.28686E+01
 -1      5973-3.94969E-01-1.10895E-01-1.27786E+01
 -1      5974-3.64305E-01-1.05462E-01-1.16481E+01
 -1      5975-4.32624E-01-9.05550E-02-8.66584E+00
 -1      5976 2.50587E-01-2.08860E-02-2.26276E+00
 -1      5977 4.50280E-01-2.14858E-02-4.25782E+00
 -1      5978 5.84844E-01-5.06085E-02-7.82247E+00
 -1      5979 5.62007E-01-8.93693E-02-1.21954E+01
 -1      5980 8.57071E-02-1.52323E-01-1.77125E+01
 -1      5981-2.31671E-01-1.17552E-01-1.63810E+01
 -1      5982-2.32955E-01-1.16000E-01-1.59053E+01
 -1      5983-2.93246E-01-1.20988E-01-1.55280E+01
 -1      5984-4.10654E-01-1.10169E-01-1.23673E+01
 -1      5985-4.41468E-01-9.54289E-02-9.08123E+00
 -1      5986-4.26195E-01-7.27774E-02-2.75469E+00
 -1      5987 0.00000E+00 0.00000E+00 0.00000E+00
 -1      5988 0.00000E+00 0.00000E+00 0.00000E+00
 -1      5989 0.00000E+00 0.00000E+00 0.00000E+00
 -1      5990 3.63176E-01-3.03411E-02-4.88363E+00
 -1      5991 3.86779E-01-2.76072E-02-5.29089E+00
 -1      5992 3.42602E-01-5.64801E-02-6.72497E+00
 -1      5993 2.47526E-01-5.70057E-02-6.71899E+00
 -1      5994 3.24493E-01-6.00499E-02-6.99518E+00
 -1      5995 5.30354E-01-5.56392E-02-9.07421E+00
 -1      5996 2.28640E-01-7.75290E-02-1.69610E+01
 -1      5997 7.24516E-02-6.73370E-02-1.68221E+01
 -1      5998 1.23724E-01-6.83025E-02-1.70813E+01
 -1      5999-5.08285E-02-7.48860E-02-1.80837E+01
 -1      6000-2.17354E-02-6.32761E-02-1.80728E+01
 -1      6001-1.38854E-02-9.61821E-02-1.81135E+01
 -1      6002-1.27400E-02-7.36842E-02-1.80652E+01
 -1      6003-3.70284E-01-1.18566E-01-1.59440E+01
 -1      6004-4.04414E-01-1.06859E-01-1.22351E+01
 -1      6005-3.66187E-01-1.03106E-01-1.08973E+01
 -1      6006-2.66882E-01-1.03737E-01-1.09063E+01
 -1      6007-3.07890E-01-1.02137E-01-1.05595E+01
 -1      6008-5.30957E-01-9.10174E-02-8.54029E+00
 -1      6009 3.31732E-01-3.02080E-02-1.53527E+00
 -1      6010-3.61326E-01-1.13811E-01-1.62622E+01
 -1      6011-3.17532E-01-8.39170E-02-1.42372E+01
 -1      6012-3.33565E-01-9.28691E-02-1.38930E+01
 -1      6013-2.29813E-01-8.64990E-02-1.44258E+01
 -1      6014-5.03202E-01-8.02563E-02-6.03860E+00
 -1      6015-4.47492E-01-6.56088E-02-2.34530E+00
 -1      6016 0.00000E+00 0.00000E+00 0.00000E+00
 -1      6017 0.00000E+00 0.00000E+00 0.00000E+00
 -1      6018 0.00000E+00 0.00000E+00 0.00000E+00
 -1      6019 0.00000E+00 0.00000E+00 0.00000E+00
 -1      6020 2.59231E-01-2.89879E-02-1.66511E+00
 -1      6021 4.61188E-01-4.84132E-02-8.04512E+00
 -1      6022 1.61943E-01-6.96458E-02-1.68856E+01
 -1      6023-1.94582E-01-6.64831E-02-2.75042E+00
 -1      6024-1.39388E-01-1.09493E-01-9.46966E-01
 -1      6025-8.41704E-02-9.68097E-02-8.07345E-01
 -1      6026-1.11357E-01-1.00386E-01-1.00039E+00
 -1      6027 0.00000E+00 0.00000E+00 0.00000E+00
 -1      6028 0.00000E+00 0.00000E+00 0.00000E+00
 -1      6029 0.00000E+00 0.00000E+00 0.00000E+00
 -1      6030 0.00000E+00 0.00000E+00 0.00000E+00
 -1      6031 9.75899E-02-3.80980E-02-5.64681E-01
 -1      6032 1.02063E-01-3.03849E-02-4.85629E-01
 -1      6033 1.02038E-01-3.60236E-02-5.57359E-01
 -1      6034 2.97052E-01-3.42662E-02-2.77642E+00
 -1      6035 2.52328E-01-3.24732E-02-2.56778E+00
 -1      6036 2.21744E-01-2.99104E-02-2.66992E+00
 -1      6037 3.10785E-01-3.31416E-02-2.83903E+00
 -1      6038 4.36460E-01-3.56743E-02-5.64370E+00
 -1      6039 4.01446E-01-3.84476E-02-6.07210E+00
 -1      6040 3.32298E-01-3.40350E-02-5.75813E+00
 -1      6041 3.68372E-01-7.68910E-02-1.14831E+01
 -1      6042 3.62897E-01-7.57202E-02-1.15999E+01
 -1      6043 5.90072E-01-8.07095E-02-1.13488E+01
 -1      6044 3.65063E-01-1.02271E-01-1.47532E+01
 -1      6045 2.92728E-01-1.02136E-01-1.48999E+01
 -1      6046 2.49612E-01-1.01325E-01-1.49899E+01
 -1      6047 5.00722E-02-3.89008E-02-1.72431E-01
 -1      6048 3.80246E-01-2.87324E-02-4.48547E+00
 -1      6049 6.11937E-01-4.72452E-02-7.83002E+00
 -1      6050 5.41333E-01-7.14826E-02-1.04915E+01
 -1      6051 3.16359E-01-6.36678E-02-1.03650E+01
 -1      6052 2.89338E-01-7.15455E-02-1.08097E+01
 -1      6053-8.10940E-02-1.25387E-01-1.78485E+01
 -1      6054-4.04574E-01-1.10068E-01-1.08902E+01
 -1      6055-2.75653E-01-1.07360E-01-1.08739E+01
 -1      6056-2.92440E-01-1.04427E-01-1.05675E+01
 -1      6057-4.70516E-01-7.70545E-02-5.84725E+00
 -1      6058 0.00000E+00 0.00000E+00 0.00000E+00
 -1      6059 9.17426E-02-3.25503E-02-1.22670E-01
 -1      6060 2.84019E-01-3.95366E-02-1.86579E+00
 -1      6061 5.60728E-01-2.99836E-02-4.29122E+00
 -1      6062 4.23530E-01-5.26003E-02-8.45284E+00
 -1      6063 5.01820E-01-5.34027E-02-8.95127E+00
 -1      6064 5.67904E-01-8.17196E-02-1.16346E+01
 -1      6065-2.06582E-01-1.25592E-01-1.74406E+01
 -1      6066-3.62823E-01-1.08296E-01-1.63619E+01
 -1      6067-3.22164E-01-9.79828E-02-1.59271E+01
 -1      6068-2.97641E-01-1.07543E-01-1.61449E+01
 -1      6069-5.92441E-01-1.12310E-01-1.33342E+01
 -1      6070-4.46410E-01-1.01269E-01-1.28643E+01
 -1      6071-6.20809E-01-9.83015E-02-9.71080E+00
 -1      6072-3.76091E-01-8.96434E-02-7.88220E+00
 -1      6073-6.33261E-01-7.89787E-02-6.01052E+00
 -1      6074-4.70534E-01-6.52492E-02-4.30864E+00
 -1      6075-1.26508E-01-5.54665E-02-3.44654E-01
 -1      6076 2.33836E-01-3.75709E-02-1.92076E+00
 -1      6077 2.74191E-01-4.60956E-02-2.22769E+00
 -1      6078 2.97956E-01 2.39943E-03-3.47846E+00
 -1      6079 1.89761E-01 8.30406E-03-3.47960E+00
 -1      6080 2.49835E-01 6.22706E-03-3.22601E+00
 -1      6081 3.62671E-01-3.37922E-02-4.83139E+00
 -1      6082 5.57889E-01-4.30538E-02-5.89014E+00
 -1      6083 4.02088E-01-7.33430E-02-1.07959E+01
 -1      6084-2.79895E-01-9.83164E-02-1.58568E+01
 -1      6085-4.45715E-01-1.10980E-01-1.50931E+01
 -1      6086-3.30492E-01-1.43129E-01-1.41641E+01
 -1      6087-2.27305E-01-1.49346E-01-1.41720E+01
 -1      6088-2.87111E-01-1.49536E-01-1.44280E+01
 -1      6089-4.05432E-01-1.05816E-01-1.05796E+01
 -1      6090-5.10383E-01-9.47728E-02-8.62593E+00
 -1      6091-4.05658E-01-7.27137E-02-6.78649E+00
 -1      6092-2.98472E-01-6.96339E-02-6.79759E+00
 -1      6093-3.07310E-01-7.14722E-02-7.16944E+00
 -1      6094-4.28021E-01-7.34719E-02-5.39818E+00
 -1      6095-2.63275E-01-7.51065E-02-1.99493E+00
 -1      6096-3.10579E-01-6.96483E-02-1.90029E+00
 -1      6097-4.80634E-02-3.54080E-02-1.14665E-01
 -1      6098 3.96254E-01-3.74016E-02-5.28101E+00
 -1      6099 4.18454E-01-7.82776E-02-1.22080E+01
 -1      6100 3.52382E-01-1.43619E-01-1.62205E+01
 -1      6101 1.30097E-01-1.18857E-01-1.75335E+01
 -1      6102-3.09238E-01-9.34251E-02-1.55215E+01
 -1      6103-4.21305E-01-9.95391E-02-1.23328E+01
 -1      6104-4.64477E-01-7.63761E-02-4.98542E+00
 -1      6105-3.89322E-01-5.66673E-02-1.57651E+00
 -1      6106-5.83616E-02-4.72421E-02-8.54051E-02
 -1      6107 0.00000E+00 0.00000E+00 0.00000E+00
 -1      6108 1.13577E-01-4.93594E-02-3.84085E-01
 -1      6109 4.43939E-01-4.70658E-02-2.48037E+00
 -1      6110 3.87151E-01-4.07681E-02-5.34141E+00
 -1      6111 4.54526E-01-5.63480E-02-9.07743E+00
 -1      6112 3.29385E-01-7.42881E-02-1.19796E+01
 -1      6113 4.72617E-01-1.08286E-01-1.49450E+01
 -1      6114 1.05122E-01-1.38682E-01-1.78261E+01
 -1      6115-8.27149E-02-1.24404E-01-1.78832E+01
 -1      6116-1.31464E-01-1.04946E-01-1.76170E+01
 -1      6117-4.36745E-01-9.98984E-02-1.53046E+01
 -1      6118-3.50745E-01-7.77767E-02-5.57692E+00
 -1      6119-3.77198E-01-6.81342E-02-4.53212E+00
 -1      6120-4.57456E-01-8.42662E-02-2.71595E+00
 -1      6121 0.00000E+00 0.00000E+00 0.00000E+00
 -1      6122 0.00000E+00 0.00000E+00 0.00000E+00
 -1      6123 0.00000E+00 0.00000E+00 0.00000E+00
 -1      6124 5.60354E-02 2.60409E-02-1.56798E-01
 -1      6125 1.25323E-01 2.78309E-02-3.92358E-01
 -1      6126 2.86287E-01 1.35296E-02-1.78115E+00
 -1      6127 2.87159E-01 6.08733E-03-1.46129E+00
 -1      6128 4.23282E-01 2.26344E-02-2.09050E+00
 -1      6129 3.70941E-01 4.16853E-03-2.41344E+00
 -1      6130 6.48171E-01-1.50378E-02-4.52911E+00
 -1      6131 6.12448E-01-1.34809E-02-5.50269E+00
 -1      6132 7.02402E-01-5.26852E-02-8.16232E+00
 -1      6133 5.01429E-01-1.11149E-01-1.31065E+01
 -1      6134 3.42581E-01-1.46304E-01-1.53834E+01
 -1      6135 3.73115E-01-1.69021E-01-1.59289E+01
 -1      6136 3.18053E-01-1.61554E-01-1.61582E+01
 -1      6137 3.33138E-01-1.62300E-01-1.64132E+01
 -1      6138 1.35661E-01-1.90979E-01-1.77025E+01
 -1      6139 1.42431E-01-2.09104E-01-1.78005E+01
 -1      6140 1.29515E-01-2.07809E-01-1.79296E+01
 -1      6141 1.30659E-01-2.01957E-01-1.80320E+01
 -1      6142-2.06995E-01-1.88932E-01-1.76634E+01
 -1      6143-3.46242E-01-1.52644E-01-1.60947E+01
 -1      6144-4.37458E-01-1.59047E-01-1.63558E+01
 -1      6145-4.94777E-01-1.61592E-01-1.57544E+01
 -1      6146-4.33961E-01-1.48273E-01-1.53951E+01
 -1      6147-6.16384E-01-1.31659E-01-1.32764E+01
 -1      6148-6.24852E-01-1.22845E-01-1.21569E+01
 -1      6149-5.86243E-01-1.12816E-01-1.18291E+01
 -1      6150-6.74491E-01-9.88151E-02-9.41758E+00
 -1      6151-5.51699E-01-9.23238E-02-9.10172E+00
 -1      6152-5.89395E-01-8.18378E-02-7.96636E+00
 -1      6153-5.93434E-01-4.71654E-02-5.24413E+00
 -1      6154-5.77170E-01-4.42818E-02-4.67836E+00
 -1      6155-3.46271E-01-3.48958E-02-2.54073E+00
 -1      6156-3.29910E-01-2.21251E-02-1.86684E+00
 -1      6157-2.90521E-01-1.87622E-02-2.05827E+00
 -1      6158-1.23918E-01 8.65750E-03-4.83175E-01
 -1      6159-1.27144E-01 1.91630E-02-3.95202E-01
 -1      6160-8.50724E-02 2.60781E-02-2.19695E-01
 -1      6161 0.00000E+00 0.00000E+00 0.00000E+00
 -1      6162 3.59446E-02 1.68363E-02-7.52429E-02
 -1      6163 1.12481E-01 4.04688E-02-2.78851E-01
 -1      6164 6.27510E-01-2.79139E-02-4.29850E+00
 -1      6165 6.12958E-01-5.66423E-02-8.73618E+00
 -1      6166 4.84816E-01-1.11059E-01-1.34480E+01
 -1      6167 4.56145E-01-1.76959E-01-1.57557E+01
 -1      6168 1.43996E-01-2.02835E-01-1.77968E+01
 -1      6169 9.90175E-02-1.99031E-01-1.78900E+01
 -1      6170 7.34644E-02-1.74514E-01-1.80927E+01
 -1      6171-1.13014E-01-1.55207E-01-1.80606E+01
 -1      6172-3.76315E-01-1.50406E-01-1.64500E+01
 -1      6173-7.14414E-01-9.40152E-02-8.94585E+00
 -1      6174-4.75153E-01-4.94035E-02-4.37381E+00
 -1      6175-6.54892E-02 2.58539E-02-3.09635E-01
 -1      6176-5.91350E-02 9.63932E-03-1.48071E-01
 -1      6177 0.00000E+00 0.00000E+00 0.00000E+00
 -1      6178 0.00000E+00 0.00000E+00 0.00000E+00
 -1      6179 0.00000E+00 0.00000E+00 0.00000E+00
 -1      6180 0.00000E+00 0.00000E+00 0.00000E+00
 -1      6181 1.03301E-02 8.13174E-03 1.46237E-03
 -1      6182 3.27226E-02 1.83156E-02-8.32013E-03
 -1      6183 4.57023E-02-3.35333E-02-7.63574E-01
 -1      6184 1.54743E-01-2.60830E-02-1.19630E+00
 -1      6185 2.46326E-01-1.06291E-02-1.15727E+00
 -1      6186 3.31529E-01-2.33542E-02-2.79923E+00
 -1      6187 5.44086E-01-2.88541E-02-3.05864E+00
 -1      6188 4.87657E-01-5.40680E-02-3.40538E+00
 -1      6189 4.13473E-01-3.77340E-02-3.77723E+00
 -1      6190 3.40165E-01-4.82515E-02-7.05556E+00
 -1      6191 3.99440E-01-5.04566E-02-7.40462E+00
 -1      6192 5.06686E-01-4.68699E-02-7.31000E+00
 -1      6193 5.79591E-01-6.28734E-02-9.73390E+00
 -1      6194 6.63861E-01-6.43439E-02-1.04121E+01
 -1      6195 4.69378E-01-5.89414E-02-1.00109E+01
 -1      6196 4.91564E-01-6.67348E-02-1.11829E+01
 -1      6197 5.72976E-01-1.09313E-01-1.27259E+01
 -1      6198 3.58674E-01-1.57432E-01-1.63784E+01
 -1      6199 1.32034E-01-1.03761E-01-1.70032E+01
 -1      6200 1.44238E-01-1.35170E-01-1.73779E+01
 -1      6201 1.95772E-01-1.51957E-01-1.73495E+01
 -1      6202-2.11537E-02-8.63718E-02-1.82103E+01
 -1      6203-7.22643E-02-1.17676E-01-1.82179E+01
 -1      6204-1.92414E-01-1.98246E-01-1.78075E+01
 -1      6205-1.54363E-01-1.86273E-01-1.78462E+01
 -1      6206-1.09147E-01-9.57591E-02-1.71300E+01
 -1      6207-1.91668E-01-1.33524E-01-1.72969E+01
 -1      6208-2.79990E-01-1.29690E-01-1.71580E+01
 -1      6209-3.84848E-01-1.16994E-01-1.49224E+01
 -1      6210-2.19671E-01-8.77519E-02-1.45225E+01
 -1      6211-4.90824E-01-1.16160E-01-1.46828E+01
 -1      6212-7.16889E-01-1.26007E-01-1.34353E+01
 -1      6213-4.84749E-01-9.92688E-02-1.14540E+01
 -1      6214-4.04054E-01-9.72530E-02-1.12698E+01
 -1      6215-6.62760E-01-1.02500E-01-1.09888E+01
 -1      6216-3.50184E-01-9.37057E-02-1.06175E+01
 -1      6217-4.12242E-01-9.16485E-02-1.02619E+01
 -1      6218-6.72545E-01-9.85873E-02-1.06109E+01
 -1      6219-5.03334E-01-8.52913E-02-7.10750E+00
 -1      6220-4.54976E-01-8.76528E-02-6.59089E+00
 -1      6221-4.95559E-01-8.24123E-02-6.53259E+00
 -1      6222-5.21006E-01-4.87865E-02-4.96045E+00
 -1      6223-3.01753E-01-3.35549E-02-1.57303E+00
 -1      6224-2.53714E-01-4.81000E-02-1.33237E+00
 -1      6225 0.00000E+00 0.00000E+00 0.00000E+00
 -1      6226 0.00000E+00 0.00000E+00 0.00000E+00
 -1      6227 0.00000E+00 0.00000E+00 0.00000E+00
 -1      6228 0.00000E+00 0.00000E+00 0.00000E+00
 -1      6229 0.00000E+00 0.00000E+00 0.00000E+00
 -1      6230 0.00000E+00 0.00000E+00 0.00000E+00
 -1      6231 0.00000E+00 0.00000E+00 0.00000E+00
 -1      6232 0.00000E+00 0.00000E+00 0.00000E+00
 -1      6233 0.00000E+00 0.00000E+00 0.00000E+00
 -1      6234 0.00000E+00 0.00000E+00 0.00000E+00
 -1      6235 4.97904E-02 2.15156E-02-1.95988E-01
 -1      6236 1.33552E-01 2.70749E-02-3.38014E-01
 -1      6237 5.00210E-02-3.96435E-02-9.27032E-01
 -1      6238 2.80969E-01 5.96225E-03-1.79379E+00
 -1      6239 4.30594E-01-8.13567E-03-2.57970E+00
 -1      6240 4.80855E-01-3.11061E-02-6.21782E+00
 -1      6241 4.13111E-01-3.83614E-02-6.41383E+00
 -1      6242 6.83103E-01-5.58098E-02-8.52818E+00
 -1      6243 4.28942E-01-1.03304E-01-1.37365E+01
 -1      6244 3.01268E-01-9.75932E-02-1.47720E+01
 -1      6245 1.16559E-01-1.09171E-01-1.71670E+01
 -1      6246 1.70734E-01-1.95843E-01-1.77065E+01
 -1      6247 9.55120E-02-1.93930E-01-1.79094E+01
 -1      6248 1.22888E-02-1.19390E-01-1.82036E+01
 -1      6249 2.94597E-02-1.41376E-01-1.82237E+01
 -1      6250-1.50571E-01-1.60202E-01-1.80295E+01
 -1      6251-1.24261E-01-1.72178E-01-1.78903E+01
 -1      6252-1.90760E-01-1.18942E-01-1.67839E+01
 -1      6253-3.38104E-01-1.44932E-01-1.60452E+01
 -1      6254-5.38166E-01-1.09048E-01-1.47708E+01
 -1      6255-3.03917E-01-1.03114E-01-1.39288E+01
 -1      6256-2.58075E-01-8.76841E-02-1.41682E+01
 -1      6257-6.06565E-01-9.64880E-02-9.18075E+00
 -1      6258-4.96139E-01-8.19945E-02-7.65386E+00
 -1      6259-4.04207E-01-8.84912E-02-7.44624E+00
 -1      6260-5.06094E-01-5.98156E-02-5.50661E+00
 -1      6261-3.05159E-01-6.54623E-02-3.07455E+00
 -1      6262-4.57864E-01-1.27041E-02-2.19136E+00
 -1      6263-1.28246E-01-5.74149E-02-7.42083E-01
 -1      6264 0.00000E+00 0.00000E+00 0.00000E+00
 -1      6265-7.31250E-04 8.17231E-03-2.96470E-02
 -1      6266 0.00000E+00 0.00000E+00 0.00000E+00
 -1      6267 0.00000E+00 0.00000E+00 0.00000E+00
 -1      6268 2.80623E-01-4.32956E-02-1.08896E+00
 -1      6269 4.40899E-01-2.00009E-02-4.69047E+00
 -1      6270 5.54075E-01-1.07727E-01-1.28573E+01
 -1      6271 4.45146E-01-7.82235E-02-1.40946E+01
 -1      6272 3.49267E-01-1.61966E-01-1.59931E+01
 -1      6273-7.20071E-02-9.05477E-02-1.81805E+01
 -1      6274-9.10871E-02-1.50452E-01-1.79767E+01
 -1      6275-1.92080E-01-1.78105E-01-1.77080E+01
 -1      6276-2.92898E-01-1.33684E-01-1.73827E+01
 -1      6277-5.68202E-01-8.87103E-02-8.46047E+00
 -1      6278 0.00000E+00 0.00000E+00 0.00000E+00
 -1      6279 1.67950E-01-4.75308E-02-8.81416E-01
 -1      6280 4.69972E-01-6.10161E-02-3.13386E+00
 -1      6281 6.21605E-01-4.79779E-02-6.65336E+00
 -1      6282 5.45603E-01-5.49911E-02-1.04492E+01
 -1      6283 4.86717E-01-5.74975E-02-1.07904E+01
 -1      6284 3.68017E-01-8.52892E-02-1.44317E+01
 -1      6285 2.67762E-01-1.04971E-01-1.69629E+01
 -1      6286-2.14767E-01-1.04108E-01-1.71176E+01
 -1      6287-3.90515E-01-9.24104E-02-1.44146E+01
 -1      6288-6.30845E-01-9.40044E-02-1.10189E+01
 -1      6289 0.00000E+00 0.00000E+00 0.00000E+00
 -1      6290 0.00000E+00 0.00000E+00 0.00000E+00
 -1      6291 0.00000E+00 0.00000E+00 0.00000E+00
 -1      6292 0.00000E+00 0.00000E+00 0.00000E+00
 -1      6293-1.53515E-02 1.41634E-03-1.01130E-01
 -1      6294 3.88402E-02 4.34263E-03-3.99617E-02
 -1      6295 2.85570E-02 8.45939E-03-1.73079E-01
 -1      6296 1.30905E-01 8.86620E-03-4.24964E-01
 -1      6297 9.31215E-02 4.36224E-03-4.61441E-01
 -1      6298 1.50544E-01 6.47083E-03-5.41865E-01
 -1      6299 1.42723E-01 8.45587E-04-1.49515E+00
 -1      6300 2.30436E-01 1.94317E-05-1.69640E+00
 -1      6301 3.07191E-01-1.30488E-02-2.45138E+00
 -1      6302 3.35405E-01-1.94014E-02-2.76912E+00
 -1      6303 3.91260E-01-2.17858E-02-5.69712E+00
 -1      6304 5.10383E-01-2.24790E-02-6.10088E+00
 -1      6305 3.69229E-01-4.99783E-02-7.92231E+00
 -1      6306 4.71004E-01-5.12723E-02-8.21448E+00
 -1      6307 5.44151E-01-5.74455E-02-9.27043E+00
 -1      6308 6.76562E-01-6.23373E-02-9.69269E+00
 -1      6309 4.69168E-01-1.01642E-01-1.29741E+01
 -1      6310 5.68445E-01-1.13272E-01-1.36053E+01
 -1      6311 6.17264E-01-1.14509E-01-1.34966E+01
 -1      6312 2.99365E-01-1.49401E-01-1.60806E+01
 -1      6313 1.81737E-01-1.41203E-01-1.63368E+01
 -1      6314 8.65636E-02-1.73835E-01-1.80689E+01
 -1      6315 8.78040E-02-1.84778E-01-1.79168E+01
 -1      6316-9.98856E-02-1.59189E-01-1.79058E+01
 -1      6317-2.06910E-01-1.62635E-01-1.76031E+01
 -1      6318-2.31298E-01-1.62352E-01-1.74458E+01
 -1      6319-3.31222E-01-1.25560E-01-1.53174E+01
 -1      6320-4.21203E-01-1.29194E-01-1.49952E+01
 -1      6321-5.74925E-01-1.21183E-01-1.30065E+01
 -1      6322-4.94169E-01-1.09910E-01-1.15721E+01
 -1      6323-7.07524E-01-9.75698E-02-9.25719E+00
 -1      6324-3.39511E-01-7.04797E-02-6.01769E+00
 -1      6325-4.99875E-01-6.68292E-02-5.70714E+00
 -1      6326-4.60984E-01-5.37376E-02-4.76477E+00
 -1      6327-3.18443E-01-5.41625E-02-4.35700E+00
 -1      6328-3.36735E-01-5.01786E-02-2.80409E+00
 -1      6329-2.98683E-01-4.94710E-02-2.61940E+00
 -1      6330-2.82672E-01-3.43925E-02-1.85011E+00
 -1      6331-1.53896E-01-3.89923E-02-1.57243E+00
 -1      6332-3.28141E-01-4.10107E-02-1.52122E+00
 -1      6333-2.21256E-01-9.15665E-02-1.08033E+00
 -1      6334 9.04976E-03 4.22337E-03-1.32544E-01
 -1      6335-3.67655E-02 1.10649E-02-2.29755E-01
 -1      6336 0.00000E+00 0.00000E+00 0.00000E+00
 -1      6337 0.00000E+00 0.00000E+00 0.00000E+00
 -1      6338 7.68912E-02 1.84983E-03-5.27964E-01
 -1      6339 5.96712E-01-2.47903E-02-4.07589E+00
 -1      6340 2.62364E-01-2.45932E-02-4.34498E+00
 -1      6341 4.09041E-01-2.49301E-02-4.62513E+00
 -1      6342 3.79447E-01-2.06547E-02-6.06813E+00
 -1      6343 3.36795E-01-5.46559E-02-9.81233E+00
 -1      6344 3.96720E-01-5.46579E-02-9.47144E+00
 -1      6345 5.46777E-01-5.99697E-02-9.89948E+00
 -1      6346 4.70421E-01-8.38383E-02-1.16218E+01
 -1      6347 3.14130E-01-7.75717E-02-1.16045E+01
 -1      6348 4.05747E-01-8.47178E-02-1.19481E+01
 -1      6349 2.97826E-01-9.89088E-02-1.34248E+01
 -1      6350 4.11864E-01-1.00072E-01-1.30393E+01
 -1      6351 3.37806E-01-1.25257E-01-1.50467E+01
 -1      6352 3.59462E-01-1.32326E-01-1.53024E+01
 -1      6353 5.18163E-01-1.51498E-01-1.54655E+01
 -1      6354 1.88208E-01-1.82489E-01-1.73834E+01
 -1      6355 1.09220E-01-1.66214E-01-1.74740E+01
 -1      6356 1.83787E-01-1.77904E-01-1.76334E+01
 -1      6357 1.47972E-02-1.54546E-01-1.80250E+01
 -1      6358 1.09497E-01-1.79866E-01-1.80891E+01
 -1      6359-1.14048E-01-1.53213E-01-1.80587E+01
 -1      6360-3.01736E-01-1.37618E-01-1.61466E+01
 -1      6361-1.84027E-01-1.29822E-01-1.63804E+01
 -1      6362-2.49954E-01-1.20981E-01-1.50632E+01
 -1      6363-3.31480E-01-8.50657E-02-7.87925E+00
 -1      6364-4.05598E-01-8.61254E-02-8.19987E+00
 -1      6365-5.93888E-01-8.72577E-02-7.88697E+00
 -1      6366-7.03887E-01-8.81623E-02-7.73451E+00
 -1      6367-3.82279E-01-5.49145E-02-4.64716E+00
 -1      6368-4.07424E-01-4.97782E-02-2.98730E+00
 -1      6369-2.20104E-01-5.15846E-02-2.79933E+00
 -1      6370-3.45235E-01-3.55963E-02-1.41050E+00
 -1      6371-8.65186E-02 7.85021E-03-5.96634E-01
 -1      6372-2.47080E-01-8.08966E-03-5.86767E-01
 -1      6373-1.56340E-01 9.74501E-03-6.66088E-01
 -1      6374-1.41867E-01-2.67286E-03-4.92663E-01
 -1      6375 0.00000E+00 0.00000E+00 0.00000E+00
 -1      6376 0.00000E+00 0.00000E+00 0.00000E+00
 -1      6377 1.43755E-02 5.76314E-03-1.63450E-01
 -1      6378 4.24802E-01-1.71269E-02-2.85849E+00
 -1      6379 3.51584E-01-2.35015E-02-4.16020E+00
 -1      6380 7.61744E-01-2.36592E-02-4.57641E+00
 -1      6381 3.11445E-01-4.93797E-02-7.88795E+00
 -1      6382 5.09092E-01-5.01164E-02-7.59004E+00
 -1      6383 4.35974E-01-8.71545E-02-1.19637E+01
 -1      6384 3.06609E-01-1.51672E-01-1.60564E+01
 -1      6385 1.81446E-01-1.42285E-01-1.63186E+01
 -1      6386 3.42867E-01-1.59227E-01-1.65089E+01
 -1      6387 4.09010E-02-1.66591E-01-1.79259E+01
 -1      6388-6.41436E-01-1.28813E-01-1.36604E+01
 -1      6389-6.81619E-01-9.94633E-02-1.00392E+01
 -1      6390-5.70518E-01-7.08501E-02-6.26259E+00
 -1      6391-3.54021E-01-7.07533E-02-6.12704E+00
 -1      6392-4.81143E-01-6.74422E-02-5.70974E+00
 -1      6393-2.57365E-01-5.49444E-02-4.40751E+00
 -1      6394-4.97765E-01-5.03948E-02-4.14878E+00
 -1      6395-2.86619E-01-4.40241E-02-1.83487E+00
 -1      6396-4.78349E-03 5.00524E-03-1.93248E-01
 -1      6397 0.00000E+00 0.00000E+00 0.00000E+00
 -1      6398 0.00000E+00 0.00000E+00 0.00000E+00
 -1      6399 2.72017E-02 6.89841E-03-1.87552E-01
 -1      6400 4.75959E-01-2.20198E-02-4.68793E+00
 -1      6401 5.09544E-01-5.05695E-02-7.69858E+00
 -1      6402 6.62417E-01-5.25159E-02-8.35790E+00
 -1      6403 3.61542E-01-8.04502E-02-1.15809E+01
 -1      6404 6.33855E-01-8.97776E-02-1.14085E+01
 -1      6405 4.70132E-01-1.33706E-01-1.48314E+01
 -1      6406 2.08291E-01-1.88583E-01-1.73970E+01
 -1      6407 1.64121E-01-1.69874E-01-1.75899E+01
 -1      6408 4.92331E-02-1.65017E-01-1.80189E+01
 -1      6409-4.30143E-01-1.28668E-01-1.49684E+01
 -1      6410-5.05962E-01-1.19908E-01-1.30242E+01
 -1      6411-6.32845E-01-9.95013E-02-9.97708E+00
 -1      6412-6.86315E-01-8.82660E-02-7.83003E+00
 -1      6413-2.71200E-01-5.09465E-02-2.80108E+00
 -1      6414-3.58707E-01-4.96813E-02-2.52968E+00
 -1      6415-1.01127E-01 7.89218E-03-5.95612E-01
 -1      6416-1.25659E-01-7.60088E-03-4.69936E-01
 -1      6417 0.00000E+00 0.00000E+00 0.00000E+00
 -1      6418 3.39423E-02 4.47008E-03-8.65026E-02
 -1      6419 1.36173E-01 1.16224E-02-5.58097E-01
 -1      6420 1.61067E-01 1.02629E-02-5.92790E-01
 -1      6421 2.80133E-01 5.39228E-03-1.33443E+00
 -1      6422 5.30384E-01-6.18897E-03-2.34575E+00
 -1      6423 4.72843E-01-1.00462E-01-1.29398E+01
 -1      6424-1.00861E-01-1.55452E-01-1.79863E+01
 -1      6425-9.59861E-02-1.53459E-01-1.78716E+01
 -1      6426-1.95000E-01-1.62817E-01-1.74532E+01
 -1      6427-5.35814E-01-1.50871E-01-1.63503E+01
 -1      6428-3.11667E-01-1.34953E-01-1.65677E+01
 -1      6429-3.36878E-01-1.41157E-01-1.60769E+01
 -1      6430-5.80143E-01-4.99075E-02-4.29412E+00
 -1      6431-3.47266E-01-3.36533E-02-1.51653E+00
 -1      6432-2.50563E-02-7.62396E-04-1.04137E-01
 -1      6433-4.21286E-02-1.79122E-03-7.20722E-02
 -1      6434 0.00000E+00 0.00000E+00 0.00000E+00
 -1      6435 0.00000E+00 0.00000E+00 0.00000E+00
 -1      6436 0.00000E+00 0.00000E+00 0.00000E+00
 -1      6437 0.00000E+00 0.00000E+00 0.00000E+00
 -1      6438 0.00000E+00 0.00000E+00 0.00000E+00
 -1      6439 2.57042E-01-2.29383E-01-1.68804E+01
 -1      6440 1.89485E-01-2.27514E-01-1.71347E+01
 -1      6441 2.22125E-01-1.86340E-01-1.74464E+01
 -1      6442 8.25521E-02-1.76466E-01-1.78461E+01
 -1      6443-2.39743E-03-2.57460E-01-1.81395E+01
 -1      6444-4.45123E-03-2.24597E-01-1.81304E+01
 -1      6445-1.38433E-02-2.69075E-01-1.81284E+01
 -1      6446-2.38187E-01 3.44845E-02-1.09088E+00
 -1      6447-5.14393E-02 4.18961E-02-9.70063E-01
 -1      6448-1.60162E-01 4.32512E-02-8.38083E-01
 -1      6449-1.72353E-01-4.41408E-03-5.59041E-01
 -1      6450 0.00000E+00 0.00000E+00 0.00000E+00
 -1      6451 0.00000E+00 0.00000E+00 0.00000E+00
 -1      6452 0.00000E+00 0.00000E+00 0.00000E+00
 -1      6453 0.00000E+00 0.00000E+00 0.00000E+00
 -1      6454 0.00000E+00 0.00000E+00 0.00000E+00
 -1      6455 1.34380E-01 5.35755E-02-6.80103E-01
 -1      6456 2.29351E-01 6.67410E-02-1.07108E+00
 -1      6457 3.16631E-01 9.16977E-03-3.80967E+00
 -1      6458 3.83166E-01-1.73952E-02-6.37314E+00
 -1      6459 2.40838E-01-2.25824E-02-6.87319E+00
 -1      6460 4.18279E-01-2.22719E-02-6.75933E+00
 -1      6461 5.66192E-01-2.87778E-02-7.13068E+00
 -1      6462 3.43444E-01-1.52828E-01-1.46190E+01
 -1      6463 3.20792E-01-1.44509E-01-1.59412E+01
 -1      6464 2.31066E-01-2.09688E-01-1.66717E+01
 -1      6465 1.51496E-01-2.07308E-01-1.72624E+01
 -1      6466-2.38746E-03-2.11962E-01-1.80870E+01
 -1      6467 3.02009E-03-2.14787E-01-1.81029E+01
 -1      6468-1.67815E-01-1.92831E-01-1.72812E+01
 -1      6469-2.43311E-01-2.13807E-01-1.72132E+01
 -1      6470-3.63890E-01-2.14187E-01-1.68688E+01
 -1      6471-2.30629E-01-1.65375E-01-1.66228E+01
 -1      6472-3.02921E-01-1.45030E-01-1.43543E+01
 -1      6473-4.97097E-01-1.50313E-01-1.41190E+01
 -1      6474-5.01294E-01-1.17859E-01-1.13287E+01
 -1      6475-2.68801E-01-1.12785E-01-1.07646E+01
 -1      6476-4.48517E-01-1.16425E-01-1.08859E+01
 -1      6477-5.93445E-01-1.16206E-01-1.05169E+01
 -1      6478-5.70610E-01-6.54289E-02-7.11484E+00
 -1      6479-2.88382E-01-6.98418E-02-7.17681E+00
 -1      6480-3.19446E-01-6.94940E-02-6.79991E+00
 -1      6481-4.68571E-01-7.10819E-02-6.32371E+00
 -1      6482-3.43625E-01-2.88139E-02-3.14911E+00
 -1      6483-1.76985E-01-4.05326E-03-1.27678E+00
 -1      6484-1.07659E-01 4.14426E-02-7.86112E-01
 -1      6485 2.49958E-03 6.95185E-03-9.61712E-03
 -1      6486 0.00000E+00 0.00000E+00 0.00000E+00
 -1      6487 1.52084E-01 6.51024E-03-3.70572E-01
 -1      6488 1.37548E-01 1.43178E-02-5.19717E-01
 -1      6489 1.99942E-01 2.42938E-02-1.25117E+00
 -1      6490 3.32296E-01-8.02762E-03-1.87781E+00
 -1      6491 3.95684E-01-1.35049E-02-2.26901E+00
 -1      6492 3.82218E-01-1.37172E-02-2.66105E+00
 -1      6493 3.87824E-01-4.95412E-03-3.99487E+00
 -1      6494 5.46741E-01-2.27884E-02-4.32945E+00
 -1      6495 3.63046E-01-2.79280E-02-7.02956E+00
 -1      6496 4.36259E-01-3.95187E-02-7.52099E+00
 -1      6497 5.55529E-01-5.47363E-02-9.01465E+00
 -1      6498 7.88740E-01-6.53607E-02-9.67013E+00
 -1      6499 5.73159E-01-9.25234E-02-1.22274E+01
 -1      6500 5.02934E-01-1.06813E-01-1.33098E+01
 -1      6501 4.03642E-01-1.29316E-01-1.50062E+01
 -1      6502 4.33021E-01-1.38710E-01-1.54326E+01
 -1      6503 3.49478E-01-1.53380E-01-1.62607E+01
 -1      6504 1.71168E-01-1.91743E-01-1.66319E+01
 -1      6505-1.27307E-02-2.20779E-01-1.81204E+01
 -1      6506-2.11020E-01-1.52250E-01-1.76442E+01
 -1      6507-2.11352E-01-1.63363E-01-1.74651E+01
 -1      6508-4.38471E-01-1.29040E-01-1.55313E+01
 -1      6509-3.89176E-01-1.12531E-01-1.05981E+01
 -1      6510-5.13691E-01-1.03523E-01-1.00767E+01
 -1      6511-4.86697E-01-9.43238E-02-9.20112E+00
 -1      6512-5.62256E-01-9.27919E-02-8.63537E+00
 -1      6513-7.13821E-01-8.73308E-02-7.99319E+00
 -1      6514-7.78342E-01-7.42619E-02-7.62249E+00
 -1      6515-4.49076E-01-7.90168E-02-7.61259E+00
 -1      6516-5.09986E-01-5.98341E-02-4.85834E+00
 -1      6517-4.94410E-01-6.42009E-02-4.96631E+00
 -1      6518-5.10508E-01-5.54993E-02-4.40836E+00
 -1      6519-3.81268E-01-5.10625E-02-2.85694E+00
 -1      6520-3.70540E-01-5.15576E-02-2.40825E+00
 -1      6521-3.23335E-01-4.08273E-02-1.61583E+00
 -1      6522-6.83769E-02-9.69314E-03-2.73716E-01
 -1      6523 5.03444E-04 6.12824E-04-1.44888E-02
 -1      6524 0.00000E+00 0.00000E+00 0.00000E+00
 -1      6525 0.00000E+00 0.00000E+00 0.00000E+00
 -1      6526 0.00000E+00 0.00000E+00 0.00000E+00
 -1      6527 0.00000E+00 0.00000E+00 0.00000E+00
 -1      6528 1.06905E-02-2.48998E-03-1.21606E-02
 -1      6529 1.37377E-01 4.74804E-02-7.42928E-01
 -1      6530 2.36937E-01 5.71991E-02-8.96177E-01
 -1      6531 2.96926E-01 4.67745E-03-1.47731E+00
 -1      6532 3.47578E-01-1.73870E-03-2.93285E+00
 -1      6533 6.13265E-01-2.76573E-02-6.79451E+00
 -1      6534 3.70122E-01-7.07826E-02-1.05337E+01
 -1      6535 6.75435E-01-9.79805E-02-1.24282E+01
 -1      6536 3.80838E-01-1.41345E-01-1.46981E+01
 -1      6537 4.79742E-01-1.39332E-01-1.56199E+01
 -1      6538 1.58770E-01-1.96713E-01-1.72974E+01
 -1      6539-3.36419E-04-2.22561E-01-1.81003E+01
 -1      6540-5.18019E-02-1.81034E-01-1.80386E+01
 -1      6541-1.77916E-01-1.92502E-01-1.72086E+01
 -1      6542-3.00485E-01-2.02376E-01-1.70297E+01
 -1      6543-3.58661E-01-1.35345E-01-1.63810E+01
 -1      6544-3.99348E-01-1.46733E-01-1.48244E+01
 -1      6545-6.36734E-01-1.18463E-01-1.08312E+01
 -1      6546-6.28460E-01-7.11038E-02-7.02456E+00
 -1      6547-8.67135E-01-6.84471E-02-5.25877E+00
 -1      6548-3.26150E-01-1.94429E-02-3.73455E+00
 -1      6549-3.55734E-01-4.36332E-02-3.06192E+00
 -1      6550-3.38329E-01-5.58078E-02-2.28798E+00
 -1      6551-3.18614E-01-5.86081E-02-2.07404E+00
 -1      6552-2.43244E-01 2.90016E-02-8.80189E-01
 -1      6553-1.25771E-01 1.31807E-02-6.71656E-01
 -1      6554-1.26509E-01-1.62801E-02-4.10190E-01
 -1      6555 0.00000E+00 0.00000E+00 0.00000E+00
 -1      6556 0.00000E+00 0.00000E+00 0.00000E+00
 -1      6557 0.00000E+00 0.00000E+00 0.00000E+00
 -1      6558 0.00000E+00 0.00000E+00 0.00000E+00
 -1      6559 4.86316E-01-7.51717E-03-3.76098E+00
 -1      6560 6.07003E-01-4.67008E-02-7.43260E+00
 -1      6561 6.99188E-01-5.48002E-02-8.70816E+00
 -1      6562 5.92893E-01-5.98830E-02-9.68663E+00
 -1      6563 7.30276E-01-7.93553E-02-1.04489E+01
 -1      6564 4.42352E-01-6.39246E-02-1.00395E+01
 -1      6565 4.99512E-01-8.25373E-02-1.13453E+01
 -1      6566 5.15433E-01-8.62545E-02-1.16800E+01
 -1      6567 7.49667E-02-1.51892E-01-1.77425E+01
 -1      6568-1.14241E-01-1.81794E-01-1.80321E+01
 -1      6569-3.37530E-01-1.52880E-01-1.66130E+01
 -1      6570-6.64455E-01-1.30476E-01-1.39264E+01
 -1      6571-4.35684E-01-1.27802E-01-1.37206E+01
 -1      6572-6.31412E-01-1.02223E-01-1.01941E+01
 -1      6573-7.17077E-01-9.53203E-02-8.93327E+00
 -1      6574-5.97362E-01-8.89544E-02-7.95039E+00
 -1      6575-4.68399E-01-7.62150E-02-7.36997E+00
 -1      6576-6.42448E-01-7.43614E-02-6.48939E+00
 -1      6577-5.11626E-01-7.10620E-02-5.98784E+00
 -1      6578-3.41434E-01-2.89041E-02-4.01703E+00
 -1      6579-4.18575E-01-5.35861E-02-2.75366E+00
 -1      6580 0.00000E+00 0.00000E+00 0.00000E+00
 -1      6581 7.29310E-02-5.65033E-03-2.21610E-01
 -1      6582 1.06207E-01-5.11504E-03-3.20359E-01
 -1      6583 3.01925E-01-6.59916E-03-1.62585E+00
 -1      6584 8.71403E-01-2.73432E-02-4.30304E+00
 -1      6585 6.77551E-01-5.92233E-02-9.26350E+00
 -1      6586 5.95194E-01-9.39504E-02-1.23488E+01
 -1      6587 6.26908E-01-1.02551E-01-1.28829E+01
 -1      6588 3.99869E-01-1.27198E-01-1.53325E+01
 -1      6589 4.11651E-01-1.44714E-01-1.59481E+01
 -1      6590-1.57420E-01-1.41107E-01-1.77977E+01
 -1      6591-1.84049E-01-1.44086E-01-1.76883E+01
 -1      6592-3.61707E-01-1.30228E-01-1.62164E+01
 -1      6593-4.20272E-01-1.25011E-01-1.58710E+01
 -1      6594-5.89037E-01-1.13595E-01-1.25683E+01
 -1      6595-5.56979E-01-9.07409E-02-8.16779E+00
 -1      6596-1.01704E-01-2.47799E-02-4.26772E-01
 -1      6597-4.37509E-02-7.98392E-03-1.35137E-01
 -1      6598 0.00000E+00 0.00000E+00 0.00000E+00
 -1      6599 4.06291E-01-1.43224E-02-1.76752E+00
 -1      6600 3.64009E-01-2.04113E-02-2.37705E+00
 -1      6601 5.46641E-01-2.86169E-02-4.68779E+00
 -1      6602 5.64096E-01-3.07630E-02-5.52805E+00
 -1      6603 5.86161E-01-5.04787E-02-8.31971E+00
 -1      6604 5.38647E-01-8.79916E-02-1.20610E+01
 -1      6605 1.13518E-01-1.59881E-01-1.77822E+01
 -1      6606-4.67576E-01-1.26747E-01-1.60659E+01
 -1      6607-4.15360E-01-1.22551E-01-1.54091E+01
 -1      6608-5.78563E-01-1.15770E-01-1.29933E+01
 -1      6609-5.73198E-01-1.21589E-01-1.33426E+01
 -1      6610-6.18018E-01-1.11258E-01-1.18554E+01
 -1      6611-5.93638E-01-9.67494E-02-9.31079E+00
 -1      6612-6.92465E-01-9.15893E-02-8.37388E+00
 -1      6613-5.40994E-01-7.19871E-02-5.61240E+00
 -1      6614-6.18203E-01-6.36337E-02-4.80380E+00
 -1      6615-3.46133E-01-5.36795E-02-1.92275E+00
 -1      6616-3.37451E-02-1.45827E-02-2.77863E-01
 -1      6617-6.11286E-02-1.56653E-02-2.36338E-01
 -1      6618 0.00000E+00 0.00000E+00 0.00000E+00
 -1      6619 3.69415E-01-1.55501E-02-1.94592E+00
 -1      6620 5.14307E-01-2.29502E-02-2.49968E+00
 -1      6621 4.92399E-01-2.70430E-02-5.19191E+00
 -1      6622 5.70744E-01-3.62870E-02-5.84781E+00
 -1      6623 5.64294E-01-4.95088E-02-8.00689E+00
 -1      6624 3.29642E-01-1.41286E-01-1.57442E+01
 -1      6625 1.96059E-01-1.81079E-01-1.78940E+01
 -1      6626-5.08841E-01-1.26880E-01-1.56719E+01
 -1      6627-9.22969E-01-1.17815E-01-1.33957E+01
 -1      6628-5.26589E-01-1.12679E-01-1.24727E+01
 -1      6629-6.36403E-01-9.57789E-02-9.00203E+00
 -1      6630-5.59296E-01-8.87249E-02-8.16514E+00
 -1      6631-4.40926E-01-6.95113E-02-5.39512E+00
 -1      6632-3.00370E-01-5.50366E-02-2.06376E+00
 -1      6633-1.22043E-01-2.33029E-02-3.33315E-01
 -1      6634-1.16179E-01-1.94447E-02-1.44735E-01
 -1      6635 1.05448E-01-5.63712E-03-3.20725E-01
 -1      6636 3.21330E-01-2.29160E-02-1.49129E+00
 -1      6637 4.52108E-01-1.82030E-02-2.12770E+00
 -1      6638 6.31262E-01-3.10333E-02-5.16579E+00
 -1      6639 6.00794E-01-6.23646E-02-9.66963E+00
 -1      6640 5.25405E-01-1.05676E-01-1.33345E+01
 -1      6641 3.59256E-01-1.25766E-01-1.54939E+01
 -1      6642 3.49746E-01-1.40823E-01-1.62561E+01
 -1      6643 1.68220E-01-1.37146E-01-1.73738E+01
 -1      6644 1.40002E-01-1.51141E-01-1.76101E+01
 -1      6645 9.52990E-02-1.52817E-01-1.78867E+01
 -1      6646-1.90978E-01-1.44185E-01-1.76760E+01
 -1      6647-3.68015E-01-1.21603E-01-1.63675E+01
 -1      6648-5.86524E-01-1.13717E-01-1.33649E+01
 -1      6649-6.32375E-01-1.00576E-01-9.68132E+00
 -1      6650-6.02275E-01-8.76680E-02-7.95160E+00
 -1      6651-5.10067E-01-6.61192E-02-5.09433E+00
 -1      6652-5.20231E-01-6.00399E-02-4.35751E+00
 -1      6653-3.24536E-01-5.07107E-02-1.57702E+00
 -1      6654-1.32546E-01-4.83615E-02-5.47079E-01
 -1      6655-4.78666E-02-1.84868E-02-1.14330E-01
 -1      6656 0.00000E+00 0.00000E+00 0.00000E+00
 -1      6657 0.00000E+00 0.00000E+00 0.00000E+00
 -1      6658 0.00000E+00 0.00000E+00 0.00000E+00
 -1      6659 0.00000E+00 0.00000E+00 0.00000E+00
 -1      6660 0.00000E+00 0.00000E+00 0.00000E+00
 -1      6661-6.73389E-03-9.48606E-03-9.94231E-03
 -1      6662 1.25934E-01-4.74159E-02-6.93201E-01
 -1      6663 2.53526E-01-4.37392E-02-7.24755E-01
 -1      6664 7.24270E-02-6.53395E-02-8.70901E-01
 -1      6665 1.27689E-01-5.68367E-02-8.68345E-01
 -1      6666 3.87383E-01-4.20425E-02-2.95324E+00
 -1      6667 3.40206E-01-4.03967E-02-2.89539E+00
 -1      6668 2.04475E-01-5.26778E-02-3.28699E+00
 -1      6669 2.65072E-01-5.13923E-02-3.65111E+00
 -1      6670 5.39771E-01-4.70262E-02-3.53107E+00
 -1      6671 4.08137E-01-4.22249E-02-3.97335E+00
 -1      6672 5.70872E-01-3.75800E-02-5.88230E+00
 -1      6673 4.68719E-01-5.01496E-02-6.21907E+00
 -1      6674 3.93017E-01-5.59915E-02-6.39186E+00
 -1      6675 6.53226E-01-6.16788E-02-6.67684E+00
 -1      6676 5.06036E-01-6.51690E-02-1.00339E+01
 -1      6677 4.10033E-01-5.85668E-02-1.01763E+01
 -1      6678 6.84047E-01-6.98278E-02-1.03813E+01
 -1      6679 3.64702E-01-6.02803E-02-1.05293E+01
 -1      6680 5.70527E-01-1.00492E-01-1.32901E+01
 -1      6681 4.39708E-01-9.38404E-02-1.36599E+01
 -1      6682 2.76305E-01-7.54328E-02-1.38786E+01
 -1      6683 3.27918E-01-7.68622E-02-1.41064E+01
 -1      6684 2.07463E-01-7.05169E-02-1.42257E+01
 -1      6685 3.26562E-01-7.96385E-02-1.46177E+01
 -1      6686 2.49604E-01-1.15708E-01-1.65504E+01
 -1      6687 7.76231E-02-1.45035E-01-1.78729E+01
 -1      6688 5.58852E-02-1.32039E-01-1.80113E+01
 -1      6689-5.70075E-02-9.69802E-02-1.80618E+01
 -1      6690-4.33814E-02-8.83821E-02-1.80251E+01
 -1      6691-1.08580E-01-1.26405E-01-1.79135E+01
 -1      6692-1.93583E-01-1.00917E-01-1.73138E+01
 -1      6693-1.87324E-01-7.72657E-02-1.72218E+01
 -1      6694-3.17640E-01-1.00126E-01-1.72171E+01
 -1      6695-1.42378E-01-5.65641E-02-1.70381E+01
 -1      6696-2.45337E-01-7.17992E-02-1.70399E+01
 -1      6697-1.61230E-01-7.32766E-02-1.68107E+01
 -1      6698-3.56906E-01-8.97735E-02-1.65756E+01
 -1      6699-3.41555E-01-9.61528E-02-1.47219E+01
 -1      6700-4.46232E-01-1.03238E-01-1.47990E+01
 -1      6701-3.60435E-01-9.26734E-02-1.43322E+01
 -1      6702-6.04176E-01-1.08577E-01-1.17902E+01
 -1      6703-5.16624E-01-8.50704E-02-7.58829E+00
 -1      6704-2.77887E-01-9.00678E-02-7.11605E+00
 -1      6705-6.38250E-01-8.47966E-02-7.25825E+00
 -1      6706-3.69796E-01-9.19502E-02-6.63893E+00
 -1      6707-5.61751E-01-6.52764E-02-4.39251E+00
 -1      6708-3.08985E-01-1.06207E-01-3.59803E+00
 -1      6709-1.88405E-01-1.07388E-01-3.47329E+00
 -1      6710-2.94737E-01-1.08139E-01-3.16582E+00
 -1      6711-3.16494E-01-5.92929E-02-1.57120E+00
 -1      6712-6.05105E-02-2.61736E-02-2.66587E-01
 -1      6713 0.00000E+00 0.00000E+00 0.00000E+00
 -1      6714 0.00000E+00 0.00000E+00 0.00000E+00
 -1      6715 3.52033E-02-1.73921E-02-2.33631E-01
 -1      6716 1.53796E-01-6.37888E-02-1.17438E+00
 -1      6717 3.23284E-01-2.36053E-02-1.87295E+00
 -1      6718 4.62718E-01-3.90901E-02-2.62360E+00
 -1      6719 5.74197E-01-3.17032E-02-4.32125E+00
 -1      6720 5.57176E-01-3.47473E-02-5.35760E+00
 -1      6721 3.92465E-01-5.97407E-02-7.30734E+00
 -1      6722 6.03906E-01-5.15594E-02-8.45044E+00
 -1      6723 2.69773E-01-5.75587E-02-1.06588E+01
 -1      6724 3.64174E-01-5.71367E-02-1.10021E+01
 -1      6725 4.07104E-01-1.20759E-01-1.53665E+01
 -1      6726 3.42526E-01-1.39783E-01-1.58569E+01
 -1      6727 1.28202E-01-9.19347E-02-1.72124E+01
 -1      6728 1.55722E-01-1.47419E-01-1.75494E+01
 -1      6729-1.21583E-01-1.32784E-01-1.77737E+01
 -1      6730-1.81053E-01-1.37237E-01-1.76162E+01
 -1      6731-5.13445E-01-1.09943E-01-1.51379E+01
 -1      6732-5.05278E-01-1.01352E-01-1.13718E+01
 -1      6733-6.17954E-01-9.75348E-02-9.16395E+00
 -1      6734-7.07567E-01-8.97144E-02-7.94650E+00
 -1      6735-3.55203E-01-9.11940E-02-6.83914E+00
 -1      6736-2.57694E-01-1.03400E-01-3.80931E+00
 -1      6737-3.16065E-01-5.74769E-02-1.97777E+00
 -1      6738-1.00767E-01-7.27019E-02-6.89035E-01
 -1      6739-1.24671E-01-3.57365E-02-4.14388E-01
 -1      6740-2.04737E-02-1.45212E-02-8.12738E-03
 -1      6741 1.57124E-02 8.69444E-03-2.33439E-02
 -1      6742 0.00000E+00 0.00000E+00 0.00000E+00
 -1      6743 9.81520E-02-1.38780E-02-3.85826E-01
 -1      6744 3.11822E-01-8.36829E-02-1.09029E+00
 -1      6745 2.90110E-01-5.78698E-02-1.30056E+00
 -1      6746 5.21345E-01-5.02311E-02-2.92390E+00
 -1      6747 6.00105E-01-3.46899E-02-4.84983E+00
 -1      6748 4.90129E-01-6.06630E-02-1.10127E+01
 -1      6749 5.48365E-01-9.62501E-02-1.27496E+01
 -1      6750 4.76282E-01-7.61598E-02-1.45366E+01
 -1      6751-5.58545E-01-1.12248E-01-1.28565E+01
 -1      6752-4.29818E-01-1.01566E-01-1.12363E+01
 -1      6753-4.42685E-01-9.25909E-02-6.56385E+00
 -1      6754-5.20968E-01-7.30320E-02-5.52065E+00
 -1      6755-5.38180E-01-6.76132E-02-4.91499E+00
 -1      6756-4.47220E-01-1.14877E-01-3.16926E+00
 -1      6757 0.00000E+00 0.00000E+00 0.00000E+00
 -1      6758 0.00000E+00 0.00000E+00 0.00000E+00
 -1      6759 2.35478E-01-8.17585E-02-8.25821E-01
 -1      6760 3.49001E-01-6.54319E-02-3.36615E+00
 -1      6761 5.80169E-01-6.37561E-02-6.74224E+00
 -1      6762 4.96863E-01-6.07098E-02-1.05964E+01
 -1      6763 3.36566E-01-7.04040E-02-1.40838E+01
 -1      6764-2.11038E-02-7.61070E-02-1.80819E+01
 -1      6765-2.81843E-01-5.90095E-02-1.70826E+01
 -1      6766-5.05092E-01-8.58223E-02-1.44204E+01
 -1      6767-6.41256E-01-9.86093E-02-1.09851E+01
 -1      6768-4.18678E-01-9.88323E-02-1.06456E+01
 -1      6769-4.23009E-01-1.00551E-01-1.02421E+01
 -1      6770-6.48143E-01-9.36185E-02-7.19264E+00
 -1      6771-3.10300E-01-1.13177E-01-3.59971E+00
 -1      6772 0.00000E+00 0.00000E+00 0.00000E+00
 -1      6773-1.28638E-02-2.87754E-02-1.14617E-01
 -1      6774 8.22122E-03-3.92096E-02-1.76719E-01
 -1      6775 1.32078E-01-2.36401E-02-4.11475E-01
 -1      6776 3.41454E-01-3.51789E-02-2.43531E+00
 -1      6777 4.46692E-01-3.36049E-02-5.57346E+00
 -1      6778 5.14287E-01-3.96717E-02-6.06583E+00
 -1      6779 3.75950E-01-4.59348E-02-7.87852E+00
 -1      6780 6.86427E-01-5.36556E-02-8.34425E+00
 -1      6781 4.27649E-01-7.89703E-02-1.18603E+01
 -1      6782 3.18606E-01-1.32797E-01-1.59550E+01
 -1      6783 1.74069E-01-1.32853E-01-1.62541E+01
 -1      6784 2.76288E-01-1.37077E-01-1.63313E+01
 -1      6785 8.44668E-02-1.46034E-01-1.79008E+01
 -1      6786 1.04856E-01-1.43550E-01-1.77419E+01
 -1      6787-1.79388E-01-1.27003E-01-1.74190E+01
 -1      6788-1.95840E-01-1.28044E-01-1.75372E+01
 -1      6789-3.82293E-01-1.10179E-01-1.53341E+01
 -1      6790-2.86230E-01-1.07919E-01-1.51873E+01
 -1      6791-4.37970E-01-1.09825E-01-1.49338E+01
 -1      6792-5.44782E-01-1.09723E-01-1.30212E+01
 -1      6793-3.21898E-01-1.06609E-01-1.33895E+01
 -1      6794-4.75029E-01-1.07282E-01-1.20594E+01
 -1      6795-3.95347E-01-1.04577E-01-1.19149E+01
 -1      6796-5.11672E-01-1.02923E-01-1.15450E+01
 -1      6797-3.79045E-01-9.77373E-02-9.73983E+00
 -1      6798-7.18456E-01-9.62974E-02-9.24378E+00
 -1      6799-3.68083E-01-8.00262E-02-6.02517E+00
 -1      6800-4.33381E-01-7.58782E-02-5.77274E+00
 -1      6801-2.97978E-01-5.96347E-02-1.83472E+00
 -1      6802-1.61064E-01-4.70364E-02-1.54337E+00
 -1      6803-3.38054E-01-5.27920E-02-1.47715E+00
 -1      6804-4.89784E-02-3.00123E-02-9.66492E-02
 -1      6805-3.92031E-02-2.52700E-02-1.95253E-01
 -1      6806 0.00000E+00 0.00000E+00 0.00000E+00
 -1      6807 0.00000E+00 0.00000E+00 0.00000E+00
 -1      6808-1.68194E-02-2.98530E-02-1.00964E-01
 -1      6809 4.85493E-02-1.77978E-02-3.87272E-02
 -1      6810 2.57617E-01-2.64528E-02-1.72031E+00
 -1      6811 1.63090E-01-2.11467E-02-1.49680E+00
 -1      6812 3.84346E-01-2.77748E-02-4.26168E+00
 -1      6813 6.24045E-01-3.09188E-02-4.04381E+00
 -1      6814 2.69664E-01-2.69715E-02-4.31591E+00
 -1      6815 4.71732E-01-3.12896E-02-4.58056E+00
 -1      6816 3.49196E-01-5.46895E-02-9.61214E+00
 -1      6817 4.96301E-01-5.70171E-02-9.31239E+00
 -1      6818 4.68328E-01-5.80162E-02-9.79740E+00
 -1      6819 2.94694E-01-9.27856E-02-1.32800E+01
 -1      6820 4.37245E-01-9.37723E-02-1.29556E+01
 -1      6821 5.64283E-01-1.00287E-01-1.34532E+01
 -1      6822 3.69713E-01-1.04895E-01-1.49187E+01
 -1      6823 3.93582E-01-1.10636E-01-1.51918E+01
 -1      6824 5.52733E-01-1.21721E-01-1.53392E+01
 -1      6825 3.92120E-01-1.48174E-01-1.64249E+01
 -1      6826 1.68003E-01-1.30143E-01-1.73691E+01
 -1      6827 1.84936E-01-1.33973E-01-1.72485E+01
 -1      6828 1.14576E-01-1.26817E-01-1.73316E+01
 -1      6829 1.80531E-01-1.34675E-01-1.74595E+01
 -1      6830 3.47711E-02-1.38844E-01-1.77943E+01
 -1      6831 1.83384E-02-1.39049E-01-1.78760E+01
 -1      6832 1.14473E-01-1.51323E-01-1.79348E+01
 -1      6833-1.09283E-01-1.25173E-01-1.79731E+01
 -1      6834-4.09075E-02-1.26078E-01-1.79153E+01
 -1      6835-5.75770E-02-1.28231E-01-1.78510E+01
 -1      6836-1.22014E-01-1.27309E-01-1.74197E+01
 -1      6837-1.58561E-01-1.27292E-01-1.75022E+01
 -1      6838-2.25780E-01-1.27135E-01-1.73434E+01
 -1      6839-3.04367E-01-1.10716E-01-1.61027E+01
 -1      6840-2.15930E-01-1.12362E-01-1.64017E+01
 -1      6841-2.63068E-01-1.08785E-01-1.50141E+01
 -1      6842-3.44910E-01-1.02292E-01-1.16480E+01
 -1      6843-4.70314E-01-9.61031E-02-9.46179E+00
 -1      6844-6.09826E-01-8.89747E-02-7.90992E+00
 -1      6845-3.48662E-01-8.89564E-02-7.97569E+00
 -1      6846-7.54909E-01-9.29817E-02-8.48150E+00
 -1      6847-6.34734E-01-8.74859E-02-7.72008E+00
 -1      6848-4.09115E-01-6.26542E-02-4.41387E+00
 -1      6849-2.86227E-01-5.98089E-02-4.36233E+00
 -1      6850-4.23490E-01-6.58398E-02-4.68787E+00
 -1      6851-5.71710E-01-6.01793E-02-4.14886E+00
 -1      6852-3.57035E-01-7.98743E-02-2.76528E+00
 -1      6853-4.30045E-01-8.42844E-02-2.97544E+00
 -1      6854-2.46529E-01-7.65437E-02-2.82524E+00
 -1      6855-3.90309E-01-7.43320E-02-2.53810E+00
 -1      6856-3.47451E-01-4.72095E-02-1.36870E+00
 -1      6857-8.49377E-02-3.69929E-02-5.36651E-01
 -1      6858-1.54446E-01-4.78796E-02-6.02468E-01
 -1      6859-1.34374E-01-4.29284E-02-4.37374E-01
 -1      6860-4.41687E-03-2.76490E-02-1.00944E-01
 -1      6861-2.47936E-02-2.91684E-02-1.73893E-01
 -1      6862 0.00000E+00 0.00000E+00 0.00000E+00
 -1      6863 0.00000E+00 0.00000E+00 0.00000E+00
 -1      6864 1.76311E-01-4.39386E-02-6.03693E-01
 -1      6865 3.18689E-01-3.24919E-02-2.47895E+00
 -1      6866 3.59243E-01-2.77688E-02-4.12764E+00
 -1      6867 3.20825E-01-4.50130E-02-7.84075E+00
 -1      6868 6.80568E-01-5.02505E-02-7.57173E+00
 -1      6869 6.89953E-01-5.25628E-02-8.21597E+00
 -1      6870 4.72909E-01-8.10213E-02-1.18984E+01
 -1      6871 6.20707E-01-1.04763E-01-1.35115E+01
 -1      6872 3.30671E-01-1.29935E-01-1.59529E+01
 -1      6873-3.56103E-01-1.08270E-01-1.52814E+01
 -1      6874-6.01023E-01-1.03221E-01-1.14605E+01
 -1      6875-3.55129E-01-9.74217E-02-9.73263E+00
 -1      6876-6.95072E-01-1.01842E-01-1.00279E+01
 -1      6877-5.93395E-01-9.22196E-02-8.32714E+00
 -1      6878-5.89838E-01-8.53628E-02-6.26909E+00
 -1      6879-3.79022E-01-7.93771E-02-6.12612E+00
 -1      6880-5.04510E-01-7.57588E-02-5.70971E+00
 -1      6881-3.58680E-01-5.98074E-02-1.82160E+00
 -1      6882 0.00000E+00 0.00000E+00 0.00000E+00
 -1      6883 5.94901E-02-4.38445E-02-2.14529E-01
 -1      6884 2.05571E-01-2.20665E-02-1.49758E+00
 -1      6885 4.83724E-01-3.20793E-02-4.65247E+00
 -1      6886 5.56770E-01-4.84032E-02-7.66366E+00
 -1      6887 4.91017E-01-4.86912E-02-8.19987E+00
 -1      6888 1.96661E-01-1.33864E-01-1.61871E+01
 -1      6889 2.12768E-01-1.36993E-01-1.72690E+01
 -1      6890 1.72168E-01-1.35442E-01-1.74471E+01
 -1      6891 7.72744E-02-1.46681E-01-1.78679E+01
 -1      6892-1.44573E-01-1.28152E-01-1.74049E+01
 -1      6893-2.36374E-01-1.28698E-01-1.73525E+01
 -1      6894-4.45166E-01-1.12320E-01-1.49243E+01
 -1      6895-5.99130E-01-1.09091E-01-1.36192E+01
 -1      6896-5.60224E-01-1.09645E-01-1.35649E+01
 -1      6897-4.48423E-01-1.09154E-01-1.30463E+01
 -1      6898-6.30882E-01-1.00137E-01-9.91798E+00
 -1      6899-6.18041E-01-9.60200E-02-9.34250E+00
 -1      6900-7.50367E-01-8.82874E-02-7.73745E+00
 -1      6901-3.16944E-01-6.11281E-02-4.46542E+00
 -1      6902-1.11380E-01-4.02408E-02-5.31395E-01
 -1      6903-1.38683E-01-4.47726E-02-4.13646E-01
 -1      6904-2.08238E-02-3.10707E-02-1.17336E-01
 -1      6905 0.00000E+00 0.00000E+00 0.00000E+00
 -1      6906 4.45753E-02-2.75896E-02-9.72578E-02
 -1      6907 3.41025E-01-2.52217E-02-1.32932E+00
 -1      6908 3.75156E-01-3.29400E-02-2.72239E+00
 -1      6909 5.44996E-01-5.65405E-02-9.17701E+00
 -1      6910 5.47405E-01-1.02585E-01-1.33393E+01
 -1      6911 3.34563E-01-1.28276E-01-1.59147E+01
 -1      6912 3.86013E-01-1.47381E-01-1.62938E+01
 -1      6913 9.85461E-02-1.36979E-01-1.77119E+01
 -1      6914-9.94421E-02-1.29472E-01-1.79286E+01
 -1      6915-9.64859E-02-1.22656E-01-1.77971E+01
 -1      6916-6.08108E-01-1.08544E-01-1.54251E+01
 -1      6917-8.29388E-01-1.05460E-01-1.17011E+01
 -1      6918-5.55391E-01-9.27797E-02-8.40661E+00
 -1      6919-4.85260E-01-6.81374E-02-4.77416E+00
 -1      6920-6.06561E-01-6.16410E-02-4.26473E+00
 -1      6921-3.94713E-01-4.67558E-02-1.46453E+00
 -1      6922-5.46109E-02-4.09731E-02-2.01755E-01
 -1      6923 0.00000E+00 0.00000E+00 0.00000E+00
 -1      6924 0.00000E+00 0.00000E+00 0.00000E+00
 -1      6925 0.00000E+00 0.00000E+00 0.00000E+00
 -1      6926 0.00000E+00 0.00000E+00 0.00000E+00
 -1      6927 1.81517E-01 2.74317E-02-7.88596E-01
 -1      6928 1.17824E-01 3.27438E-02-8.31570E-01
 -1      6929 2.81327E-01 3.49809E-02-8.72213E-01
 -1      6930 3.23337E-01 2.20312E-02-1.02808E+00
 -1      6931 4.29439E-01 8.38893E-03-3.42569E+00
 -1      6932 2.83418E-01-2.16879E-01-1.68712E+01
 -1      6933 1.22170E-01-2.02166E-01-1.68866E+01
 -1      6934 2.02979E-01-2.05381E-01-1.70967E+01
 -1      6935 1.60431E-01-1.37224E-01-1.73955E+01
 -1      6936-7.91456E-03-2.23800E-01-1.80135E+01
 -1      6937-1.82895E-02-2.32985E-01-1.80541E+01
 -1      6938-2.35450E-02-2.36897E-01-1.80338E+01
 -1      6939-1.77000E-01-1.77539E-01-1.71322E+01
 -1      6940-9.10704E-02-1.67618E-01-1.70597E+01
 -1      6941-3.08271E-01-1.91155E-01-1.70278E+01
 -1      6942-3.61776E-01-1.81209E-01-1.68294E+01
 -1      6943-5.26103E-01-1.53486E-01-1.41151E+01
 -1      6944-2.48964E-01 4.04089E-02-9.43161E-01
 -1      6945-7.36433E-02 2.98544E-02-8.96784E-01
 -1      6946-1.65142E-01 3.03043E-02-7.04079E-01
 -1      6947-1.93480E-01-4.80282E-02-4.83026E-01
 -1      6948-1.30494E-01-4.12953E-02-4.38093E-01
 -1      6949 0.00000E+00 0.00000E+00 0.00000E+00
 -1      6950 0.00000E+00 0.00000E+00 0.00000E+00
 -1      6951 2.13711E-01 4.88132E-03-6.60085E-01
 -1      6952 3.71404E-01-1.31805E-02-3.95290E+00
 -1      6953 3.90798E-01-2.74738E-02-6.33200E+00
 -1      6954 3.07961E-01-2.27169E-02-6.83086E+00
 -1      6955 6.60414E-01-2.95516E-02-6.59411E+00
 -1      6956 5.85827E-01-3.08059E-02-7.09649E+00
 -1      6957 5.97975E-01-3.70426E-02-7.45048E+00
 -1      6958 5.20267E-01-9.15658E-02-1.28169E+01
 -1      6959 4.95684E-01-1.39890E-01-1.41344E+01
 -1      6960 2.63170E-01-1.16882E-01-1.39429E+01
 -1      6961 2.90413E-01-1.19549E-01-1.43332E+01
 -1      6962 3.64275E-01-1.11355E-01-1.46401E+01
 -1      6963 2.34254E-01-1.84309E-01-1.65345E+01
 -1      6964 3.32612E-03-1.93366E-01-1.79934E+01
 -1      6965 7.21180E-04-2.11363E-01-1.79971E+01
 -1      6966-2.26200E-01-1.71901E-01-1.72939E+01
 -1      6967-4.19091E-01-1.13380E-01-1.62902E+01
 -1      6968-4.38951E-01-1.28608E-01-1.36949E+01
 -1      6969-4.11878E-01-1.10229E-01-1.12472E+01
 -1      6970-6.05268E-01-1.09674E-01-1.04968E+01
 -1      6971-5.92951E-01-7.16017E-02-7.11152E+00
 -1      6972-4.52557E-01-7.63611E-02-6.39690E+00
 -1      6973-5.01807E-01-7.63080E-02-5.59474E+00
 -1      6974-5.08613E-01-2.88212E-02-3.63761E+00
 -1      6975-3.96794E-01-4.23254E-02-3.96918E+00
 -1      6976-2.59176E-01-3.32941E-02-3.70141E+00
 -1      6977-2.30478E-01-2.26394E-02-3.44915E+00
 -1      6978-3.36438E-01-3.13701E-02-3.19321E+00
 -1      6979-2.02439E-01 1.39951E-02-1.22730E+00
 -1      6980 0.00000E+00 0.00000E+00 0.00000E+00
 -1      6981-3.63891E-03-1.18913E-03 5.12966E-03
 -1      6982 0.00000E+00 0.00000E+00 0.00000E+00
 -1      6983 0.00000E+00 0.00000E+00 0.00000E+00
 -1      6984 0.00000E+00 0.00000E+00 0.00000E+00
 -1      6985 1.36056E-01-7.49039E-03-6.37983E-01
 -1      6986 2.26352E-01-9.19973E-03-1.21407E+00
 -1      6987 4.05518E-01-3.06027E-02-2.64184E+00
 -1      6988 5.70830E-01-3.97954E-02-5.36188E+00
 -1      6989 3.75969E-01-2.96528E-02-6.98520E+00
 -1      6990 5.01163E-01-4.12867E-02-7.47998E+00
 -1      6991 6.57930E-01-6.14736E-02-9.57497E+00
 -1      6992 7.86311E-01-7.30952E-02-9.97053E+00
 -1      6993 4.56803E-01-6.32697E-02-9.98054E+00
 -1      6994 5.80778E-01-8.38215E-02-1.21765E+01
 -1      6995 5.28541E-01-8.69626E-02-1.26600E+01
 -1      6996 4.77168E-01-1.10866E-01-1.49519E+01
 -1      6997 3.57802E-01-1.16998E-01-1.57979E+01
 -1      6998 2.37145E-01-1.44411E-01-1.73261E+01
 -1      6999 1.34463E-01-1.31406E-01-1.76650E+01
 -1      7000 8.79347E-02-1.44767E-01-1.78317E+01
 -1      7001-6.11848E-02-1.70655E-01-1.79910E+01
 -1      7002-3.36783E-02-1.96510E-01-1.80333E+01
 -1      7003-1.02628E-01-1.32027E-01-1.79156E+01
 -1      7004-1.85206E-01-1.10141E-01-1.75922E+01
 -1      7005-2.61905E-01-1.32242E-01-1.66050E+01
 -1      7006-5.73529E-01-1.03500E-01-1.22511E+01
 -1      7007-5.17547E-01-9.46913E-02-1.00704E+01
 -1      7008-7.34240E-01-9.24204E-02-7.98161E+00
 -1      7009-8.39053E-01-8.07861E-02-7.63958E+00
 -1      7010-4.51025E-01-8.03025E-02-7.57056E+00
 -1      7011-4.02947E-01-7.56477E-02-2.80310E+00
 -1      7012-3.99984E-01-8.10432E-02-2.29826E+00
 -1      7013-3.25323E-01-5.15565E-02-1.56891E+00
 -1      7014-5.90647E-02-4.93322E-02-2.06733E-01
 -1      7015 0.00000E+00 0.00000E+00 0.00000E+00
 -1      7016 0.00000E+00 0.00000E+00 0.00000E+00
 -1      7017 0.00000E+00 0.00000E+00 0.00000E+00
 -1      7018 0.00000E+00 0.00000E+00 0.00000E+00
 -1      7019 0.00000E+00 0.00000E+00 0.00000E+00
 -1      7020 0.00000E+00 0.00000E+00 0.00000E+00
 -1      7021 4.67438E-02-2.97005E-02-4.97123E-02
 -1      7022 3.54708E-02-2.21136E-02-6.53788E-02
 -1      7023 1.81657E-01-4.72478E-02-3.78093E-01
 -1      7024 1.71980E-01 9.66359E-03-9.22222E-01
 -1      7025 3.16019E-01-3.16078E-02-1.44001E+00
 -1      7026 3.76748E-01-9.69458E-03-2.90884E+00
 -1      7027 2.95593E-01 2.69617E-03-3.20752E+00
 -1      7028 3.62710E-01-8.59845E-03-2.98563E+00
 -1      7029 6.21692E-01-3.44791E-02-6.74720E+00
 -1      7030 6.85009E-01-7.51741E-02-1.05480E+01
 -1      7031 5.14841E-01-7.96456E-02-1.12878E+01
 -1      7032 8.88613E-01-8.73734E-02-1.23657E+01
 -1      7033 4.89974E-01-9.46604E-02-1.32966E+01
 -1      7034 5.47824E-01-1.28133E-01-1.41053E+01
 -1      7035 5.15337E-01-1.01217E-01-1.55444E+01
 -1      7036 1.94845E-01-1.97301E-01-1.69909E+01
 -1      7037 1.85369E-01-1.63397E-01-1.71866E+01
 -1      7038 1.72482E-01-1.39472E-01-1.72992E+01
 -1      7039 1.05021E-01-1.23274E-01-1.76423E+01
 -1      7040-9.49304E-03-2.22347E-01-1.80371E+01
 -1      7041-1.68565E-01-1.70336E-01-1.72334E+01
 -1      7042-1.74530E-01-1.53837E-01-1.69390E+01
 -1      7043-3.74870E-01-1.44332E-01-1.47338E+01
 -1      7044-5.37722E-01-1.43218E-01-1.43665E+01
 -1      7045-6.67041E-01-9.88607E-02-1.24738E+01
 -1      7046-6.48079E-01-1.10848E-01-1.08127E+01
 -1      7047-6.91697E-01-7.77214E-02-7.03167E+00
 -1      7048-3.50535E-01-2.88345E-02-3.41010E+00
 -1      7049-3.54060E-01-5.98194E-02-3.00478E+00
 -1      7050-1.44915E-01 2.42279E-02-7.78903E-01
 -1      7051-1.34524E-01-1.61408E-02-5.92463E-01
 -1      7052-1.39267E-01-4.25883E-02-4.89992E-01
 -1      7053-1.39943E-01-7.83687E-02-2.65113E-01
 -1      7054-6.42718E-02-5.53875E-02-2.17527E-01
 -1      7055 0.00000E+00 0.00000E+00 0.00000E+00
 -1      7056 0.00000E+00 0.00000E+00 0.00000E+00
 -1      7057 0.00000E+00 0.00000E+00 0.00000E+00
 -1      7058 8.52150E-02-3.69235E-02-1.17572E-01
 -1      7059 3.96272E-01-3.35174E-02-2.64422E+00
 -1      7060 4.79501E-01-2.08874E-02-3.92269E+00
 -1      7061 6.13307E-01-4.25363E-02-6.10570E+00
 -1      7062 8.05641E-01-4.91460E-02-7.29896E+00
 -1      7063 4.78130E-01-6.47818E-02-1.02172E+01
 -1      7064 6.32908E-01-8.33101E-02-1.23579E+01
 -1      7065 4.02852E-01-1.11723E-01-1.35965E+01
 -1      7066-1.72088E-01-1.17111E-01-1.74538E+01
 -1      7067-5.44302E-01-1.05447E-01-1.12351E+01
 -1      7068-7.10799E-01-1.00136E-01-1.02829E+01
 -1      7069-6.17778E-01-9.16818E-02-7.93954E+00
 -1      7070-4.93101E-01-7.91759E-02-7.36025E+00
 -1      7071-4.74226E-01-5.43960E-02-3.91862E+00
 -1      7072 1.17024E-01-5.88322E-02-2.60367E-01
 -1      7073 1.47964E-01-6.44447E-02-3.20824E-01
 -1      7074 1.44099E-01-4.04639E-02-4.98800E-01
 -1      7075 5.24720E-01-8.67532E-02-1.27533E+01
 -1      7076 3.90328E-01-1.15572E-01-1.58434E+01
 -1      7077 1.99881E-01-1.31074E-01-1.73645E+01
 -1      7078-1.49063E-01-9.89079E-02-1.77414E+01
 -1      7079-1.80066E-01-9.50028E-02-1.76688E+01
 -1      7080-5.96920E-01-9.77884E-02-1.24380E+01
 -1      7081-5.86496E-01-9.33927E-02-8.53804E+00
 -1      7082-5.15647E-01-7.65226E-02-4.84842E+00
 -1      7083-3.64038E-01-7.56063E-02-1.85937E+00
 -1      7084-1.54768E-01-6.05854E-02-4.27355E-01
 -1      7085-1.10625E-01-6.73492E-02-3.11034E-01
 -1      7086 0.00000E+00 0.00000E+00 0.00000E+00
 -1      7087 3.39061E-01-4.79155E-02-1.82763E+00
 -1      7088 5.45643E-01-3.51233E-02-4.30757E+00
 -1      7089 6.16057E-01-4.58656E-02-5.62085E+00
 -1      7090 5.65496E-01-5.36403E-02-8.27368E+00
 -1      7091 6.91079E-01-8.23158E-02-1.18863E+01
 -1      7092 5.51687E-01-1.01299E-01-1.51514E+01
 -1      7093 4.68591E-01-9.80136E-02-1.54326E+01
 -1      7094 1.71279E-01-1.21441E-01-1.74408E+01
 -1      7095 1.20168E-01-1.25620E-01-1.77059E+01
 -1      7096 1.66643E-01-1.28429E-01-1.77673E+01
 -1      7097-1.82481E-01-1.02013E-01-1.78176E+01
 -1      7098-1.62159E-01-1.02543E-01-1.75644E+01
 -1      7099-3.72923E-01-9.67946E-02-1.60375E+01
 -1      7100-5.08403E-01-8.52724E-02-1.56647E+01
 -1      7101-5.85849E-01-1.07851E-01-1.33147E+01
 -1      7102-7.16814E-01-9.91875E-02-1.21706E+01
 -1      7103-6.53420E-01-1.03034E-01-1.18434E+01
 -1      7104-7.20925E-01-9.45489E-02-8.99206E+00
 -1      7105-6.84891E-01-8.37699E-02-5.69629E+00
 -1      7106-5.00646E-01-9.17053E-02-2.51384E+00
 -1      7107-4.50612E-01-9.21833E-02-2.25080E+00
 -1      7108-1.32498E-01-6.46583E-02-3.65525E-01
 -1      7109-6.43446E-02-4.76225E-02-1.38625E-01
 -1      7110 0.00000E+00 0.00000E+00 0.00000E+00
 -1      7111 9.58985E-02 3.43589E-02-1.27037E-01
 -1      7112 4.66409E-01 2.29916E-02-1.71954E+00
 -1      7113 4.36712E-01 2.24186E-02-2.14546E+00
 -1      7114 7.29762E-01-6.35656E-02-9.31944E+00
 -1      7115 6.80739E-01-1.13579E-01-1.24239E+01
 -1      7116 3.97715E-01-1.68653E-01-1.56621E+01
 -1      7117-5.63881E-01-1.68616E-01-1.59863E+01
 -1      7118-4.84124E-01-1.60463E-01-1.56952E+01
 -1      7119-7.56136E-01-8.76941E-02-8.39873E+00
 -1      7120-7.61645E-01-6.12984E-02-5.87086E+00
 -1      7121-4.08771E-01-2.59265E-02-1.66278E+00
 -1      7122-1.42404E-01 3.53240E-02-3.61054E-01
 -1      7123-6.58159E-02 1.53540E-02-1.51860E-01
 -1      7124 0.00000E+00 0.00000E+00 0.00000E+00
 -1      7125 0.00000E+00 0.00000E+00 0.00000E+00
 -1      7126 0.00000E+00 0.00000E+00 0.00000E+00
 -1      7127 0.00000E+00 0.00000E+00 0.00000E+00
 -1      7128 2.17967E-01 1.68931E-02-5.98302E-01
 -1      7129 1.00389E-01-1.89185E-02-5.85128E-01
 -1      7130 2.81181E-01-1.57421E-02-7.68571E-01
 -1      7131 6.42277E-01-2.17404E-02-4.07296E+00
 -1      7132 6.05401E-01-1.18287E-02-5.11251E+00
 -1      7133 6.33142E-01-1.17133E-02-5.17916E+00
 -1      7134 8.37408E-01-2.31422E-02-6.24118E+00
 -1      7135 7.73527E-01-1.91914E-02-5.87630E+00
 -1      7136 6.40776E-01-4.02710E-02-6.59810E+00
 -1      7137 8.39347E-01-4.87652E-02-7.39120E+00
 -1      7138 6.77060E-01-6.54770E-02-1.07878E+01
 -1      7139 9.18056E-01-9.53545E-02-1.13020E+01
 -1      7140 6.07941E-01-1.37189E-01-1.47912E+01
 -1      7141 2.43093E-01-1.32646E-01-1.67042E+01
 -1      7142 3.04450E-01-1.31972E-01-1.70801E+01
 -1      7143 1.80790E-01-2.25645E-01-1.78513E+01
 -1      7144 1.53924E-01-1.99885E-01-1.82100E+01
 -1      7145 5.52240E-02-1.49563E-01-1.82847E+01
 -1      7146-2.43019E-01-1.57156E-01-1.73995E+01
 -1      7147-4.58758E-01-1.60317E-01-1.68033E+01
 -1      7148-6.29604E-01-1.37848E-01-1.49158E+01
 -1      7149-6.26709E-01-1.30471E-01-1.26107E+01
 -1      7150-6.49961E-01-1.29385E-01-1.25290E+01
 -1      7151-8.47276E-01-1.02698E-01-1.02893E+01
 -1      7152-8.24729E-01-8.38727E-02-6.94699E+00
 -1      7153-5.98836E-01-6.84432E-02-3.25674E+00
 -1      7154-3.77525E-01-5.89834E-02-2.90162E+00
 -1      7155-2.96975E-01-7.48471E-02-9.73984E-01
 -1      7156-2.13600E-01 3.37003E-02-3.68379E-01
 -1      7157 0.00000E+00 0.00000E+00 0.00000E+00
 -1      7158 0.00000E+00 0.00000E+00 0.00000E+00
 -1      7159 2.63592E-01-2.16154E-02-9.41470E-01
 -1      7160 4.67809E-01 7.46573E-03-2.22540E+00
 -1      7161 3.62841E-01-1.78284E-02-2.84729E+00
 -1      7162 7.82331E-01-5.07370E-02-7.04062E+00
 -1      7163 8.10022E-01-6.03154E-02-8.80791E+00
 -1      7164-6.42685E-02-1.20408E-01-1.82619E+01
 -1      7165-5.48315E-01-1.10903E-01-1.43232E+01
 -1      7166-4.90716E-01-1.22210E-01-1.37096E+01
 -1      7167-6.07070E-01-1.12414E-01-1.17464E+01
 -1      7168-8.67081E-01-4.59103E-02-5.24861E+00
 -1      7169 2.15687E-01-1.36429E-02-5.64733E-01
 -1      7170 6.27005E-01-1.55548E-02-4.89726E+00
 -1      7171-6.67214E-01-1.29543E-01-1.28071E+01
 -1      7172-6.70021E-01-1.22571E-01-1.23529E+01
 -1      7173-7.57812E-01-8.70154E-02-7.98606E+00
 -1      7174-5.20429E-01-3.14245E-02-2.32491E+00
 -1      7175-3.53222E-01-2.20519E-02-1.98149E+00
 -1      7176-3.88247E-01-4.16422E-02-1.60286E+00
 -1      7177-1.02019E-01 2.17498E-02-2.98832E-01
 -1      7178 0.00000E+00 0.00000E+00 0.00000E+00
 -1      7179 1.26852E-02-2.86410E-03-1.29080E-02
 -1      7180 6.84359E-02 4.95502E-03-8.53413E-02
 -1      7181 1.61597E-01 1.14753E-02-4.62109E-01
 -1      7182 2.66379E-01-2.26750E-02-1.28832E+00
 -1      7183 7.31081E-01-3.52141E-02-6.23811E+00
 -1      7184 6.67829E-01-5.65028E-02-7.25527E+00
 -1      7185 7.59096E-01-6.11662E-02-1.00529E+01
 -1      7186 7.25651E-01-1.18102E-01-1.33541E+01
 -1      7187 7.11468E-01-1.04025E-01-1.36686E+01
 -1      7188 5.29062E-01-1.63002E-01-1.55789E+01
 -1      7189 4.22546E-01-1.34027E-01-1.66204E+01
 -1      7190 2.80205E-01-1.27505E-01-1.72531E+01
 -1      7191-7.52316E-02-1.11870E-01-1.81275E+01
 -1      7192-2.47905E-01-1.70245E-01-1.75557E+01
 -1      7193-7.10916E-01-1.25361E-01-1.49067E+01
 -1      7194-5.02385E-01-1.06891E-01-1.37318E+01
 -1      7195-7.42567E-01-1.05541E-01-1.14392E+01
 -1      7196-7.16720E-01-8.99859E-02-7.62395E+00
 -1      7197-7.11370E-01-4.97480E-02-4.95160E+00
 -1      7198-6.64775E-01-7.15358E-02-4.12302E+00
 -1      7199-5.37244E-01-8.23788E-02-3.28374E+00
 -1      7200-2.50888E-01-5.39217E-02-7.08209E-01
 -1      7201-1.77980E-02-1.45520E-02-3.39025E-02
 -1      7202 0.00000E+00 0.00000E+00 0.00000E+00
 -1      7203 6.78644E-02 6.67326E-03-6.14107E-02
 -1      7204 1.46450E-01 1.67751E-02-3.69622E-01
 -1      7205 3.87770E-01 1.02352E-03-1.50162E+00
 -1      7206 3.68716E-01 4.85115E-03-1.41578E+00
 -1      7207 6.00745E-01-7.56523E-03-2.66600E+00
 -1      7208 4.74029E-01-3.16225E-02-2.87230E+00
 -1      7209 6.77935E-01-5.39368E-02-8.39334E+00
 -1      7210 7.09871E-01-6.93648E-02-1.10888E+01
 -1      7211 5.89052E-01-9.84696E-02-1.46120E+01
 -1      7212 4.27364E-01-1.64515E-01-1.64583E+01
 -1      7213 1.72391E-01-2.20638E-01-1.78588E+01
 -1      7214-2.36284E-02-9.75695E-02-1.82240E+01
 -1      7215-1.38902E-01-1.57749E-01-1.80489E+01
 -1      7216-2.46086E-01-1.76025E-01-1.76612E+01
 -1      7217-3.58958E-01-1.12949E-01-1.68596E+01
 -1      7218-5.34294E-01-1.50522E-01-1.64016E+01
 -1      7219-4.33504E-01-1.43284E-01-1.65015E+01
 -1      7220-4.43618E-01-1.49031E-01-1.60224E+01
 -1      7221-5.28658E-01-1.36516E-01-1.51655E+01
 -1      7222-7.90200E-01-9.48707E-02-1.03598E+01
 -1      7223-7.89307E-01-9.04787E-02-7.23366E+00
 -1      7224-6.54622E-01-6.23488E-02-5.52951E+00
 -1      7225-7.32143E-01-5.39548E-02-4.40043E+00
 -1      7226-7.08265E-01-5.09994E-02-4.28579E+00
 -1      7227-5.52636E-01-8.33007E-02-3.72115E+00
 -1      7228-5.06738E-01-4.21186E-02-2.41790E+00
 -1      7229-4.79437E-01-7.46409E-02-1.31766E+00
 -1      7230-2.85486E-01-8.20353E-02-8.40860E-01
 -1      7231-1.66114E-01 1.54229E-03-4.62397E-01
 -1      7232-1.08491E-01 1.35329E-02-2.81658E-01
 -1      7233-7.49363E-02 2.96406E-03-1.19537E-01
 -1      7234 0.00000E+00 0.00000E+00 0.00000E+00
 -1      7235 0.00000E+00 0.00000E+00 0.00000E+00
 -1      7236 0.00000E+00 0.00000E+00 0.00000E+00
 -1      7237 3.69367E-01 3.67634E-03-1.80894E+00
 -1      7238 4.99594E-01 1.97469E-03-2.31133E+00
 -1      7239 6.09046E-01-2.35928E-02-4.74654E+00
 -1      7240 7.82074E-01-2.13577E-02-5.38049E+00
 -1      7241 7.82688E-01-5.23431E-02-7.66847E+00
 -1      7242 6.55359E-01-9.86346E-02-1.21710E+01
 -1      7243 2.91931E-01-1.90377E-01-1.75212E+01
 -1      7244-5.67438E-01-1.43777E-01-1.55060E+01
 -1      7245 5.63241E-01-4.47739E-03-2.46448E+00
 -1      7246 8.05058E-01-1.02809E-01-1.19554E+01
 -1      7247-2.55589E-01-1.70431E-01-1.73959E+01
 -1      7248-6.26021E-01-1.42595E-01-1.53329E+01
 -1      7249-8.63801E-01-9.91513E-02-9.46529E+00
 -1      7250-6.67031E-01-4.60581E-02-2.82328E+00
 -1      7251-5.33865E-01-4.68375E-02-2.49259E+00
 -1      7252 9.16141E-02 1.26225E-02-1.60659E-01
 -1      7253 4.85566E-01 5.97115E-03-1.68898E+00
 -1      7254 8.56749E-01-5.44974E-02-8.19337E+00
 -1      7255 8.67918E-01-6.43711E-02-9.38917E+00
 -1      7256 7.11706E-01-6.35238E-02-9.94932E+00
 -1      7257 7.92151E-01-1.19747E-01-1.30771E+01
 -1      7258 5.18535E-01-1.71247E-01-1.61212E+01
 -1      7259-1.71402E-01-1.75876E-01-1.79097E+01
 -1      7260-2.64089E-01-1.66695E-01-1.76240E+01
 -1      7261-5.72597E-01-1.51701E-01-1.61711E+01
 -1      7262-8.79359E-01-8.99504E-02-8.28211E+00
 -1      7263-7.75138E-01-5.09894E-02-4.65485E+00
 -1      7264-4.77041E-01-4.07122E-02-1.78951E+00
 -1      7265 0.00000E+00 0.00000E+00 0.00000E+00
 -1      7266 3.48298E-01-1.35791E-03-1.84832E+00
 -1      7267 6.27578E-01-2.34518E-02-4.09871E+00
 -1      7268 6.77548E-01-2.50693E-02-5.47077E+00
 -1      7269 7.91762E-01-2.44590E-02-5.65771E+00
 -1      7270 7.59682E-01-6.11133E-02-9.11963E+00
 -1      7271 6.04294E-01-1.14804E-01-1.35647E+01
 -1      7272 2.89953E-01-1.98644E-01-1.75752E+01
 -1      7273 1.36912E-01-1.96636E-01-1.78690E+01
 -1      7274-5.88091E-01-1.40299E-01-1.54614E+01
 -1      7275-7.44463E-01-9.72908E-02-9.26480E+00
 -1      7276-7.03038E-01-8.84300E-02-8.47284E+00
 -1      7277-6.91287E-01-6.99440E-02-6.30291E+00
 -1      7278-6.12427E-01-5.54792E-02-4.82303E+00
 -1      7279-2.35303E-01-6.70087E-03-5.05227E-01
 -1      7280-1.22797E-01-2.96166E-04-1.92491E-01
 -1      7281 0.00000E+00 0.00000E+00 0.00000E+00
 -1      7282 1.99526E-01 1.83867E-02-3.97243E-01
 -1      7283 4.41054E-01 8.28956E-03-1.42683E+00
 -1      7284 6.61121E-01-9.28812E-02-1.15158E+01
 -1      7285 8.16591E-01-1.03621E-01-1.22295E+01
 -1      7286 4.95624E-01-1.36917E-01-1.49389E+01
 -1      7287-7.08012E-01-1.17632E-01-1.22318E+01
 -1      7288-8.24084E-01-1.19391E-01-1.20289E+01
 -1      7289-4.37636E-01-1.10576E-01-1.16605E+01
 -1      7290-7.49603E-01-1.13940E-01-1.15381E+01
 -1      7291-6.22282E-01-6.90418E-02-6.16951E+00
 -1      7292-4.84767E-01-4.86365E-02-2.92022E+00
 -1      7293-3.25875E-01-4.65735E-02-1.90376E+00
 -1      7294-1.91874E-01 6.12789E-03-6.24040E-01
 -1      7295-7.64838E-02-3.56688E-03-2.62726E-01
 -1      7296 0.00000E+00 0.00000E+00 0.00000E+00
 -1      7297 6.38806E-02 6.20134E-03-2.30553E-01
 -1      7298 5.52076E-01 1.53178E-02-3.23216E+00
 -1      7299 6.07024E-01-2.18068E-02-4.23081E+00
 -1      7300 6.54953E-01-2.68312E-02-5.33807E+00
 -1      7301 7.22289E-01-2.39525E-02-6.13311E+00
 -1      7302 7.36404E-01-9.07905E-02-1.10632E+01
 -1      7303 6.70719E-01-1.18029E-01-1.33164E+01
 -1      7304 6.07640E-01-1.51698E-01-1.52766E+01
 -1      7305 1.13493E-01-1.94159E-01-1.79582E+01
 -1      7306-1.37560E-01-1.57482E-01-1.78166E+01
 -1      7307-5.30266E-01-1.47812E-01-1.64891E+01
 -1      7308-6.32710E-01-1.38723E-01-1.50815E+01
 -1      7309-5.87742E-01-1.56775E-01-1.45195E+01
 -1      7310-7.98870E-01-1.31668E-01-1.33991E+01
 -1      7311-8.18560E-01-1.18494E-01-1.17229E+01
 -1      7312-6.32894E-01-1.00285E-01-9.74600E+00
 -1      7313-8.62397E-01-9.30527E-02-8.59617E+00
 -1      7314-6.07564E-01-6.70267E-02-5.47188E+00
 -1      7315-7.93622E-01-6.42714E-02-5.55883E+00
 -1      7316-7.11455E-01-4.75551E-02-2.78190E+00
 -1      7317-5.47787E-01-4.94708E-02-2.38983E+00
 -1      7318-8.56001E-02-5.08743E-03-1.21808E-01
 -1      7319 0.00000E+00 0.00000E+00 0.00000E+00
 -1      7320 1.93524E-02 1.84704E-02-2.27606E-02
 -1      7321 6.15930E-02 5.72542E-04-2.39628E-01
 -1      7322 2.27110E-01 6.36994E-02-7.01907E-01
 -1      7323 4.61358E-01 1.34692E-02-1.51404E+00
 -1      7324 5.33934E-01 1.54424E-02-3.69555E+00
 -1      7325 5.61652E-01 2.55345E-03-3.99246E+00
 -1      7326 5.68388E-01-2.36028E-02-6.25184E+00
 -1      7327 7.93685E-01-2.33926E-02-6.47242E+00
 -1      7328 9.31565E-01-4.89470E-02-7.56316E+00
 -1      7329 7.52960E-01-7.76629E-02-1.00364E+01
 -1      7330 7.22928E-01-1.42918E-01-1.36234E+01
 -1      7331 5.91786E-01-1.70611E-01-1.41070E+01
 -1      7332 5.14222E-01-1.40119E-01-1.50894E+01
 -1      7333 2.72884E-01-2.33056E-01-1.72393E+01
 -1      7334 1.74090E-01-1.68667E-01-1.76231E+01
 -1      7335 2.48523E-01-1.84676E-01-1.76407E+01
 -1      7336 4.36044E-02-2.33798E-01-1.80529E+01
 -1      7337-1.47945E-01-1.74433E-01-1.79451E+01
 -1      7338-1.41794E-01-1.49484E-01-1.77939E+01
 -1      7339-3.11182E-01-2.04776E-01-1.73379E+01
 -1      7340-3.46052E-01-1.73247E-01-1.65817E+01
 -1      7341-8.82042E-01-1.37334E-01-1.37090E+01
 -1      7342-6.12111E-01-1.13418E-01-1.17661E+01
 -1      7343-8.23347E-01-1.23762E-01-1.11700E+01
 -1      7344-7.35033E-01-6.69153E-02-6.62604E+00
 -1      7345-6.93390E-01-1.99763E-02-4.09490E+00
 -1      7346-5.77741E-01-2.56782E-03-3.62777E+00
 -1      7347-2.28783E-01 4.27348E-02-7.55116E-01
 -1      7348-1.93493E-01-1.36034E-02-4.19512E-01
 -1      7349-5.60265E-02-2.50572E-03-1.49538E-01
 -1      7350 6.30777E-02 8.40802E-03-1.06382E-01
 -1      7351 3.76221E-01-1.23335E-01-1.36715E+01
 -1      7352-6.74688E-01-1.17041E-01-1.27800E+01
 -1      7353-6.64840E-01-1.14624E-01-1.25005E+01
 -1      7354-7.35455E-01-9.52652E-02-9.08898E+00
 -1      7355-4.75835E-01-5.17074E-02-2.69958E+00
 -1      7356 0.00000E+00 0.00000E+00 0.00000E+00
 -1      7357 5.36564E-01-1.72524E-02-2.12992E+00
 -1      7358 6.88317E-01-3.08263E-02-5.09454E+00
 -1      7359 7.22092E-01-5.57792E-02-8.56349E+00
 -1      7360-5.01430E-01-1.25459E-01-1.56813E+01
 -1      7361 0.00000E+00 0.00000E+00 0.00000E+00
 -1      7362 2.12427E-02-1.78187E-02-4.85799E-03
 -1      7363 2.38433E-01 2.93271E-02-7.18731E-01
 -1      7364 4.00898E-01-1.84269E-02-2.12855E+00
 -1      7365 4.01747E-01-1.37125E-02-2.91527E+00
 -1      7366 5.13527E-01 7.60186E-03-3.36335E+00
 -1      7367 5.49122E-01-3.03393E-02-5.17323E+00
 -1      7368 6.07730E-01-2.94722E-02-6.18303E+00
 -1      7369 6.63953E-01-8.23086E-02-1.07855E+01
 -1      7370 6.50359E-01-8.38452E-02-1.11674E+01
 -1      7371 5.59446E-01-1.08338E-01-1.34213E+01
 -1      7372 5.64416E-01-1.58817E-01-1.41890E+01
 -1      7373 5.14731E-01-1.96696E-01-1.66539E+01
 -1      7374 3.02703E-01-2.24311E-01-1.70097E+01
 -1      7375 2.50701E-01-1.83887E-01-1.76922E+01
 -1      7376-1.31491E-02-2.35829E-01-1.81104E+01
 -1      7377-3.18476E-01-1.81706E-01-1.72420E+01
 -1      7378-6.93072E-01-1.32977E-01-1.48326E+01
 -1      7379-6.69264E-01-1.42309E-01-1.44183E+01
 -1      7380-6.28493E-01-1.15394E-01-1.14464E+01
 -1      7381-8.57836E-01-3.74860E-02-4.01241E+00
 -1      7382-5.22201E-01-1.71923E-02-3.53643E+00
 -1      7383 0.00000E+00 0.00000E+00 0.00000E+00
 -1      7384 0.00000E+00 0.00000E+00 0.00000E+00
 -1      7385 5.85138E-01-2.50383E-02-4.20662E+00
 -1      7386 6.68408E-01-5.16943E-02-7.78173E+00
 -1      7387 7.61255E-01-1.36966E-01-1.37659E+01
 -1      7388 6.31773E-01-1.48614E-01-1.46264E+01
 -1      7389 7.22546E-01-1.35784E-01-1.49550E+01
 -1      7390 1.75004E-01-1.67311E-01-1.76704E+01
 -1      7391 1.09996E-01-2.08551E-01-1.80512E+01
 -1      7392-4.46558E-01-1.24196E-01-1.56256E+01
 -1      7393-6.88151E-01-9.87441E-02-9.84589E+00
 -1      7394-7.99505E-01-7.41365E-02-7.29379E+00
 -1      7395-6.04957E-01-6.02712E-02-4.49512E+00
 -1      7396-5.91351E-01-4.81679E-02-3.12242E+00
 -1      7397-6.24887E-01-6.56809E-02-2.75653E+00
 -1      7398-4.83912E-01-3.34430E-02-1.31462E+00
 -1      7399-3.97353E-01-7.11102E-03-1.05775E+00
 -1      7400-1.20287E-01-2.28581E-02-3.38675E-01
 -1      7401-3.54197E-02-1.84864E-02 1.11403E-02
 -1      7402-4.69526E-01-5.68445E-02-2.19694E+00
 -1      7403 0.00000E+00 0.00000E+00 0.00000E+00
 -1      7404 5.01727E-01-1.41162E-01-1.56012E+01
 -1      7405 1.68726E-01-1.64951E-01-1.76560E+01
 -1      7406-5.76589E-01-1.24604E-01-1.52782E+01
 -1      7407-8.13485E-01-9.84941E-02-9.48870E+00
 -1      7408-6.49406E-01-6.84331E-02-5.25949E+00
 -1      7409-4.60862E-01-5.62893E-02-2.19322E+00
 -1      7410-5.21582E-02-1.55231E-02-1.39449E-01
 -1      7411 0.00000E+00 0.00000E+00 0.00000E+00
 -1      7412 5.71500E-02 3.26525E-03-4.46180E-02
 -1      7413 2.88663E-01-5.81106E-02-9.17833E-01
 -1      7414 4.07101E-01-3.58901E-02-1.16873E+00
 -1      7415 5.81984E-01-4.73268E-02-3.01855E+00
 -1      7416 6.19906E-01-4.23282E-02-3.26346E+00
 -1      7417 6.23845E-01-5.38599E-02-8.69421E+00
 -1      7418 8.58175E-01-6.96087E-02-1.01179E+01
 -1      7419 6.99689E-01-6.80443E-02-1.06966E+01
 -1      7420 9.38504E-01-8.73487E-02-1.12035E+01
 -1      7421 5.53914E-01-8.20618E-02-1.42198E+01
 -1      7422 5.99707E-01-9.59618E-02-1.38712E+01
 -1      7423 4.29285E-01-1.11714E-01-1.68092E+01
 -1      7424 2.12905E-01-1.16762E-01-1.72089E+01
 -1      7425-6.80182E-02-9.18794E-02-1.80757E+01
 -1      7426-1.67182E-01-1.33210E-01-1.80129E+01
 -1      7427-6.69235E-01-1.19969E-01-1.35644E+01
 -1      7428-6.63199E-01-1.13643E-01-1.25486E+01
 -1      7429-9.47071E-01-1.13167E-01-1.17262E+01
 -1      7430-6.74766E-01-1.01250E-01-1.08299E+01
 -1      7431-8.54829E-01-1.01407E-01-1.02445E+01
 -1      7432-7.77256E-01-1.00593E-01-9.96331E+00
 -1      7433-9.38256E-01-8.07246E-02-6.45664E+00
 -1      7434-4.46525E-01-7.32396E-02-4.07275E+00
 -1      7435-6.95500E-01-8.87416E-02-3.83451E+00
 -1      7436-5.25333E-01-1.11003E-01-3.48987E+00
 -1      7437-6.03707E-01-8.51578E-02-3.03627E+00
 -1      7438-2.36737E-01-6.93617E-02-1.30404E+00
 -1      7439-2.69216E-01-1.07446E-01-9.51656E-01
 -1      7440-2.55355E-01-7.48485E-02-7.69441E-01
 -1      7441-1.47255E-01-5.71745E-02-6.43872E-01
 -1      7442-7.68438E-02 6.82208E-03-8.23265E-02
 -1      7443 0.00000E+00 0.00000E+00 0.00000E+00
 -1      7444 0.00000E+00 0.00000E+00 0.00000E+00
 -1      7445 0.00000E+00 0.00000E+00 0.00000E+00
 -1      7446 0.00000E+00 0.00000E+00 0.00000E+00
 -1      7447 0.00000E+00 0.00000E+00 0.00000E+00
 -1      7448 4.93529E-01-2.93164E-02-2.25438E+00
 -1      7449 5.48349E-01-5.46920E-02-7.20793E+00
 -1      7450 5.96422E-01-4.77785E-02-7.58421E+00
 -1      7451 7.69436E-01-6.43257E-02-9.62338E+00
 -1      7452-4.52203E-01-1.08183E-01-1.67384E+01
 -1      7453-4.79523E-01-1.16825E-01-1.55047E+01
 -1      7454-6.70792E-01-1.05868E-01-1.45762E+01
 -1      7455-5.83933E-01-1.01625E-01-1.41831E+01
 -1      7456-6.21112E-01-1.06934E-01-1.17141E+01
 -1      7457-8.10148E-01-9.56866E-02-8.92812E+00
 -1      7458-7.02506E-01-8.57881E-02-6.94650E+00
 -1      7459 3.90122E-02-2.76203E-02-7.91309E-02
 -1      7460 2.61575E-01-1.05856E-01-1.72510E+01
 -1      7461-6.74928E-01-1.09059E-01-1.23113E+01
 -1      7462-7.04953E-01-9.84721E-02-1.00716E+01
 -1      7463-8.87861E-01-6.89115E-02-5.26127E+00
 -1      7464-2.00556E-01-7.10334E-02-5.93071E-01
 -1      7465 0.00000E+00 0.00000E+00 0.00000E+00
 -1      7466 1.60736E-01-2.47431E-02-5.02318E-01
 -1      7467 2.99899E-01-6.55348E-02-6.67949E-01
 -1      7468 6.54576E-01-6.08460E-02-6.39296E+00
 -1      7469 6.83184E-01-6.35374E-02-1.01991E+01
 -1      7470 6.33100E-01-8.37156E-02-1.36309E+01
 -1      7471 4.81585E-01-1.38549E-01-1.62425E+01
 -1      7472 4.73796E-01-1.07531E-01-1.65368E+01
 -1      7473 4.92308E-02-1.04444E-01-1.79623E+01
 -1      7474-6.75336E-02-9.11443E-02-1.79930E+01
 -1      7475-1.46194E-01-1.22106E-01-1.79103E+01
 -1      7476-2.34826E-01-1.29526E-01-1.74579E+01
 -1      7477-3.70398E-01-8.45779E-02-1.72615E+01
 -1      7478-5.52985E-01-9.11430E-02-1.47327E+01
 -1      7479-8.79193E-01-1.00885E-01-1.13701E+01
 -1      7480-7.15894E-01-1.01879E-01-4.01536E+00
 -1      7481-4.10101E-01-1.07148E-01-1.29435E+00
 -1      7482 0.00000E+00 0.00000E+00 0.00000E+00
 -1      7483 0.00000E+00 0.00000E+00 0.00000E+00
 -1      7484 0.00000E+00 0.00000E+00 0.00000E+00
 -1      7485 4.87132E-02-2.27849E-02-5.66644E-02
 -1      7486 3.99447E-01-2.88798E-02-1.42187E+00
 -1      7487 6.35647E-01-4.66105E-02-2.71024E+00
 -1      7488 5.06609E-01-5.90510E-02-3.13477E+00
 -1      7489 6.62639E-01-6.65508E-02-7.21750E+00
 -1      7490 6.34657E-01-4.85091E-02-7.69791E+00
 -1      7491 5.67952E-01-7.97615E-02-1.15348E+01
 -1      7492 7.09389E-01-9.93088E-02-1.27711E+01
 -1      7493 5.78890E-01-7.33243E-02-1.39524E+01
 -1      7494 3.18189E-01-6.79201E-02-1.67965E+01
 -1      7495 3.01581E-01-7.58117E-02-1.70661E+01
 -1      7496 1.97536E-01-1.42183E-01-1.75174E+01
 -1      7497 1.74578E-01-1.59487E-01-1.76849E+01
 -1      7498-6.46794E-02-6.70012E-02-1.80315E+01
 -1      7499-1.32595E-01-1.30962E-01-1.77741E+01
 -1      7500-2.14693E-01-1.30306E-01-1.75820E+01
 -1      7501-3.49511E-01-6.30487E-02-1.67919E+01
 -1      7502-6.96731E-01-1.07838E-01-1.50468E+01
 -1      7503-5.80895E-01-8.51270E-02-1.40057E+01
 -1      7504-7.86972E-01-1.09671E-01-1.34017E+01
 -1      7505-6.54540E-01-1.11763E-01-1.28988E+01
 -1      7506-6.88326E-01-9.64238E-02-1.04020E+01
 -1      7507-7.35955E-01-9.24402E-02-7.62221E+00
 -1      7508-8.10195E-01-9.07786E-02-6.65650E+00
 -1      7509-5.56804E-01-8.29658E-02-6.09489E+00
 -1      7510-6.72000E-01-7.38782E-02-5.54036E+00
 -1      7511-6.95906E-01-7.15338E-02-4.88253E+00
 -1      7512-7.32871E-01-6.60306E-02-4.28853E+00
 -1      7513-5.42881E-01-1.18203E-01-3.72989E+00
 -1      7514-5.24697E-01-7.11590E-02-2.39093E+00
 -1      7515-2.78092E-01-1.27576E-01-1.03993E+00
 -1      7516-2.57750E-01-1.13094E-01-7.66495E-01
 -1      7517-1.50681E-01-4.21588E-02-4.14231E-01
 -1      7518-1.24715E-01-3.84068E-02-2.68414E-01
 -1      7519 0.00000E+00 0.00000E+00 0.00000E+00
 -1      7520 0.00000E+00 0.00000E+00 0.00000E+00
 -1      7521 4.00373E-01-2.90636E-02-1.81925E+00
 -1      7522 5.66589E-01-3.58198E-02-2.32909E+00
 -1      7523 7.61290E-01-6.15841E-02-9.13948E+00
 -1      7524 6.76726E-01-8.77762E-02-1.20805E+01
 -1      7525 5.70365E-01-7.61729E-02-1.42923E+01
 -1      7526 2.79415E-01-1.43784E-01-1.73685E+01
 -1      7527-4.40119E-01-1.12853E-01-1.64478E+01
 -1      7528-5.03303E-01-1.13909E-01-1.59500E+01
 -1      7529-5.85299E-01-1.13488E-01-1.54470E+01
 -1      7530-6.27272E-01-1.00051E-01-9.83574E+00
 -1      7531-5.34190E-01-1.18803E-01-3.39720E+00
 -1      7532 1.02544E-01-3.50462E-02-1.74889E-01
 -1      7533 2.28645E-01-3.02896E-02-4.58164E-01
 -1      7534 5.88130E-01-3.98550E-02-2.47350E+00
 -1      7535 6.18009E-01-3.51954E-02-4.71794E+00
 -1      7536 8.26870E-01-8.90239E-02-1.18754E+01
 -1      7537 5.30860E-01-1.10033E-01-1.48027E+01
 -1      7538-6.49403E-01-1.12054E-01-1.52899E+01
 -1      7539-8.79584E-01-9.82558E-02-9.44866E+00
 -1      7540-8.22699E-01-7.98850E-02-5.75282E+00
 -1      7541-2.28449E-01-6.06208E-02-5.41276E-01
 -1      7542-1.02079E-01-3.72088E-02-1.78243E-01
 -1      7543-6.28830E-02-3.52579E-02-5.88201E-02
 -1      7544 5.15786E-01-3.49579E-02-1.69404E+00
 -1      7545 5.50705E-01-4.12595E-02-2.82583E+00
 -1      7546 8.89796E-01-6.45781E-02-9.32735E+00
 -1      7547 8.16702E-01-1.04661E-01-1.29936E+01
 -1      7548 5.40735E-01-1.40585E-01-1.60037E+01
 -1      7549-1.82461E-01-1.28880E-01-1.78539E+01
 -1      7550-2.88361E-01-1.27186E-01-1.75117E+01
 -1      7551-5.45609E-01-1.13407E-01-1.64672E+01
 -1      7552-5.77601E-01-1.11664E-01-1.61301E+01
 -1      7553-8.37270E-01-1.07812E-01-1.20027E+01
 -1      7554-8.06055E-01-7.02656E-02-4.65629E+00
 -1      7555 1.92148E-01-4.16334E-02-6.00421E-01
 -1      7556 3.72698E-01-3.60468E-02-1.84111E+00
 -1      7557 5.51651E-01-3.98079E-02-2.34302E+00
 -1      7558 7.27211E-01-3.38030E-02-4.11344E+00
 -1      7559 7.79583E-01-6.01620E-02-9.06292E+00
 -1      7560 7.34775E-01-6.28650E-02-9.88259E+00
 -1      7561 7.14080E-01-8.42179E-02-1.13071E+01
 -1      7562 7.13791E-01-8.75061E-02-1.20524E+01
 -1      7563 2.79907E-01-1.45629E-01-1.74288E+01
 -1      7564-4.26067E-01-1.06966E-01-1.59628E+01
 -1      7565-8.06699E-01-1.12617E-01-1.31018E+01
 -1      7566-7.13816E-01-8.60953E-02-6.30276E+00
 -1      7567-2.29275E-01-5.69885E-02-4.48036E-01
 -1      7568-5.47262E-02-3.63473E-02-6.90207E-02
 -1      7569 0.00000E+00 0.00000E+00 0.00000E+00
 -1      7570 4.66034E-01-2.98288E-02-1.40342E+00
 -1      7571 4.88192E-01-3.76560E-02-2.82935E+00
 -1      7572 6.83612E-01-4.01369E-02-5.42167E+00
 -1      7573 7.97430E-01-4.20431E-02-5.62043E+00
 -1      7574 7.59642E-01-8.62779E-02-1.14436E+01
 -1      7575 5.34436E-01-1.11436E-01-1.48321E+01
 -1      7576-2.48884E-01-1.19581E-01-1.75806E+01
 -1      7577-4.92360E-01-1.13363E-01-1.64133E+01
 -1      7578-6.86574E-01-1.06531E-01-1.22018E+01
 -1      7579-7.21553E-01-9.35202E-02-8.45676E+00
 -1      7580-6.48669E-01-8.20180E-02-6.16246E+00
 -1      7581-5.46384E-01-8.26312E-02-2.82435E+00
 -1      7582-3.47241E-01-6.26328E-02-1.87501E+00
 -1      7583-1.94937E-01-5.11187E-02-5.55613E-01
 -1      7584 0.00000E+00 0.00000E+00 0.00000E+00
 -1      7585 0.00000E+00 0.00000E+00 0.00000E+00
 -1      7586 0.00000E+00 0.00000E+00 0.00000E+00
 -1      7587 1.97288E-01-3.52647E-02-5.52198E-01
 -1      7588 4.35768E-01-4.39224E-02-2.26390E+00
 -1      7589 5.58105E-01 9.22467E-03-3.19130E+00
 -1      7590 6.17273E-01-3.20728E-02-4.19387E+00
 -1      7591 7.27933E-01-4.52221E-02-6.09264E+00
 -1      7592 9.52940E-01-5.83030E-02-8.40722E+00
 -1      7593 6.42528E-01-1.17361E-01-1.53087E+01
 -1      7594-3.09040E-01-1.29095E-01-1.74166E+01
 -1      7595-3.71765E-01-1.96863E-01-1.72347E+01
 -1      7596-6.46934E-01-1.17773E-01-1.50586E+01
 -1      7597-6.08767E-01-1.51087E-01-1.44635E+01
 -1      7598-7.24783E-01-1.15781E-01-1.09444E+01
 -1      7599-8.76603E-01-9.67030E-02-9.13147E+00
 -1      7600 0.00000E+00 0.00000E+00 0.00000E+00
 -1      7601 1.02865E-01-5.44653E-02-2.51835E-01
 -1      7602 4.85708E-01-3.38207E-02-1.49232E+00
 -1      7603 5.42143E-01 9.36503E-04-3.66101E+00
 -1      7604 5.65941E-01-1.22186E-02-3.94648E+00
 -1      7605 6.20683E-01-3.84644E-02-4.84443E+00
 -1      7606 7.56479E-01-3.83258E-02-6.16484E+00
 -1      7607 7.53625E-01-8.35865E-02-1.09428E+01
 -1      7608 7.49838E-01-1.32504E-01-1.35329E+01
 -1      7609 6.33672E-01-1.34433E-01-1.44684E+01
 -1      7610 3.64401E-01-2.12769E-01-1.66399E+01
 -1      7611 1.88851E-01-1.26993E-01-1.75078E+01
 -1      7612 2.58451E-01-1.36874E-01-1.75054E+01
 -1      7613-7.77013E-02-1.86983E-01-1.79806E+01
 -1      7614-1.37472E-01-1.07635E-01-1.77538E+01
 -1      7615-6.93868E-01-1.17264E-01-1.62862E+01
 -1      7616-4.73849E-01-9.91439E-02-1.54920E+01
 -1      7617-6.05076E-01-1.36552E-01-1.36995E+01
 -1      7618-6.20572E-01-1.03868E-01-1.17485E+01
 -1      7619-7.80460E-01-1.08735E-01-1.14238E+01
 -1      7620-7.63503E-01-7.43493E-02-6.66549E+00
 -1      7621-7.40651E-01-4.27424E-02-4.10568E+00
 -1      7622-5.26429E-01-8.35133E-02-2.68668E+00
 -1      7623-5.09382E-01-8.02730E-02-2.36287E+00
 -1      7624-3.20859E-01 3.15726E-02-1.13945E+00
 -1      7625-2.02469E-01-6.33205E-02-3.65384E-01
 -1      7626 4.43767E-03 5.79754E-03 5.55463E-03
 -1      7627 0.00000E+00 0.00000E+00 0.00000E+00
 -1      7628 0.00000E+00 0.00000E+00 0.00000E+00
 -1      7629 7.34370E-01-5.71869E-02-8.51091E+00
 -1      7630 6.97553E-01-1.05026E-01-1.32452E+01
 -1      7631-1.37698E-01-1.37711E-01-1.79029E+01
 -1      7632-8.96367E-01-8.12760E-02-6.08175E+00
 -1      7633-6.96986E-01-6.51961E-02-4.39108E+00
 -1      7634-6.71581E-01-6.55364E-02-2.95953E+00
 -1      7635 5.52027E-01-6.06176E-02-2.10692E+00
 -1      7636 6.37660E-01-4.51553E-02-5.13693E+00
 -1      7637 7.12530E-01-5.77717E-02-8.65367E+00
 -1      7638-6.81876E-01-1.02393E-01-1.27298E+01
 -1      7639-7.03880E-01-9.54991E-02-9.06876E+00
 -1      7640-7.32745E-01-9.44720E-02-8.91642E+00
 -1      7641-8.95252E-01-8.73303E-02-5.24498E+00
 -1      7642 0.00000E+00 0.00000E+00 0.00000E+00
 -1      7643 0.00000E+00 0.00000E+00 0.00000E+00
 -1      7644 2.77375E-01-1.21525E-02-6.92574E-01
 -1      7645 3.00703E-01-6.37743E-03-9.00294E-01
 -1      7646 4.08617E-01-5.58526E-02-2.09685E+00
 -1      7647 5.84629E-01-6.98148E-03-3.31425E+00
 -1      7648 6.16216E-01-7.87841E-02-1.11698E+01
 -1      7649 5.24816E-01-1.11618E-01-1.45658E+01
 -1      7650 4.19067E-01-1.34859E-01-1.61494E+01
 -1      7651 3.40001E-01-2.05847E-01-1.69181E+01
 -1      7652 1.16571E-01-1.75214E-01-1.79897E+01
 -1      7653-2.61526E-02-2.03576E-01-1.80467E+01
 -1      7654-1.19954E-01-1.59773E-01-1.79913E+01
 -1      7655-2.91616E-01-1.38215E-01-1.72721E+01
 -1      7656-3.37818E-01-1.72447E-01-1.70487E+01
 -1      7657-4.95333E-01-1.19957E-01-1.48670E+01
 -1      7658-8.62208E-01-1.00664E-01-1.14384E+01
 -1      7659-6.13087E-01-7.80772E-02-6.40897E+00
 -1      7660-6.36556E-01-8.40090E-02-5.23782E+00
 -1      7661-5.82445E-01-3.70884E-02-3.52495E+00
 -1      7662-5.97892E-01-7.23319E-02-3.06978E+00
 -1      7663-4.96678E-01-9.30871E-02-2.15644E+00
 -1      7664-5.88079E-01-4.32872E-02-1.27439E+00
 -1      7665-3.03131E-01 2.18958E-02-8.56751E-01
 -1      7666-5.22965E-02-4.02372E-02 8.20908E-03
 -1      7667 0.00000E+00 0.00000E+00 0.00000E+00
 -1      7668 0.00000E+00 0.00000E+00 0.00000E+00
 -1      7669 0.00000E+00 0.00000E+00 0.00000E+00
 -1      7670 7.40364E-01-4.19663E-02-4.22051E+00
 -1      7671 7.08032E-01-6.05005E-02-9.44617E+00
 -1      7672 8.58614E-01-6.96952E-02-1.00769E+01
 -1      7673 6.43490E-01-9.49238E-02-1.31353E+01
 -1      7674 7.88263E-01-1.16822E-01-1.36861E+01
 -1      7675 5.20031E-01-1.79680E-01-1.66743E+01
 -1      7676-1.52098E-01-1.19979E-01-1.78847E+01
 -1      7677-7.55229E-01-9.45934E-02-9.74961E+00
 -1      7678-7.77953E-01-9.49568E-02-8.23810E+00
 -1      7679-8.73966E-01-8.66558E-02-7.49812E+00
 -1      7680-6.36499E-01-7.33576E-02-4.46722E+00
 -1      7681-7.58657E-01-5.39717E-02-3.81814E+00
 -1      7682 1.43262E-01-5.79950E-02-1.96214E-01
 -1      7683 1.89561E-01-5.40182E-02-4.55783E-01
 -1      7684 6.50021E-01-4.54857E-02-4.99232E+00
 -1      7685 7.27614E-01-4.87332E-02-5.25813E+00
 -1      7686 7.71775E-01-5.83996E-02-8.64685E+00
 -1      7687 7.94463E-01-6.18103E-02-9.21121E+00
 -1      7688 1.91967E-01-1.10750E-01-1.75847E+01
 -1      7689-2.26185E-01-1.02190E-01-1.75033E+01
 -1      7690-5.05212E-01-8.64953E-02-1.55819E+01
 -1      7691-5.95860E-01-1.00972E-01-1.28539E+01
 -1      7692-8.18546E-01-9.49670E-02-9.45126E+00
 -1      7693-1.17854E-01-6.17781E-02-1.22012E-01
 -1      7694 1.44339E-01 4.71717E-02-2.44098E-01
 -1      7695 1.49186E-01 4.27496E-02-3.28867E-01
 -1      7696 4.84684E-01 2.66246E-02-1.88209E+00
 -1      7697 8.27166E-01-1.18655E-02-4.82231E+00
 -1      7698 7.78762E-01-5.85823E-02-8.66465E+00
 -1      7699 7.03885E-01-1.05059E-01-1.20116E+01
 -1      7700 6.93900E-01-1.20753E-01-1.29650E+01
 -1      7701 5.68855E-01-1.86816E-01-1.57244E+01
 -1      7702 6.13991E-01-1.65680E-01-1.52277E+01
 -1      7703 6.16073E-01-1.94889E-01-1.62281E+01
 -1      7704 5.74885E-01-1.91840E-01-1.60054E+01
 -1      7705 2.24870E-01-2.35877E-01-1.78119E+01
 -1      7706 2.38032E-01-2.19770E-01-1.76919E+01
 -1      7707 2.30904E-01-2.39299E-01-1.79507E+01
 -1      7708 2.12939E-01-2.27152E-01-1.80549E+01
 -1      7709-2.70849E-01-2.14871E-01-1.79918E+01
 -1      7710-2.49289E-01-2.11300E-01-1.78680E+01
 -1      7711-2.48265E-01-2.09985E-01-1.77594E+01
 -1      7712-5.47410E-01-1.66224E-01-1.61668E+01
 -1      7713-7.60619E-01-1.35076E-01-1.28287E+01
 -1      7714-7.89093E-01-9.45557E-02-9.02399E+00
 -1      7715-7.43778E-01-4.67957E-02-5.31154E+00
 -1      7716-7.89174E-01-4.17670E-02-4.95634E+00
 -1      7717-5.91033E-01-3.57851E-02-2.68861E+00
 -1      7718-5.86284E-01-1.90677E-02-1.77728E+00
 -1      7719-6.33322E-01-1.28669E-02-2.14314E+00
 -1      7720-1.69182E-01 3.30779E-02-4.14037E-01
 -1      7721-1.88183E-01 1.15522E-02-5.20614E-01
 -1      7722-1.74902E-01 3.79634E-02-3.15494E-01
 -1      7723-1.53688E-01 3.02311E-02-2.06937E-01
 -1      7724 0.00000E+00 0.00000E+00 0.00000E+00
 -1      7725 0.00000E+00 0.00000E+00 0.00000E+00
 -1      7726 0.00000E+00 0.00000E+00 0.00000E+00
 -1      7727 6.63346E-02 1.75733E-02-2.16841E-02
 -1      7728 1.26923E-01 3.24768E-02-6.18515E-02
 -1      7729 1.97174E-01 3.27561E-02-4.95744E-01
 -1      7730 6.02092E-01 1.40699E-02-2.53679E+00
 -1      7731 6.22144E-01 3.51156E-03-2.81468E+00
 -1      7732 8.24879E-01-6.59608E-02-9.66958E+00
 -1      7733 9.64393E-01-6.89484E-02-9.98068E+00
 -1      7734 9.03080E-01-1.31466E-01-1.36418E+01
 -1      7735 7.73068E-01-1.17917E-01-1.39071E+01
 -1      7736 5.60818E-01-1.84583E-01-1.64021E+01
 -1      7737 5.50432E-01-1.79644E-01-1.66137E+01
 -1      7738 5.07509E-01-1.62737E-01-1.68202E+01
 -1      7739-1.95402E-01-1.66421E-01-1.81807E+01
 -1      7740-2.60305E-01-1.92442E-01-1.81077E+01
 -1      7741-2.79272E-01-1.90178E-01-1.75551E+01
 -1      7742-3.06620E-01-1.92297E-01-1.74391E+01
 -1      7743-7.20452E-01-1.56559E-01-1.51452E+01
 -1      7744-7.28543E-01-1.23861E-01-1.40563E+01
 -1      7745-8.76746E-01-1.38241E-01-1.37089E+01
 -1      7746-6.81045E-01-1.16019E-01-1.17563E+01
 -1      7747-9.46933E-01-8.41976E-02-7.68791E+00
 -1      7748-9.06880E-01-7.19062E-02-6.42481E+00
 -1      7749-6.59306E-01-4.52966E-02-4.33625E+00
 -1      7750-8.89969E-01-4.66004E-02-4.15817E+00
 -1      7751-7.59610E-01-5.73819E-02-3.89846E+00
 -1      7752-5.37663E-01-5.15445E-02-3.06205E+00
 -1      7753-5.18855E-01-3.58799E-02-1.42113E+00
 -1      7754-4.85763E-01-5.61740E-02-1.22436E+00
 -1      7755-1.38388E-01 2.75951E-02-1.31126E-01
 -1      7756-7.13829E-02 1.95592E-02-5.01938E-02
 -1      7757 0.00000E+00 0.00000E+00 0.00000E+00
 -1      7758 4.91312E-01-1.83450E-02-1.05549E+00
 -1      7759 4.52012E-01 1.00361E-02-1.26015E+00
 -1      7760 7.20151E-01-2.87365E-02-3.78775E+00
 -1      7761 3.03560E-01-1.94621E-01-1.74261E+01
 -1      7762-4.81268E-01-1.45449E-01-1.70191E+01
 -1      7763-8.15531E-01-1.10485E-01-1.13711E+01
 -1      7764-7.49708E-01-8.20142E-02-7.28835E+00
 -1      7765-2.38366E-01-1.96363E-02-7.14114E-01
 -1      7766 0.00000E+00 0.00000E+00 0.00000E+00
 -1      7767 0.00000E+00 0.00000E+00 0.00000E+00
 -1      7768 8.65394E-01-1.23241E-01-1.24980E+01
 -1      7769 2.52503E-01-2.22125E-01-1.77629E+01
 -1      7770-2.80415E-01-2.18925E-01-1.77761E+01
 -1      7771-2.01436E-01 1.69714E-02-4.04806E-01
 -1      7772 1.77974E-01 4.32943E-02-2.93214E-01
 -1      7773 9.42436E-01-1.05002E-01-1.17152E+01
 -1      7774 6.65157E-01-1.94121E-01-1.57313E+01
 -1      7775 2.67732E-01-2.49073E-01-1.78182E+01
 -1      7776-3.30809E-01-1.77805E-01-1.75042E+01
 -1      7777-1.00699E+00-9.59503E-02-8.94455E+00
 -1      7778-8.63692E-01-6.98112E-02-6.05340E+00
 -1      7779 0.00000E+00 0.00000E+00 0.00000E+00
 -1      7780 7.72263E-01-6.15901E-02-9.01120E+00
 -1      7781 8.26071E-01-8.43754E-02-1.13773E+01
 -1      7782 6.25465E-01-1.30954E-01-1.49189E+01
 -1      7783 1.25576E-01-1.56072E-01-1.81872E+01
 -1      7784-6.37955E-01-1.56089E-01-1.56120E+01
 -1      7785-8.55903E-01-9.96135E-02-9.77811E+00
 -1      7786-8.57014E-01-9.77705E-02-9.10799E+00
 -1      7787-6.03732E-01-6.21663E-02-2.92694E+00
 -1      7788-1.60219E-01 7.57708E-04-1.55595E-01
 -1      7789 1.09031E-01 1.85896E-02-2.05278E-01
 -1      7790 2.24785E-01 1.29584E-02-5.01999E-01
 -1      7791 6.81786E-01-6.56348E-02-3.64543E+00
 -1      7792 8.44788E-01-5.49297E-02-7.88634E+00
 -1      7793 6.11528E-01-1.46698E-01-1.50441E+01
 -1      7794 5.23870E-01-1.73742E-01-1.59246E+01
 -1      7795-1.86413E-01-1.90962E-01-1.78466E+01
 -1      7796-3.22971E-01-2.07709E-01-1.77020E+01
 -1      7797-8.57207E-01-9.15197E-02-8.53804E+00
 -1      7798-5.88304E-01-4.75277E-02-2.81342E+00
 -1      7799-4.86834E-01-2.67675E-02-1.99509E+00
 -1      7800-6.73606E-01-2.26900E-02-2.06826E+00
 -1      7801-3.95325E-01-9.81260E-02-1.07540E+00
 -1      7802-2.31222E-01 7.08563E-03-4.30323E-01
 -1      7803-1.83917E-01 2.36133E-02-3.09382E-01
 -1      7804 0.00000E+00 0.00000E+00 0.00000E+00
 -1      7805 5.45657E-01 1.45494E-02-1.87438E+00
 -1      7806 5.65194E-01-1.10082E-02-2.75136E+00
 -1      7807 7.64511E-01-6.26984E-02-3.43902E+00
 -1      7808 8.56539E-01-2.35873E-02-6.01410E+00
 -1      7809 9.43868E-01-6.43970E-02-9.13637E+00
 -1      7810 7.94125E-01-1.09984E-01-1.23250E+01
 -1      7811 7.89931E-01-9.37027E-02-1.42130E+01
 -1      7812 3.38038E-01-2.13238E-01-1.76359E+01
 -1      7813-7.13010E-01-1.03436E-01-1.41255E+01
 -1      7814-8.12029E-01-1.15252E-01-1.15951E+01
 -1      7815-8.22483E-01-8.68365E-02-6.62364E+00
 -1      7816 0.00000E+00 0.00000E+00 0.00000E+00
 -1      7817 2.11251E-01 1.77318E-02-4.42636E-01
 -1      7818 4.66068E-01 8.28320E-03-1.38520E+00
 -1      7819 7.98537E-01-1.18908E-01-1.28469E+01
 -1      7820-2.30718E-01-1.93113E-01-1.79085E+01
 -1      7821-3.03959E-01-1.74637E-01-1.75708E+01
 -1      7822-7.99276E-01-6.52243E-02-5.75159E+00
 -1      7823-5.55803E-01-1.49232E-01-1.65095E+01
 -1      7824 5.74986E-01-9.57538E-03-2.76828E+00
 -1      7825 7.43890E-01-2.35270E-02-4.78207E+00
 -1      7826 8.54145E-01-5.26226E-02-7.73812E+00
 -1      7827 1.80877E-01-2.06438E-01-1.80052E+01
 -1      7828-7.10208E-01-1.30630E-01-1.36017E+01
 -1      7829-7.91189E-01-1.27571E-01-1.31383E+01
 -1      7830-7.80394E-01-1.24828E-01-1.29382E+01
 -1      7831 0.00000E+00 0.00000E+00 0.00000E+00
 -1      7832 7.75290E-01-1.06061E-01-1.26937E+01
 -1      7833 6.17649E-01-1.64064E-01-1.58383E+01
 -1      7834-6.40857E-01-1.44460E-01-1.59086E+01
 -1      7835-7.98793E-01-6.16320E-02-5.00842E+00
 -1      7836-7.43223E-01-4.86680E-02-4.22346E+00
 -1      7837-5.78259E-01-5.00829E-02-2.02661E+00
 -1      7838 0.00000E+00 0.00000E+00 0.00000E+00
 -1      7839 3.58997E-01 8.29223E-02-9.22589E-01
 -1      7840 5.70832E-01-9.41265E-03-2.68576E+00
 -1      7841 6.81960E-01-2.86527E-02-4.91883E+00
 -1      7842 7.81850E-01-2.72310E-02-5.93734E+00
 -1      7843 7.25395E-01-2.71664E-02-6.79864E+00
 -1      7844 6.09421E-01-1.67644E-01-1.45646E+01
 -1      7845 5.20975E-01-1.77595E-01-1.62959E+01
 -1      7846 3.85631E-01-2.56602E-01-1.71018E+01
 -1      7847 1.52880E-01-1.79933E-01-1.77654E+01
 -1      7848-3.19303E-01-1.79473E-01-1.74482E+01
 -1      7849-4.19136E-01-2.26270E-01-1.70704E+01
 -1      7850-7.54676E-01-1.20915E-01-1.08472E+01
 -1      7851-5.90177E-01-1.76242E-02-3.20581E+00
 -1      7852-3.32192E-01 4.48397E-02-8.76546E-01
 -1      7853 1.28742E-01 4.80335E-03-2.68537E-01
 -1      7854 5.54191E-01-8.70421E-03-2.23578E+00
 -1      7855 6.74842E-01 2.00741E-02-3.06261E+00
 -1      7856 8.01244E-01-2.03763E-02-4.32566E+00
 -1      7857 1.00290E+00-6.03797E-02-8.71446E+00
 -1      7858 8.92817E-01-9.57044E-02-1.13314E+01
 -1      7859 8.75222E-01-1.01470E-01-1.16130E+01
 -1      7860 7.46913E-01-1.69158E-01-1.47319E+01
 -1      7861 6.72736E-01-1.53830E-01-1.56320E+01
 -1      7862 3.05172E-01-2.15374E-01-1.73478E+01
 -1      7863-2.16096E-01-1.60477E-01-1.77699E+01
 -1      7864-7.01378E-01-1.33402E-01-1.56821E+01
 -1      7865-6.15145E-01-1.38071E-01-1.55754E+01
 -1      7866-7.21443E-01-1.64812E-01-1.47053E+01
 -1      7867-8.70080E-01-1.18641E-01-1.23828E+01
 -1      7868-9.47733E-01-1.06908E-01-1.00831E+01
 -1      7869-8.47276E-01-6.44436E-02-6.34480E+00
 -1      7870-8.68788E-01-6.83440E-02-6.06535E+00
 -1      7871-6.58804E-01-4.71595E-02-4.40544E+00
 -1      7872-6.42157E-01-5.62913E-02-2.19724E+00
 -1      7873-4.86911E-01-3.36569E-02-1.59817E+00
 -1      7874-2.47511E-01 1.15925E-02-6.54299E-01
 -1      7875-1.82446E-01-2.30239E-02-3.51966E-01
 -1      7876 2.35534E-01 2.60294E-02-5.41650E-01
 -1      7877-1.00753E+00-9.66319E-02-8.93469E+00
 -1      7878-1.18008E-02 1.13059E-02-5.07677E-02
 -1      7879 1.78981E-01 1.67928E-03-3.30456E-01
 -1      7880-2.65310E-01-1.54258E-01-1.76932E+01
 -1      7881 0.00000E+00 0.00000E+00 0.00000E+00
 -1      7882 0.00000E+00 0.00000E+00 0.00000E+00
 -1      7883 0.00000E+00 0.00000E+00 0.00000E+00
 -1      7884 1.25686E-01-5.47293E-03-1.13817E-01
 -1      7885 4.63382E-01 1.56333E-02-1.22026E+00
 -1      7886 5.99409E-01-1.12314E-02-1.51458E+00
 -1      7887 6.31523E-01-2.15762E-02-2.90441E+00
 -1      7888 8.00324E-01-1.92349E-02-3.92229E+00
 -1      7889 8.99672E-01-3.61736E-02-5.92485E+00
 -1      7890 8.46459E-01-3.38888E-02-6.44487E+00
 -1      7891 9.52733E-01-4.79825E-02-7.23864E+00
 -1      7892 9.87796E-01-5.54150E-02-7.86976E+00
 -1      7893 9.97060E-01-7.04319E-02-9.65633E+00
 -1      7894 9.74725E-01-7.41836E-02-9.96302E+00
 -1      7895 9.58710E-01-9.28768E-02-1.11369E+01
 -1      7896 2.55273E-01-1.94299E-01-1.72554E+01
 -1      7897-6.77235E-01-1.34581E-01-1.63396E+01
 -1      7898-5.43027E-01-1.56670E-01-1.66480E+01
 -1      7899-8.71458E-01-1.16063E-01-1.11822E+01
 -1      7900-9.73514E-01-1.10798E-01-1.03920E+01
 -1      7901-9.99134E-01-1.00964E-01-9.76499E+00
 -1      7902-1.00321E+00-8.93436E-02-7.97895E+00
 -1      7903-9.78172E-01-8.33689E-02-7.67567E+00
 -1      7904-9.13769E-01-7.52718E-02-6.45181E+00
 -1      7905-2.03965E-01-1.02198E-02-6.99911E-01
 -1      7906 0.00000E+00 0.00000E+00 0.00000E+00
 -1      7907 0.00000E+00 0.00000E+00 0.00000E+00
 -1      7908 0.00000E+00 0.00000E+00 0.00000E+00
 -1      7909 1.64634E-01-1.69462E-03-4.86074E-01
 -1      7910 2.25028E-01 2.18190E-03-5.59658E-01
 -1      7911 8.05566E-01-5.42521E-02-8.14267E+00
 -1      7912 9.51854E-01-9.57957E-02-1.15876E+01
 -1      7913 7.56150E-01-9.30926E-02-1.18846E+01
 -1      7914 5.82366E-01-1.32999E-01-1.51333E+01
 -1      7915 2.57447E-01-1.74540E-01-1.74244E+01
 -1      7916-2.46922E-01-1.50339E-01-1.74930E+01
 -1      7917-3.11602E-01-1.54122E-01-1.74161E+01
 -1      7918-9.42759E-01-7.46633E-02-6.08026E+00
 -1      7919-5.05164E-01-5.20590E-02-1.74757E+00
 -1      7920-2.27718E-01-3.64943E-02-5.68441E-01
 -1      7921-1.66975E-01-3.19944E-02-4.95768E-01
 -1      7922 0.00000E+00 0.00000E+00 0.00000E+00
 -1      7923 6.63538E-01-2.47820E-02-2.71341E+00
 -1      7924 7.21919E-01-3.39903E-02-3.83373E+00
 -1      7925 8.45984E-01-4.61709E-02-6.24813E+00
 -1      7926 8.46386E-01-5.66151E-02-7.35978E+00
 -1      7927 9.16039E-01-1.16610E-01-1.33016E+01
 -1      7928 9.02013E-01-1.13044E-01-1.35912E+01
 -1      7929 5.81991E-01-1.05974E-01-1.46698E+01
 -1      7930 6.65851E-01-1.65491E-01-1.62780E+01
 -1      7931 5.64675E-01-1.43020E-01-1.65481E+01
 -1      7932 1.54749E-01-1.64182E-01-1.79766E+01
 -1      7933 1.00690E-01-1.36877E-01-1.80424E+01
 -1      7934-2.33886E-01-1.57342E-01-1.79227E+01
 -1      7935-6.53477E-01-9.35944E-02-1.67476E+01
 -1      7936-7.14230E-01-1.25290E-01-1.50821E+01
 -1      7937-8.41706E-01-1.07077E-01-1.13536E+01
 -1      7938-9.87320E-01-8.93915E-02-7.65418E+00
 -1      7939-7.46267E-01-7.27124E-02-5.78006E+00
 -1      7940-8.67593E-01-7.04876E-02-4.10785E+00
 -1      7941-6.19122E-01-5.09454E-02-1.57574E+00
 -1      7942-5.14786E-01-8.53225E-02-1.23783E+00
 -1      7943-2.43337E-01-5.68844E-02-6.66524E-01
 -1      7944 2.92230E-01-1.47105E-01-1.72691E+01
 -1      7945-7.64959E-01-1.12026E-01-1.38859E+01
 -1      7946 0.00000E+00 0.00000E+00 0.00000E+00
 -1      7947 8.93785E-01-1.01628E-01-1.23954E+01
 -1      7948 6.97850E-01-1.51158E-01-1.55861E+01
 -1      7949 2.29532E-01-1.60898E-01-1.75837E+01
 -1      7950-6.54469E-01-5.99482E-02-2.19548E+00
 -1      7951 1.69410E-01-1.10697E-02-3.29056E-01
 -1      7952 6.41564E-01-2.29298E-02-2.13437E+00
 -1      7953 8.98609E-01-5.97335E-02-8.74988E+00
 -1      7954 8.92114E-01-8.80344E-02-1.15713E+01
 -1      7955 5.88985E-01-1.33440E-01-1.54737E+01
 -1      7956-2.68857E-01-1.46191E-01-1.76600E+01
 -1      7957-3.42323E-01-1.23674E-01-1.74089E+01
 -1      7958-7.62989E-01-1.13010E-01-1.27354E+01
 -1      7959-9.53691E-01-1.14760E-01-1.24863E+01
 -1      7960-1.01643E+00-9.65222E-02-8.92753E+00
 -1      7961-8.78899E-01-8.44648E-02-6.07161E+00
 -1      7962-1.77291E-01-3.65151E-02-3.69264E-01
 -1      7963 0.00000E+00 0.00000E+00 0.00000E+00
 -1      7964 2.64169E-01-3.50019E-02-5.34800E-01
 -1      7965 5.36057E-01-3.64128E-02-1.51293E+00
 -1      7966 8.06198E-01-3.91357E-02-4.27404E+00
 -1      7967 8.57663E-01-5.75828E-02-8.51797E+00
 -1      7968 7.86145E-01-5.97653E-02-8.96703E+00
 -1      7969 6.55631E-01-1.01564E-01-1.47879E+01
 -1      7970-6.01232E-01-1.11236E-01-1.63408E+01
 -1      7971-7.58057E-01-1.00205E-01-1.37133E+01
 -1      7972-9.40649E-01-9.97134E-02-9.80148E+00
 -1      7973-8.68315E-01-9.75786E-02-9.09240E+00
 -1      7974-7.90731E-01-9.37380E-02-8.64486E+00
 -1      7975-5.48943E-01-8.27041E-02-2.79436E+00
 -1      7976-5.35354E-01-6.26924E-02-2.03941E+00
 -1      7977-1.91743E-01-3.26941E-02-3.36036E-01
 -1      7978 9.31564E-02-3.04115E-02-2.55305E-01
 -1      7979 5.75368E-01-2.80451E-02-1.89046E+00
 -1      7980 6.84300E-01-6.98339E-02-3.62356E+00
 -1      7981 8.88783E-01-5.83341E-02-6.22215E+00
 -1      7982 8.33709E-01-6.48839E-02-7.52989E+00
 -1      7983 6.40947E-01-1.16682E-01-1.49115E+01
 -1      7984 5.40987E-01-1.45288E-01-1.57933E+01
 -1      7985-2.11933E-01-4.54822E-02-3.87698E-01
 -1      7986 0.00000E+00 0.00000E+00 0.00000E+00
 -1      7987 6.07766E-01-7.17630E-02-3.39455E+00
 -1      7988 7.79446E-01-3.87992E-02-5.29750E+00
 -1      7989 8.57348E-01-4.45963E-02-5.97962E+00
 -1      7990 8.42801E-01-7.24722E-02-1.09816E+01
 -1      7991 8.13989E-01-9.56489E-02-1.22286E+01
 -1      7992 3.14228E-01-1.54110E-01-1.74800E+01
 -1      7993-7.05917E-01-1.19819E-01-1.55435E+01
 -1      7994-8.24812E-01-1.05951E-01-1.15700E+01
 -1      7995-4.08333E-01-1.45966E-01-9.61794E-01
 -1      7996 0.00000E+00 0.00000E+00 0.00000E+00
 -1      7997 6.45161E-01-1.20557E-01-1.51634E+01
 -1      7998-6.08301E-01-7.96119E-02-2.56297E+00
 -1      7999-5.62708E-01-6.32936E-02-1.73226E+00
 -1      8000 7.71477E-01-3.65130E-02-4.54614E+00
 -1      8001-8.97849E-01-9.28518E-02-8.26955E+00
 -1      8002 8.57931E-01-3.93806E-02-4.78178E+00
 -1      8003 8.63728E-01-5.27654E-02-7.69048E+00
 -1      8004 1.93333E-01-1.55764E-01-1.78618E+01
 -1      8005-6.10474E-01-7.92724E-02-2.42682E+00
 -1      8006 0.00000E+00 0.00000E+00 0.00000E+00
 -1      8007 0.00000E+00 0.00000E+00 0.00000E+00
 -1      8008 1.14998E-01-2.49057E-02-9.61517E-02
 -1      8009 1.27582E-01-5.04049E-02-2.58330E-01
 -1      8010 7.93451E-01-9.28013E-02-1.26207E+01
 -1      8011 6.45415E-01-1.22995E-01-1.57360E+01
 -1      8012 1.74783E-01-1.44538E-01-1.77113E+01
 -1      8013-1.66073E-01-1.15774E-01-1.77495E+01
 -1      8014-9.07205E-01-1.07503E-01-1.28117E+01
 -1      8015-8.54237E-01-7.73593E-02-4.89640E+00
 -1      8016-6.08464E-01-8.34999E-02-2.00267E+00
 -1      8017-5.74709E-01-5.65754E-02-1.51624E+00
 -1      8018-1.17385E-01-5.72023E-02-2.35297E-01
 -1      8019 0.00000E+00 0.00000E+00 0.00000E+00
 -1      8020 3.43267E-01 1.37929E-02-7.25652E-01
 -1      8021 5.72696E-01-4.79651E-02-2.22399E+00
 -1      8022 5.88031E-01-3.52096E-02-2.68014E+00
 -1      8023 8.90970E-01-4.63280E-02-5.17627E+00
 -1      8024 8.76378E-01-9.06359E-02-1.21609E+01
 -1      8025 7.44917E-01-1.13001E-01-1.54236E+01
 -1      8026 3.77799E-01-2.24676E-01-1.70657E+01
 -1      8027 1.61352E-01-1.53445E-01-1.78490E+01
 -1      8028-8.36196E-01-1.05515E-01-1.15691E+01
 -1      8029-8.58149E-01-9.51854E-02-8.60175E+00
 -1      8030-9.25103E-01-8.22969E-02-5.46235E+00
 -1      8031-6.37591E-01-3.26984E-02-3.19330E+00
 -1      8032-3.41991E-01 3.30462E-02-7.41416E-01
 -1      8033-9.08445E-02-4.25452E-02-1.03885E-01
 -1      8034 2.09682E-01-6.68865E-02-3.31328E-01
 -1      8035 2.76185E-01-8.97554E-03-6.14760E-01
 -1      8036 6.84108E-01-3.33498E-05-3.01717E+00
 -1      8037 8.11379E-01-3.28129E-02-4.28485E+00
 -1      8038 1.01577E+00-6.26836E-02-8.66100E+00
 -1      8039 7.08155E-01-1.19160E-01-1.49084E+01
 -1      8040 7.05136E-01-1.06143E-01-1.55470E+01
 -1      8041 5.48020E-01-1.53033E-01-1.62051E+01
 -1      8042 2.66391E-01-1.19917E-01-1.75821E+01
 -1      8043-2.56668E-01-9.24866E-02-1.76627E+01
 -1      8044-6.31783E-01-9.99803E-02-1.55459E+01
 -1      8045-7.29911E-01-1.46880E-01-1.46459E+01
 -1      8046-8.55606E-01-1.16319E-01-1.33531E+01
 -1      8047-8.75024E-01-1.05861E-01-1.23335E+01
 -1      8048-9.61415E-01-1.01881E-01-1.00652E+01
 -1      8049-1.02482E+00-9.66991E-02-8.91782E+00
 -1      8050-6.78259E-01-1.01109E-01-2.16867E+00
 -1      8051-5.10336E-01-5.02104E-02-1.55229E+00
 -1      8052-2.70086E-01-8.07558E-02-3.57904E-01
 -1      8053 0.00000E+00 0.00000E+00 0.00000E+00
 -1      8054 0.00000E+00 0.00000E+00 0.00000E+00
 -1      8055 2.62133E-01-3.26665E-02-5.39476E-01
 -1      8056 7.68573E-02-1.86725E-01-1.79246E+01
 -1      8057-7.11073E-01-9.23549E-02-1.56563E+01
 -1      8058-1.89933E-01-8.79768E-02-2.87241E-01
 -1      8059-2.13089E-02-1.25639E-02-3.88684E-02
 -1      8060 1.04571E-01-4.37541E-02-4.89419E-02
 -1      8061 1.97895E-01-4.31641E-02-5.58918E-01
 -1      8062 4.28662E-01-2.99239E-02-1.18035E+00
 -1      8063 5.09686E-01-4.67854E-02-1.43242E+00
 -1      8064 5.88611E-01-2.97134E-02-2.96818E+00
 -1      8065 7.38890E-01-3.11920E-02-3.86395E+00
 -1      8066 8.66379E-01-5.03265E-02-6.18190E+00
 -1      8067 8.27016E-01-4.21432E-02-6.52722E+00
 -1      8068 9.60956E-01-4.03203E-02-6.88790E+00
 -1      8069 9.82845E-01-8.44828E-02-1.10742E+01
 -1      8070 8.18293E-01-8.56987E-02-1.15517E+01
 -1      8071 6.40947E-01-1.06926E-01-1.49173E+01
 -1      8072 6.39855E-01-1.61605E-01-1.64498E+01
 -1      8073 5.78450E-01-1.27989E-01-1.60277E+01
 -1      8074 2.75191E-01-1.57820E-01-1.71417E+01
 -1      8075-2.32511E-01-1.20072E-01-1.73869E+01
 -1      8076-5.38496E-01-1.26953E-01-1.66253E+01
 -1      8077-6.56676E-01-1.05286E-01-1.63568E+01
 -1      8078-6.80529E-01-1.25372E-01-1.46366E+01
 -1      8079-7.86930E-01-1.19899E-01-1.37631E+01
 -1      8080-8.56017E-01-1.07700E-01-1.10387E+01
 -1      8081-9.81265E-01-1.05107E-01-1.03690E+01
 -1      8082-9.41373E-01-8.67604E-02-6.42973E+00
 -1      8083-8.12583E-01-8.61724E-02-6.02481E+00
 -1      8084-8.65591E-01-6.81177E-02-4.09245E+00
 -1      8085-5.44736E-01-7.35364E-02-1.68630E+00
 -1      8086-2.10073E-01-4.30155E-02-6.06592E-01
 -1      8087 0.00000E+00 0.00000E+00 0.00000E+00
 -1      8088 0.00000E+00 0.00000E+00 0.00000E+00
 -1      8089 5.33564E-01-5.75287E-02-1.70737E+00
 -1      8090 5.05802E-01-6.09585E-02-2.13930E+00
 -1      8091 7.42194E-01-4.43415E-02-4.50792E+00
 -1      8092 8.09092E-01-5.60677E-02-8.11490E+00
 -1      8093 8.14842E-01-9.21169E-02-1.27593E+01
 -1      8094 2.97826E-01-1.31697E-01-1.73068E+01
 -1      8095 2.68980E-01-1.25164E-01-1.74119E+01
 -1      8096 2.30017E-01-1.36784E-01-1.78515E+01
 -1      8097-5.93423E-01-9.30408E-02-1.60630E+01
 -1      8098-7.75683E-01-1.03256E-01-1.30372E+01
 -1      8099-8.09044E-01-8.03091E-02-4.69363E+00
 -1      8100-2.04941E-01-8.40657E-02-3.84356E-01
 -1      8101 0.00000E+00 0.00000E+00 0.00000E+00
 -1      8102 5.61718E-01-6.20723E-02-1.88028E+00
 -1      8103 8.58008E-01-6.17057E-02-8.94768E+00
 -1      8104 6.20492E-01-1.10962E-01-1.57579E+01
 -1      8105 2.44005E-01-1.11579E-01-1.75787E+01
 -1      8106 2.13739E-01-1.13918E-01-1.76688E+01
 -1      8107-2.38423E-01-9.14131E-02-1.76502E+01
 -1      8108-6.23601E-01-8.89691E-02-1.58774E+01
 -1      8109-8.68830E-01-9.56822E-02-8.61398E+00
 -1      8110-8.06063E-01-8.43959E-02-4.95181E+00
 -1      8111-5.88095E-01-9.13316E-02-1.93702E+00
 -1      8112-1.53488E-01-7.95196E-02-1.89310E-01
 -1      8113 0.00000E+00 0.00000E+00 0.00000E+00
 -1      8114 1.59085E-01 4.70239E-02-1.44492E-01
 -1      8115 2.35057E-01 4.84639E-02-4.17748E-01
 -1      8116 1.22855E+00-6.25295E-02-8.36823E+00
 -1      8117 9.09948E-01-6.41860E-02-9.10236E+00
 -1      8118 1.13414E+00-6.87959E-02-9.53901E+00
 -1      8119 1.02653E+00-1.38753E-01-1.31523E+01
 -1      8120 9.04686E-01-1.32916E-01-1.34001E+01
 -1      8121 2.29434E-01-2.22127E-01-1.81500E+01
 -1      8122-3.03066E-01-2.16265E-01-1.76463E+01
 -1      8123-6.64469E-01-1.69977E-01-1.56228E+01
 -1      8124-8.94510E-01-1.34806E-01-1.24388E+01
 -1      8125-1.00386E+00-1.28804E-01-1.20097E+01
 -1      8126-9.38227E-01-1.22947E-01-1.17465E+01
 -1      8127-9.93715E-01-9.32995E-02-8.87369E+00
 -1      8128-1.18267E+00-9.07132E-02-8.33181E+00
 -1      8129-1.03393E+00-8.75254E-02-8.01804E+00
 -1      8130-1.01235E+00-3.94572E-02-4.64148E+00
 -1      8131-8.92971E-01-4.40438E-02-4.39816E+00
 -1      8132 0.00000E+00 0.00000E+00 0.00000E+00
 -1      8133 0.00000E+00 0.00000E+00 0.00000E+00
 -1      8134 0.00000E+00 0.00000E+00 0.00000E+00
 -1      8135 5.73202E-01 2.18714E-02-1.44758E+00
 -1      8136 1.00860E+00-1.81617E-02-4.31907E+00
 -1      8137 9.19652E-01-5.17429E-02-7.90533E+00
 -1      8138 9.23016E-01-1.09731E-01-1.17550E+01
 -1      8139 2.69096E-01-2.16318E-01-1.75737E+01
 -1      8140-6.66589E-01-1.76139E-01-1.64749E+01
 -1      8141-7.53907E-01-1.72156E-01-1.66399E+01
 -1      8142-1.02924E+00-1.41337E-01-1.34216E+01
 -1      8143-1.00634E+00-1.01375E-01-9.75643E+00
 -1      8144-6.11888E-01-2.91456E-02-1.58462E+00
 -1      8145-2.54330E-01 6.70580E-03-6.17672E-01
 -1      8146 0.00000E+00 0.00000E+00 0.00000E+00
 -1      8147 0.00000E+00 0.00000E+00 0.00000E+00
 -1      8148 6.19092E-01 1.00154E-02-1.21777E+00
 -1      8149 4.30329E-01-1.80885E-01-1.73011E+01
 -1      8150-3.51481E-01-1.54677E-01-1.73000E+01
 -1      8151-7.20123E-01-1.26575E-01-1.46108E+01
 -1      8152-9.59717E-01-9.86060E-02-1.07295E+01
 -1      8153-3.23297E-01-4.24445E-02-8.33266E-01
 -1      8154 0.00000E+00 0.00000E+00 0.00000E+00
 -1      8155 3.67281E-01-1.42077E-02-6.78025E-01
 -1      8156 7.40800E-01-2.23921E-02-3.00636E+00
 -1      8157 9.47150E-01-7.43276E-02-1.07788E+01
 -1      8158 7.51254E-01-1.10064E-01-1.43284E+01
 -1      8159 4.37794E-01-1.48990E-01-1.71351E+01
 -1      8160-4.38599E-01-1.48038E-01-1.73161E+01
 -1      8161-7.90253E-01-1.14795E-01-1.43889E+01
 -1      8162-7.45680E-01-6.71948E-02-3.47503E+00
 -1      8163-6.39998E-01-1.42352E-02-2.19809E+00
 -1      8164-4.21067E-01-8.55789E-02-9.37729E-01
 -1      8165 6.04372E-01 2.66986E-02-2.10559E+00
 -1      8166 9.11179E-01-1.39708E-02-5.18227E+00
 -1      8167-9.38172E-01-1.33783E-01-1.25206E+01
 -1      8168 0.00000E+00 0.00000E+00 0.00000E+00
 -1      8169 9.54797E-01-6.66208E-02-9.68257E+00
 -1      8170 2.41099E-01-2.19658E-01-1.80461E+01
 -1      8171-6.95819E-01-1.69514E-01-1.57356E+01
 -1      8172-5.54358E-01-4.70667E-02-1.58033E+00
 -1      8173 0.00000E+00 0.00000E+00 0.00000E+00
 -1      8174 2.14727E-01-4.03628E-02-7.16211E-01
 -1      8175 4.17545E-01-4.16637E-02-9.90077E-01
 -1      8176 1.04002E+00-1.69268E-02-4.89980E+00
 -1      8177 1.01043E+00-3.78704E-02-6.42144E+00
 -1      8178 9.60892E-01-5.71446E-02-7.11114E+00
 -1      8179 1.10707E+00-5.44534E-02-7.39675E+00
 -1      8180 9.14818E-01-6.69169E-02-1.04814E+01
 -1      8181 1.06274E+00-6.98821E-02-1.02445E+01
 -1      8182 9.25031E-01-1.11308E-01-1.38892E+01
 -1      8183 4.47763E-01-1.31262E-01-1.70100E+01
 -1      8184 6.00125E-01-1.54024E-01-1.67580E+01
 -1      8185 4.19046E-01-1.47270E-01-1.72512E+01
 -1      8186-1.24041E-01-1.17731E-01-1.81750E+01
 -1      8187-2.02286E-01-1.61570E-01-1.80809E+01
 -1      8188-2.12305E-01-1.77850E-01-1.80139E+01
 -1      8189-2.72152E-01-1.21197E-01-1.72586E+01
 -1      8190-5.70693E-01-1.35888E-01-1.69106E+01
 -1      8191-6.57403E-01-1.62682E-01-1.59804E+01
 -1      8192-8.46145E-01-1.30509E-01-1.46821E+01
 -1      8193-1.06551E+00-1.27646E-01-1.22316E+01
 -1      8194-1.02702E+00-1.07002E-01-1.12623E+01
 -1      8195-1.15142E+00-9.33080E-02-8.48691E+00
 -1      8196-9.29900E-01-8.82701E-02-7.89188E+00
 -1      8197-1.06277E+00-8.71896E-02-7.44557E+00
 -1      8198-9.63678E-01-8.73931E-02-6.88959E+00
 -1      8199-9.21747E-01-7.05100E-02-3.92053E+00
 -1      8200-7.51024E-01-8.17294E-02-3.60113E+00
 -1      8201-7.67718E-01-7.63104E-02-3.21006E+00
 -1      8202-3.91435E-01-7.07087E-02-8.01971E-01
 -1      8203 0.00000E+00 0.00000E+00 0.00000E+00
 -1      8204-9.70317E-02-8.39010E-03-3.56692E-02
 -1      8205 0.00000E+00 0.00000E+00 0.00000E+00
 -1      8206 0.00000E+00 0.00000E+00 0.00000E+00
 -1      8207 2.48988E-01 2.20114E-02-4.16611E-01
 -1      8208 2.47820E-01 1.94849E-02-5.14015E-01
 -1      8209 8.17607E-01-2.36506E-02-4.20505E+00
 -1      8210 8.87029E-01-2.25100E-02-4.73823E+00
 -1      8211 1.02369E+00-5.94286E-02-8.35679E+00
 -1      8212 8.99293E-01-1.03012E-01-1.15849E+01
 -1      8213 9.58183E-01-1.12248E-01-1.21283E+01
 -1      8214 8.31513E-01-1.26734E-01-1.34583E+01
 -1      8215 6.79000E-01-1.53365E-01-1.49898E+01
 -1      8216 6.07117E-01-1.79506E-01-1.63930E+01
 -1      8217 1.91207E-01-2.05212E-01-1.80346E+01
 -1      8218-6.84887E-01-1.44835E-01-1.50752E+01
 -1      8219-8.59923E-01-1.31673E-01-1.35079E+01
 -1      8220-1.06665E+00-1.36913E-01-1.28160E+01
 -1      8221-9.43117E-01-1.00149E-01-9.85358E+00
 -1      8222-1.03008E+00-9.96520E-02-9.30577E+00
 -1      8223-9.52509E-01-6.62567E-02-5.97171E+00
 -1      8224-9.46456E-01-6.12245E-02-5.59053E+00
 -1      8225-2.96264E-01-7.51696E-03-5.66780E-01
 -1      8226-2.51066E-01-9.83135E-05-6.25209E-01
 -1      8227-1.32735E-01-1.84801E-03-1.31261E-01
 -1      8228 6.79103E-01 2.00682E-03-2.48407E+00
 -1      8229 9.42797E-01-6.78210E-02-9.75958E+00
 -1      8230 8.30551E-01-1.77173E-01-1.53719E+01
 -1      8231 3.09918E-01-2.01490E-01-1.74382E+01
 -1      8232-3.37688E-01-1.79776E-01-1.74610E+01
 -1      8233-7.60419E-01-1.52714E-01-1.53154E+01
 -1      8234-6.53921E-01-4.51262E-02-2.65626E+00
 -1      8235-2.75915E-01-1.27987E-03-4.83495E-01
 -1      8236 0.00000E+00 0.00000E+00 0.00000E+00
 -1      8237 5.87038E-01-1.80977E-01-1.63789E+01
 -1      8238 3.17197E-01-2.08957E-01-1.74507E+01
 -1      8239 1.75339E-01-2.06860E-01-1.79463E+01
 -1      8240-2.00012E-01-1.79905E-01-1.79744E+01
 -1      8241-9.69191E-01-9.05925E-02-7.95402E+00
 -1      8242-5.39492E-01-3.67645E-02-1.54704E+00
 -1      8243-2.53957E-01-8.82694E-04-5.80104E-01
 -1      8244 0.00000E+00 0.00000E+00 0.00000E+00
 -1      8245 2.35772E-01 1.99779E-02-5.55839E-01
 -1      8246 9.55388E-01-1.05681E-01-1.16496E+01
 -1      8247 6.88212E-01-1.52764E-01-1.49781E+01
 -1      8248-3.47150E-01-1.82467E-01-1.74655E+01
 -1      8249-7.40411E-01-1.44294E-01-1.51026E+01
 -1      8250-1.01088E+00-1.02141E-01-9.77317E+00
 -1      8251-9.44364E-01-6.62998E-02-6.03654E+00
 -1      8252-1.27778E-01-6.79402E-03-1.21359E-01
 -1      8253 1.13959E-01 1.20580E-02-9.45925E-02
 -1      8254 5.86426E-01-6.30461E-03-1.92447E+00
 -1      8255 9.99940E-01-5.82060E-02-8.49460E+00
 -1      8256 6.98242E-01-1.52986E-01-1.50064E+01
 -1      8257 6.39003E-01-1.75716E-01-1.60315E+01
 -1      8258-9.72012E-01-9.71434E-02-9.15049E+00
 -1      8259-5.92646E-01-4.27463E-02-1.85860E+00
 -1      8260 0.00000E+00 0.00000E+00 0.00000E+00
 -1      8261 0.00000E+00 0.00000E+00 0.00000E+00
 -1      8262 9.44418E-01-2.43775E-02-4.81275E+00
 -1      8263 9.78136E-01-3.06736E-02-5.29624E+00
 -1      8264 9.28338E-01-2.75372E-02-5.91868E+00
 -1      8265 7.17441E-01-1.61151E-01-1.54599E+01
 -1      8266-9.94749E-01-1.25003E-01-1.28831E+01
 -1      8267-1.07878E+00-6.24855E-02-5.50832E+00
 -1      8268 0.00000E+00 0.00000E+00 0.00000E+00
 -1      8269 0.00000E+00 0.00000E+00 0.00000E+00
 -1      8270 0.00000E+00 0.00000E+00 0.00000E+00
 -1      8271 3.24058E-01 6.27753E-02-7.38553E-01
 -1      8272 5.17476E-01 3.94740E-02-1.28866E+00
 -1      8273 7.25888E-01-1.38954E-02-2.13547E+00
 -1      8274 7.58011E-01 1.78952E-02-3.37645E+00
 -1      8275 8.92435E-01 4.32072E-03-3.71218E+00
 -1      8276 8.70809E-01-4.25585E-03-4.04450E+00
 -1      8277 8.98328E-01-3.00705E-02-5.03532E+00
 -1      8278 9.50086E-01-3.18101E-02-6.78744E+00
 -1      8279 9.40509E-01-9.04036E-02-1.05007E+01
 -1      8280 1.05787E+00-9.67762E-02-1.10564E+01
 -1      8281 8.13117E-01-1.72544E-01-1.39751E+01
 -1      8282 8.11476E-01-1.78476E-01-1.41600E+01
 -1      8283 5.20499E-01-2.39380E-01-1.67257E+01
 -1      8284 4.79847E-01-2.55994E-01-1.69547E+01
 -1      8285 4.16936E-01-2.35220E-01-1.72024E+01
 -1      8286 5.04206E-02-2.68381E-01-1.80831E+01
 -1      8287 3.42035E-03-2.75215E-01-1.81237E+01
 -1      8288-1.27936E-01-2.40119E-01-1.80508E+01
 -1      8289-4.33931E-01-2.30972E-01-1.72357E+01
 -1      8290-6.28642E-01-1.89944E-01-1.66694E+01
 -1      8291-8.38506E-01-1.59820E-01-1.44283E+01
 -1      8292-9.51067E-01-1.47054E-01-1.40158E+01
 -1      8293-9.39273E-01-1.20391E-01-1.26128E+01
 -1      8294-9.74422E-01-1.23945E-01-1.08455E+01
 -1      8295-9.38151E-01-6.60001E-02-7.16842E+00
 -1      8296-7.78840E-01-2.36513E-03-3.75071E+00
 -1      8297-7.64829E-01-3.50987E-03-3.56776E+00
 -1      8298-7.78006E-01-3.35395E-02-3.11341E+00
 -1      8299-6.26058E-01-3.41998E-02-1.65169E+00
 -1      8300-4.86367E-01 1.26662E-02-1.19143E+00
 -1      8301-4.19364E-01 3.75709E-02-9.73944E-01
 -1      8302-3.48070E-01 9.67467E-03-7.72027E-01
 -1      8303-1.52270E-01-1.01980E-02-2.97465E-01
 -1      8304 0.00000E+00 0.00000E+00 0.00000E+00
 -1      8305 0.00000E+00 0.00000E+00 0.00000E+00
 -1      8306 0.00000E+00 0.00000E+00 0.00000E+00
 -1      8307 8.70949E-01-1.04679E-01-1.24347E+01
 -1      8308 2.18852E-01-1.99290E-01-1.77744E+01
 -1      8309 2.04948E-01-2.12602E-01-1.79338E+01
 -1      8310 0.00000E+00 0.00000E+00 0.00000E+00
 -1      8311 3.69855E-01 6.10358E-02-8.78740E-01
 -1      8312 6.92334E-01-8.23972E-03-3.14248E+00
 -1      8313 9.54251E-01-9.01315E-02-1.05979E+01
 -1      8314 8.65248E-01-1.60269E-01-1.46753E+01
 -1      8315-1.15652E-01-2.36316E-01-1.80732E+01
 -1      8316-4.75342E-01-2.22292E-01-1.70503E+01
 -1      8317-6.22191E-01-2.01504E-01-1.68421E+01
 -1      8318-9.49993E-01-6.80303E-02-7.06532E+00
 -1      8319-1.05711E+00-7.20234E-02-6.57954E+00
 -1      8320-7.90172E-01-3.83467E-02-3.18274E+00
 -1      8321 0.00000E+00 0.00000E+00 0.00000E+00
 -1      8322 1.11344E-01-1.60366E-02-5.29738E-02
 -1      8323 3.26105E-01-1.98535E-01-1.72905E+01
 -1      8324-2.20258E-01-1.76891E-01-1.79874E+01
 -1      8325-9.00585E-01-5.95885E-02-4.39721E+00
 -1      8326-2.65068E-01-2.17318E-02-6.65321E-01
 -1      8327 0.00000E+00 0.00000E+00 0.00000E+00
 -1      8328 8.24914E-01-1.20464E-01-1.46823E+01
 -1      8329 0.00000E+00 0.00000E+00 0.00000E+00
 -1      8330 5.20987E-01-6.43301E-02-1.06792E+00
 -1      8331 7.81447E-01-5.26995E-02-3.57469E+00
 -1      8332 9.77241E-01-7.06908E-02-6.96998E+00
 -1      8333 9.28549E-01-9.25526E-02-1.39348E+01
 -1      8334 7.41472E-01-1.01244E-01-1.44255E+01
 -1      8335 4.32240E-01-9.72042E-02-1.69990E+01
 -1      8336-9.83302E-01-1.06624E-01-1.39229E+01
 -1      8337-9.09346E-01-1.04093E-01-1.10805E+01
 -1      8338-6.91219E-01-9.96189E-02-3.29887E+00
 -1      8339 0.00000E+00 0.00000E+00 0.00000E+00
 -1      8340 0.00000E+00 0.00000E+00 0.00000E+00
 -1      8341 0.00000E+00 0.00000E+00 0.00000E+00
 -1      8342 3.48174E-01-5.22593E-02-6.82624E-01
 -1      8343 9.56821E-01-7.54302E-02-1.07002E+01
 -1      8344 7.91809E-01-8.96643E-02-1.42192E+01
 -1      8345 2.52020E-01-1.78912E-01-1.76356E+01
 -1      8346-4.33463E-01-1.07711E-01-1.72656E+01
 -1      8347-8.14103E-01-9.36988E-02-1.43238E+01
 -1      8348-9.36855E-01-9.77027E-02-1.07540E+01
 -1      8349-9.48242E-01-8.90935E-02-6.93254E+00
 -1      8350-8.07906E-01-1.19750E-01-3.58231E+00
 -1      8351-3.92468E-01-1.27819E-01-8.75196E-01
 -1      8352 0.00000E+00 0.00000E+00 0.00000E+00
 -1      8353 9.06629E-01-3.64238E-02-5.16651E+00
 -1      8354-7.08576E-01-1.26189E-01-1.56603E+01
 -1      8355 9.81558E-01-4.10283E-02-4.90810E+00
 -1      8356 9.59685E-01-1.09022E-01-1.32212E+01
 -1      8357 3.57521E-01-1.39254E-01-1.72873E+01
 -1      8358-7.80283E-01-9.58792E-02-1.48053E+01
 -1      8359-9.33099E-01-6.98788E-02-4.45655E+00
 -1      8360-6.87615E-01-6.81920E-02-1.65623E+00
 -1      8361-2.94239E-01-7.16492E-02-6.12849E-01
 -1      8362-1.61379E-01-3.87653E-02-1.39845E-01
 -1      8363 0.00000E+00 0.00000E+00 0.00000E+00
 -1      8364 0.00000E+00 0.00000E+00 0.00000E+00
 -1      8365 4.55692E-02-1.76927E-02-4.19972E-02
 -1      8366 1.19877E-01-2.61723E-02-1.00729E-01
 -1      8367 2.37215E-01-2.28817E-02-3.89008E-01
 -1      8368 4.47132E-01-8.68253E-02-9.95973E-01
 -1      8369 9.38218E-01-7.21209E-02-7.07339E+00
 -1      8370 1.05038E+00-6.64009E-02-9.06327E+00
 -1      8371 1.07384E+00-7.18572E-02-1.01741E+01
 -1      8372 9.30868E-01-9.28907E-02-1.37010E+01
 -1      8373 7.95715E-01-7.69170E-02-1.40865E+01
 -1      8374 8.22870E-01-9.24300E-02-1.44883E+01
 -1      8375 4.58108E-01-7.29354E-02-1.68977E+01
 -1      8376 4.16688E-01-9.48057E-02-1.71233E+01
 -1      8377 1.27571E-01-1.20792E-01-1.79790E+01
 -1      8378-1.04387E-01-7.95718E-02-1.80247E+01
 -1      8379-2.35558E-01-1.36438E-01-1.77605E+01
 -1      8380-5.22149E-01-6.05833E-02-1.68903E+01
 -1      8381-8.59430E-01-1.01781E-01-1.46115E+01
 -1      8382-8.16517E-01-8.67690E-02-1.41435E+01
 -1      8383-1.07605E+00-1.10309E-01-1.22002E+01
 -1      8384-9.80681E-01-9.47785E-02-1.05360E+01
 -1      8385-1.15840E+00-9.53802E-02-8.46732E+00
 -1      8386-9.45553E-01-9.02686E-02-7.87680E+00
 -1      8387-1.06671E+00-9.12363E-02-7.43703E+00
 -1      8388-9.22691E-01-9.41868E-02-7.21044E+00
 -1      8389-7.51941E-01-1.24072E-01-3.60406E+00
 -1      8390-7.43241E-01-1.21761E-01-3.23592E+00
 -1      8391-6.85010E-01-8.51204E-02-2.80434E+00
 -1      8392-7.45827E-01-8.12108E-02-2.75302E+00
 -1      8393-3.77195E-01-1.19158E-01-7.52657E-01
 -1      8394-8.43382E-02-2.33949E-02-1.79931E-02
 -1      8395 0.00000E+00 0.00000E+00 0.00000E+00
 -1      8396 2.50498E-01-2.56865E-02-4.35888E-01
 -1      8397 2.60876E-01-3.82073E-02-5.38438E-01
 -1      8398 8.59346E-01-3.72072E-02-4.25425E+00
 -1      8399 8.86303E-01-4.22027E-02-4.70938E+00
 -1      8400 1.03380E+00-6.08241E-02-8.33127E+00
 -1      8401 9.18911E-01-8.92939E-02-1.14921E+01
 -1      8402 8.53249E-01-1.07860E-01-1.33627E+01
 -1      8403 7.13915E-01-1.19225E-01-1.48685E+01
 -1      8404 1.87776E-01-1.53600E-01-1.77978E+01
 -1      8405-3.34283E-01-1.29596E-01-1.75367E+01
 -1      8406-7.12203E-01-1.11311E-01-1.62454E+01
 -1      8407-7.14159E-01-1.10177E-01-1.50005E+01
 -1      8408-8.89303E-01-1.12649E-01-1.34388E+01
 -1      8409-1.08531E+00-1.14052E-01-1.27763E+01
 -1      8410-9.72171E-01-1.01781E-01-9.81490E+00
 -1      8411-1.04117E+00-9.79391E-02-9.27402E+00
 -1      8412-9.67695E-01-8.49647E-02-5.98256E+00
 -1      8413-9.67390E-01-7.60144E-02-5.53183E+00
 -1      8414-5.89189E-01-5.98258E-02-1.53473E+00
 -1      8415-1.42459E-01-4.03426E-02-1.32632E-01
 -1      8416 0.00000E+00 0.00000E+00 0.00000E+00
 -1      8417 1.38957E-01-3.01828E-02-2.05473E-01
 -1      8418 6.36545E-01-3.83257E-02-1.58715E+00
 -1      8419 7.09288E-01-4.25626E-02-2.50333E+00
 -1      8420 9.48413E-01-5.64831E-02-8.08615E+00
 -1      8421 9.63084E-01-6.73488E-02-9.69716E+00
 -1      8422 8.55138E-01-1.31957E-01-1.51751E+01
 -1      8423 2.92964E-01-1.45830E-01-1.73003E+01
 -1      8424-2.13846E-01-1.24986E-01-1.78897E+01
 -1      8425-3.36182E-01-1.26904E-01-1.74380E+01
 -1      8426-7.79784E-01-1.11869E-01-1.52581E+01
 -1      8427-6.40461E-01-8.71336E-02-2.88597E+00
 -1      8428-2.42705E-01-6.09730E-02-5.66661E-01
 -1      8429-2.58982E-01-5.73308E-02-4.34090E-01
 -1      8430 0.00000E+00 0.00000E+00 0.00000E+00
 -1      8431 9.38333E-01-5.57178E-02-7.75461E+00
 -1      8432 8.90363E-01-1.09932E-01-1.33034E+01
 -1      8433 6.11021E-01-1.53254E-01-1.62692E+01
 -1      8434-1.80049E-01-1.26726E-01-1.79359E+01
 -1      8435-9.86686E-01-9.04919E-02-7.93849E+00
 -1      8436-8.73086E-01-6.66700E-02-4.34773E+00
 -1      8437-2.54879E-01-5.93486E-02-5.13736E-01
 -1      8438 0.00000E+00 0.00000E+00 0.00000E+00
 -1      8439 0.00000E+00 0.00000E+00 0.00000E+00
 -1      8440 2.55654E-01-3.96883E-02-5.66785E-01
 -1      8441 6.92318E-01-4.12444E-02-2.67943E+00
 -1      8442 9.77369E-01-9.14413E-02-1.15686E+01
 -1      8443 7.28198E-01-1.18884E-01-1.48646E+01
 -1      8444 3.15711E-01-1.48526E-01-1.73180E+01
 -1      8445-3.39418E-01-1.28633E-01-1.74235E+01
 -1      8446-7.59883E-01-1.17332E-01-1.50597E+01
 -1      8447-9.86065E-01-1.15872E-01-1.32132E+01
 -1      8448-1.02863E+00-1.02042E-01-9.75978E+00
 -1      8449-9.70462E-01-8.34822E-02-6.03613E+00
 -1      8450-7.28688E-01-8.67807E-02-2.72516E+00
 -1      8451-6.27957E-01-7.14072E-02-1.83553E+00
 -1      8452-1.18803E-01-4.35359E-02-1.04293E-01
 -1      8453 0.00000E+00 0.00000E+00 0.00000E+00
 -1      8454 6.25147E-01-5.46486E-02-1.97065E+00
 -1      8455 6.64694E-01-1.37750E-01-1.59243E+01
 -1      8456-2.08325E-01-1.34980E-01-1.78932E+01
 -1      8457-6.72849E-01-1.02627E-01-1.58858E+01
 -1      8458-1.08830E+00-9.19974E-02-8.13777E+00
 -1      8459 8.62448E-01-4.78138E-02-5.96328E+00
 -1      8460 9.35158E-01-6.76045E-02-9.63296E+00
 -1      8461 6.91520E-01-1.55539E-01-1.61783E+01
 -1      8462 0.00000E+00 0.00000E+00 0.00000E+00
 -1      8463 0.00000E+00 0.00000E+00 0.00000E+00
 -1      8464 8.86705E-02-1.25075E-02-4.40460E-02
 -1      8465 4.00333E-01 2.53303E-02-8.53871E-01
 -1      8466 5.49688E-01-1.37123E-02-1.26358E+00
 -1      8467 7.90265E-01 6.47623E-03-3.30341E+00
 -1      8468 9.09545E-01-1.88779E-02-3.66031E+00
 -1      8469 9.38819E-01-3.58360E-02-6.62550E+00
 -1      8470 9.53572E-01-4.05152E-02-7.17089E+00
 -1      8471 9.86772E-01-4.65152E-02-7.52329E+00
 -1      8472 9.54818E-01-8.10980E-02-1.04325E+01
 -1      8473 1.07511E+00-8.72277E-02-1.09870E+01
 -1      8474 1.01186E+00-9.32737E-02-1.11965E+01
 -1      8475 8.40280E-01-1.52038E-01-1.38926E+01
 -1      8476 8.28249E-01-1.51911E-01-1.40789E+01
 -1      8477 8.79585E-01-1.27593E-01-1.44625E+01
 -1      8478 5.60711E-01-2.15195E-01-1.66236E+01
 -1      8479 5.24404E-01-2.27280E-01-1.68499E+01
 -1      8480 4.39903E-01-2.03644E-01-1.70913E+01
 -1      8481 4.53033E-02-2.27013E-01-1.79854E+01
 -1      8482 9.21568E-03-2.33479E-01-1.80258E+01
 -1      8483-1.16986E-01-1.96965E-01-1.79856E+01
 -1      8484-4.86134E-01-2.05157E-01-1.70341E+01
 -1      8485-6.29839E-01-1.60947E-01-1.66468E+01
 -1      8486-8.13371E-01-1.48494E-01-1.43355E+01
 -1      8487-9.50505E-01-1.39906E-01-1.39882E+01
 -1      8488-8.86769E-01-1.33177E-01-1.36809E+01
 -1      8489-9.48648E-01-1.02610E-01-1.25442E+01
 -1      8490-9.62361E-01-1.15500E-01-1.10697E+01
 -1      8491-9.85810E-01-1.17636E-01-1.08261E+01
 -1      8492-1.10227E+00-1.01457E-01-9.66560E+00
 -1      8493-9.62958E-01-7.64118E-02-7.15972E+00
 -1      8494-1.01732E+00-8.22063E-02-6.39669E+00
 -1      8495-9.07825E-01-6.67692E-02-4.39309E+00
 -1      8496-8.20960E-01-3.32108E-02-3.75024E+00
 -1      8497-8.14874E-01-2.96413E-02-3.56106E+00
 -1      8498-6.39878E-01-5.96961E-02-1.59736E+00
 -1      8499-5.09327E-01 1.71586E-02-1.15436E+00
 -1      8500-4.62146E-01 2.96996E-02-9.25079E-01
 -1      8501-3.95329E-01-1.81566E-03-6.98549E-01
 -1      8502 0.00000E+00 0.00000E+00 0.00000E+00
 -1      8503 0.00000E+00 0.00000E+00 0.00000E+00
 -1      8504 0.00000E+00 0.00000E+00 0.00000E+00
 -1      8505 2.30523E-01-1.36196E-01-1.76474E+01
 -1      8506 0.00000E+00 0.00000E+00 0.00000E+00
 -1      8507 9.65200E-01-8.13576E-02-1.05314E+01
 -1      8508 7.81792E-01-1.12582E-01-1.45341E+01
 -1      8509-9.86754E-02-2.08773E-01-1.80112E+01
 -1      8510-4.26052E-01-1.69577E-01-1.71823E+01
 -1      8511-1.07950E+00-8.46657E-02-6.56457E+00
 -1      8512-9.71158E-01-7.80346E-02-7.05368E+00
 -1      8513-8.44543E-01-6.91887E-02-3.12626E+00
 -1      8514 0.00000E+00 0.00000E+00 0.00000E+00
 -1      8515 0.00000E+00 0.00000E+00 0.00000E+00
 -1      8516 1.89837E-01-5.05696E-02-1.23766E-01
 -1      8517 1.66538E-01-4.80822E-02-7.73750E-02
 -1      8518 2.65934E-01-5.73788E-02-5.08287E-01
 -1      8519 2.68302E-01-4.83108E-02-5.91213E-01
 -1      8520 6.93414E-01-5.29683E-02-1.39044E+00
 -1      8521 7.12988E-01-5.26444E-02-2.62864E+00
 -1      8522 1.05951E+00-4.76365E-02-4.21497E+00
 -1      8523 1.01508E+00-5.21770E-02-5.81444E+00
 -1      8524 1.01770E+00-5.63458E-02-7.78783E+00
 -1      8525 1.07708E+00-6.97945E-02-9.69526E+00
 -1      8526 1.00470E+00-1.11264E-01-1.33146E+01
 -1      8527 8.00757E-01-1.38353E-01-1.61169E+01
 -1      8528-2.37822E-01-1.22920E-01-1.79072E+01
 -1      8529-3.16511E-01-1.04916E-01-1.74454E+01
 -1      8530-3.08144E-01-1.23772E-01-1.73562E+01
 -1      8531-7.81713E-01-1.00786E-01-1.50868E+01
 -1      8532-9.46958E-01-1.08385E-01-1.34102E+01
 -1      8533-9.69370E-01-1.01454E-01-1.16778E+01
 -1      8534-1.02936E+00-9.72050E-02-9.78248E+00
 -1      8535-1.08636E+00-9.31557E-02-7.87214E+00
 -1      8536-9.38932E-01-7.62752E-02-4.39356E+00
 -1      8537-6.66316E-01-9.60087E-02-2.75610E+00
 -1      8538-7.53545E-01-7.62644E-02-1.60077E+00
 -1      8539-2.32625E-01-7.43376E-02-4.73347E-01
 -1      8540-2.68931E-01-6.19162E-02-5.75873E-01
 -1      8541-1.39203E-01-6.11063E-02-6.86818E-02
 -1      8542 0.00000E+00 0.00000E+00 0.00000E+00
 -1      8543 0.00000E+00 0.00000E+00 0.00000E+00
 -1      8544 0.00000E+00 0.00000E+00 0.00000E+00
 -1      8545 2.21280E-01-7.15141E-02-3.18289E-01
 -1      8546 8.75572E-01-5.06533E-02-4.90965E+00
 -1      8547 1.16988E+00-6.22880E-02-8.21550E+00
 -1      8548 1.01566E+00-6.24556E-02-8.66347E+00
 -1      8549 8.85376E-01-8.71342E-02-1.23505E+01
 -1      8550 6.79054E-01-1.04591E-01-1.55380E+01
 -1      8551-2.72061E-01-9.22596E-02-1.77412E+01
 -1      8552-8.47699E-01-9.25512E-02-1.53766E+01
 -1      8553-9.15149E-01-9.93558E-02-1.26955E+01
 -1      8554-1.10173E+00-1.00508E-01-1.19865E+01
 -1      8555-9.45933E-01-9.57740E-02-9.11537E+00
 -1      8556-8.79295E-01-8.89317E-02-5.23297E+00
 -1      8557-6.44618E-01-1.01133E-01-2.14384E+00
 -1      8558-8.03315E-01-1.10271E-01-2.50930E+00
 -1      8559 0.00000E+00 0.00000E+00 0.00000E+00
 -1      8560 0.00000E+00 0.00000E+00 0.00000E+00
 -1      8561 2.03342E-01 5.41143E-02-2.02918E-01
 -1      8562 2.32291E-01 5.98315E-02-2.69444E-01
 -1      8563 2.52150E-01 5.73291E-02-3.44390E-01
 -1      8564 7.63992E-01 3.68523E-02-1.77672E+00
 -1      8565 6.44108E-01 3.49510E-02-1.95405E+00
 -1      8566 1.18954E+00-1.38585E-02-5.35461E+00
 -1      8567 1.08725E+00-1.53014E-02-5.66574E+00
 -1      8568 1.30646E+00-6.76494E-02-8.85105E+00
 -1      8569 1.19066E+00-6.90930E-02-9.27610E+00
 -1      8570 1.05801E+00-1.24847E-01-1.20273E+01
 -1      8571 1.20065E+00-1.41464E-01-1.24778E+01
 -1      8572 1.16089E+00-1.44725E-01-1.28591E+01
 -1      8573 8.61630E-01-1.98130E-01-1.53571E+01
 -1      8574 8.64479E-01-2.06300E-01-1.55455E+01
 -1      8575 8.42911E-01-2.11288E-01-1.57985E+01
 -1      8576 8.54740E-01-2.14990E-01-1.60833E+01
 -1      8577 3.46045E-01-2.74419E-01-1.78936E+01
 -1      8578 3.26397E-01-2.53884E-01-1.77162E+01
 -1      8579 3.39238E-01-2.67906E-01-1.80031E+01
 -1      8580-3.20814E-01-2.31442E-01-1.79087E+01
 -1      8581-3.73102E-01-2.47537E-01-1.78398E+01
 -1      8582-3.69373E-01-2.44272E-01-1.77252E+01
 -1      8583-1.07000E+00-1.43534E-01-1.30295E+01
 -1      8584-1.21428E+00-1.38210E-01-1.22248E+01
 -1      8585-1.23112E+00-9.84486E-02-9.32228E+00
 -1      8586-1.30708E+00-9.56447E-02-8.84733E+00
 -1      8587-1.14063E+00-5.39952E-02-5.75660E+00
 -1      8588-1.16429E+00-4.29463E-02-5.25148E+00
 -1      8589-1.14343E+00-3.93541E-02-4.89526E+00
 -1      8590-7.44480E-01-2.40671E-02-2.55846E+00
 -1      8591-8.22877E-01-1.28127E-02-2.19443E+00
 -1      8592-8.06181E-01-1.60923E-02-1.94337E+00
 -1      8593-2.66688E-01 3.91693E-02-3.60252E-01
 -1      8594-2.57506E-01 2.43748E-02-4.93687E-01
 -1      8595-2.61600E-01 3.54844E-02-2.65622E-01
 -1      8596 0.00000E+00 0.00000E+00 0.00000E+00
 -1      8597 7.47922E-01 3.29989E-02-2.32162E+00
 -1      8598 1.19023E+00-1.35019E-02-4.74226E+00
 -1      8599 1.29575E+00-5.98063E-02-7.96929E+00
 -1      8600-7.93044E-01-1.82214E-01-1.61313E+01
 -1      8601-8.54713E-01-1.78148E-01-1.55024E+01
 -1      8602-1.05743E+00-5.90282E-02-6.00366E+00
 -1      8603 7.79034E-02 8.21952E-03-2.20684E-02
 -1      8604 9.71067E-01-2.77293E-02-4.02407E+00
 -1      8605 9.14935E-01-1.85425E-01-1.51434E+01
 -1      8606 8.43430E-01-1.61449E-01-1.48813E+01
 -1      8607-2.72631E-01-1.87918E-01-1.81250E+01
 -1      8608-1.09922E+00-1.02978E-01-1.00560E+01
 -1      8609-8.51035E-01-4.17807E-02-2.84084E+00
 -1      8610-7.63858E-01-4.98189E-02-3.04978E+00
 -1      8611-3.36867E-01-1.12907E-02-6.88563E-01
 -1      8612 0.00000E+00 0.00000E+00 0.00000E+00
 -1      8613 9.64332E-01-3.85434E-02-3.78165E+00
 -1      8614 1.07981E+00-6.97180E-02-1.02092E+01
 -1      8615-9.73693E-01-1.27280E-01-1.39784E+01
 -1      8616-1.10882E+00-1.02599E-01-1.03340E+01
 -1      8617 0.00000E+00 0.00000E+00 0.00000E+00
 -1      8618 1.06109E+00-9.02055E-02-1.11153E+01
 -1      8619 8.38815E-01-1.29547E-01-1.46287E+01
 -1      8620-1.80894E-01-1.47540E-01-1.81797E+01
 -1      8621-1.04585E+00-7.97712E-02-6.60139E+00
 -1      8622-6.11266E-01-7.39827E-02-1.23139E+00
 -1      8623-3.73793E-01-4.72557E-02-7.87625E-01
 -1      8624 6.23185E-01 4.39345E-03-1.32099E+00
 -1      8625 7.24665E-01 2.12029E-02-1.63616E+00
 -1      8626 6.08107E-01 8.04335E-03-1.59949E+00
 -1      8627 1.01298E+00-2.25273E-02-5.94369E+00
 -1      8628 1.11021E+00-5.90657E-02-7.85045E+00
 -1      8629 1.04493E+00-1.36262E-01-1.32811E+01
 -1      8630 8.10933E-01-1.67160E-01-1.51101E+01
 -1      8631 8.02207E-01-1.90132E-01-1.55671E+01
 -1      8632 7.25216E-01-1.90638E-01-1.63292E+01
 -1      8633 4.12823E-01-1.95820E-01-1.74164E+01
 -1      8634 3.76961E-01-2.20112E-01-1.75450E+01
 -1      8635-2.72653E-01-1.96752E-01-1.79933E+01
 -1      8636-8.10188E-01-1.71488E-01-1.62846E+01
 -1      8637-8.09568E-01-1.50609E-01-1.51395E+01
 -1      8638-1.04425E+00-1.20621E-01-1.17385E+01
 -1      8639-1.12569E+00-1.01650E-01-1.00595E+01
 -1      8640-1.05223E+00-7.59822E-02-6.27732E+00
 -1      8641-1.02247E+00-4.94179E-02-4.48600E+00
 -1      8642-7.70764E-01-4.87868E-02-2.75475E+00
 -1      8643-6.74061E-01-3.76781E-02-1.64280E+00
 -1      8644-3.46185E-01-2.40451E-02-6.83994E-01
 -1      8645-3.11652E-01-5.83591E-03-5.78581E-01
 -1      8646-2.99238E-01 1.75383E-02-4.22532E-01
 -1      8647 0.00000E+00 0.00000E+00 0.00000E+00
 -1      8648 7.24849E-01 1.83334E-02-2.29357E+00
 -1      8649 1.19933E+00-6.49422E-02-8.68782E+00
 -1      8650 7.79463E-01-1.96367E-01-1.60193E+01
 -1      8651 3.63055E-01-2.09752E-01-1.75245E+01
 -1      8652-7.04770E-01-1.59003E-01-1.63016E+01
 -1      8653-8.71989E-01-1.64291E-01-1.54587E+01
 -1      8654-1.02118E+00-1.21399E-01-1.18125E+01
 -1      8655-1.14890E+00-9.12560E-02-8.16399E+00
 -1      8656 0.00000E+00 0.00000E+00 0.00000E+00
 -1      8657 1.33915E-01 1.46724E-02-1.26212E-01
 -1      8658 2.58350E-01 3.69538E-02-3.81771E-01
 -1      8659 9.53178E-01-2.40952E-02-4.43069E+00
 -1      8660 1.05366E+00-2.04464E-02-5.49565E+00
 -1      8661 1.00824E+00-1.10308E-01-1.18265E+01
 -1      8662 7.79340E-01-1.66258E-01-1.51967E+01
 -1      8663-9.86708E-01-1.30898E-01-1.32919E+01
 -1      8664-9.91309E-01-1.31585E-01-1.30288E+01
 -1      8665-1.07335E+00-1.00581E-01-9.62166E+00
 -1      8666-1.09176E+00-5.20876E-02-5.45540E+00
 -1      8667-7.91878E-01-4.21375E-02-2.55376E+00
 -1      8668-7.62392E-01-2.92005E-02-2.35967E+00
 -1      8669-2.01533E-01 7.63155E-03-2.35387E-01
 -1      8670 0.00000E+00 0.00000E+00 0.00000E+00
 -1      8671 1.08690E+00-5.84202E-02-8.03792E+00
 -1      8672 2.66582E-01-2.40229E-01-1.79137E+01
 -1      8673-1.01959E+00-4.83097E-02-4.79891E+00
 -1      8674 0.00000E+00 0.00000E+00 0.00000E+00
 -1      8675 2.75746E-01 2.65070E-02-4.85865E-01
 -1      8676 7.34068E-01-3.71831E-03-2.56610E+00
 -1      8677 1.06845E+00-5.52127E-02-7.95755E+00
 -1      8678 1.05787E+00-7.01338E-02-9.43894E+00
 -1      8679 7.61544E-01-1.61068E-01-1.51751E+01
 -1      8680 6.74691E-01-1.86971E-01-1.62507E+01
 -1      8681 2.29697E-01-2.17996E-01-1.78806E+01
 -1      8682-9.73275E-01-1.33117E-01-1.32464E+01
 -1      8683-1.06808E+00-9.10800E-02-8.15183E+00
 -1      8684-1.67518E-01-5.93456E-03-2.15527E-01
 -1      8685 2.77899E-01 1.70028E-02-4.17592E-01
 -1      8686 7.89877E-01-4.96493E-03-2.37748E+00
 -1      8687 9.88241E-01-2.95060E-02-5.54223E+00
 -1      8688 1.14462E+00-1.14657E-01-1.21918E+01
 -1      8689 1.06867E+00-1.22915E-01-1.28020E+01
 -1      8690 9.73079E-01-1.28326E-01-1.31592E+01
 -1      8691-3.84291E-01-1.78678E-01-1.75613E+01
 -1      8692-8.18335E-01-1.52473E-01-1.60600E+01
 -1      8693-8.56843E-01-1.45936E-01-1.53436E+01
 -1      8694-1.03377E+00-1.22011E-01-1.21411E+01
 -1      8695-1.03899E+00-1.21656E-01-1.18375E+01
 -1      8696-9.63110E-01-5.28637E-02-4.73059E+00
 -1      8697-9.32121E-01-4.81222E-02-4.44870E+00
 -1      8698-8.02363E-01-5.16175E-02-2.43217E+00
 -1      8699 0.00000E+00 0.00000E+00 0.00000E+00
 -1      8700 1.50664E-01 1.02107E-02-1.33376E-01
 -1      8701 1.18588E+00-6.89557E-02-9.13809E+00
 -1      8702 3.49916E-01-2.06151E-01-1.76104E+01
 -1      8703-2.74602E-01-1.79829E-02-4.40708E-01
 -1      8704-1.44843E-01 2.22851E-03-1.54071E-01
 -1      8705 1.10312E+00-5.60903E-02-8.00100E+00
 -1      8706 8.54073E-01-1.58540E-01-1.49940E+01
 -1      8707 7.36309E-01-1.87573E-01-1.62364E+01
 -1      8708-2.50150E-01-1.81620E-01-1.79167E+01
 -1      8709-1.11905E+00-1.01594E-01-9.64923E+00
 -1      8710-1.15723E+00-9.15209E-02-8.13852E+00
 -1      8711-1.02045E+00-5.05359E-02-4.53066E+00
 -1      8712-6.89702E-01-3.66145E-02-1.64765E+00
 -1      8713 0.00000E+00 0.00000E+00 0.00000E+00
 -1      8714 0.00000E+00 0.00000E+00 0.00000E+00
 -1      8715 0.00000E+00 0.00000E+00 0.00000E+00
 -1      8716 9.31682E-02 1.27527E-02-6.92332E-02
 -1      8717 3.21703E-01 3.81116E-02-6.35118E-01
 -1      8718 2.92606E-01 1.88345E-02-5.44128E-01
 -1      8719 3.55715E-01 4.72109E-02-7.53978E-01
 -1      8720 5.26946E-01 5.45255E-02-1.05745E+00
 -1      8721 6.82969E-01 6.36839E-03-1.58659E+00
 -1      8722 8.06006E-01 3.32031E-03-3.04573E+00
 -1      8723 1.05444E+00-3.16402E-02-6.40348E+00
 -1      8724 1.06511E+00-4.60561E-02-7.21825E+00
 -1      8725 1.22204E+00-5.66909E-02-7.74339E+00
 -1      8726 1.12813E+00-8.89642E-02-1.01703E+01
 -1      8727 1.11140E+00-1.09568E-01-1.17633E+01
 -1      8728 1.03947E+00-1.44653E-01-1.36267E+01
 -1      8729 1.04855E+00-1.28076E-01-1.31831E+01
 -1      8730 9.53617E-01-1.64834E-01-1.38856E+01
 -1      8731 7.01527E-01-2.05442E-01-1.64609E+01
 -1      8732 6.62033E-01-2.30669E-01-1.66891E+01
 -1      8733 3.52766E-01-2.10752E-01-1.74540E+01
 -1      8734 1.66523E-01-2.40666E-01-1.80340E+01
 -1      8735-2.50133E-01-1.89992E-01-1.79855E+01
 -1      8736-4.34069E-01-2.07122E-01-1.72465E+01
 -1      8737-8.46536E-01-1.46010E-01-1.48914E+01
 -1      8738-8.45316E-01-1.47244E-01-1.46775E+01
 -1      8739-1.09312E+00-1.19962E-01-1.12380E+01
 -1      8740-1.08599E+00-1.14396E-01-1.04180E+01
 -1      8741-1.23285E+00-1.05592E-01-9.89897E+00
 -1      8742-1.11761E+00-8.39562E-02-7.78891E+00
 -1      8743-1.12688E+00-7.38279E-02-7.48364E+00
 -1      8744-1.04740E+00-3.86035E-02-4.17573E+00
 -1      8745-9.17077E-01-1.41410E-02-3.83396E+00
 -1      8746-6.58449E-01-2.40378E-02-1.43410E+00
 -1      8747-6.18362E-01-6.44787E-03-1.20692E+00
 -1      8748-2.80460E-01-1.14194E-02-5.56165E-01
 -1      8749 0.00000E+00 0.00000E+00 0.00000E+00
 -1      8750 0.00000E+00 0.00000E+00 0.00000E+00
 -1      8751 0.00000E+00 0.00000E+00 0.00000E+00
 -1      8752 0.00000E+00 0.00000E+00 0.00000E+00
 -1      8753 1.41761E-01-1.14148E-02-6.91110E-02
 -1      8754 6.22695E-01 2.78506E-02-1.21901E+00
 -1      8755 7.24525E-01-1.97446E-01-1.65254E+01
 -1      8756-6.72581E-01-3.34569E-02-1.35288E+00
 -1      8757-3.25062E-01-1.56103E-02-6.71273E-01
 -1      8758-1.29800E-01-2.19566E-02-8.35668E-02
 -1      8759 0.00000E+00 0.00000E+00 0.00000E+00
 -1      8760 3.22147E-01 2.32162E-02-6.45844E-01
 -1      8761 7.39739E-01 8.44882E-03-1.41082E+00
 -1      8762 3.93520E-01-2.13190E-01-1.72983E+01
 -1      8763 2.04992E-01-2.07019E-01-1.79670E+01
 -1      8764-8.49785E-01-5.38861E-02-2.97816E+00
 -1      8765 0.00000E+00 0.00000E+00 0.00000E+00
 -1      8766 1.10120E+00-2.22111E-02-4.16572E+00
 -1      8767-8.32172E-01-1.57221E-01-1.64557E+01
 -1      8768-1.15995E+00-1.28709E-01-1.35437E+01
 -1      8769 1.11784E-01-1.30020E-02-5.58303E-02
 -1      8770 6.47665E-01-3.70824E-02-1.24326E+00
 -1      8771 9.47652E-01-3.52843E-02-4.04672E+00
 -1      8772 1.30320E+00-6.43316E-02-7.87887E+00
 -1      8773-2.78213E-01-1.52449E-01-1.79398E+01
 -1      8774-1.15747E+00-1.16860E-01-1.35133E+01
 -1      8775-1.10564E+00-1.00575E-01-1.00606E+01
 -1      8776 0.00000E+00 0.00000E+00 0.00000E+00
 -1      8777 7.95289E-01-5.84330E-02-3.05697E+00
 -1      8778 9.37306E-01-4.95790E-02-3.82030E+00
 -1      8779 1.04403E+00-6.47876E-02-6.50940E+00
 -1      8780 1.11180E+00-6.43095E-02-7.39223E+00
 -1      8781 1.12723E+00-1.13456E-01-1.35060E+01
 -1      8782 6.81247E-01-1.20594E-01-1.66507E+01
 -1      8783 4.09961E-01-1.30819E-01-1.71810E+01
 -1      8784-1.72666E-01-1.15047E-01-1.80064E+01
 -1      8785-1.07475E+00-1.01995E-01-1.11232E+01
 -1      8786-1.11509E+00-9.87943E-02-1.03163E+01
 -1      8787-9.61662E-01-9.83993E-02-3.91948E+00
 -1      8788-8.11593E-01-1.00219E-01-3.14839E+00
 -1      8789-3.34422E-01-7.74804E-02-7.19270E-01
 -1      8790 1.07156E+00-8.59240E-02-1.10225E+01
 -1      8791-1.05966E+00-8.37660E-02-6.61097E+00
 -1      8792 0.00000E+00 0.00000E+00 0.00000E+00
 -1      8793 1.36533E-01-2.58073E-02-1.31551E-01
 -1      8794 6.51197E-01-4.33737E-02-1.33398E+00
 -1      8795 7.28116E-01-2.84161E-02-1.63356E+00
 -1      8796 1.05453E+00-4.73053E-02-5.81605E+00
 -1      8797 1.08864E+00-6.98991E-02-7.35972E+00
 -1      8798 1.09611E+00-6.12742E-02-7.81890E+00
 -1      8799 1.08224E+00-8.90385E-02-1.13048E+01
 -1      8800 8.34985E-01-1.27811E-01-1.49786E+01
 -1      8801 7.54705E-01-1.52838E-01-1.61826E+01
 -1      8802 3.53131E-01-1.60487E-01-1.73847E+01
 -1      8803 2.22826E-01-1.65759E-01-1.78498E+01
 -1      8804-2.07522E-01-1.21730E-01-1.79448E+01
 -1      8805-2.54840E-01-1.35687E-01-1.78694E+01
 -1      8806-7.32754E-01-9.83846E-02-1.65312E+01
 -1      8807-8.22643E-01-1.21067E-01-1.61543E+01
 -1      8808-1.01338E+00-1.04113E-01-1.37084E+01
 -1      8809-1.03261E+00-1.12670E-01-1.33992E+01
 -1      8810-1.05514E+00-1.07152E-01-1.17057E+01
 -1      8811-1.25934E+00-1.00206E-01-9.62263E+00
 -1      8812-1.12883E+00-9.97707E-02-9.60983E+00
 -1      8813-1.12645E+00-9.26166E-02-7.97103E+00
 -1      8814-1.06223E+00-8.61812E-02-6.33643E+00
 -1      8815-7.93692E-01-6.78149E-02-2.34001E+00
 -1      8816-6.46125E-01-9.03464E-02-1.42100E+00
 -1      8817-6.16267E-01-1.13068E-01-1.20898E+00
 -1      8818-2.82160E-01-6.02680E-02-5.23402E-01
 -1      8819-2.73517E-01-4.14151E-02-3.85484E-01
 -1      8820 0.00000E+00 0.00000E+00 0.00000E+00
 -1      8821 1.83525E-01-2.02313E-02-2.79814E-01
 -1      8822 7.60341E-01-3.28111E-02-2.32236E+00
 -1      8823 1.11974E+00-6.11499E-02-7.99454E+00
 -1      8824 1.20439E+00-6.57290E-02-8.64583E+00
 -1      8825 1.10437E+00-1.04812E-01-1.21939E+01
 -1      8826 8.03266E-01-1.56029E-01-1.58818E+01
 -1      8827 3.39539E-01-1.52235E-01-1.73791E+01
 -1      8828-7.97355E-01-1.22123E-01-1.59052E+01
 -1      8829-1.00536E+00-1.12915E-01-1.32546E+01
 -1      8830-1.03116E+00-1.08284E-01-1.17846E+01
 -1      8831-1.17553E+00-9.42827E-02-8.17086E+00
 -1      8832-1.10611E+00-7.47568E-02-5.45259E+00
 -1      8833-8.31981E-01-7.54302E-02-2.52715E+00
 -1      8834-2.73487E-01-6.52633E-02-5.21519E-01
 -1      8835 0.00000E+00 0.00000E+00 0.00000E+00
 -1      8836 0.00000E+00 0.00000E+00 0.00000E+00
 -1      8837 9.53228E-01-4.19056E-02-4.40426E+00
 -1      8838 1.04963E+00-4.53620E-02-5.47190E+00
 -1      8839 1.02708E+00-9.30608E-02-1.17405E+01
 -1      8840-3.57329E-01-1.40597E-01-1.75682E+01
 -1      8841-1.00775E+00-1.13983E-01-1.29940E+01
 -1      8842-7.59863E-01-8.11281E-02-2.65466E+00
 -1      8843-1.92293E-01-4.44080E-02-2.30151E-01
 -1      8844 1.19737E+00-7.06570E-02-9.32309E+00
 -1      8845 2.65870E-01-1.72402E-01-1.77338E+01
 -1      8846-1.10433E+00-7.10473E-02-4.77033E+00
 -1      8847-7.42941E-01-6.86972E-02-1.90745E+00
 -1      8848 0.00000E+00 0.00000E+00 0.00000E+00
 -1      8849 2.92694E-01-3.35496E-02-4.95182E-01
 -1      8850 1.07791E+00-5.64930E-02-7.90795E+00
 -1      8851 1.07463E+00-6.89244E-02-9.38079E+00
 -1      8852 9.95974E-01-1.11661E-01-1.31120E+01
 -1      8853 8.04173E-01-1.23663E-01-1.50645E+01
 -1      8854 2.39594E-01-1.51796E-01-1.77466E+01
 -1      8855-1.00100E+00-7.19685E-02-4.62087E+00
 -1      8856-1.47569E-01-4.82684E-02-1.80408E-01
 -1      8857 3.05818E-01-4.50325E-02-4.24458E-01
 -1      8858 9.96721E-01-4.62687E-02-5.50718E+00
 -1      8859 1.02762E+00-4.81361E-02-5.76510E+00
 -1      8860 1.08914E+00-1.02255E-01-1.27270E+01
 -1      8861-2.62918E-01-1.24273E-01-1.78013E+01
 -1      8862-3.70395E-01-1.12782E-01-1.75536E+01
 -1      8863-1.06911E+00-1.07127E-01-1.18479E+01
 -1      8864-1.17198E+00-9.91504E-02-9.26143E+00
 -1      8865-1.14186E+00-9.52627E-02-8.52101E+00
 -1      8866-8.19161E-01-9.42749E-02-2.39910E+00
 -1      8867 0.00000E+00 0.00000E+00 0.00000E+00
 -1      8868 0.00000E+00 0.00000E+00 0.00000E+00
 -1      8869 1.95139E-01-3.64684E-02-1.48541E-01
 -1      8870 8.07073E-01-4.94112E-02-2.44388E+00
 -1      8871 1.20101E+00-6.84798E-02-9.08112E+00
 -1      8872 1.06598E+00-9.37347E-02-1.16173E+01
 -1      8873 3.63058E-01-1.40046E-01-1.74814E+01
 -1      8874 2.31114E-01-1.54577E-01-1.78118E+01
 -1      8875-3.61372E-01-1.24283E-01-1.74684E+01
 -1      8876-8.83256E-01-1.11173E-01-1.52820E+01
 -1      8877-8.10360E-01-9.22926E-02-2.65499E+00
 -1      8878-1.30259E-01-4.67502E-02-1.26749E-01
 -1      8879 7.49591E-01-6.65427E-02-2.11481E+00
 -1      8880 7.58848E-01-4.57198E-02-2.58644E+00
 -1      8881 1.00014E+00-4.67129E-02-5.82369E+00
 -1      8882 1.11318E+00-5.66086E-02-7.94901E+00
 -1      8883 1.07305E+00-1.12927E-01-1.31108E+01
 -1      8884 7.74293E-01-1.52632E-01-1.61503E+01
 -1      8885-2.40894E-01-1.31662E-01-1.78745E+01
 -1      8886-1.17944E+00-9.41998E-02-8.15153E+00
 -1      8887-1.05936E+00-7.42716E-02-4.51402E+00
 -1      8888-8.41836E-01-9.52534E-02-2.77261E+00
 -1      8889-7.27943E-01-6.27589E-02-1.60277E+00
 -1      8890 0.00000E+00 0.00000E+00 0.00000E+00
 -1      8891 0.00000E+00 0.00000E+00 0.00000E+00
 -1      8892 0.00000E+00 0.00000E+00 0.00000E+00
 -1      8893 3.73783E-01-6.21331E-03-7.25478E-01
 -1      8894 5.59772E-01-6.70651E-03-1.04024E+00
 -1      8895 7.10267E-01-4.84948E-02-1.56165E+00
 -1      8896 7.73116E-01-4.03628E-02-2.76818E+00
 -1      8897 7.90225E-01-2.66221E-02-3.01109E+00
 -1      8898 1.05917E+00-4.72840E-02-6.15554E+00
 -1      8899 1.03152E+00-4.63139E-02-6.41898E+00
 -1      8900 1.09664E+00-4.81930E-02-7.20424E+00
 -1      8901 1.23223E+00-5.69259E-02-7.69281E+00
 -1      8902 1.14002E+00-7.89895E-02-1.01112E+01
 -1      8903 1.06225E+00-1.28765E-01-1.35529E+01
 -1      8904 9.76561E-01-1.43922E-01-1.38069E+01
 -1      8905 7.38184E-01-1.74493E-01-1.63772E+01
 -1      8906 7.39282E-01-1.87232E-01-1.65443E+01
 -1      8907 3.66072E-01-1.51238E-01-1.73314E+01
 -1      8908 1.91969E-01-1.76037E-01-1.78987E+01
 -1      8909 1.43556E-01-2.02689E-01-1.79720E+01
 -1      8910-4.07800E-01-1.37265E-01-1.73132E+01
 -1      8911-6.28961E-01-1.68618E-01-1.67989E+01
 -1      8912-8.71236E-01-1.25206E-01-1.48489E+01
 -1      8913-8.56259E-01-1.30174E-01-1.46387E+01
 -1      8914-1.11209E+00-1.07080E-01-1.12424E+01
 -1      8915-1.09498E+00-1.09139E-01-1.04013E+01
 -1      8916-1.20769E+00-1.01606E-01-9.86693E+00
 -1      8917-1.14087E+00-8.91576E-02-7.78107E+00
 -1      8918-1.14788E+00-8.54105E-02-7.47210E+00
 -1      8919-1.13276E+00-8.81560E-02-6.06093E+00
 -1      8920-1.01006E+00-5.43263E-02-4.00623E+00
 -1      8921-6.78924E-01-2.17845E-02-1.21768E+00
 -1      8922-2.90769E-01-6.45248E-02-4.87380E-01
 -1      8923-7.66555E-02-1.89453E-02-5.43159E-02
 -1      8924 0.00000E+00 0.00000E+00 0.00000E+00
 -1      8925 0.00000E+00 0.00000E+00 0.00000E+00
 -1      8926 0.00000E+00 0.00000E+00 0.00000E+00
 -1      8927 0.00000E+00 0.00000E+00 0.00000E+00
 -1      8928 1.84995E-01-3.99576E-02-9.11354E-02
 -1      8929 2.74580E-01-1.53489E-01-1.78601E+01
 -1      8930 3.33188E-01-4.79370E-02-5.93637E-01
 -1      8931 4.06734E-01-1.56263E-01-1.71903E+01
 -1      8932-2.34782E-01-1.54409E-01-1.79400E+01
 -1      8933-1.16123E+00-1.12888E-01-1.34855E+01
 -1      8934-1.04636E+00-1.25408E-01-1.37610E+01
 -1      8935-3.31175E-01-6.03719E-02-5.99693E-01
 -1      8936-1.69734E-01-6.10938E-02-7.86972E-02
 -1      8937-1.30033E+00-1.01342E-01-9.85850E+00
 -1      8938 0.00000E+00 0.00000E+00 0.00000E+00
 -1      8939 2.39599E-01-6.43800E-02-1.99958E-01
 -1      8940 2.81031E-01-6.91769E-02-4.07208E-01
 -1      8941 7.40663E-01-6.80958E-02-1.71103E+00
 -1      8942 8.06206E-01-6.87895E-02-2.32951E+00
 -1      8943 9.82884E-01-5.01124E-02-4.60789E+00
 -1      8944 1.12859E+00-5.68996E-02-5.47178E+00
 -1      8945 1.22732E+00-6.97531E-02-9.21381E+00
 -1      8946 1.17636E+00-8.99882E-02-1.19285E+01
 -1      8947 1.13468E+00-8.92504E-02-1.16453E+01
 -1      8948 1.08307E+00-1.02472E-01-1.29064E+01
 -1      8949 8.48717E-01-1.04045E-01-1.51516E+01
 -1      8950 8.40624E-01-1.26069E-01-1.59314E+01
 -1      8951 3.93424E-01-1.21317E-01-1.74376E+01
 -1      8952 2.99552E-01-1.23151E-01-1.77348E+01
 -1      8953-2.99201E-01-9.97352E-02-1.78160E+01
 -1      8954-3.19448E-01-9.09405E-02-1.75438E+01
 -1      8955-8.12596E-01-9.22605E-02-1.60581E+01
 -1      8956-1.02532E+00-1.02919E-01-1.30055E+01
 -1      8957-1.24064E+00-1.00373E-01-1.21914E+01
 -1      8958-1.25911E+00-9.88568E-02-9.35254E+00
 -1      8959-1.26666E+00-9.69379E-02-8.44301E+00
 -1      8960-1.18185E+00-9.34800E-02-8.16104E+00
 -1      8961-1.16654E+00-9.36740E-02-5.65097E+00
 -1      8962-1.29587E+00-9.47514E-02-5.88531E+00
 -1      8963-1.07063E+00-8.55450E-02-4.68384E+00
 -1      8964-7.94252E-01-8.92923E-02-1.77501E+00
 -1      8965-2.96842E-01-1.09290E-01-3.74225E-01
 -1      8966-2.14725E-01-8.48828E-02-1.29593E-01
 -1      8967 0.00000E+00 0.00000E+00 0.00000E+00
 -1      8968 2.89486E-01-7.67858E-02-3.12599E-01
 -1      8969 7.19390E-01-6.77755E-02-1.98395E+00
 -1      8970 1.24681E+00-1.00442E-01-1.26552E+01
 -1      8971 9.31731E-01-1.07165E-01-1.54636E+01
 -1      8972 9.55822E-01-1.19010E-01-1.57549E+01
 -1      8973 3.53548E-01-1.14893E-01-1.75925E+01
 -1      8974-3.54189E-01-8.68961E-02-1.76820E+01
 -1      8975-3.55776E-01-8.67250E-02-1.76073E+01
 -1      8976-7.89741E-01-8.74636E-02-1.57658E+01
 -1      8977-9.86561E-01-9.01110E-02-1.56702E+01
 -1      8978-1.32289E+00-9.87466E-02-8.97597E+00
 -1      8979-1.21602E+00-9.51369E-02-5.25904E+00
 -1      8980-1.23176E+00-9.17148E-02-4.88842E+00
 -1      8981-8.67583E-01-1.10906E-01-2.14064E+00
 -1      8982-2.58444E-01-1.05523E-01-2.61778E-01
 -1      8983-2.51819E-01-1.01790E-01-1.93484E-01
 -1      8984 0.00000E+00 0.00000E+00 0.00000E+00
 -1      8985 2.65587E-01 5.74026E-02-1.80689E-01
 -1      8986 8.15578E-01 4.13962E-02-2.05635E+00
 -1      8987 1.25994E+00-1.41943E-02-5.01085E+00
 -1      8988-4.15409E-01-2.56323E-01-1.79508E+01
 -1      8989-9.31622E-01-1.88639E-01-1.57996E+01
 -1      8990-1.24991E+00-1.45645E-01-1.26064E+01
 -1      8991 0.00000E+00 0.00000E+00 0.00000E+00
 -1      8992 0.00000E+00 0.00000E+00 0.00000E+00
 -1      8993 7.23725E-01 2.22288E-02-1.43599E+00
 -1      8994 1.20897E+00-1.25187E-01-1.17969E+01
 -1      8995 8.22939E-01-2.09203E-01-1.63192E+01
 -1      8996 3.20194E-01-2.56006E-01-1.80910E+01
 -1      8997-9.01509E-01-1.85180E-01-1.63348E+01
 -1      8998-7.75716E-01-1.97735E-02-1.73866E+00
 -1      8999-2.43290E-01 2.60305E-02-1.82531E-01
 -1      9000 0.00000E+00 0.00000E+00 0.00000E+00
 -1      9001 1.56110E-01 2.42110E-02-9.00658E-02
 -1      9002 2.94717E-01 3.22922E-02-5.55487E-01
 -1      9003 1.13314E+00-2.15402E-02-4.20555E+00
 -1      9004 1.15316E+00-2.12937E-02-6.08310E+00
 -1      9005 1.13039E+00-1.41611E-01-1.35603E+01
 -1      9006 4.17795E-01-2.50008E-01-1.75739E+01
 -1      9007-3.23014E-01-2.11941E-01-1.80809E+01
 -1      9008-4.17619E-01-2.05821E-01-1.74709E+01
 -1      9009-1.16184E+00-1.42124E-01-1.35294E+01
 -1      9010-1.18156E+00-1.25869E-01-1.16057E+01
 -1      9011-1.26510E+00-1.01676E-01-9.73523E+00
 -1      9012-1.14337E+00-6.49223E-02-6.12529E+00
 -1      9013-1.10587E+00-4.79241E-02-4.22821E+00
 -1      9014-3.35493E-01 9.34772E-03-5.77977E-01
 -1      9015-2.25227E-01 1.47496E-02-1.38706E-01
 -1      9016 0.00000E+00 0.00000E+00 0.00000E+00
 -1      9017 0.00000E+00 0.00000E+00 0.00000E+00
 -1      9018 8.01458E-01 1.01869E-02-2.73808E+00
 -1      9019 1.25422E+00-5.86012E-02-7.73603E+00
 -1      9020 1.25288E+00-7.17025E-02-9.87724E+00
 -1      9021 1.18009E+00-1.15233E-01-1.15653E+01
 -1      9022 8.00463E-01-1.95498E-01-1.65390E+01
 -1      9023 4.19036E-01-2.22263E-01-1.74549E+01
 -1      9024 2.70720E-01-2.24733E-01-1.81387E+01
 -1      9025-9.18521E-01-1.54152E-01-1.50309E+01
 -1      9026-1.28450E+00-1.01432E-01-9.81693E+00
 -1      9027-7.46245E-01-4.43155E-02-1.46791E+00
 -1      9028 0.00000E+00 0.00000E+00 0.00000E+00
 -1      9029-1.27403E+00-8.98796E-02-7.88235E+00
 -1      9030 1.53602E-01 1.55380E-02-1.16398E-01
 -1      9031 2.73254E-01 3.24247E-02-4.42444E-01
 -1      9032 1.12354E+00-1.85918E-02-4.54813E+00
 -1      9033 1.13683E+00-2.04293E-02-5.70152E+00
 -1      9034 1.28137E+00-6.24494E-02-8.20334E+00
 -1      9035 1.24874E+00-7.06392E-02-9.43379E+00
 -1      9036 1.20318E+00-1.24071E-01-1.18832E+01
 -1      9037 8.88068E-01-1.81318E-01-1.53018E+01
 -1      9038 4.02893E-01-2.44566E-01-1.76238E+01
 -1      9039-3.96065E-01-2.13407E-01-1.75803E+01
 -1      9040-1.15721E+00-1.40199E-01-1.31767E+01
 -1      9041-1.16591E+00-1.28865E-01-1.19940E+01
 -1      9042-1.28858E+00-9.97490E-02-9.46859E+00
 -1      9043-8.52529E-01-3.79934E-02-2.60537E+00
 -1      9044-3.25357E-01 7.82813E-03-5.24845E-01
 -1      9045 7.27806E-01 2.03525E-02-1.76206E+00
 -1      9046 1.09500E+00-2.08703E-02-4.65407E+00
 -1      9047 1.22933E+00-1.42963E-02-5.27032E+00
 -1      9048 1.23450E+00-6.18525E-02-8.23894E+00
 -1      9049 1.19649E+00-6.92350E-02-9.38039E+00
 -1      9050 1.15244E+00-1.20081E-01-1.19876E+01
 -1      9051 3.96451E-01-2.34899E-01-1.76301E+01
 -1      9052 3.61607E-01-2.51539E-01-1.77610E+01
 -1      9053-9.47914E-01-1.84445E-01-1.56549E+01
 -1      9054-9.18025E-01-1.69107E-01-1.53649E+01
 -1      9055-1.12899E+00-1.37417E-01-1.30656E+01
 -1      9056-1.22399E+00-1.00707E-01-9.46586E+00
 -1      9057-1.24613E+00-9.21651E-02-8.25331E+00
 -1      9058-1.14822E+00-6.02129E-02-5.76968E+00
 -1      9059-3.25073E-01 1.72767E-03-5.02177E-01
 -1      9060 2.07917E-01 2.99177E-02-2.01147E-01
 -1      9061 7.98286E-01 3.48318E-02-2.15493E+00
 -1      9062 8.11601E-01 2.40521E-02-2.41583E+00
 -1      9063 1.37545E+00-7.05187E-02-9.11475E+00
 -1      9064 1.14315E+00-1.30792E-01-1.22880E+01
 -1      9065 1.11162E+00-1.37892E-01-1.29833E+01
 -1      9066 8.76758E-01-2.10015E-01-1.58894E+01
 -1      9067-3.31674E-01-2.20368E-01-1.78847E+01
 -1      9068-3.89925E-01-2.15591E-01-1.76350E+01
 -1      9069-8.45001E-01-1.74521E-01-1.60841E+01
 -1      9070-1.23678E+00-9.76769E-02-9.09491E+00
 -1      9071-1.37569E+00-9.48589E-02-8.56668E+00
 -1      9072-1.10580E+00-6.18844E-02-5.73794E+00
 -1      9073-7.35003E-01-3.19854E-02-1.84101E+00
 -1      9074 0.00000E+00 0.00000E+00 0.00000E+00
 -1      9075 1.03537E+00-2.27024E-02-4.49567E+00
 -1      9076-7.52453E-01-1.52362E-01-1.62521E+01
 -1      9077 0.00000E+00 0.00000E+00 0.00000E+00
 -1      9078 1.76993E-01 1.42547E-02-1.99641E-01
 -1      9079 2.89437E-01 1.66389E-02-4.67883E-01
 -1      9080 7.26924E-01 4.35130E-04-1.78315E+00
 -1      9081 1.11246E+00-3.23886E-02-5.62370E+00
 -1      9082 1.21108E+00-6.02263E-02-8.33654E+00
 -1      9083 1.19934E+00-7.24424E-02-9.45175E+00
 -1      9084 8.76972E-01-1.67459E-01-1.51988E+01
 -1      9085 7.99775E-01-1.85166E-01-1.60370E+01
 -1      9086 2.80650E-01-2.16151E-01-1.78619E+01
 -1      9087-2.73927E-01-1.81894E-01-1.78493E+01
 -1      9088-1.09228E+00-1.31429E-01-1.32080E+01
 -1      9089-1.16263E+00-1.22574E-01-1.20501E+01
 -1      9090-1.22023E+00-9.95754E-02-9.31540E+00
 -1      9091-1.28880E+00-9.38413E-02-8.43682E+00
 -1      9092-1.13047E+00-5.89947E-02-4.90693E+00
 -1      9093-7.47417E-01-4.18710E-02-1.84058E+00
 -1      9094-1.97771E-01-7.89500E-03-2.09129E-01
 -1      9095 0.00000E+00 0.00000E+00 0.00000E+00
 -1      9096 8.10619E-01-7.93697E-03-2.49956E+00
 -1      9097 3.69108E-01-2.06400E-01-1.76203E+01
 -1      9098-8.73579E-01-1.40144E-01-1.55751E+01
 -1      9099-9.29333E-01-1.40779E-01-1.52610E+01
 -1      9100-1.28627E+00-1.26585E-01-1.28508E+01
 -1      9101-1.17270E+00-1.22531E-01-1.23583E+01
 -1      9102-1.20734E+00-6.50953E-02-5.73127E+00
 -1      9103-8.59642E-01-5.61843E-02-2.33015E+00
 -1      9104-2.71901E-01-2.61017E-02-4.06326E-01
 -1      9105 1.10643E+00-2.73824E-02-4.54005E+00
 -1      9106 1.18569E+00-3.65830E-02-5.14877E+00
 -1      9107 1.20847E+00-3.64091E-02-5.72840E+00
 -1      9108 1.34895E+00-6.71700E-02-8.61739E+00
 -1      9109 8.62289E-01-1.84409E-01-1.60722E+01
 -1      9110-3.78653E-01-1.80324E-01-1.74600E+01
 -1      9111-8.69757E-01-1.47552E-01-1.61638E+01
 -1      9112-9.34864E-01-1.40052E-01-1.57961E+01
 -1      9113-1.17007E+00-1.26996E-01-1.31461E+01
 -1      9114-1.24002E+00-1.23639E-01-1.25329E+01
 -1      9115-1.24083E+00-1.21641E-01-1.19895E+01
 -1      9116-8.05605E-01-4.27995E-02-1.79476E+00
 -1      9117 0.00000E+00 0.00000E+00 0.00000E+00
 -1      9118 8.49000E-01-1.43288E-02-2.71216E+00
 -1      9119 1.15784E+00-3.41018E-02-6.08515E+00
 -1      9120 1.27779E+00-6.20020E-02-8.18652E+00
 -1      9121 1.28443E+00-7.81721E-02-9.71055E+00
 -1      9122 1.20676E+00-1.07849E-01-1.15236E+01
 -1      9123 8.43992E-01-1.94289E-01-1.63455E+01
 -1      9124 2.56308E-01-2.21148E-01-1.79430E+01
 -1      9125-4.16447E-01-1.88941E-01-1.73496E+01
 -1      9126-9.23354E-01-1.40345E-01-1.49714E+01
 -1      9127-1.20396E+00-1.19895E-01-1.15603E+01
 -1      9128-1.28699E+00-8.86617E-02-7.93270E+00
 -1      9129-1.17969E+00-7.14711E-02-6.17619E+00
 -1      9130-8.19904E-01-4.63667E-02-1.59554E+00
 -1      9131-2.07978E-01-1.25545E-02-1.66324E-01
 -1      9132 0.00000E+00 0.00000E+00 0.00000E+00
 -1      9133 1.14764E+00-3.92045E-02-5.78633E+00
 -1      9134 7.81304E-01-1.23250E-02-1.61473E+00
 -1      9135 1.16894E+00-1.22323E-01-1.31593E+01
 -1      9136 8.53250E-01-1.74509E-01-1.61700E+01
 -1      9137 2.87392E-01-1.97870E-01-1.78692E+01
 -1      9138-3.12785E-01-1.61612E-01-1.78808E+01
 -1      9139-1.27510E+00-9.28511E-02-8.13108E+00
 -1      9140-1.14497E+00-5.98079E-02-4.53515E+00
 -1      9141-1.99288E-01-2.14862E-02-1.70611E-01
 -1      9142 0.00000E+00 0.00000E+00 0.00000E+00
 -1      9143 0.00000E+00 0.00000E+00 0.00000E+00
 -1      9144 1.97427E-01-9.81486E-03-1.54010E-01
 -1      9145 7.57521E-01-2.45043E-02-1.46121E+00
 -1      9146 1.10964E+00-3.99444E-02-4.21363E+00
 -1      9147 1.15179E+00-4.62357E-02-6.06851E+00
 -1      9148 1.19377E+00-1.01818E-01-1.15299E+01
 -1      9149 9.27153E-01-1.34063E-01-1.48689E+01
 -1      9150 3.87645E-01-1.74826E-01-1.73362E+01
 -1      9151 3.43192E-01-1.91013E-01-1.74338E+01
 -1      9152 2.41840E-01-1.72901E-01-1.79283E+01
 -1      9153-8.46098E-01-1.20421E-01-1.63950E+01
 -1      9154-1.28708E+00-1.00387E-01-9.83851E+00
 -1      9155-1.27805E+00-9.25217E-02-7.86862E+00
 -1      9156-1.18450E+00-8.04383E-02-6.14564E+00
 -1      9157-1.11912E+00-7.20504E-02-4.24533E+00
 -1      9158-8.65833E-01-7.41310E-02-2.87460E+00
 -1      9159-7.58117E-01-7.72486E-02-1.45850E+00
 -1      9160-3.14825E-01-5.26650E-02-5.98520E-01
 -1      9161-2.74271E-01-3.82592E-02-5.36755E-01
 -1      9162-1.63765E-01-2.07503E-02-9.30420E-02
 -1      9163 8.49455E-01-3.63103E-02-2.80285E+00
 -1      9164 1.27831E+00-7.44982E-02-9.75536E+00
 -1      9165 8.24050E-01-1.56513E-01-1.63881E+01
 -1      9166-4.14360E-01-1.46836E-01-1.73710E+01
 -1      9167-9.27396E-01-1.14900E-01-1.49598E+01
 -1      9168-1.20277E+00-1.07452E-01-1.15678E+01
 -1      9169 1.09296E+00-4.37124E-02-4.59373E+00
 -1      9170 1.21755E+00-4.36608E-02-5.65818E+00
 -1      9171 1.28258E+00-6.49609E-02-8.16386E+00
 -1      9172 1.25283E+00-7.24055E-02-9.37852E+00
 -1      9173 1.18207E+00-1.02655E-01-1.18638E+01
 -1      9174 1.18195E+00-1.15611E-01-1.30478E+01
 -1      9175 9.27695E-01-1.41480E-01-1.51443E+01
 -1      9176 9.10533E-01-1.66367E-01-1.59979E+01
 -1      9177-3.79056E-01-1.40940E-01-1.74853E+01
 -1      9178-1.23592E+00-1.19483E-01-1.31935E+01
 -1      9179-1.17878E+00-1.11233E-01-1.19598E+01
 -1      9180-1.25500E+00-9.42729E-02-8.23823E+00
 -1      9181-1.16649E+00-7.98816E-02-5.78381E+00
 -1      9182-8.62498E-01-7.54448E-02-2.68617E+00
 -1      9183 8.29261E-01-2.06462E-02-1.93827E+00
 -1      9184 8.38196E-01-2.46601E-02-2.18911E+00
 -1      9185 1.21860E+00-4.09150E-02-5.25553E+00
 -1      9186 1.23740E+00-6.48633E-02-8.19633E+00
 -1      9187 1.12816E+00-1.12374E-01-1.28913E+01
 -1      9188 8.65581E-01-1.47974E-01-1.54286E+01
 -1      9189 3.43934E-01-1.84099E-01-1.75828E+01
 -1      9190-9.90256E-01-1.34716E-01-1.59006E+01
 -1      9191-8.78135E-01-1.17683E-01-1.53881E+01
 -1      9192-9.66983E-01-1.26610E-01-1.52814E+01
 -1      9193-1.14599E+00-1.16023E-01-1.30254E+01
 -1      9194-1.24665E+00-9.79817E-02-9.07862E+00
 -1      9195-1.32075E+00-9.77976E-02-8.89077E+00
 -1      9196-1.38280E+00-9.70490E-02-8.55105E+00
 -1      9197 0.00000E+00 0.00000E+00 0.00000E+00
 -1      9198 1.79474E-01-2.62858E-02-2.01627E-01
 -1      9199 7.62114E-01-2.89792E-02-1.78297E+00
 -1      9200 1.37698E+00-7.23497E-02-9.06646E+00
 -1      9201 1.13679E+00-9.97179E-02-1.18891E+01
 -1      9202 3.77588E-01-1.71946E-01-1.74755E+01
 -1      9203-3.32970E-01-1.49124E-01-1.77554E+01
 -1      9204-1.26420E+00-9.94823E-02-9.38146E+00
 -1      9205-1.11897E+00-8.08722E-02-5.74918E+00
 -1      9206-1.13271E+00-6.92789E-02-5.12322E+00
 -1      9207-3.00229E-01-5.68718E-02-4.62461E-01
 -1      9208 1.07173E+00-4.27671E-02-4.56192E+00
 -1      9209 1.16432E+00-9.64735E-02-1.20119E+01
 -1      9210-1.15400E+00-8.65681E-02-5.60271E+00
 -1      9211 0.00000E+00 0.00000E+00 0.00000E+00
 -1      9212 2.09972E-01-4.48929E-02-2.12375E-01
 -1      9213 3.11347E-01-4.50138E-02-4.89119E-01
 -1      9214 7.58138E-01-5.37553E-02-1.76952E+00
 -1      9215 1.13083E+00-5.12822E-02-5.53906E+00
 -1      9216 1.22253E+00-6.20556E-02-8.28486E+00
 -1      9217 1.21129E+00-7.09109E-02-9.39472E+00
 -1      9218 9.14188E-01-1.20394E-01-1.51018E+01
 -1      9219 9.03443E-01-1.17591E-01-1.52734E+01
 -1      9220 8.33249E-01-1.41810E-01-1.59410E+01
 -1      9221 3.01322E-01-1.46373E-01-1.77472E+01
 -1      9222-8.22856E-01-1.09611E-01-1.60355E+01
 -1      9223-1.11597E+00-1.12094E-01-1.30736E+01
 -1      9224-1.17668E+00-1.06239E-01-1.20764E+01
 -1      9225-1.16000E+00-8.46755E-02-4.86503E+00
 -1      9226-7.81770E-01-7.54808E-02-1.80809E+00
 -1      9227-1.92969E-01-6.43503E-02-1.68546E-01
 -1      9228 1.24524E+00-5.28322E-02-4.80049E+00
 -1      9229 1.12812E+00-5.22824E-02-5.28097E+00
 -1      9230 1.35553E+00-6.79753E-02-8.56470E+00
 -1      9231 1.24384E+00-9.54149E-02-1.18811E+01
 -1      9232 8.87462E-01-1.19505E-01-1.49053E+01
 -1      9233 3.68986E-01-1.28614E-01-1.75220E+01
 -1      9234-3.75251E-01-1.13424E-01-1.75011E+01
 -1      9235-8.86786E-01-9.93013E-02-1.55464E+01
 -1      9236-1.29452E+00-1.05629E-01-1.28247E+01
 -1      9237-1.18346E+00-1.03961E-01-1.23308E+01
 -1      9238-1.37477E+00-9.87970E-02-9.03142E+00
 -1      9239-1.24677E+00-9.05236E-02-5.76506E+00
 -1      9240-1.15183E+00-9.15753E-02-5.24715E+00
 -1      9241 1.15016E+00-4.83105E-02-4.51840E+00
 -1      9242 1.20049E+00-5.45264E-02-5.11075E+00
 -1      9243 1.20098E+00-5.50879E-02-5.63579E+00
 -1      9244 9.00894E-01-1.41568E-01-1.59879E+01
 -1      9245-9.45651E-01-9.27735E-02-1.57741E+01
 -1      9246-9.65459E-01-1.00436E-01-1.52952E+01
 -1      9247-1.17395E+00-1.09715E-01-1.31340E+01
 -1      9248-1.24688E+00-1.02924E-01-1.25075E+01
 -1      9249-1.24598E+00-1.04074E-01-1.19672E+01
 -1      9250-9.07576E-01-1.02145E-01-2.53419E+00
 -1      9251-8.47128E-01-7.99991E-02-1.75077E+00
 -1      9252 0.00000E+00 0.00000E+00 0.00000E+00
 -1      9253 0.00000E+00 0.00000E+00 0.00000E+00
 -1      9254 7.63483E-01-4.66884E-02-1.36402E+00
 -1      9255 8.60814E-01-5.74175E-02-2.51089E+00
 -1      9256 8.40597E-01-4.77297E-02-2.73880E+00
 -1      9257 1.11555E+00-4.00784E-02-4.11284E+00
 -1      9258 1.16141E+00-5.28447E-02-6.04107E+00
 -1      9259 1.28943E+00-6.26642E-02-8.13576E+00
 -1      9260 1.29343E+00-7.36608E-02-9.65148E+00
 -1      9261 1.20461E+00-9.64915E-02-1.14264E+01
 -1      9262 9.21786E-01-1.16818E-01-1.46829E+01
 -1      9263 8.46115E-01-1.54485E-01-1.62871E+01
 -1      9264-8.47303E-01-1.19355E-01-1.64063E+01
 -1      9265-9.55147E-01-1.05966E-01-1.50575E+01
 -1      9266-1.22572E+00-1.02507E-01-1.16190E+01
 -1      9267-1.30361E+00-9.30050E-02-7.92029E+00
 -1      9268-1.36053E+00-9.60101E-02-8.26746E+00
 -1      9269-1.18833E+00-9.17362E-02-6.24720E+00
 -1      9270-1.15285E+00-7.46467E-02-4.27506E+00
 -1      9271-8.81454E-01-9.43617E-02-2.95248E+00
 -1      9272-8.27138E-01-6.33837E-02-1.47796E+00
 -1      9273 0.00000E+00 0.00000E+00 0.00000E+00
 -1      9274 0.00000E+00 0.00000E+00 0.00000E+00
 -1      9275 2.27556E-01-5.04077E-02-1.23770E-01
 -1      9276 1.29418E+00-9.19209E-02-1.16571E+01
 -1      9277 9.51968E-01-1.13024E-01-1.48614E+01
 -1      9278-2.97904E-01-8.12956E-02-5.06741E-01
 -1      9279 0.00000E+00 0.00000E+00 0.00000E+00
 -1      9280 2.84330E-01-6.21776E-02-1.90107E-01
 -1      9281 4.05913E-01-1.32118E-01-1.73743E+01
 -1      9282 3.26516E-01-1.36070E-01-1.77994E+01
 -1      9283-3.94903E-01-1.05557E-01-1.74350E+01
 -1      9284-9.62016E-01-1.04680E-01-1.61929E+01
 -1      9285-9.39856E-01-8.61532E-02-1.68156E+00
 -1      9286 0.00000E+00 0.00000E+00 0.00000E+00
 -1      9287 0.00000E+00 0.00000E+00 0.00000E+00
 -1      9288 9.77561E-01-7.84837E-02-1.80854E+00
 -1      9289 9.16655E-01-7.68174E-02-2.07942E+00
 -1      9290 1.23085E+00-5.81511E-02-5.09414E+00
 -1      9291 1.38938E+00-5.88127E-02-4.77142E+00
 -1      9292 1.36013E+00-6.91010E-02-8.75620E+00
 -1      9293 1.25091E+00-9.33402E-02-1.22888E+01
 -1      9294-1.07048E+00-9.07444E-02-1.59331E+01
 -1      9295-1.27678E+00-9.90656E-02-1.25060E+01
 -1      9296-1.45785E+00-1.03252E-01-1.28063E+01
 -1      9297-9.02889E-01-1.02582E-01-1.93647E+00
 -1      9298 1.43612E+00-1.52699E-01-1.24251E+01
 -1      9299 4.16315E-01-2.78958E-01-1.77029E+01
 -1      9300-1.48950E+00-9.97974E-02-9.28816E+00
 -1      9301-1.35620E+00-4.86596E-02-5.59177E+00
 -1      9302-1.00825E+00-1.30246E-02-2.32185E+00
 -1      9303-3.29305E-01 2.94813E-02-4.93400E-01
 -1      9304 8.29449E-01 3.20102E-02-1.64988E+00
 -1      9305 1.27214E+00-1.69002E-02-4.55475E+00
 -1      9306 1.28608E+00-1.77120E-02-5.68544E+00
 -1      9307 1.49049E+00-6.64957E-02-8.39540E+00
 -1      9308 1.35730E+00-1.42163E-01-1.21253E+01
 -1      9309 1.03242E+00-2.20334E-01-1.54830E+01
 -1      9310-1.00461E+00-1.94588E-01-1.60876E+01
 -1      9311-1.30267E+00-1.45961E-01-1.31783E+01
 -1      9312-1.31426E+00-1.34866E-01-1.20126E+01
 -1      9313-1.44564E+00-1.46876E-01-1.23899E+01
 -1      9314-9.21526E-01-2.91870E-02-2.60469E+00
 -1      9315 0.00000E+00 0.00000E+00 0.00000E+00
 -1      9316 2.97601E-01 4.79067E-02-4.48441E-01
 -1      9317 8.73187E-01 3.05447E-02-2.44632E+00
 -1      9318 1.36333E+00-7.13500E-02-9.58606E+00
 -1      9319 1.29232E+00-1.51884E-01-1.31542E+01
 -1      9320 3.67706E-01-2.70053E-01-1.80354E+01
 -1      9321-3.73426E-01-2.35945E-01-1.80043E+01
 -1      9322-4.29392E-01-2.38064E-01-1.75955E+01
 -1      9323-9.94982E-01-1.77770E-01-1.53609E+01
 -1      9324-1.42350E+00-1.00788E-01-9.48575E+00
 -1      9325-1.38451E+00-9.20800E-02-8.18650E+00
 -1      9326-1.25670E+00-5.54484E-02-5.79467E+00
 -1      9327-1.26973E+00-3.89552E-02-4.62742E+00
 -1      9328-8.87465E-01-2.11459E-02-1.75361E+00
 -1      9329-2.85374E-01 2.55456E-02-2.12229E-01
 -1      9330 0.00000E+00 0.00000E+00 0.00000E+00
 -1      9331 9.45477E-01-2.19456E-01-1.62365E+01
 -1      9332 0.00000E+00 0.00000E+00 0.00000E+00
 -1      9333 2.19210E-01 4.45614E-02-1.31978E-01
 -1      9334 2.79120E-01 5.14636E-02-3.78937E-01
 -1      9335 8.36690E-01 3.42794E-02-1.86253E+00
 -1      9336 1.25993E+00-1.60164E-02-4.83770E+00
 -1      9337 1.45582E+00-6.78261E-02-8.60135E+00
 -1      9338 1.27027E+00-1.46920E-01-1.27843E+01
 -1      9339 9.63971E-01-2.18948E-01-1.60121E+01
 -1      9340 4.19159E-01-2.66505E-01-1.77205E+01
 -1      9341 3.63976E-01-2.73471E-01-1.78725E+01
 -1      9342-4.10558E-01-2.40122E-01-1.76732E+01
 -1      9343-1.30174E+00-1.45049E-01-1.28823E+01
 -1      9344-1.45704E+00-9.84610E-02-9.07872E+00
 -1      9345-1.24666E+00-4.30704E-02-4.97318E+00
 -1      9346-8.73368E-01-2.43764E-02-1.99846E+00
 -1      9347-3.29754E-01 3.18837E-02-4.28924E-01
 -1      9348-2.92837E-01 2.82826E-02-3.18560E-01
 -1      9349 0.00000E+00 0.00000E+00 0.00000E+00
 -1      9350 2.74711E-01 5.68800E-02-2.62887E-01
 -1      9351 1.35075E+00-1.46910E-01-1.23802E+01
 -1      9352 1.01247E+00-2.20998E-01-1.55989E+01
 -1      9353 4.02337E-01-2.88682E-01-1.78243E+01
 -1      9354-4.13141E-01-2.58447E-01-1.78097E+01
 -1      9355-1.36782E+00-1.46924E-01-1.25989E+01
 -1      9356-1.29534E+00-1.39343E-01-1.23103E+01
 -1      9357-1.30208E+00-4.47456E-02-5.38874E+00
 -1      9358-9.59614E-01-1.85169E-01-1.60045E+01
 -1      9359-9.50309E-01-1.74135E-02-2.32777E+00
 -1      9360 1.37048E+00-7.28704E-02-9.11187E+00
 -1      9361 1.31415E+00-1.16656E-01-1.20342E+01
 -1      9362 0.00000E+00 0.00000E+00 0.00000E+00
 -1      9363 2.49596E-01 1.49122E-03-2.50840E-01
 -1      9364 2.82817E-01 1.00608E-03-3.66901E-01
 -1      9365 8.58646E-01-8.85280E-03-1.93990E+00
 -1      9366 9.27925E-01-1.60214E-02-2.22742E+00
 -1      9367 1.22782E+00-3.37276E-02-4.84091E+00
 -1      9368 1.31761E+00-3.99605E-02-5.35265E+00
 -1      9369 1.28913E+00-1.19070E-01-1.23581E+01
 -1      9370 1.30616E+00-1.22809E-01-1.27496E+01
 -1      9371 9.86400E-01-1.78239E-01-1.57977E+01
 -1      9372 3.62221E-01-2.07879E-01-1.77205E+01
 -1      9373-3.53960E-01-1.73844E-01-1.77865E+01
 -1      9374-4.05883E-01-1.69957E-01-1.76209E+01
 -1      9375-1.03093E+00-1.37921E-01-1.55400E+01
 -1      9376-1.37243E+00-1.22514E-01-1.23183E+01
 -1      9377-1.29005E+00-1.01269E-01-9.45946E+00
 -1      9378-1.39904E+00-9.98110E-02-9.04693E+00
 -1      9379-1.41674E+00-9.57527E-02-8.63049E+00
 -1      9380-1.27649E+00-6.08855E-02-4.94859E+00
 -1      9381-9.25609E-01-5.28339E-02-2.04358E+00
 -1      9382-2.77127E-01-2.65404E-02-3.14597E-01
 -1      9383 0.00000E+00 0.00000E+00 0.00000E+00
 -1      9384 0.00000E+00 0.00000E+00 0.00000E+00
 -1      9385 2.98671E-01 5.72086E-03-4.66266E-01
 -1      9386 8.93507E-01-1.46351E-02-2.45910E+00
 -1      9387 1.38909E+00-7.49200E-02-9.37035E+00
 -1      9388 9.83304E-01-1.62048E-01-1.51798E+01
 -1      9389 3.86052E-01-2.06324E-01-1.75592E+01
 -1      9390 3.47026E-01-2.11263E-01-1.77910E+01
 -1      9391-4.01305E-01-1.71363E-01-1.75083E+01
 -1      9392-1.37668E+00-9.39852E-02-8.23223E+00
 -1      9393-9.42805E-01-5.93632E-02-2.46984E+00
 -1      9394-8.99397E-01-6.02466E-02-2.68245E+00
 -1      9395-2.95474E-01-3.07996E-02-4.49373E-01
 -1      9396-2.81858E-01-2.95119E-02-2.66985E-01
 -1      9397 8.77069E-01-1.01330E-02-1.69060E+00
 -1      9398 8.33905E-01-2.21981E-02-2.58477E+00
 -1      9399 1.20582E+00-3.44040E-02-4.48351E+00
 -1      9400 1.38203E+00-6.56867E-02-8.14592E+00
 -1      9401 1.29200E+00-1.11562E-01-1.17765E+01
 -1      9402 9.53121E-01-1.83865E-01-1.61243E+01
 -1      9403-3.54589E-01-1.69892E-01-1.78564E+01
 -1      9404-9.75193E-01-1.41659E-01-1.61516E+01
 -1      9405-9.47984E-01-1.32635E-01-1.52426E+01
 -1      9406-1.27073E+00-1.25212E-01-1.32607E+01
 -1      9407-1.24930E+00-1.17798E-01-1.19275E+01
 -1      9408-1.40975E+00-1.01156E-01-9.49861E+00
 -1      9409-1.27589E+00-7.02447E-02-5.89950E+00
 -1      9410-1.26742E+00-5.91603E-02-4.60732E+00
 -1      9411-9.23463E-01-6.44528E-02-2.62222E+00
 -1      9412 0.00000E+00 0.00000E+00 0.00000E+00
 -1      9413 2.99723E-01-1.10663E-03-4.65930E-01
 -1      9414 0.00000E+00 0.00000E+00 0.00000E+00
 -1      9415 1.30619E+00-7.44099E-02-9.45678E+00
 -1      9416 1.32618E+00-1.13073E-01-1.19255E+01
 -1      9417-4.03930E-01-1.66237E-01-1.75242E+01
 -1      9418-9.69279E-01-1.36656E-01-1.61494E+01
 -1      9419-1.33166E+00-1.23961E-01-1.30638E+01
 -1      9420-1.40769E+00-1.01347E-01-9.49937E+00
 -1      9421-1.35640E+00-7.12724E-02-5.64128E+00
 -1      9422-9.48807E-01-5.60173E-02-1.88518E+00
 -1      9423-2.50805E-01-3.09677E-02-2.08911E-01
 -1      9424 3.00963E-01-1.04882E-02-5.05566E-01
 -1      9425 9.22642E-01-2.55282E-02-2.50356E+00
 -1      9426 1.24630E+00-4.03009E-02-4.54352E+00
 -1      9427 1.29917E+00-1.09223E-01-1.18449E+01
 -1      9428 1.31008E+00-1.23896E-01-1.30432E+01
 -1      9429 1.36850E+00-1.24627E-01-1.28933E+01
 -1      9430-4.12959E-01-1.60551E-01-1.74736E+01
 -1      9431-1.42001E+00-9.42456E-02-8.24870E+00
 -1      9432-1.27838E+00-7.58049E-02-5.81287E+00
 -1      9433-1.28371E+00-6.21115E-02-4.64165E+00
 -1      9434-9.27944E-01-7.01340E-02-2.66968E+00
 -1      9435 0.00000E+00 0.00000E+00 0.00000E+00
 -1      9436 1.38772E+00-7.63621E-02-9.45343E+00
 -1      9437 9.93754E-01-1.51576E-01-1.50946E+01
 -1      9438 3.34485E-01-2.04395E-01-1.78191E+01
 -1      9439-3.26359E-01-1.53190E-01-1.78427E+01
 -1      9440-1.33024E+00-1.16534E-01-1.19742E+01
 -1      9441-8.53084E-01-6.35106E-02-1.74846E+00
 -1      9442 0.00000E+00 0.00000E+00 0.00000E+00
 -1      9443 0.00000E+00 0.00000E+00 0.00000E+00
 -1      9444 2.29272E-01-1.42527E-02-1.73907E-01
 -1      9445 2.35041E-01-1.69016E-02-2.45727E-01
 -1      9446 8.88676E-01-2.70080E-02-2.38783E+00
 -1      9447 1.48552E+00-6.90066E-02-8.31849E+00
 -1      9448 1.43036E+00-6.88880E-02-8.54131E+00
 -1      9449 1.28714E+00-1.17342E-01-1.26798E+01
 -1      9450 1.06043E+00-1.65892E-01-1.53249E+01
 -1      9451 4.02844E-01-2.06268E-01-1.75339E+01
 -1      9452 3.39036E-01-1.95596E-01-1.76875E+01
 -1      9453-3.93333E-01-1.53310E-01-1.75642E+01
 -1      9454-1.40291E+00-9.95975E-02-9.26826E+00
 -1      9455-1.26367E+00-6.77548E-02-4.90761E+00
 -1      9456-9.34812E-01-6.76596E-02-2.40741E+00
 -1      9457-3.15538E-01-3.92502E-02-4.44205E-01
 -1      9458-2.59451E-01-4.04964E-02-2.90869E-01
 -1      9459 0.00000E+00 0.00000E+00 0.00000E+00
 -1      9460 0.00000E+00 0.00000E+00 0.00000E+00
 -1      9461 2.75447E-01-1.08455E-02-3.12770E-01
 -1      9462 2.94302E-01-1.06751E-02-4.33495E-01
 -1      9463 1.25498E+00-4.24610E-02-4.82415E+00
 -1      9464 1.31344E+00-1.14153E-01-1.22899E+01
 -1      9465 1.03520E+00-1.66285E-01-1.54492E+01
 -1      9466 3.89091E-01-1.90226E-01-1.75407E+01
 -1      9467 3.72611E-01-2.03893E-01-1.76353E+01
 -1      9468-3.96216E-01-1.61863E-01-1.76876E+01
 -1      9469-9.81888E-01-1.32640E-01-1.55791E+01
 -1      9470-1.31788E+00-6.97313E-02-5.40426E+00
 -1      9471-9.49492E-01-6.18603E-02-2.20425E+00
 -1      9472-8.87745E-01-6.48910E-02-1.99801E+00
 -1      9473-3.05030E-01-4.28597E-02-4.15839E-01
 -1      9474-2.90421E-01-3.58879E-02-3.49272E-01
 -1      9475-1.36482E+00-1.22169E-01-1.28034E+01
 -1      9476-1.30793E+00-1.16775E-01-1.22741E+01
 -1      9477 1.38216E+00-7.20804E-02-9.05488E+00
 -1      9478-1.39587E+00-9.67029E-02-8.52225E+00
 -1      9479-2.98146E-01-9.62187E-02-3.68725E-01
 -1      9480 0.00000E+00 0.00000E+00 0.00000E+00
 -1      9481 2.84056E-01-6.02410E-02-2.51781E-01
 -1      9482 3.19608E-01-7.08855E-02-3.72099E-01
 -1      9483 8.84305E-01-6.99447E-02-1.91458E+00
 -1      9484 9.51093E-01-7.60193E-02-2.19948E+00
 -1      9485 1.33054E+00-5.91891E-02-5.31425E+00
 -1      9486 1.31372E+00-9.51487E-02-1.22537E+01
 -1      9487 1.32671E+00-1.04997E-01-1.26823E+01
 -1      9488 9.97970E-01-1.12980E-01-1.52934E+01
 -1      9489 9.76247E-01-1.26947E-01-1.57602E+01
 -1      9490 3.91160E-01-1.22438E-01-1.76255E+01
 -1      9491-3.46808E-01-1.04517E-01-1.77325E+01
 -1      9492-3.88034E-01-8.92454E-02-1.76145E+01
 -1      9493-1.04283E+00-9.17839E-02-1.55185E+01
 -1      9494-1.37889E+00-1.01170E-01-1.22953E+01
 -1      9495-1.30965E+00-1.00700E-01-9.44225E+00
 -1      9496-1.31575E+00-9.03631E-02-4.93223E+00
 -1      9497-9.47228E-01-1.09640E-01-2.32634E+00
 -1      9498-9.66787E-01-1.06338E-01-2.00618E+00
 -1      9499-2.82592E-01-1.05213E-01-2.50333E-01
 -1      9500 3.28746E-01-6.17477E-02-4.68677E-01
 -1      9501 1.38369E+00-7.34838E-02-9.35393E+00
 -1      9502 1.03352E+00-1.14679E-01-1.56068E+01
 -1      9503 3.99420E-01-1.29425E-01-1.74529E+01
 -1      9504-3.93771E-01-1.03842E-01-1.74957E+01
 -1      9505 0.00000E+00 0.00000E+00 0.00000E+00
 -1      9506 8.98777E-01-6.91025E-02-1.65093E+00
 -1      9507 9.04411E-01-6.14212E-02-2.56477E+00
 -1      9508 1.22633E+00-5.05119E-02-4.36878E+00
 -1      9509 1.26251E+00-5.78482E-02-5.73523E+00
 -1      9510 1.37735E+00-6.29101E-02-7.97806E+00
 -1      9511 1.44494E+00-6.69289E-02-8.27810E+00
 -1      9512 1.26652E+00-1.15697E-01-1.31319E+01
 -1      9513 1.02606E+00-1.12445E-01-1.50518E+01
 -1      9514 9.97299E-01-1.40590E-01-1.60451E+01
 -1      9515-3.52189E-01-1.06653E-01-1.78274E+01
 -1      9516-1.28098E+00-1.09714E-01-1.32367E+01
 -1      9517-1.30914E+00-1.02274E-01-1.18619E+01
 -1      9518-1.43956E+00-1.00583E-01-9.46269E+00
 -1      9519-1.42790E+00-9.57976E-02-8.23631E+00
 -1      9520-1.30679E+00-8.68334E-02-4.61332E+00
 -1      9521-9.73327E-01-1.09172E-01-2.61795E+00
 -1      9522-3.13532E-01-9.73192E-02-4.35742E-01
 -1      9523-2.52303E-01-9.00178E-02-1.47742E-01
 -1      9524 3.22389E-01-6.70669E-02-4.44382E-01
 -1      9525 1.38979E+00-1.07845E-01-1.28236E+01
 -1      9526 1.09947E+00-1.08831E-01-1.52607E+01
 -1      9527-1.03754E+00-1.20454E-01-2.41837E+00
 -1      9528 9.76838E-01-7.50138E-02-2.32695E+00
 -1      9529 1.35900E+00-6.06125E-02-5.45381E+00
 -1      9530 1.56794E+00-7.07176E-02-8.45123E+00
 -1      9531 1.48393E+00-7.38069E-02-9.13994E+00
 -1      9532 1.49669E+00-9.87929E-02-1.23016E+01
 -1      9533 1.37220E+00-9.36311E-02-1.19249E+01
 -1      9534 1.09373E+00-1.25978E-01-1.58196E+01
 -1      9535 4.08713E-01-1.22916E-01-1.76703E+01
 -1      9536-4.11727E-01-8.69920E-02-1.75691E+01
 -1      9537-1.05366E+00-9.29291E-02-1.53870E+01
 -1      9538-1.40567E+00-1.00707E-01-1.21480E+01
 -1      9539-1.47601E+00-1.00235E-01-5.28476E+00
 -1      9540-1.03077E+00-1.06874E-01-1.89089E+00
 -1      9541 0.00000E+00 0.00000E+00 0.00000E+00
 -1      9542 0.00000E+00 0.00000E+00 0.00000E+00
 -1      9543 3.20346E-01-7.14935E-02-2.40542E-01
 -1      9544 3.49119E-01-7.82071E-02-3.44715E-01
 -1      9545-3.97894E-01-9.10643E-02-1.77676E+01
 -1      9546-3.06772E-01-1.13770E-01-2.31867E-01
 -1      9547 0.00000E+00 0.00000E+00 0.00000E+00
 -1      9548 3.11745E-01 6.89949E-02-2.64806E-01
 -1      9549 9.72853E-01 4.75880E-02-2.07290E+00
 -1      9550 1.44391E+00-1.42296E-02-5.05298E+00
 -1      9551 1.41376E+00-1.44753E-02-5.33321E+00
 -1      9552 1.57952E+00-7.09090E-02-8.76589E+00
 -1      9553 1.45453E+00-1.59029E-01-1.27377E+01
 -1      9554 1.08787E+00-2.31382E-01-1.57212E+01
 -1      9555 1.04974E+00-2.30194E-01-1.59914E+01
 -1      9556 4.53496E-01-3.06160E-01-1.78738E+01
 -1      9557-4.62176E-01-2.74051E-01-1.78496E+01
 -1      9558-4.54006E-01-2.70196E-01-1.77543E+01
 -1      9559-1.10688E+00-1.98421E-01-1.57771E+01
 -1      9560-1.47624E+00-1.51595E-01-1.26778E+01
 -1      9561-1.57707E+00-9.79292E-02-8.92798E+00
 -1      9562-1.44369E+00-4.12261E-02-5.24553E+00
 -1      9563-9.89117E-01-1.54800E-02-2.00936E+00
 -1      9564-3.57451E-01 3.90080E-02-3.62602E-01
 -1      9565 0.00000E+00 0.00000E+00 0.00000E+00
 -1      9566 0.00000E+00 0.00000E+00 0.00000E+00
 -1      9567 3.08859E-01 6.52103E-02-3.35048E-01
 -1      9568 9.18349E-01 4.37776E-02-1.83561E+00
 -1      9569 9.39118E-01 4.33856E-02-2.25844E+00
 -1      9570 1.38032E+00-1.35918E-02-4.86898E+00
 -1      9571 1.55414E+00-7.32072E-02-9.08568E+00
 -1      9572-1.06958E+00-1.92185E-01-1.55743E+01
 -1      9573-1.41608E+00-1.50524E-01-1.28591E+01
 -1      9574-1.55034E+00-9.55447E-02-8.61185E+00
 -1      9575-1.39862E+00-3.85280E-02-4.94710E+00
 -1      9576 1.38574E+00-1.55370E-01-1.28611E+01
 -1      9577-1.40926E+00-1.44459E-01-1.23262E+01
 -1      9578-9.57439E-01-1.83702E-02-1.95842E+00
 -1      9579 2.97209E-01 5.94002E-02-3.35814E-01
 -1      9580 9.35395E-01 4.36113E-02-2.12227E+00
 -1      9581 1.38727E+00-1.49584E-02-5.32374E+00
 -1      9582-1.06802E+00-1.93417E-01-1.57194E+01
 -1      9583 1.04328E+00-1.72232E-01-1.54929E+01
 -1      9584 0.00000E+00 0.00000E+00 0.00000E+00
 -1      9585 3.12766E-01-1.21083E-03-3.95484E-01
 -1      9586 9.47662E-01-1.24522E-02-1.89735E+00
 -1      9587 1.35418E+00-3.94199E-02-4.84428E+00
 -1      9588 1.34917E+00-4.13346E-02-5.52150E+00
 -1      9589 1.53702E+00-7.08757E-02-8.48887E+00
 -1      9590 1.53086E+00-7.26503E-02-8.78263E+00
 -1      9591 1.51411E+00-7.48838E-02-9.06450E+00
 -1      9592 1.42859E+00-1.24183E-01-1.24919E+01
 -1      9593 1.44398E+00-1.21264E-01-1.22081E+01
 -1      9594 1.05220E+00-1.81514E-01-1.58899E+01
 -1      9595-3.93825E-01-1.71428E-01-1.77694E+01
 -1      9596-4.39066E-01-1.69735E-01-1.76753E+01
 -1      9597-4.25557E-01-1.68963E-01-1.76099E+01
 -1      9598-1.04924E+00-1.40658E-01-1.59281E+01
 -1      9599-1.05216E+00-1.36937E-01-1.54039E+01
 -1      9600-1.41503E+00-1.25348E-01-1.28396E+01
 -1      9601-1.40493E+00-1.21417E-01-1.21402E+01
 -1      9602-1.54562E+00-1.00493E-01-9.14612E+00
 -1      9603-1.52984E+00-9.66349E-02-8.52009E+00
 -1      9604-1.40363E+00-6.90121E-02-5.47041E+00
 -1      9605-1.00256E+00-5.85955E-02-2.25780E+00
 -1      9606 0.00000E+00 0.00000E+00 0.00000E+00
 -1      9607 2.76636E-01-9.89163E-03-2.48764E-01
 -1      9608 9.58655E-01-1.89744E-02-2.38752E+00
 -1      9609 1.13391E+00-1.77102E-01-1.55719E+01
 -1      9610 3.68850E-01-2.11279E-01-1.77721E+01
 -1      9611-1.38812E+00-6.44141E-02-4.89355E+00
 -1      9612-1.06108E+00-6.11916E-02-2.23323E+00
 -1      9613-3.17518E-01-3.57274E-02-4.39500E-01
 -1      9614 3.11022E-01-4.37120E-03-3.96208E-01
 -1      9615 1.04245E+00-1.63078E-02-2.09133E+00
 -1      9616 1.36091E+00-4.15826E-02-4.84719E+00
 -1      9617 1.54504E+00-7.53627E-02-9.04692E+00
 -1      9618-3.98213E-01-1.67909E-01-1.77690E+01
 -1      9619-4.27947E-01-1.66582E-01-1.76002E+01
 -1      9620-1.06085E+00-1.38657E-01-1.59490E+01
 -1      9621-1.08386E+00-1.36969E-01-1.55107E+01
 -1      9622-1.64059E+00-9.92470E-02-8.85620E+00
 -1      9623-9.94515E-01-6.48917E-02-2.46095E+00
 -1      9624-3.19100E-01-3.43449E-02-3.43181E-01
 -1      9625 0.00000E+00 0.00000E+00 0.00000E+00
 -1      9626 9.60660E-01-1.62795E-02-1.87582E+00
 -1      9627 1.36427E+00-4.26437E-02-5.37241E+00
 -1      9628 1.42851E+00-1.18825E-01-1.21905E+01
 -1      9629 1.40176E+00-1.23411E-01-1.27489E+01
 -1      9630-1.42378E+00-1.20102E-01-1.22847E+01
 -1      9631-1.52574E+00-9.98569E-02-9.15538E+00
 -1      9632-1.51293E+00-9.71368E-02-8.56416E+00
 -1      9633-1.37395E+00-6.65198E-02-4.92843E+00
 -1      9634-2.94915E-01-3.45685E-02-2.83682E-01
 -1      9635 9.91383E-01-2.04989E-02-2.28487E+00
 -1      9636 3.92166E-01-2.11267E-01-1.77054E+01
 -1      9637-1.14485E+00-1.40421E-01-1.57177E+01
 -1      9638-9.70879E-01-6.01253E-02-1.96455E+00
 -1      9639 1.47228E+00-4.31154E-02-5.10894E+00
 -1      9640 1.63395E+00-7.48687E-02-8.77600E+00
 -1      9641 1.52624E+00-1.26256E-01-1.24828E+01
 -1      9642-1.53545E+00-1.24121E-01-1.25608E+01
 -1      9643-1.49755E+00-6.64587E-02-5.19632E+00
 -1      9644 0.00000E+00 0.00000E+00 0.00000E+00
 -1      9645 1.53815E+00-7.11752E-02-8.61619E+00
 -1      9646 1.39471E+00-9.46287E-02-1.21173E+01
 -1      9647-1.55310E+00-1.00009E-01-8.95508E+00
 -1      9648-1.54297E+00-9.89783E-02-8.51483E+00
 -1      9649-1.40835E+00-9.63686E-02-5.45275E+00
 -1      9650-1.43688E+00-9.74600E-02-5.17366E+00
 -1      9651-1.04258E+00-1.17954E-01-2.21715E+00
 -1      9652 0.00000E+00 0.00000E+00 0.00000E+00
 -1      9653-1.59452E+00-1.00499E-01-8.96177E+00
 -1      9654-1.42023E+00-9.39066E-02-4.87214E+00
 -1      9655 0.00000E+00 0.00000E+00 0.00000E+00
 -1      9656 1.46914E+00-6.20105E-02-5.06351E+00
 -1      9657 1.16357E+00-1.11590E-01-1.55070E+01
 -1      9658-4.29081E-01-8.52837E-02-1.76693E+01
 -1      9659-1.12891E+00-9.15600E-02-1.56283E+01
 -1      9660-1.52054E+00-1.00753E-01-1.25415E+01
 -1      9661-1.09842E+00-1.22272E-01-2.17798E+00
 -1      9662 1.61367E+00-7.34151E-02-8.72231E+00
 -1      9663 4.44940E-01-1.21253E-01-1.75498E+01
 -1      9664 3.20145E-01-4.54059E-03-3.36032E-01
 -1      9665 4.18126E-01-2.14981E-01-1.76516E+01
 -1      9666 1.05702E+00-8.24602E-02-2.07354E+00
 -1      9667-3.25120E-01-1.15796E-01-2.86773E-01
 -1      9668-2.57049E-01-1.16088E-01-1.76928E+01
 -1      9669-1.06880E+00-2.00304E-03-5.09387E+00
 -1      9670-1.05131E+00-1.18460E-01-1.25226E+01
 -1      9671 7.22023E-01-1.81910E-02-2.14085E+00
 -1      9672 2.77474E-01-2.27823E-01-1.76940E+01
 -1      9673-8.98597E-01-1.16993E-01-1.29077E+01
 -1      9674 1.02483E+00-1.07527E-01-1.22625E+01
 -1      9675-1.11851E+00-2.04428E-02-8.97447E+00
 -3
    1PSTEP                         2           1           1          
  100CL  101 1.000000000        9675                     0    1           1
 -4  STRESS      6    1
 -5  SXX         1    4    1    1
 -5  SYY         1    4    2    2
 -5  SZZ         1    4    3    3
 -5  SXY         1    4    1    2
 -5  SYZ         1    4    2    3
 -5  SZX         1    4    3    1
 -1         1 0.00000E+00 0.00000E+00 0.00000E+00 0.00000E+00 0.00000E+00 0.00000E+00
 -1         2 0.00000E+00 0.00000E+00 0.00000E+00 0.00000E+00 0.00000E+00 0.00000E+00
 -1         3 0.00000E+00 0.00000E+00 0.00000E+00 0.00000E+00 0.00000E+00 0.00000E+00
 -1         4-3.96516E-02-1.91060E-02 2.91601E-02-4.08014E-02 1.51849E-02 1.15596E-02
 -1         5 2.14081E-03-5.17180E-03-3.36069E-02-3.52182E-02 2.02327E-02 4.21300E-02
 -1         6-4.84521E-02-4.49898E-02-1.46470E-03-2.10649E-02 2.53084E-02 4.39668E-02
 -1         7 0.00000E+00 0.00000E+00 0.00000E+00 0.00000E+00 0.00000E+00 0.00000E+00
 -1         8 0.00000E+00 0.00000E+00 0.00000E+00 0.00000E+00 0.00000E+00 0.00000E+00
 -1         9 0.00000E+00 0.00000E+00 0.00000E+00 0.00000E+00 0.00000E+00 0.00000E+00
 -1        10 2.93627E-01-1.53581E-02-1.16781E-02 4.80453E-03-3.69715E-02 1.00696E-01
 -1        11 4.35499E-01-3.48552E-02-4.48814E-02 5.04910E-02-2.81178E-02 6.06522E-02
 -1        12 4.08909E-01 9.48036E-03-4.53945E-02 5.72399E-02-4.19987E-02 6.78121E-02
 -1        13-2.14135E+00-6.27067E-02 2.21100E-01-1.23625E-01-1.59711E-01-1.40607E-01
 -1        14-1.55337E+00-6.52202E-02 4.66051E-01-2.25091E-02-9.45196E-02-1.66783E-01
 -1        15-1.34521E+00 5.16775E-02 6.97987E-01-5.11958E-03 5.18997E-03-1.59199E-01
 -1        16-1.12207E+00 1.29585E-02 1.28333E-01-8.34450E-02-1.27118E-01-7.99298E-02
 -1        17-9.44989E-01-1.97847E-02 1.76283E-01-4.77512E-02-7.77878E-02-2.77120E-02
 -1        18-4.39498E-01 2.94586E-01 5.17433E-01 8.27215E-02 1.23670E-02-4.02171E-02
 -1        19-1.57643E-01 1.13218E-01 6.02303E-02 1.57965E-02-6.42379E-02-7.72207E-04
 -1        20-2.28247E-01 6.42380E-02-5.00086E-03 4.35210E-02-1.76455E-02 1.16694E-02
 -1        21-2.08989E-01 3.84332E-02 5.26681E-02 8.93716E-02-3.70088E-02 6.48033E-02
 -1        22 3.79343E-02 1.70235E-02 1.09339E-02-3.14308E-02 1.93674E-02 4.62825E-02
 -1        23-7.12474E-02-3.04736E-02 3.17666E-03-2.69695E-02 1.79979E-02 3.21498E-02
 -1        24-3.96203E-01-1.89228E-01-4.88119E-02-1.82389E-02 4.76502E-02-7.00100E-03
 -1        25 5.87007E-01-2.12250E-01-5.78853E-01 1.77967E-01 1.05826E-01-5.23476E-02
 -1        26 1.53107E+00 1.81345E-01-2.00923E-02 9.22540E-02 2.29097E-02-3.56215E-02
 -1        27 8.19577E-01 4.10856E-02-4.11570E-01 4.17167E-02 1.74687E-01-9.00854E-02
 -1        28 1.25358E-01 4.24114E-02-5.27971E-01-6.66366E-02 8.55911E-02 1.58151E-02
 -1        29 7.09649E-01 1.87940E-01-3.37838E-02 1.35289E-02 1.00545E-01-3.11269E-02
 -1        30 5.87919E-01 1.33670E-01-6.29192E-02-6.57701E-02 1.58044E-01-4.49236E-02
 -1        31 6.98201E-02-3.61270E-01-2.79118E-01 1.53659E-02 1.01344E-01 1.21385E-02
 -1        32 2.24905E-01-6.51616E-02-1.18510E-02-2.50430E-02 5.85430E-02-1.31737E-02
 -1        33 2.46591E-01-9.19379E-02-3.79841E-02 9.15994E-03 6.36840E-02 1.70368E-02
 -1        34 2.19966E-01-2.20892E-02 9.44309E-03-7.64100E-02 7.23875E-02-5.48060E-02
 -1        35-8.93800E-05-6.45873E-02-7.59349E-02-8.70657E-03-1.98919E-02-8.50458E-02
 -1        36 6.10243E-02 1.37618E-03-3.05274E-02 1.48850E-02-1.38380E-02-4.16807E-02
 -1        37-4.55281E-02-7.07188E-03-1.64534E-02 9.74675E-03-6.02412E-03-4.69491E-02
 -1        38 4.42395E-02 9.18598E-02 6.46486E-02 4.55261E-02-5.99516E-02-2.00127E-03
 -1        39 0.00000E+00 0.00000E+00 0.00000E+00 0.00000E+00 0.00000E+00 0.00000E+00
 -1        40 0.00000E+00 0.00000E+00 0.00000E+00 0.00000E+00 0.00000E+00 0.00000E+00
 -1        41 0.00000E+00 0.00000E+00 0.00000E+00 0.00000E+00 0.00000E+00 0.00000E+00
 -1        42-1.24164E+00-1.51860E-02-9.23740E-02-1.26388E-01-1.06332E-01 2.12626E-01
 -1        43-1.71260E-02 2.12583E-01-1.34431E-05-1.80202E-02-7.02690E-02-3.84359E-02
 -1        44 4.00506E-02-8.05867E-02-9.85352E-02-4.34432E-02 7.82751E-02-1.17451E-02
 -1        45 5.81565E-01 4.30044E-02-3.63057E-02 8.76585E-03 1.42112E-03 2.25873E-03
 -1        46 1.99797E-01-1.50455E-02-7.18959E-02-9.29925E-03 4.28580E-02 1.49804E-02
 -1        47 7.64995E-03-1.68408E-01-1.88827E-01 3.72465E-02 6.85935E-02 4.18999E-02
 -1        48 6.17662E-01-1.11659E-01-3.86859E-02 2.18598E-02 1.63395E-02 3.66186E-02
 -1        49 4.46550E-01-5.76402E-02-2.75331E-01-1.51092E-02 1.11139E-01 6.33097E-02
 -1        50 8.40131E-01 4.96637E-02-1.42427E-01 1.12010E-01 8.47586E-02-3.34903E-02
 -1        51 6.75988E-01 1.47192E-01-1.04900E-01-9.28365E-02 1.28600E-01 4.19292E-02
 -1        52 1.18705E+00-1.53488E-01-5.36190E-02-1.34994E-02 9.96210E-03 9.35863E-04
 -1        53 2.25285E+00 2.21284E-02-4.59185E-02-3.51617E-01 1.69392E-01-6.39500E-02
 -1        54 1.19329E+00 3.07244E-01-2.04904E-01-6.92972E-02 2.92530E-01-7.21238E-02
 -1        55 1.21373E+00 2.71795E-01-1.56985E-01-5.46325E-02 3.02418E-01-6.92782E-02
 -1        56 1.60827E+00-1.96645E-01-1.40957E-01 4.98166E-03 5.17674E-02-1.97215E-01
 -1        57 2.21950E+00-8.05241E-02-1.87807E-01-4.45302E-02-4.07814E-02 5.39429E-03
 -1        58 1.08598E+00-2.46184E-02 4.03525E-02 8.87023E-02 1.07498E-03 3.21227E-02
 -1        59 1.26303E+00-2.03147E-03-1.69166E-01-1.46738E-01 9.46416E-02 6.04916E-02
 -1        60-6.57893E-02-7.75833E-02-7.18715E-02 3.69410E-03 2.59189E-03-1.03572E-01
 -1        61-3.00658E-02 1.92457E-03 2.28344E-02-2.62896E-02-1.92629E-02-1.95339E-02
 -1        62-3.14750E-01 1.63634E-02 1.19228E-01 2.37798E-02-6.74722E-02-5.08511E-02
 -1        63-4.94982E-01-1.39959E-02 2.82427E-02-4.52966E-02-2.48466E-02 2.88623E-02
 -1        64-3.51957E-01-2.29273E-02 7.57552E-02 6.26084E-02-6.43777E-02-2.99195E-02
 -1        65-9.43432E-01 1.12592E-01-6.85087E-03 1.09974E-02-2.52534E-02-7.26248E-02
 -1        66-3.43879E-01-9.27876E-02 2.97121E-01-1.21785E-01-7.01030E-02-2.37660E-02
 -1        67-6.04101E-01-1.40369E-01 1.33440E-01-2.48482E-01-1.30327E-01-5.38309E-02
 -1        68-1.13701E+00-3.84329E-02-1.93180E-02 4.79253E-02-1.13531E-01 7.73994E-02
 -1        69-1.08086E+00 1.16214E-01 7.43179E-02 1.25146E-01-1.32801E-01 1.24660E-01
 -1        70-8.97450E-01 4.61508E-01 2.56861E-01 1.51043E-02-3.05937E-01-2.97241E-02
 -1        71-1.35359E+00 2.53853E-01 2.81663E-01 9.31594E-02-8.12269E-02 1.77461E-01
 -1        72-1.73227E+00 1.44363E-01 2.57222E-02 1.18655E-01-1.63183E-02 3.86621E-01
 -1        73-1.14916E+00 1.01752E-01 3.85470E-01-4.22144E-03-1.73329E-01 4.25036E-02
 -1        74-1.01616E+00-2.46697E-02 5.15870E-01 6.44367E-02-5.19954E-02-3.82608E-02
 -1        75-2.28945E+00-8.21315E-03 1.52555E-01 1.48259E-01-7.78832E-02-1.94723E-01
 -1        76 0.00000E+00 0.00000E+00 0.00000E+00 0.00000E+00 0.00000E+00 0.00000E+00
 -1        77-2.72942E+00 1.15735E-02 1.80815E-01-1.25093E-01-1.25343E-02-2.92637E-01
 -1        78-2.82659E+00-4.20029E-01-6.19395E-02-1.14893E-01-2.22970E-01-1.91737E-01
 -1        79 1.39447E-01-1.01795E-03 3.05976E-04-1.97832E-02 9.42938E-05 3.55711E-02
 -1        80 1.50321E-01 4.48409E-02-2.77417E-02 5.73789E-03-4.53574E-02 5.44027E-02
 -1        81 1.88473E+00 2.35012E-01 1.07185E-01-7.58825E-02 2.91267E-01-2.26643E-01
 -1        82 9.05495E-01 4.71472E-02 1.95470E-02-1.87121E-02 1.89992E-01 3.68598E-02
 -1        83-3.62178E+00-5.11951E-01-2.05831E-01 2.73980E-02 9.52315E-03-5.91575E-02
 -1        84 0.00000E+00 0.00000E+00 0.00000E+00 0.00000E+00 0.00000E+00 0.00000E+00
 -1        85 0.00000E+00 0.00000E+00 0.00000E+00 0.00000E+00 0.00000E+00 0.00000E+00
 -1        86 0.00000E+00 0.00000E+00 0.00000E+00 0.00000E+00 0.00000E+00 0.00000E+00
 -1        87-2.64997E+00 9.28463E-02 1.00066E-01-1.05450E-01-1.23782E-01-1.75004E-01
 -1        88-3.69348E+00 3.80410E-01 3.44261E-01 3.19323E-01 5.79803E-02-2.15347E-01
 -1        89-2.12712E+00-5.64503E-02 4.65139E-02 5.84399E-02-3.90654E-02 1.38570E-01
 -1        90-1.33784E+00 1.31666E-01 3.27959E-01 1.21281E-01-5.78991E-03-1.03022E-01
 -1        91-1.45963E+00 1.25599E-01-1.65424E-01 3.13225E-01 7.42847E-02-2.05079E-01
 -1        92 2.34242E-02 2.86773E-01 1.16743E-01 1.17085E-01-1.24494E-01 4.80209E-02
 -1        93-6.43618E-01 1.03954E-01 4.13406E-02 5.27932E-02-1.21623E-02 3.15354E-03
 -1        94 5.70517E-01 4.45646E-02 1.06847E-02-5.81435E-03 2.31682E-02 4.73711E-03
 -1        95 2.56794E+00 1.62272E-01 1.77251E-01-3.18422E-02-2.91928E-03-6.80963E-02
 -1        96 1.56848E+00 7.70049E-02 6.47118E-02 1.08937E-01 8.90545E-03-1.45874E-03
 -1        97 1.16136E+00 1.56336E-01 1.07447E-01-1.08010E-01 6.17732E-02-4.48540E-02
 -1        98 1.31403E+00-1.65177E-01-5.12280E-02-8.53909E-02 8.94117E-03-2.30284E-01
 -1        99 1.87683E+00-7.37251E-02-7.19696E-02 4.53593E-02 1.28161E-01-5.51728E-02
 -1       100 3.55430E+00 3.41345E-01 2.97069E-01 9.94222E-02-1.57696E-02-1.71736E-01
 -1       101 3.61643E+00 5.04352E-02 4.82390E-02 2.65096E-01-2.11905E-02 2.01931E-01
 -1       102 2.34230E+00 1.68206E-01 1.72922E-01-2.04329E-02 1.17160E-01-3.37397E-02
 -1       103 7.80940E-01-5.44122E-02-1.03430E-01-6.37945E-02 7.81171E-03-4.67093E-03
 -1       104-6.89338E-01 8.10605E-02 4.79684E-02 4.59673E-03-4.74361E-02-7.15572E-03
 -1       105-1.79672E+00-1.28053E-01-4.36956E-03-1.14636E-01-3.57659E-02 8.38196E-02
 -1       106-2.34659E+00-2.82162E-01-5.84503E-01 1.00650E-01-1.35011E-01 4.02221E-01
 -1       107-2.02127E+00 1.71705E-01-5.33603E-02-2.12582E-01-8.66331E-02-1.51636E-01
 -1       108-2.41950E+00-2.75937E-01-5.39305E-02-1.95464E-02-1.09808E-01 1.01938E-01
 -1       109-3.31409E+00 3.25382E-01 1.47157E-01-2.84654E-01 1.16855E-02-4.28182E-01
 -1       110 0.00000E+00 0.00000E+00 0.00000E+00 0.00000E+00 0.00000E+00 0.00000E+00
 -1       111-1.61026E+00-1.17023E-01-1.64195E-01-1.22989E-01-9.23009E-02-2.13502E-01
 -1       112-4.53473E-01-8.66010E-03-2.55089E-03 4.75332E-02-7.24170E-02 4.91499E-02
 -1       113-9.30201E-01-1.26265E-02 5.99137E-02 7.61964E-02 6.40103E-03-2.03000E-02
 -1       114-6.94256E-02 1.21098E-02 2.26208E-02 1.66592E-02-8.56856E-03 6.76507E-02
 -1       115 7.40358E-02 5.03753E-02 1.44528E-01 1.20995E-02-6.68069E-03 2.69805E-02
 -1       116 2.55189E+00-1.44716E-01 4.52452E-02-1.65714E-01-4.82366E-02-2.36985E-01
 -1       117 4.50086E-01 1.50611E-02 5.32679E-02-3.03569E-02 4.07414E-02-9.56097E-03
 -1       118 7.91280E-01 1.47644E-02 2.56707E-02-2.92144E-03 2.78578E-02-1.54245E-03
 -1       119-1.44148E-03-6.06681E-02-7.81459E-02-1.51810E-02 4.48691E-03-6.48130E-02
 -1       120-1.18655E+00 4.81638E-01 4.38213E-02-2.22069E-01-8.60822E-03 5.18700E-02
 -1       121-1.99729E+00-4.32264E-03-8.00761E-02-2.49733E-01-2.27152E-03 5.15482E-02
 -1       122 0.00000E+00 0.00000E+00 0.00000E+00 0.00000E+00 0.00000E+00 0.00000E+00
 -1       123 0.00000E+00 0.00000E+00 0.00000E+00 0.00000E+00 0.00000E+00 0.00000E+00
 -1       124 0.00000E+00 0.00000E+00 0.00000E+00 0.00000E+00 0.00000E+00 0.00000E+00
 -1       125-3.22228E+00-2.52780E-01 4.31763E-01-3.50844E-01-1.36788E-01 5.87693E-02
 -1       126-2.45036E+00-4.59835E-01 8.96600E-02 1.04019E-01-2.03148E-02-2.67877E-02
 -1       127-3.05943E+00-3.84192E-01-7.49980E-02-1.58073E-01-4.48005E-02-1.18025E-01
 -1       128-3.21860E+00-3.69534E-01 1.76260E-02-2.65725E-01-1.19277E-01-1.33773E-01
 -1       129-1.38426E+00-5.21198E-02 1.98464E-01-1.44781E-01-6.79915E-03-4.79842E-02
 -1       130-1.23110E+00-3.72154E-01 1.09216E-02-9.48340E-02 1.14660E-02-1.68013E-02
 -1       131-1.94738E+00-2.47951E-01-2.16416E-01-1.93091E-01 7.09626E-03-1.14303E-01
 -1       132-1.58435E+00 7.55858E-02-8.55767E-02-1.96510E-02-3.15721E-02 2.41748E-02
 -1       133-9.86759E-01-1.21702E-02-2.63004E-02-5.25399E-02 2.56865E-02-6.61592E-02
 -1       134-9.72226E-01-1.22708E-01-9.22647E-02-1.18141E-02 3.59807E-02-2.04378E-02
 -1       135-1.18280E+00-7.17576E-02-8.94334E-02-3.57779E-02 5.55212E-03-1.62996E-01
 -1       136-1.34964E-01 6.57155E-03-1.38458E-02 2.33411E-02-4.11438E-02 4.33406E-02
 -1       137-7.73815E-02 1.78432E-02 8.14170E-04 8.26050E-03-5.72300E-04 5.74647E-03
 -1       138-9.60342E-02-4.30254E-02-7.18605E-03 3.55149E-02-1.95342E-02 5.91635E-03
 -1       139 7.42672E-01-2.89134E-02-1.11535E-02 2.50786E-02-2.98550E-02 2.53354E-02
 -1       140 4.26409E-01 1.24853E-02-1.22166E-02 3.05584E-02 4.23157E-02-3.40146E-02
 -1       141 6.11737E-01-2.13771E-01-1.99762E-01-1.80510E-02 3.45116E-02 5.79606E-03
 -1       142 5.81836E-01-3.71671E-02-9.04360E-02 3.36116E-02 5.85654E-02-5.05746E-02
 -1       143 1.54184E+00 2.82962E-01 4.73484E-04 7.90334E-02 2.18828E-02 8.53245E-02
 -1       144 1.37109E+00 6.21035E-02-2.07012E-01 4.80185E-02 1.06501E-02 2.57959E-02
 -1       145 1.85605E+00 2.61580E-01-3.79743E-02-8.95184E-02 4.03632E-02-8.90762E-03
 -1       146 3.30719E+00 5.77005E-01 2.07601E-01 1.46798E-01 8.68844E-02-5.03220E-02
 -1       147 2.86739E+00 2.68533E-01-2.53617E-01-7.26383E-02-3.52671E-02-5.62395E-02
 -1       148 3.41997E+00-3.73915E-02-4.03660E-01-9.55654E-01 2.13882E-01 2.44226E-01
 -1       149 3.14284E+00 1.21047E-01 1.24403E-01 4.29461E-01 6.69851E-02-2.43840E-01
 -1       150 2.13602E+00 6.07055E-01 8.75893E-02-4.55370E-02 1.43639E-02 6.27108E-02
 -1       151 2.84174E+00 5.79816E-01 3.27922E-01 2.06825E-01 1.29853E-01 1.49164E-01
 -1       152 2.27444E+00 1.37708E-01-4.82993E-02-2.89076E-01 1.66533E-01 1.29023E-01
 -1       153 1.46352E+00 7.30131E-02-3.37289E-02 3.76933E-02-3.81184E-02 7.07733E-02
 -1       154 9.72904E-01 1.43273E-01-2.40119E-02 3.74586E-02-4.03792E-02 3.27855E-02
 -1       155 2.69964E+00 2.86399E-01 6.02652E-02 3.70130E-01 1.46908E-01-3.05576E-02
 -1       156 1.71128E+00 1.19974E-01 2.80927E-01-1.18150E-01-8.19442E-02 1.04429E-02
 -1       157 9.22652E-01 8.18552E-02-2.25180E-02 1.19661E-01 3.89917E-02 6.37333E-02
 -1       158 4.27266E-01 7.56922E-02 3.55398E-02 3.60591E-02 3.15417E-02-2.54121E-02
 -1       159 8.34697E-01 9.18501E-02 1.03147E-01 3.18960E-02 4.81169E-02-2.67669E-02
 -1       160 4.26268E-02 6.35725E-02 2.34659E-02 1.33084E-02-1.03116E-02 2.82779E-02
 -1       161-5.05425E-02 1.44551E-02-3.00515E-02-2.90543E-02 1.72706E-02 8.30780E-02
 -1       162-8.37486E-02 2.47705E-02 1.14452E-01-1.49143E-02-3.35694E-02 1.35820E-01
 -1       163-1.77726E-01 4.07420E-04-7.88149E-03-3.98444E-02-1.31070E-02 5.32997E-02
 -1       164-7.02137E-01 1.29543E-01 7.07637E-02 5.46109E-02-2.89141E-02-2.41728E-02
 -1       165-7.40925E-01-2.23324E-03 1.27695E-01-4.47775E-02 8.31465E-03-3.99541E-03
 -1       166-9.38016E-01 2.50825E-01 1.89189E-01 1.59383E-01-4.85297E-02-5.07363E-03
 -1       167-2.16861E+00-3.45956E-01-1.55172E-01-1.59684E-01 2.15345E-03 9.95070E-02
 -1       168-1.29226E+00-3.84593E-01 1.07417E-01 7.91548E-02 4.60583E-02 8.12258E-02
 -1       169-2.51090E+00-5.51670E-02 6.94961E-02 3.19242E-01-1.56069E-01-5.59864E-02
 -1       170-1.62828E+00-5.58106E-02 2.00895E-01 1.05374E-02 2.13782E-02 4.22209E-02
 -1       171 0.00000E+00 0.00000E+00 0.00000E+00 0.00000E+00 0.00000E+00 0.00000E+00
 -1       172 0.00000E+00 0.00000E+00 0.00000E+00 0.00000E+00 0.00000E+00 0.00000E+00
 -1       173-2.61040E+00-2.57750E-01 8.76099E-02 2.51067E-01-4.45464E-02-8.24394E-02
 -1       174-1.32103E+00-2.87623E-01 9.64842E-02-5.81511E-02-1.10591E-02-6.20435E-02
 -1       175-1.45182E+00-2.07269E-02 1.56865E-01-1.90620E-02-3.01623E-02 1.26420E-02
 -1       176-7.13775E-01-6.06976E-02-7.97535E-03-3.41732E-02-9.57672E-03-2.30858E-02
 -1       177-6.32734E-01 9.40351E-02 3.82566E-02-3.56632E-02-6.83969E-03-3.42794E-02
 -1       178-7.42424E-01-1.57688E-02 2.57504E-02 3.10785E-03-1.84808E-02 5.09928E-02
 -1       179-3.89563E-02 1.04915E-01-2.59000E-02 1.35679E-02-1.98719E-02 5.61607E-02
 -1       180-6.37755E-02-1.87581E-02-1.33352E-02 3.48702E-03-1.67873E-03 6.82048E-03
 -1       181-1.24921E-01-1.02366E-01-1.16495E-02 2.49508E-02-6.59143E-03 2.05576E-02
 -1       182 5.46104E-01 1.02529E-01 8.07087E-02 4.31729E-02 7.24681E-03 3.89954E-02
 -1       183 1.06244E+00 2.77864E-01-1.18396E-01 1.21311E-01 1.93201E-02 1.42129E-02
 -1       184 2.65309E+00 4.59596E-01 8.17609E-02 1.09726E-01-4.66564E-02 4.95744E-02
 -1       185 2.70585E+00-6.22083E-02-2.01016E-01 2.07021E-01 4.22599E-02-1.11377E-01
 -1       186 2.43684E+00 6.38528E-01 1.79481E-02-8.88198E-02 2.97565E-02-7.71830E-02
 -1       187 2.37157E+00 3.08579E-01-1.73718E-02-6.52711E-02 6.14617E-02 7.18006E-02
 -1       188 1.03173E+00 6.85711E-02-1.57228E-01-5.21434E-02 5.59876E-02 1.44121E-02
 -1       189 1.33440E+00 6.25217E-02-6.20955E-02 7.48528E-03-7.68641E-03-9.16606E-02
 -1       190 6.17002E-01-2.42545E-01-6.46080E-02 7.76723E-02-1.16969E-01-1.06378E-01
 -1       191 5.26870E-01 6.10379E-02-1.30005E-01 6.07616E-02 3.27038E-03 5.88472E-02
 -1       192 6.19645E-01 3.98786E-02 3.10896E-03-2.23080E-02 5.95259E-02-7.40774E-02
 -1       193-2.41826E-02-2.42974E-02-2.25081E-02-8.15466E-03 1.18437E-02 1.17775E-02
 -1       194-6.50551E-01-1.81278E-01 1.56769E-02-2.30735E-02 1.10702E-02-3.94064E-02
 -1       195-8.57028E-01-1.55197E-01-4.98425E-02-8.24934E-02-4.05695E-02-5.99590E-02
 -1       196-1.43403E+00-1.08947E-01-8.19607E-03-2.56128E-01 1.29964E-01-2.71215E-01
 -1       197-1.71131E+00-1.31832E-01 4.70697E-02-1.37218E-01 5.76795E-02-2.12620E-02
 -1       198-2.83042E+00-2.33948E-01 2.69769E-01-2.03099E-01 1.08866E-01-2.28994E-02
 -1       199-3.27416E+00 1.86300E-01 1.84841E-01-5.01433E-01 5.45153E-02 2.12709E-01
 -1       200-2.53916E+00-3.93619E-01 1.25559E-01 6.33189E-02-7.24595E-02 1.39759E-01
 -1       201-3.75975E+00-4.89256E-01-2.66655E-02-3.07554E-01 3.37597E-02-2.49972E-02
 -1       202-2.70010E+00-6.55131E-01 1.94978E-01 1.44832E-02-1.09581E-01-1.06496E-02
 -1       203-3.43851E+00-6.44209E-01 7.75165E-02-2.54408E-02 3.97980E-02-1.96578E-03
 -1       204 0.00000E+00 0.00000E+00 0.00000E+00 0.00000E+00 0.00000E+00 0.00000E+00
 -1       205 0.00000E+00 0.00000E+00 0.00000E+00 0.00000E+00 0.00000E+00 0.00000E+00
 -1       206 0.00000E+00 0.00000E+00 0.00000E+00 0.00000E+00 0.00000E+00 0.00000E+00
 -1       207-3.45561E+00 2.15389E-02 3.29078E-01 4.87367E-02 3.74346E-02 4.30473E-01
 -1       208-2.74090E+00-2.76221E-01 6.97875E-02-2.47449E-01 1.15683E-02 1.48647E-02
 -1       209-1.44197E+00-3.03768E-01-4.71846E-02-6.85525E-02 5.29111E-03 4.36913E-02
 -1       210-6.89570E-01 3.98205E-01 2.75904E-01 7.47684E-02-7.82681E-02 7.28534E-02
 -1       211-2.45660E-01-1.62601E-01-4.53298E-02-2.55127E-02 3.86193E-03 8.57214E-02
 -1       212 2.15849E+00 1.29641E-01-2.32549E-01-8.75430E-02 4.02053E-04 3.81896E-02
 -1       213 2.35929E+00 5.96222E-02-8.80403E-02 1.32906E-01-4.51360E-02 6.55775E-03
 -1       214 1.45899E+00 2.43378E-01-3.21669E-03 7.58833E-02-4.91565E-02-9.11282E-02
 -1       215-8.26716E-01-2.24112E-01-3.37878E-02 1.53837E-02 1.62893E-02-6.91265E-02
 -1       216-1.80137E+00-2.60383E-01 1.34768E-01 1.88373E-01-3.48094E-02-2.29974E-02
 -1       217 0.00000E+00 0.00000E+00 0.00000E+00 0.00000E+00 0.00000E+00 0.00000E+00
 -1       218-2.59549E+00-2.52932E-01 1.45234E-01-9.91353E-02-5.56073E-02-8.31603E-02
 -1       219-2.46359E+00-2.70441E-01 6.72843E-02-1.47262E-01-1.17118E-01 1.51754E-02
 -1       220-1.62359E+00 6.12272E-01 2.15809E-01 1.04453E-01-2.95626E-02 2.13831E-01
 -1       221-1.96218E+00-2.49259E-01-6.42553E-02-1.63485E-01 8.75573E-02-2.98980E-02
 -1       222 7.95166E-02 2.05174E-01 6.55959E-03 6.74466E-03 4.52759E-03 3.45183E-02
 -1       223-1.25763E-01 7.69305E-02 3.68940E-02 8.76533E-03 6.06951E-02 5.34274E-02
 -1       224 1.72667E+00 2.73668E-01-5.79265E-03 2.17616E-01 2.15326E-02-3.71662E-02
 -1       225 3.25147E+00 2.59234E-01-6.41249E-02 1.55391E-01-1.11078E-01-1.50831E-01
 -1       226 2.41430E+00 1.43127E-01-4.78208E-03-8.17557E-02-6.84875E-03 6.08930E-02
 -1       227 1.07031E+00-7.62816E-01-5.52387E-01-2.66551E-01 6.18310E-03-4.51026E-02
 -1       228-3.28247E-01-2.11371E-01-3.46151E-02-4.39601E-02 3.99052E-02-9.19098E-02
 -1       229-9.35686E-02-8.88144E-02-9.31080E-02-1.35831E-02 5.05536E-02 2.20935E-02
 -1       230-1.13359E+00-2.12610E-01-1.26377E-01-6.39887E-02 8.28832E-02 4.88754E-02
 -1       231-1.76431E+00-3.14809E-01 2.27213E-02 1.75009E-02-2.95094E-02 2.00908E-01
 -1       232-3.46296E+00-6.56150E-01 6.34876E-02-8.51030E-02 3.86914E-02-5.59347E-02
 -1       233 0.00000E+00 0.00000E+00 0.00000E+00 0.00000E+00 0.00000E+00 0.00000E+00
 -1       234 0.00000E+00 0.00000E+00 0.00000E+00 0.00000E+00 0.00000E+00 0.00000E+00
 -1       235 0.00000E+00 0.00000E+00 0.00000E+00 0.00000E+00 0.00000E+00 0.00000E+00
 -1       236 0.00000E+00 0.00000E+00 0.00000E+00 0.00000E+00 0.00000E+00 0.00000E+00
 -1       237 0.00000E+00 0.00000E+00 0.00000E+00 0.00000E+00 0.00000E+00 0.00000E+00
 -1       238-1.73925E+00 5.35572E-03 1.32637E-01 3.69381E-02-2.46222E-02-4.56574E-02
 -1       239-1.04464E+00 1.07815E-02 1.38477E-01 1.57421E-01 3.22067E-02-4.14978E-03
 -1       240-8.11664E-01-2.74493E-02-3.36398E-02-4.10642E-03-4.93054E-02 2.91119E-02
 -1       241-8.38272E-01-7.10307E-02 1.09940E-03-7.46590E-03-5.57537E-03 4.63885E-02
 -1       242-1.29886E-01 1.05388E-02 3.00297E-03 6.99020E-03 5.20213E-02 6.59892E-03
 -1       243-1.02913E-01-3.32699E-02-1.79322E-02-8.71510E-03 8.82958E-03-3.51745E-03
 -1       244 7.82590E-01 4.25810E-02 2.50487E-02-7.76642E-02-2.70179E-02-2.80987E-02
 -1       245 7.28198E-01 1.04915E-01 4.27908E-02-4.26980E-02 1.39784E-02 4.43165E-03
 -1       246 4.41315E-01-6.44775E-02-5.37347E-02 3.54324E-02 2.45203E-02-3.12522E-02
 -1       247 8.43289E-01-1.23460E-01-5.05705E-02 1.52287E-01-7.45701E-03 2.61017E-02
 -1       248 2.57079E+00 1.11588E-01 1.43819E-01-3.43813E-01-1.23851E-02-3.48771E-03
 -1       249 2.38674E+00 2.82600E-01 6.71565E-02 2.47469E-01-1.03569E-01 1.13811E-03
 -1       250 2.27557E+00-1.65880E-01-1.00823E-01 5.05965E-01 3.53914E-02 2.14087E-01
 -1       251 2.45234E+00-2.52801E-01-4.79892E-01-3.41060E-01-9.72489E-02-2.85267E-01
 -1       252 3.31188E+00 1.91231E-01 1.31937E-01-2.60843E-01-1.02095E-02-3.19295E-01
 -1       253 2.56741E+00 5.69688E-01 4.31504E-02-2.14130E-01-1.62537E-02-1.65347E-01
 -1       254 3.75583E+00 4.79808E-01 1.11853E-01 7.57348E-02-1.50272E-01-2.00034E-01
 -1       255 1.55885E+00-1.56577E-01-4.19878E-01-2.40544E-01-6.52571E-02-9.17469E-02
 -1       256 1.49728E+00 5.13427E-01 1.20206E-01 1.01747E-01 1.88343E-02-7.63540E-02
 -1       257 7.44504E-01 6.38876E-02-9.46129E-02-1.98807E-02-1.76755E-03 7.62554E-02
 -1       258 6.95022E-01 8.52519E-02 7.06555E-02 3.78691E-02 1.37334E-02 2.39688E-02
 -1       259 8.19639E-01 1.18825E-01 2.50909E-02 8.88209E-02-1.65509E-02-5.09312E-02
 -1       260-1.97633E-02 8.98908E-02 9.86763E-02-4.22895E-02 1.76105E-02 4.18722E-03
 -1       261-1.39888E-01-2.21904E-02-1.06167E-02-5.51539E-02 3.41155E-02 4.49791E-02
 -1       262-1.17368E+00-2.31487E-01-8.30524E-02-4.79510E-03 3.54092E-02 1.19604E-02
 -1       263-1.27757E+00 8.93922E-02 7.41808E-02-2.10207E-01 8.30062E-02-1.14360E-01
 -1       264-2.64443E+00-4.96845E-01-2.28580E-01 8.42115E-02 5.68452E-02 1.77124E-01
 -1       265-2.14235E+00 2.63200E-01 1.66807E-01-4.25725E-01 1.14525E-01-2.45901E-01
 -1       266-3.59841E+00-7.21981E-01 3.83420E-02-2.78958E-02 5.02917E-02 2.59189E-03
 -1       267 0.00000E+00 0.00000E+00 0.00000E+00 0.00000E+00 0.00000E+00 0.00000E+00
 -1       268-3.57943E+00-1.41396E-01 3.60492E-01 3.45246E-01 1.78417E-01 7.66120E-02
 -1       269-3.03792E+00-5.53525E-01-1.86661E-01 1.69060E-01 1.91205E-01-7.22639E-02
 -1       270 6.87407E-01 5.34890E-02 5.84829E-02 5.85009E-02-3.74511E-02 3.26648E-03
 -1       271 2.76644E+00-1.64534E-01-2.30954E-01-4.29647E-01-4.77374E-02-2.78151E-02
 -1       272 2.30030E+00 4.56481E-01-9.08839E-02-1.91783E-02-5.48653E-02 5.17341E-02
 -1       273-3.59662E+00-3.63237E-01 6.95388E-02 3.23532E-01 1.36280E-01 1.75527E-01
 -1       274 0.00000E+00 0.00000E+00 0.00000E+00 0.00000E+00 0.00000E+00 0.00000E+00
 -1       275 0.00000E+00 0.00000E+00 0.00000E+00 0.00000E+00 0.00000E+00 0.00000E+00
 -1       276-1.12304E+00-3.08282E-02-9.53868E-02 2.56450E-02 8.87575E-02-1.64779E-01
 -1       277-3.78979E-01-4.81769E-02 2.64269E-01-1.49440E-01 6.56004E-02 9.68757E-02
 -1       278-1.40952E+00-9.13408E-02-7.99531E-02-7.07199E-02 6.97062E-02-1.73593E-02
 -1       279-1.22722E+00-1.31329E-01 2.55060E-02-2.12447E-01-1.20499E-01-2.78701E-02
 -1       280-6.42888E-01 1.09758E-01 1.40705E-01-1.80958E-03 4.78298E-02 3.49721E-02
 -1       281-3.37836E-01-7.15144E-02 4.01658E-02 3.24841E-03 5.28876E-02 4.46735E-02
 -1       282-9.52597E-01-5.05875E-02-4.80554E-02-1.69234E-02 4.74658E-02 2.06670E-02
 -1       283 7.16826E-01 6.72413E-02 2.85311E-02 1.15829E-03-5.28207E-02 3.01357E-02
 -1       284 9.10044E-01-4.90126E-02 8.40595E-02-5.82284E-02-2.43470E-04 2.53758E-02
 -1       285 3.54995E+00 3.45374E-01 2.53234E-01 1.80537E-01 2.45624E-02-2.85750E-02
 -1       286 2.10032E+00-3.85292E-03-2.21680E-01 3.16085E-01-2.47856E-01-9.62486E-02
 -1       287 2.89261E+00-1.22379E-02-2.79456E-01 7.64705E-02-3.96828E-02 1.31868E-01
 -1       288 3.41582E-01-1.14312E-01-1.57228E-01-1.11606E-03-6.02673E-02-9.15972E-02
 -1       289 7.35497E-01-1.18738E-02-6.88765E-02 3.92721E-02-1.82211E-03-4.58760E-02
 -1       290 8.38459E-01-6.04603E-02 6.13216E-03 1.25523E-01 1.12183E-02-1.61144E-01
 -1       291-8.39759E-01-1.15806E-01-8.83330E-02-2.11540E-02 8.65261E-02-4.76751E-03
 -1       292-4.27420E-01 2.50620E-02 4.52528E-02-5.33862E-02 6.78749E-02-4.43676E-03
 -1       293-1.47127E+00-1.07245E-01 6.81085E-02 1.45489E-01-2.30138E-02 1.88619E-03
 -1       294-7.30294E-01 1.04303E-01 6.24294E-02-5.36718E-02 8.72871E-02 3.55999E-02
 -1       295-3.20078E+00 8.57311E-04 5.20668E-02-4.54812E-01 1.33928E-01 7.77176E-02
 -1       296-1.77033E+00 1.16287E-01 1.54725E-01-1.01289E-01 1.35334E-01 1.76438E-01
 -1       297-2.86366E+00-1.31576E-02 7.48793E-02 2.85642E-02 1.01339E-01 4.27970E-02
 -1       298-3.75045E+00 3.80976E-01 3.68554E-01 5.93528E-01-1.54935E-01-1.79153E-01
 -1       299-1.83935E+00-3.02679E-01 6.85205E-02 1.14876E-01 7.70556E-02-1.29312E-01
 -1       300-2.57113E+00-1.46974E-01 9.97885E-02-1.73217E-01 6.13101E-02-1.18607E-01
 -1       301-1.60191E+00-1.69766E-01 1.78579E-01 1.79152E-01 1.76008E-01 3.77792E-02
 -1       302-2.07805E+00 1.59655E-02 3.01268E-01-4.19332E-03 4.12950E-02-1.28518E-01
 -1       303-2.25591E+00-1.79335E-01-1.10440E-01-1.90470E-02-7.74640E-02 2.28973E-02
 -1       304-5.28345E-01 1.98448E-01 1.19717E-01-3.22384E-02 7.70478E-02-9.67577E-02
 -1       305-2.81106E-01 6.12508E-02-2.55052E-03 1.98441E-02 5.10284E-02 4.98151E-02
 -1       306-1.01424E+00-2.01198E-01-3.92461E-01-6.43696E-02 2.48705E-01 2.55166E-01
 -1       307-1.08985E+00 1.20194E-03 1.36485E-01-1.97127E-02-4.91221E-02-3.74803E-02
 -1       308 3.69580E-02 5.80198E-02 1.09180E-01 4.37879E-02-3.93224E-05-3.66112E-03
 -1       309 8.98802E-02 1.11848E-01 7.22120E-02 5.42221E-02 3.04615E-02 5.23320E-02
 -1       310-4.96887E-03-4.18255E-02 6.70975E-02 4.26822E-02 1.14447E-02-2.72386E-03
 -1       311 2.94451E-02-1.54500E-02 5.31541E-02 5.90717E-02 2.27242E-02-5.59704E-02
 -1       312-2.82450E-01-5.73522E-02 2.18703E-02 2.60077E-02-1.47236E-02-1.63267E-03
 -1       313 8.04166E-01 1.05376E-01-1.56399E-01-4.70365E-02-6.25624E-03-2.00264E-02
 -1       314 1.25372E+00-2.80271E-02-3.06028E-02-2.81512E-02-1.18870E-01-6.68239E-03
 -1       315 1.58005E+00 8.83389E-03-6.18127E-02-2.66835E-02-3.03879E-02-6.96275E-02
 -1       316 8.12493E-01-4.49016E-02-4.43691E-02-1.01649E-01-8.76287E-03 1.25207E-01
 -1       317 2.68588E+00 1.76941E-01 1.37986E-01-1.79733E-01 2.83910E-02 1.43779E-01
 -1       318 8.65029E-01-2.62212E-01-1.14486E-01-7.83442E-02-9.71950E-02-4.22520E-02
 -1       319 1.62710E+00-2.29934E-01 2.58390E-02-1.23679E-01-1.72539E-01 3.35018E-02
 -1       320 3.08928E+00 1.50035E-01-1.07646E-01-1.22355E-02 6.38951E-03-1.95182E-01
 -1       321 1.82620E+00-1.19053E-02 2.52018E-02 1.88896E-02-8.63452E-02-4.43341E-01
 -1       322 1.38586E+00-1.70800E-01-3.57868E-02 7.46018E-02-1.22016E-01-3.71541E-01
 -1       323 2.38795E+00 2.23896E-01 8.34653E-02-1.20239E-01-1.01906E-01-3.44967E-03
 -1       324 3.35065E+00 3.98431E-01-1.53470E-01 4.41953E-01-2.63047E-01 3.43561E-01
 -1       325 2.42434E+00 2.10364E-01 9.61290E-02-5.68988E-02-1.42001E-01-8.31247E-02
 -1       326 3.32585E+00 2.13897E-01 1.42193E-01 7.12442E-02 1.09878E-01-2.02788E-01
 -1       327 1.32107E+00 3.73468E-02-3.06384E-01-1.39113E-01-2.17921E-01 4.91202E-02
 -1       328 9.61117E-01-1.20414E-02-4.40418E-01-5.19168E-02-1.80572E-01 2.04131E-03
 -1       329 2.25789E+00-9.04964E-02-1.30879E-01 2.89108E-02-2.70096E-02 2.56209E-02
 -1       330 1.24028E+00-2.99043E-02-3.00797E-02 3.90427E-02-8.03717E-02-3.41533E-02
 -1       331 1.58720E+00 5.79795E-02 1.16670E-01 2.51365E-02-5.46836E-02-6.64081E-02
 -1       332 2.28765E-01-4.27613E-01-3.89729E-01-4.89398E-02-8.33389E-02-9.22817E-02
 -1       333 1.59347E-01-2.80869E-01-3.00910E-01 8.28724E-02-1.29591E-01-9.14534E-02
 -1       334 8.09741E-01 5.93295E-02-9.70048E-02 2.12150E-01-1.08759E-01-6.54868E-02
 -1       335 3.07948E-01-1.21479E-02-9.80698E-02-1.89140E-02-1.48396E-02-2.58902E-02
 -1       336 6.35305E-01 3.32810E-02 2.12702E-02-5.72971E-02-7.53466E-03 5.77979E-02
 -1       337 8.95055E-02 5.82323E-02 4.11702E-03-2.93107E-02 5.74117E-02-5.22176E-02
 -1       338 3.52864E-02 2.53104E-02 3.12602E-02-5.39758E-03 4.77997E-03-7.80021E-03
 -1       339 8.56720E-02 5.81114E-02 1.20046E-03-3.93966E-02-1.34398E-03-2.43909E-02
 -1       340-6.92991E-02-6.32227E-02 5.02275E-03-3.90228E-02 4.58782E-03-2.12568E-02
 -1       341 7.98909E-02 2.73484E-02-8.09153E-02-8.81115E-02 3.33736E-02-6.79803E-02
 -1       342-8.33651E-01-7.18687E-02 1.34541E-01 3.72067E-02 1.33704E-02-1.41467E-02
 -1       343-5.50047E-01 6.77598E-02 2.20643E-02-5.01435E-02 1.51058E-01-2.70009E-02
 -1       344-9.05463E-01 2.41421E-01 1.48555E-01-2.43108E-02 1.93031E-02-2.92738E-02
 -1       345-5.84799E-01-6.83729E-02-5.55770E-03 1.45263E-01 7.40230E-02-5.64265E-02
 -1       346-5.54566E-01 2.20704E-01 5.60748E-02-1.85499E-01 1.66293E-02-1.24073E-01
 -1       347-1.37604E+00 9.88626E-02-2.82527E-02 1.58116E-01 2.48961E-02 3.93967E-02
 -1       348-2.25879E+00 1.25035E-01 9.71743E-02 4.25746E-02 5.62013E-02-1.51681E-01
 -1       349-5.55117E-01 1.77105E-01 1.82418E-01-1.05342E-01 1.24614E-01-4.70608E-03
 -1       350-8.95863E-01 6.32874E-01 2.72466E-01-9.00576E-02 7.77041E-02-1.34221E-01
 -1       351-2.86640E-01 5.88678E-01 3.99484E-01-2.50078E-01 2.97547E-01 2.78580E-01
 -1       352-1.18784E+00-4.27078E-02 6.03141E-02-1.76114E-01 1.56640E-01 2.15775E-01
 -1       353-2.74506E+00 5.09728E-02 1.48254E-01-3.14932E-01 1.10521E-01-4.08490E-02
 -1       354 0.00000E+00 0.00000E+00 0.00000E+00 0.00000E+00 0.00000E+00 0.00000E+00
 -1       355 0.00000E+00 0.00000E+00 0.00000E+00 0.00000E+00 0.00000E+00 0.00000E+00
 -1       356 0.00000E+00 0.00000E+00 0.00000E+00 0.00000E+00 0.00000E+00 0.00000E+00
 -1       357 0.00000E+00 0.00000E+00 0.00000E+00 0.00000E+00 0.00000E+00 0.00000E+00
 -1       358 2.62489E-01 6.70494E-02 6.06812E-03 7.15076E-02 5.53373E-02 1.13109E-02
 -1       359-2.50535E-02-3.74968E-04 5.75480E-02 2.60246E-02 1.65502E-02 7.60214E-02
 -1       360 1.92286E+00-1.06509E-01-4.83183E-01 2.86757E-01-1.07750E-01 1.66611E-01
 -1       361-1.01630E-01-7.02656E-02 4.69877E-02-1.15067E-03-1.62401E-02-3.34215E-02
 -1       362-5.31620E-04 7.49542E-03 1.77184E-02-1.70885E-02-6.84463E-03-4.26346E-02
 -1       363 0.00000E+00 0.00000E+00 0.00000E+00 0.00000E+00 0.00000E+00 0.00000E+00
 -1       364-1.34724E+00-1.06984E-01 3.57002E-01 3.80721E-02 1.42678E-01-4.92106E-02
 -1       365-1.47891E+00-1.33577E-01-2.53044E-01 7.63456E-02 7.40641E-02-6.76542E-02
 -1       366 8.02834E-03 2.80318E-01 5.69723E-01-1.78782E-01 3.63659E-02 7.50984E-02
 -1       367-5.35428E-02 9.66166E-02 3.27551E-01-1.96795E-02 4.06576E-02 6.48295E-02
 -1       368 2.99717E-02 1.02396E-01 2.07431E-01 1.57789E-03 2.82255E-02 5.24984E-02
 -1       369-2.51910E-02-1.82097E-02 6.19911E-02 2.11035E-02 1.80937E-02 3.87312E-02
 -1       370 8.42375E-01 2.12310E-01-6.76668E-02-7.40579E-02-4.10478E-02-4.16202E-02
 -1       371 4.08569E-01 2.05004E-02-3.75641E-02 3.22706E-02-2.97774E-02 8.49863E-02
 -1       372 1.06006E+00-1.76407E-02-2.61309E-01-3.26569E-02-6.13707E-02-5.01952E-02
 -1       373 7.17454E-01-1.10235E-01-2.09097E-01-5.79575E-02-6.08066E-02 5.72485E-02
 -1       374 1.47379E+00-8.94649E-02-1.99463E-01-1.71945E-01-8.73316E-02-7.38093E-02
 -1       375 1.62115E+00-6.00073E-02-2.78642E-01 1.71597E-01-1.14679E-01 5.29482E-04
 -1       376 8.55096E-01-1.42418E-01-5.73645E-01-1.53777E-01-8.49265E-02 2.33635E-01
 -1       377 1.06817E+00 5.65821E-02-4.18285E-01 1.45272E-01-8.51738E-02 7.22467E-02
 -1       378 9.76130E-01 3.70607E-02-1.86966E-01-1.12709E-02-3.73950E-02-1.79276E-01
 -1       379 4.40192E-01-4.13630E-02-2.32061E-01 5.57635E-02-3.60308E-02-1.17523E-01
 -1       380 4.52553E-01-7.87131E-03-6.72301E-02-4.74177E-02-9.22957E-02-1.02470E-01
 -1       381 7.41964E-02-1.35871E-01-2.82258E-01-2.67163E-02-3.46760E-02-5.79583E-02
 -1       382 1.61741E-02 1.54315E-02 1.86758E-04-8.55099E-03 1.29274E-02-3.04293E-02
 -1       383-3.36665E-01-3.90345E-02 7.15476E-02 4.66989E-02 5.71573E-02-8.15605E-02
 -1       384-2.07066E-01 2.64817E-03 1.66894E-01-8.11945E-02 3.50506E-02-5.11290E-02
 -1       385-5.98021E-01-4.43557E-02 3.30677E-02 1.12533E-01 9.80242E-02-5.64670E-02
 -1       386-5.48030E-01-1.38387E-01 1.81455E-01-1.77337E-01 1.93334E-01 2.88316E-01
 -1       387-1.05521E+00 2.09422E-01 3.82275E-01-2.75366E-01 7.87380E-02 1.08645E-01
 -1       388 0.00000E+00 0.00000E+00 0.00000E+00 0.00000E+00 0.00000E+00 0.00000E+00
 -1       389 8.18173E-01 1.40139E-02-3.32571E-01-4.73291E-02-5.60119E-02 1.74260E-01
 -1       390 0.00000E+00 0.00000E+00 0.00000E+00 0.00000E+00 0.00000E+00 0.00000E+00
 -1       391 1.32423E-01-3.56357E-02-1.02176E-01-2.04532E-03 5.02266E-02 1.15868E-02
 -1       392 0.00000E+00 0.00000E+00 0.00000E+00 0.00000E+00 0.00000E+00 0.00000E+00
 -1       393 0.00000E+00 0.00000E+00 0.00000E+00 0.00000E+00 0.00000E+00 0.00000E+00
 -1       394 0.00000E+00 0.00000E+00 0.00000E+00 0.00000E+00 0.00000E+00 0.00000E+00
 -1       395-2.09967E+00 2.97531E-01 5.87202E-01-1.31212E-01-2.05384E-02-8.60934E-02
 -1       396 5.13866E-01-1.89402E-01-2.13701E-01 2.77071E-02-7.03276E-02 6.74658E-02
 -1       397 1.04196E+00-2.69316E-01-4.22881E-01 4.01945E-02 1.15971E-01-1.79887E-01
 -1       398-3.81325E-02-2.11752E-02 2.52390E-02 5.40534E-03 3.10746E-02-1.28787E-01
 -1       399-8.51292E-01-8.66682E-02 5.81115E-02-3.31469E-01-1.22885E-01-3.60182E-02
 -1       400-2.55471E+00 2.34280E-01 4.88457E-01-8.52502E-02 2.68583E-03-1.50762E-01
 -1       401 0.00000E+00 0.00000E+00 0.00000E+00 0.00000E+00 0.00000E+00 0.00000E+00
 -1       402-2.17894E+00 1.84670E-01 2.83343E-01 1.34192E-01 2.33308E-02-2.92325E-01
 -1       403-3.92055E+00 1.68367E-01 7.69977E-02-3.06187E-01 3.35174E-01-8.06635E-01
 -1       404-2.46923E+00-1.45487E-01-1.36081E-01 1.10844E-01-2.25902E-01 4.29217E-01
 -1       405-2.14334E-01 2.12853E-01 3.97406E-02 3.66618E-02-9.43680E-02 2.07783E-02
 -1       406 8.92599E-01-2.07262E-01-2.70135E-01 3.91972E-01-6.48636E-03-5.36972E-03
 -1       407 4.16403E-01 7.90600E-03-3.32157E-01 5.33748E-02 4.23861E-02-3.68372E-02
 -1       408 1.79710E+00-8.25370E-02-8.32083E-03-3.10157E-02 3.57794E-02-3.67970E-01
 -1       409 1.23623E+00-3.03462E-01-7.96643E-01 1.86387E-01-3.47231E-02 1.22762E-01
 -1       410 1.61415E+00-5.21429E-01-8.39914E-01 4.16844E-01-3.53462E-01 4.43511E-01
 -1       411 6.64445E-01-2.63650E-01-3.02440E-01 7.52122E-02-1.49513E-02-9.34600E-02
 -1       412 1.68836E+00-3.04277E-01 7.06993E-02 3.58761E-02 7.73406E-02-2.33609E-01
 -1       413 5.12728E-01 2.34909E-01 1.53029E-01-1.55587E-02-2.05093E-01 9.22154E-02
 -1       414-5.39373E-01 9.01745E-02 7.61409E-02-4.23596E-02 7.25750E-03 5.77311E-04
 -1       415 0.00000E+00 0.00000E+00 0.00000E+00 0.00000E+00 0.00000E+00 0.00000E+00
 -1       416 0.00000E+00 0.00000E+00 0.00000E+00 0.00000E+00 0.00000E+00 0.00000E+00
 -1       417-4.52530E+00-5.84260E-02-2.22293E-01 3.08942E-01 1.49054E-01 2.14883E-01
 -1       418-4.64324E+00-2.35817E-01-3.79866E-01 4.05906E-01 9.74913E-02 4.77543E-01
 -1       419-6.20069E+00-1.34362E-01-4.49450E-01-4.66091E-01 5.89737E-02-8.29736E-01
 -1       420 8.14501E-01 4.14765E-01 1.20567E-01 8.92466E-02-5.80667E-03-1.00305E-02
 -1       421-7.36538E-01-1.93317E-01-8.66073E-02-9.45174E-02 1.94821E-01-9.74146E-02
 -1       422-4.82799E-01-1.98576E-01 1.94313E-01 1.84581E-02 1.22889E-01-2.35875E-02
 -1       423-8.02415E-01-4.41467E-01-2.20749E-01-1.67552E-01 1.47258E-01-5.65320E-01
 -1       424 1.80321E+00 3.21632E-01 1.40871E-01-1.68256E-01-8.57435E-02-5.97328E-01
 -1       425 2.35459E+00-3.36972E-02 3.23431E-01 3.73811E-02 1.46458E-01-5.56993E-01
 -1       426 1.63603E+00-3.74965E-01-1.13861E-01 2.33417E-01-4.78649E-02 2.43818E-01
 -1       427 2.85060E+00-4.78836E-02 5.11116E-02-7.33786E-02-1.30263E-01-3.60201E-01
 -1       428 2.71286E+00 7.82423E-02-7.64409E-02-1.85689E-01-3.62947E-02-6.32923E-01
 -1       429 4.15682E+00 6.67427E-02 1.42627E-01 6.51935E-02-8.99702E-03 7.45739E-01
 -1       430 2.77840E+00 7.60669E-02 1.49916E-01-1.08574E-01-7.76578E-03-5.20804E-01
 -1       431 3.39010E+00-2.55899E-01 3.20424E-02-4.29767E-01 2.03033E-01-6.58562E-01
 -1       432 3.87446E+00 1.91356E-01 1.02533E-01 4.49004E-01-9.79208E-02 6.47790E-01
 -1       433 1.44113E+00-2.47013E-01 1.00703E-01 4.55681E-02-9.00339E-02-3.48275E-01
 -1       434 2.68136E+00 4.25214E-02 3.54361E-01-6.47833E-02 9.26226E-02-2.47895E-01
 -1       435 4.08164E-01-2.23611E-01-3.04247E-02-1.77933E-02 1.61377E-01-8.08949E-02
 -1       436 1.47234E-01-5.60423E-01 2.18749E-02 1.26367E-01 2.58547E-01 2.42305E-01
 -1       437-1.01734E-01 1.97734E-02 1.20365E-01 3.31688E-02 4.59145E-02-4.25534E-02
 -1       438 2.67318E-01 2.06812E-01 9.01756E-03-7.03653E-02-7.42515E-02-1.02728E-02
 -1       439 2.47046E-01 9.18493E-02-3.48184E-01 8.49251E-02-1.67956E-01 4.29018E-01
 -1       440-1.34430E+00-1.07949E-01-1.10264E-01 7.91996E-02-3.47861E-03 1.38545E-01
 -1       441-3.92686E+00-4.27116E-01-3.98560E-01 2.37332E-01-3.14066E-01 9.32137E-03
 -1       442-3.01490E+00-1.01553E-01-2.06672E-01 1.02152E-01 5.26140E-02 2.47023E-01
 -1       443-3.37980E+00 2.08436E-01 5.38673E-01 3.21188E-01 2.42736E-02 5.22168E-01
 -1       444 0.00000E+00 0.00000E+00 0.00000E+00 0.00000E+00 0.00000E+00 0.00000E+00
 -1       445 0.00000E+00 0.00000E+00 0.00000E+00 0.00000E+00 0.00000E+00 0.00000E+00
 -1       446 0.00000E+00 0.00000E+00 0.00000E+00 0.00000E+00 0.00000E+00 0.00000E+00
 -1       447-9.39277E+00-2.60387E+00-2.28461E+00 2.70840E-01 2.49810E-01 1.22567E+00
 -1       448-2.53200E+00-4.19315E-01 2.11425E-01-1.21108E-02 1.13753E-01-4.61664E-01
 -1       449-1.51287E+00-5.06466E-02 1.20816E-01 2.05347E-02 4.19948E-02-1.50509E-01
 -1       450 5.60186E+00 7.79090E-01 6.47574E-01-2.48591E-01 1.55836E-02-1.15703E+00
 -1       451 3.11161E+00 4.65834E-03-1.56387E-01 1.84043E-01-1.46329E-01 2.58802E-01
 -1       452 3.56614E+00 3.16748E-01-3.80135E-02 1.79470E-01 1.33890E-01 3.37488E-01
 -1       453 2.54978E+00 1.36991E-01-2.15102E-01 8.16543E-02 4.21977E-02 3.10827E-01
 -1       454-6.21859E+00-1.41349E+00-7.76452E-01 1.54926E-01 4.14263E-02 8.94578E-01
 -1       455-3.57979E+00 4.30664E-01 9.90562E-02-8.38844E-01-4.02416E-02-1.06049E-01
 -1       456-3.37749E+00 4.88549E-01 1.69948E-01-2.06407E-01 8.28026E-02-2.57659E-01
 -1       457-2.49092E+00-5.11841E-02 8.67986E-02-9.92362E-02 4.10694E-02-2.47830E-01
 -1       458-4.30910E+00-5.48399E-01 4.45367E-01-6.93286E-02 3.81773E-02-6.87559E-01
 -1       459-7.81192E-02 4.83530E-01 4.30867E-01 1.74589E-01-9.06081E-02 1.22016E-01
 -1       460-6.75955E-01 2.72321E-01 1.69169E-01 1.84126E-01 2.81346E-02 8.66174E-02
 -1       461-1.24712E+00-1.31850E-01-2.34287E-01 3.37757E-02 2.08886E-02-2.31925E-02
 -1       462-2.75441E-01 7.01034E-02-3.11339E-02 1.09387E-01 2.84246E-02 1.46678E-01
 -1       463-4.21468E-03-3.83968E-03-1.06024E-01 8.07128E-02-5.23338E-02 4.98621E-02
 -1       464 1.10101E+00 2.09388E-03-1.75139E-01 4.19683E-03-8.05913E-02-5.70351E-02
 -1       465 1.18287E+00-2.54643E-02 1.49311E-01 1.38542E-01 3.18981E-02 1.59930E-01
 -1       466 4.58693E-01-4.94317E-01-1.38679E-01 1.47482E-01 1.50159E-01-5.22319E-02
 -1       467 1.86670E+00-2.98102E-01-1.13643E-01 5.32748E-01-1.37707E-01 1.84408E-01
 -1       468 3.51775E+00-3.59265E-01 6.65310E-02-3.40446E-01-2.29103E-01-1.40102E-01
 -1       469 3.97686E+00 1.46285E-01 8.34784E-02 9.26871E-01-1.35892E-01 3.12753E-01
 -1       470 4.11637E+00-3.05789E-01 1.03940E-01-2.99163E-02-2.07626E-01 6.19569E-02
 -1       471 2.11683E+00-2.16457E-02-7.68687E-02-1.16908E-01-1.69415E-01-1.69101E-01
 -1       472 2.13207E+00 7.73052E-02 3.59468E-02 2.20715E-01 9.34806E-02-2.22897E-02
 -1       473 5.46861E-01-2.22809E-01 1.84095E-01-6.30748E-02 1.98562E-01-1.03773E-01
 -1       474 9.26143E-01-2.03443E-02-8.48766E-02 1.91187E-02-5.86800E-02-4.73760E-02
 -1       475 1.76076E+00 2.53116E-01-3.18188E-01 2.81736E-02-4.63849E-02 3.24809E-01
 -1       476 4.90046E-03-4.39791E-03 2.18218E-02-6.04738E-02 1.08113E-03-1.95513E-01
 -1       477-1.52231E-01-5.91216E-02-8.54481E-03-1.11233E-01 8.57606E-02 3.95536E-03
 -1       478-9.80021E-01-3.11182E-02-1.47265E-01-4.03447E-02 1.01670E-02 3.16912E-02
 -1       479-1.73698E+00-9.84120E-02-2.40271E-01-2.62173E-02 6.60650E-02-2.67169E-02
 -1       480-7.49176E-01 3.89266E-01 5.90717E-02 9.99580E-02-7.99960E-02-4.65462E-02
 -1       481-2.46842E+00-3.74326E-02-1.04443E-02 1.72438E-01 3.43039E-02 2.40000E-01
 -1       482-3.26097E+00-7.94158E-02-1.81173E-01 5.18078E-03-9.98100E-03 3.65531E-01
 -1       483-2.17214E+00 3.95497E-01-1.78115E-01-4.55103E-01 1.24826E-01-3.31267E-01
 -1       484-3.38999E+00 3.38309E-02 1.73243E-01-5.34093E-01 2.43840E-01-4.18966E-01
 -1       485 0.00000E+00 0.00000E+00 0.00000E+00 0.00000E+00 0.00000E+00 0.00000E+00
 -1       486 0.00000E+00 0.00000E+00 0.00000E+00 0.00000E+00 0.00000E+00 0.00000E+00
 -1       487 0.00000E+00 0.00000E+00 0.00000E+00 0.00000E+00 0.00000E+00 0.00000E+00
 -1       488-3.19524E+00-2.10500E-01-7.81899E-02-1.10454E-01 2.26278E-02-2.14496E-01
 -1       489-2.14404E+00 2.63614E-01 8.22590E-02 7.08405E-01 2.60847E-01-9.99494E-02
 -1       490-2.31244E+00-1.62784E-01-1.92626E-01-3.46900E-01 1.85264E-03-1.67837E-01
 -1       491-1.03392E+00 1.10090E-01 1.00862E-01 2.38830E-01 2.19084E-01 1.32379E-01
 -1       492-1.35075E+00-1.00508E-01-5.50546E-02 6.22974E-02-2.54602E-02 1.07893E-02
 -1       493 1.05246E+00 8.21280E-02 4.68457E-03 2.58766E-02 2.60914E-02 2.13118E-01
 -1       494 1.34169E+00 4.40599E-02-6.24393E-02 1.58896E-01-4.30118E-03 8.50448E-02
 -1       495 2.11513E+00-1.53716E-01 8.03409E-02-3.40011E-01-1.26919E-01 4.56779E-02
 -1       496 3.19237E+00 2.12868E-01 5.70407E-02-3.28035E-01-1.01505E-01-3.91905E-01
 -1       497 3.59071E+00-7.19582E-02 2.67164E-01 1.91317E-01-6.57267E-02 2.11294E-01
 -1       498 1.14474E+00 2.87066E-02-4.07537E-02-1.83450E-01-1.35303E-01 8.56090E-02
 -1       499-2.21266E+00-3.86999E-01-6.10783E-02 1.04187E-01-4.15732E-02 3.84139E-01
 -1       500-7.15945E-01 1.46895E-01 3.67568E-02 1.92770E-01-4.65359E-02-3.49652E-03
 -1       501-1.47734E+00 4.63407E-02 1.55205E-01-1.45786E-01 3.23379E-02-1.24725E-01
 -1       502-3.37178E+00-2.31034E-02-3.22567E-01 1.30920E-01 2.52776E-01 3.04448E-01
 -1       503-4.31524E+00-8.77049E-03-1.43330E-01 4.04258E-02-4.61317E-02 2.08777E-01
 -1       504-4.21936E-01 1.47934E-01 6.31314E-02 1.03343E-01 6.00881E-02 2.23176E-01
 -1       505 1.27670E+00-8.08146E-02-2.45679E-01-4.29401E-01-1.88760E-01-1.99773E-01
 -1       506 1.98897E-01 3.97455E-02-2.58004E-02-4.86291E-02-4.12194E-02-2.23103E-01
 -1       507 0.00000E+00 0.00000E+00 0.00000E+00 0.00000E+00 0.00000E+00 0.00000E+00
 -1       508-2.64024E-01-1.51826E-01 4.27302E-03 4.43844E-02 4.00021E-02 9.93783E-02
 -1       509-1.89262E-01-1.28564E-01-2.95835E-01 1.87088E-02 4.12681E-02 3.91851E-02
 -1       510 0.00000E+00 0.00000E+00 0.00000E+00 0.00000E+00 0.00000E+00 0.00000E+00
 -1       511 0.00000E+00 0.00000E+00 0.00000E+00 0.00000E+00 0.00000E+00 0.00000E+00
 -1       512-2.73223E+00 2.77439E-01 4.59100E-01-1.19820E+00-1.83587E-01-1.54456E-01
 -1       513-2.58074E+00-2.68618E-01-1.33766E-01-4.01024E-01-1.06495E-01-3.15355E-02
 -1       514-1.84444E+00 3.48169E-01 2.80073E-01-2.70674E-01-5.76727E-02 2.37978E-01
 -1       515-1.45743E+00-1.90117E-01-1.41148E-01 2.92380E-02-9.41522E-04-1.12484E-01
 -1       516-1.39632E+00 1.49914E-01 3.31477E-01-2.60619E-01-1.92114E-01-4.86906E-02
 -1       517-1.06181E+00 1.24107E-01 1.07780E-01 4.46714E-02-7.97393E-03 2.92884E-02
 -1       518-9.84384E-02 4.80846E-02 4.17143E-02-8.01531E-03-4.52537E-03-2.04137E-02
 -1       519-1.49212E-01-6.43097E-03-5.59115E-02-2.20324E-02 4.15345E-03 1.27086E-01
 -1       520 1.31621E+00-1.24787E-02 2.54649E-01 1.34207E-01-3.15339E-02-5.62261E-02
 -1       521 1.26860E+00-3.88447E-02-1.77923E-01 1.52291E-01 7.17392E-02-7.23735E-02
 -1       522 1.21471E+00-2.70163E-02-1.46453E-01-1.61934E-01 2.78734E-02 2.84248E-02
 -1       523 1.10039E+00-1.55759E-01-5.86919E-02-1.46755E-01 2.25866E-02 8.05405E-02
 -1       524 2.47447E+00 3.09394E-02-1.91718E-02 3.93542E-01 7.75916E-02 8.14030E-02
 -1       525 2.32646E+00-2.25609E-02 6.94471E-03 2.69780E-01 4.63528E-02 3.53872E-02
 -1       526 2.32696E+00 2.27054E-01-8.03419E-02 9.74051E-02 3.00958E-02-8.35212E-02
 -1       527 2.75910E+00-5.63797E-02-1.88087E-02 7.77150E-01 6.42915E-02-1.96812E-02
 -1       528 3.57140E+00 1.83226E-03 1.53883E-01 8.94252E-01 2.91048E-01-1.04641E-01
 -1       529 1.93005E+00-4.37696E-01-2.56640E-01 2.66042E-01 3.40752E-02-2.73309E-01
 -1       530 1.23790E+00-1.56899E-01-9.06032E-02 2.51067E-01-9.09670E-03-1.30237E-01
 -1       531-6.99582E-02-9.50878E-02-1.73197E-01-2.00947E-02 3.18553E-02-4.59255E-02
 -1       532 6.56880E-02 1.17711E-01 2.24107E-01 1.30288E-02-4.06926E-02-3.85061E-02
 -1       533-7.52580E-02 1.05966E-01 1.89299E-01 9.43825E-02-8.45549E-02-1.33261E-01
 -1       534-1.32172E+00-1.28607E-01-3.72372E-01-4.58720E-02-5.34481E-02 2.78190E-02
 -1       535-1.35981E+00-4.37283E-02 2.80695E-02-1.77790E-01-1.01230E-01 1.41045E-01
 -1       536-1.10180E+00 8.26043E-02 3.91607E-01 5.14724E-01-1.68323E-01 2.13430E-03
 -1       537-1.31371E+00 1.24718E-01-3.91720E-02 2.80532E-01-5.49981E-02-1.63974E-01
 -1       538-2.14974E+00-1.47526E-01-2.10091E-01-7.16038E-01-8.84954E-02 1.32926E-01
 -1       539-1.96507E+00 2.49878E-01 1.62498E-01-4.86483E-01 1.97306E-02 6.42642E-02
 -1       540-3.31178E+00 3.39477E-02-9.35103E-02-1.09917E+00 1.03674E-01-1.26007E-02
 -1       541-4.63423E+00-7.96256E-01-1.06799E-01 6.14947E-01-2.61340E-01-3.86897E-01
 -1       542-4.40072E+00-6.46726E-01 2.75093E-01 5.63185E-01-4.41640E-01-4.02549E-01
 -1       543 0.00000E+00 0.00000E+00 0.00000E+00 0.00000E+00 0.00000E+00 0.00000E+00
 -1       544 0.00000E+00 0.00000E+00 0.00000E+00 0.00000E+00 0.00000E+00 0.00000E+00
 -1       545-2.42382E+00 1.05875E-01 2.54433E-02 4.90327E-01-1.98006E-01-3.37707E-01
 -1       546-3.84086E+00-1.32981E-03-2.04776E-01 6.16021E-01-9.56589E-03-4.80086E-01
 -1       547-2.86810E+00 3.82580E-01 4.97762E-02-2.74053E-01-1.18819E-01 2.99066E-01
 -1       548-2.90667E+00 8.00576E-01-3.92532E-01 1.17730E-02 8.39249E-02 1.37617E-01
 -1       549-2.49064E+00-1.96067E-01-3.03093E-01 3.21090E-01-7.54846E-02-3.06759E-02
 -1       550-2.41164E+00 1.57753E-01 1.14706E-01 3.04588E-01-7.72991E-02-1.73484E-01
 -1       551-2.54051E+00 3.95994E-01 3.67945E-01 4.70787E-01-1.12054E-01-7.86954E-01
 -1       552-1.26605E+00 1.47909E-01 1.62393E-01-1.79794E-01-6.77561E-02 1.54853E-01
 -1       553-2.16848E+00-1.59883E-01 6.06799E-02 9.81625E-02 7.12442E-02-2.41046E-01
 -1       554-1.29895E+00-1.60375E-01-4.46294E-03-3.57670E-02 2.90861E-02-1.90875E-01
 -1       555 7.02779E-01 4.42006E-01-2.20009E-01 1.84517E-01-5.08098E-02-2.78019E-01
 -1       556-4.32549E-01-2.87499E-01-1.55007E-02 1.79578E-02-1.88927E-03 6.15433E-02
 -1       557-1.34647E+00-6.80090E-01-1.02998E-01 9.56287E-02 4.92299E-02-4.84442E-02
 -1       558 4.72521E-01-3.68658E-01-1.37690E-01 6.97821E-02 5.90315E-02-4.51126E-02
 -1       559 1.05331E+00-3.84972E-01 3.05198E-01 1.68387E-01-1.05538E-01-1.14189E-01
 -1       560 2.28072E+00 1.50476E-01-4.76887E-02-3.07412E-01-7.55082E-03 2.40527E-01
 -1       561 2.62148E+00 2.16008E-02 2.60698E-01-1.97759E-01 1.34386E-01 1.19628E-01
 -1       562 2.06356E+00-1.70825E-01 6.94168E-02 1.39352E-01-1.50586E-01-5.44123E-02
 -1       563 2.66103E+00 6.65288E-03 6.30996E-01 2.40185E-01-2.79319E-01-5.00522E-01
 -1       564 2.99592E+00-1.99127E-01-5.08476E-01-4.48164E-01 1.35394E-01 2.66667E-01
 -1       565 4.21280E+00 2.80478E-01 1.25499E-01-9.96666E-02-1.81268E-01 5.47509E-01
 -1       566 2.89908E+00 3.45818E-01 2.49738E-01-7.32258E-01 1.82412E-01 1.97131E-01
 -1       567 3.91054E+00-2.96201E-01-2.42949E-02-3.42993E-01-2.67928E-02 6.08049E-01
 -1       568 3.05533E+00-1.23916E-01-1.46283E-01 2.04364E-01-8.62460E-02 3.31441E-01
 -1       569 2.33793E+00-3.65750E-01 2.57223E-01 3.05449E-01 7.79136E-03-4.45532E-01
 -1       570 2.07715E+00-7.83557E-01 1.73375E-01-1.01370E-01-4.39040E-01 8.47494E-02
 -1       571 2.64810E+00 4.27343E-01 4.23247E-01-3.69453E-01 9.40356E-03 1.99913E-02
 -1       572 2.72403E+00 5.42138E-02 6.67567E-02-3.01208E-01-4.87452E-03 1.05128E-01
 -1       573 2.08397E+00 1.56101E-01-9.66298E-02 3.56113E-02 2.29401E-03 9.44358E-02
 -1       574 1.30186E+00-1.04024E-01 5.40164E-01-1.52927E-01-3.02177E-01 1.98712E-01
 -1       575 1.12658E+00-2.54645E-02-8.10254E-02-7.77351E-02 3.69203E-02 6.11291E-02
 -1       576 8.18264E-01 1.08339E-02-9.01993E-02-8.47131E-02 2.27087E-02 1.89675E-02
 -1       577 1.72296E+00 9.46328E-02-8.23835E-02-3.14016E-01-4.14689E-02 5.18404E-01
 -1       578-8.74723E-01-2.95082E-01 1.41956E-01-1.85260E-01 3.55448E-02 2.77533E-01
 -1       579 1.86380E-01 1.12353E-01-3.42748E-02 3.06821E-02-4.58249E-02-4.75119E-02
 -1       580 3.45390E-01 2.55349E-01 1.10847E-01-6.66904E-03 1.16952E-02 1.75668E-02
 -1       581 8.30389E-01 6.01417E-01 1.18061E-01-1.31487E-01 3.70606E-02 4.60614E-01
 -1       582-9.34446E-01 3.96779E-01 3.83144E-02-9.46048E-02-4.28899E-02-1.61429E-01
 -1       583-1.43283E+00 2.53575E-01-8.39629E-01-1.55300E-01 1.57964E-01 1.31619E-01
 -1       584-2.79041E+00 4.99052E-01 4.61859E-01-2.12718E-01 8.30970E-02 5.55215E-01
 -1       585-2.53640E+00 2.03466E-01 7.31490E-02 3.21778E-01-1.17463E-01-3.11306E-01
 -1       586-2.39697E+00 7.28258E-02 1.84864E-01 1.84967E-01-1.06659E-01-2.48331E-01
 -1       587-3.70589E+00-1.54591E-01-4.87063E-02-2.40704E-02 1.07423E-01-6.47441E-02
 -1       588 0.00000E+00 0.00000E+00 0.00000E+00 0.00000E+00 0.00000E+00 0.00000E+00
 -1       589-4.72897E+00-8.81552E-02 9.58720E-01-9.94790E-01-9.41978E-04 7.52478E-01
 -1       590 1.99530E+00-8.93340E-02-2.64335E-01 1.75232E-01-6.92553E-02 6.58238E-02
 -1       591 2.93436E+00 8.54962E-02-2.67503E-02 3.75225E-01 5.63620E-03-2.42869E-01
 -1       592 2.52930E+00-8.60149E-01 7.25304E-02 4.42815E-01-4.55584E-01-1.19376E+00
 -1       593 2.66430E+00-7.07184E-01-3.41239E-01-1.23497E-01-3.21018E-02-4.66952E-01
 -1       594-1.92505E+00 3.36669E-01 4.89403E-01 1.27322E-01 3.91561E-02-3.04198E-02
 -1       595-1.84533E+00 5.31178E-01 3.38250E-01-6.31809E-02-2.53532E-02-1.89630E-01
 -1       596 0.00000E+00 0.00000E+00 0.00000E+00 0.00000E+00 0.00000E+00 0.00000E+00
 -1       597 0.00000E+00 0.00000E+00 0.00000E+00 0.00000E+00 0.00000E+00 0.00000E+00
 -1       598-3.23049E+00 3.52308E-01 1.72213E-01-1.42122E-01 1.37048E-01-2.32478E-01
 -1       599-1.98625E+00 8.30754E-02 2.59088E-01-7.73245E-02-1.80107E-02-1.68333E-01
 -1       600-1.06408E+00 5.30202E-01-1.79882E-01 3.09871E-01 1.90378E-01-2.99480E-01
 -1       601-1.04010E+00 1.66363E-01-1.07545E-01-1.83221E-02-1.58660E-02-2.32248E-02
 -1       602 8.48798E-01 7.95382E-02-8.21813E-03-2.50426E-03 8.31538E-02-5.95675E-03
 -1       603 5.84107E+00 3.36414E-01 3.41731E-01 1.58044E-01-5.38369E-02-1.12151E+00
 -1       604 2.92823E+00-3.96642E-01-4.24464E-01-3.02479E-01-9.35397E-02-5.09450E-01
 -1       605 3.22521E+00-5.15576E-01-5.74028E-01 1.17517E-01-3.17505E-02 4.82021E-01
 -1       606-1.23355E+00-1.45475E-01-6.70113E-02-2.11676E-02-2.69510E-02 1.05843E-01
 -1       607-5.78138E+00-8.55617E-02-7.67093E-02-5.38989E-01 2.84189E-01 7.02108E-01
 -1       608-4.07482E+00-3.70182E-01 1.86485E-02 2.22426E-01 5.04488E-02 6.50817E-01
 -1       609-3.85463E+00-2.45972E-01 1.51752E-01-1.22352E-01-1.49444E-02-2.79026E-01
 -1       610-6.80128E-01 6.78617E-01 4.00236E-03 7.95735E-02-2.78172E-01-5.66178E-02
 -1       611-9.89582E-01-5.65326E-01-2.71201E-01-1.11597E-01 8.98484E-02-3.58294E-01
 -1       612 5.67455E+00 1.11912E-01-9.29333E-02-5.57972E-01-1.15669E-01-1.25558E+00
 -1       613 3.93641E+00-5.11628E-01-2.64259E-01-5.21222E-01-6.47570E-02-7.85572E-01
 -1       614 1.25200E+00-1.71930E-01-3.56318E-01-2.43099E-02-1.10685E-02 2.37959E-01
 -1       615-1.02223E-01-7.30897E-02 1.98480E-01 2.03481E-02 1.64000E-02 1.05064E-01
 -1       616-3.75816E+00 4.40453E-02 5.64192E-02 5.00037E-01-2.10106E-01 6.27560E-01
 -1       617-3.39173E+00-1.85902E-01-7.03091E-02 5.81526E-01 2.07664E-02 2.81253E-01
 -1       618 0.00000E+00 0.00000E+00 0.00000E+00 0.00000E+00 0.00000E+00 0.00000E+00
 -1       619 0.00000E+00 0.00000E+00 0.00000E+00 0.00000E+00 0.00000E+00 0.00000E+00
 -1       620-3.49836E+00-1.00166E-01-2.41935E-01-4.19954E-01 1.34201E-01-1.34959E-01
 -1       621-2.39426E+00 3.07828E-01 5.45323E-01 5.27886E-01 2.33647E-01 3.85019E-01
 -1       622-3.50841E+00 2.17525E-01 4.91023E-01-3.37406E-01-1.50195E-01-6.73926E-01
 -1       623-1.31828E+00-2.77965E-02 3.43691E-02-1.04006E-01 4.94549E-02-1.20945E-01
 -1       624-2.26916E+00-2.17613E-01 1.78673E-01-1.98469E-01 1.82300E-01-9.22322E-01
 -1       625 7.07445E-01-3.23959E-01 1.19612E-01 9.77551E-02 9.44799E-03-2.29348E-01
 -1       626 3.77711E+00-1.89334E-02 4.01465E-01 4.85172E-01 4.33782E-02 1.70842E-01
 -1       627 3.49213E+00-3.88876E-01-2.39581E-01 5.66648E-01 2.33121E-02 3.46714E-01
 -1       628 4.66847E+00-4.36570E-02 4.03812E-02 3.35542E-01 2.24646E-01 1.07256E+00
 -1       629 3.27475E+00-1.81397E-02 2.04616E-01 4.11274E-01-1.73229E-01 2.09834E-01
 -1       630 2.06691E+00-3.43083E-01-3.20910E-01-4.32905E-01-3.10949E-02-4.19531E-01
 -1       631 2.88326E+00 6.67879E-01 1.06085E-01 1.48832E-01-2.70136E-02 4.43296E-01
 -1       632 4.61786E-01 1.78169E-01-3.01569E-01-2.11838E-02-6.21552E-02 1.57896E-01
 -1       633-1.32409E+00 3.72087E-01-2.56453E-01 1.01074E-02-4.23579E-02-9.46425E-03
 -1       634-1.86814E+00 9.93489E-01 3.23026E-01-7.99342E-02 2.11976E-02-3.14770E-02
 -1       635-5.60227E+00-8.42597E-01-1.46609E-01 4.60010E-01-1.38689E-03 1.07691E+00
 -1       636-3.31217E+00-2.83922E-01 6.28602E-02-3.11918E-01-5.21048E-02-3.12768E-01
 -1       637-5.07031E+00-6.22792E-01-4.93772E-01-1.06573E+00-1.72198E-01-8.63206E-01
 -1       638-3.23376E+00 2.01776E-01 3.55811E-01 4.03104E-01 1.82552E-01 4.17178E-01
 -1       639-5.04537E+00 2.86217E-02-2.09587E-01 5.54967E-01 2.73346E-01 8.21693E-01
 -1       640-3.79766E+00-4.19356E-01-2.90738E-01-6.35850E-01 5.35113E-02-1.71140E-01
 -1       641-3.87409E+00-1.85180E-01-8.71465E-01-4.65113E-01-4.46955E-01-7.62262E-02
 -1       642-2.55381E+00 2.65240E-01-1.99166E-01 2.23530E-01-7.76945E-02 3.51573E-01
 -1       643-2.54163E+00-4.55787E-02-5.75200E-02-2.96504E-01 1.46693E-01-1.96027E-01
 -1       644-1.59321E+00 4.94660E-02-1.21296E-01 2.03918E-01-5.42696E-02 1.37165E-01
 -1       645-9.97898E-01 2.14247E-01 2.88096E-01 2.39182E-01 2.84011E-02 1.33376E-01
 -1       646-1.25476E+00-5.68733E-02-1.72056E-01-1.39727E-01 2.49091E-02-1.00686E-01
 -1       647-1.43696E-01 2.88473E-02-1.48029E-03 5.25245E-02 7.42366E-02 4.63452E-02
 -1       648-1.09170E-01-1.10027E-01-6.77194E-02 2.53174E-02-5.12954E-04 6.89438E-02
 -1       649-1.96566E-01-1.33154E-01 1.57414E-01-3.35338E-02 1.01841E-01-2.66445E-01
 -1       650 1.03833E+00 1.09699E-01 5.23925E-02 7.69779E-04 1.21719E-01-3.22294E-01
 -1       651 9.13336E-01-7.63593E-02-1.48213E-01 3.56396E-01-2.55510E-01-4.38884E-05
 -1       652 2.63676E+00 8.07697E-02 2.66669E-01-5.97349E-01-1.39779E-01-1.63885E-01
 -1       653 2.54682E+00-7.34755E-02-5.04323E-02 7.18749E-01-2.34470E-01 2.61148E-01
 -1       654 3.53840E+00-2.40214E-01-1.34669E-01-4.31763E-01-1.34736E-01-4.05956E-01
 -1       655 3.78642E+00-5.42329E-02-9.23106E-02 1.07640E+00-3.12197E-01 1.67876E-01
 -1       656 3.31331E+00-1.57160E-01 1.82436E-01 3.51943E-01-2.00820E-01 1.75986E-01
 -1       657 2.49899E+00-6.81678E-01-3.32783E-01-1.84210E-01 2.64884E-01-3.21366E-01
 -1       658 2.55494E+00-2.17766E-01 1.72570E-01-3.89016E-01-4.96698E-02-3.97868E-01
 -1       659 2.59031E+00-9.34597E-01-1.08916E+00-1.36422E-01 1.02562E-01-4.46103E-01
 -1       660 2.36145E+00 9.66771E-02 1.44247E-01 3.50448E-01-1.24485E-01 1.54353E-01
 -1       661 3.00002E+00-1.98810E-01-2.49075E-01 1.98067E-01-4.26353E-02 4.12156E-01
 -1       662 1.12834E+00-2.90804E-01 8.02438E-01-6.66082E-02 1.41787E-01 3.43672E-01
 -1       663 7.89422E-01-2.06787E-01-1.56247E-01-1.04717E-01 2.53575E-02-1.42421E-01
 -1       664 1.23823E+00 1.25718E-01 1.26002E-01 1.18052E-01-2.09331E-02-3.98669E-02
 -1       665-5.45351E-02-1.19218E-01-1.46807E-01-6.34609E-02-8.01722E-03 2.28360E-02
 -1       666-1.30714E+00-1.18659E-01-1.39591E-01 1.62236E-01-1.40261E-02-4.18458E-03
 -1       667-1.32173E+00-2.47588E-01-1.65521E-01 2.46345E-01-1.90209E-02-4.38797E-02
 -1       668-1.38238E+00 1.15501E-01 2.00030E-01-3.17285E-01 1.91523E-01-3.05711E-02
 -1       669-2.55197E+00 1.45877E-01 3.71508E-02 3.96824E-01 1.07370E-02 2.75057E-01
 -1       670-2.57776E+00-9.63859E-02-8.57629E-02 4.26140E-01 2.78378E-02-6.82186E-02
 -1       671-2.19479E+00 3.10317E-01 8.26695E-02-6.11275E-01 1.31301E-01 2.49107E-02
 -1       672-3.41674E+00-5.94864E-01 4.94408E-02-6.27859E-01 1.01364E-01-3.67433E-01
 -1       673 0.00000E+00 0.00000E+00 0.00000E+00 0.00000E+00 0.00000E+00 0.00000E+00
 -1       674 0.00000E+00 0.00000E+00 0.00000E+00 0.00000E+00 0.00000E+00 0.00000E+00
 -1       675 0.00000E+00 0.00000E+00 0.00000E+00 0.00000E+00 0.00000E+00 0.00000E+00
 -1       676 0.00000E+00 0.00000E+00 0.00000E+00 0.00000E+00 0.00000E+00 0.00000E+00
 -1       677-4.15707E+00-7.26322E-01-3.54694E-01-2.41096E-01-9.11081E-02-1.11072E-01
 -1       678-1.28879E+00 2.16655E-02 1.03655E-01 3.28774E-01 1.61052E-01 1.51965E-01
 -1       679-1.22014E+00-7.54593E-02 4.60722E-02-5.69245E-03-2.37421E-02-6.26702E-03
 -1       680 7.92569E-01 9.02399E-02 8.00479E-02-2.63209E-01 1.13834E-02-9.71636E-02
 -1       681 3.46354E+00-1.69591E-01 1.98173E-02-5.68945E-01-1.36947E-01-8.77529E-02
 -1       682 3.96693E+00 4.17063E-01-2.48913E-01-6.87762E-01-2.88435E-01-3.33454E-01
 -1       683 3.89161E+00 3.47607E-01 1.73122E-01-4.03870E-04-1.22195E-01 8.54345E-02
 -1       684 1.19994E+00-7.95923E-03-1.66847E-01-1.72450E-01-1.23107E-01-1.24037E-01
 -1       685-1.99486E-01-2.15546E-02 1.36113E-01-8.89056E-02 2.73077E-02-1.42924E-02
 -1       686 2.40742E-02 3.05654E-02 4.01051E-02-4.06659E-02 4.60488E-02 7.94709E-02
 -1       687-2.82065E+00 2.37841E-01 9.17899E-01 7.57751E-01 3.39838E-01 3.01185E-01
 -1       688-1.47783E-01 1.33434E-01 2.89783E-01 1.19955E-01 2.36091E-02 4.44832E-02
 -1       689-3.37484E+00-1.07552E-01 5.41211E-02 3.58994E-01 3.05177E-01 3.92431E-01
 -1       690 0.00000E+00 0.00000E+00 0.00000E+00 0.00000E+00 0.00000E+00 0.00000E+00
 -1       691 1.16653E-01 3.29855E-01 3.51216E-01-4.33834E-02-1.59893E-01 6.13576E-02
 -1       692-1.70843E-01 9.53721E-02-2.79837E-03 2.61293E-02-4.20191E-02 9.55115E-02
 -1       693 8.55578E-01-1.30012E-01-3.27741E-01-2.35560E-02-4.28340E-02-6.82566E-02
 -1       694 1.10457E+00 1.01107E-01 4.02195E-01-1.55782E-02-8.35111E-02-6.82099E-02
 -1       695 3.48418E+00-3.50834E-01-3.32892E-01-7.33863E-01 2.41306E-01 2.34654E-01
 -1       696-4.07123E+00 1.46843E-01 5.24586E-01 6.65709E-01-4.33776E-01-3.41526E-01
 -1       697 0.00000E+00 0.00000E+00 0.00000E+00 0.00000E+00 0.00000E+00 0.00000E+00
 -1       698 0.00000E+00 0.00000E+00 0.00000E+00 0.00000E+00 0.00000E+00 0.00000E+00
 -1       699-2.97953E+00 2.96222E-01-2.74569E-01-8.88540E-01-3.29779E-01 4.54875E-02
 -1       700-1.80857E+00 7.47562E-02 2.24493E-01-9.14985E-03 1.42990E-01 1.00416E-02
 -1       701-2.58936E+00 1.44035E-01-6.77648E-02-3.71211E-01-1.48541E-01-4.78515E-02
 -1       702-1.93547E+00 7.71989E-02-1.10410E-02 3.43538E-01-6.99963E-02 5.79277E-03
 -1       703-2.23325E+00-1.16448E-02-9.58229E-02 1.40919E-01-2.49385E-02-2.15519E-01
 -1       704-1.00025E+00 2.74967E-01 2.50545E-01-1.95802E-01-2.23035E-02 2.79055E-01
 -1       705-8.50177E-02-9.01383E-02-9.88093E-02 1.82969E-02 6.47075E-02 5.75371E-02
 -1       706 1.11630E+00-8.69729E-02-3.73734E-02-7.00482E-02 2.50055E-02 1.82642E-01
 -1       707 4.03692E-01-2.94472E-01-9.27899E-02-1.49262E-03-1.06962E-02 2.81960E-02
 -1       708 3.34918E+00-1.35044E-01 1.47467E-03 5.31878E-01 1.37503E-01 3.12751E-02
 -1       709 3.65578E+00-1.13092E-01 1.67808E-01-3.90992E-01 1.58428E-02 8.05685E-01
 -1       710 4.66669E+00 4.30829E-01 3.64738E-01 2.78508E-01 3.55206E-01-4.71959E-01
 -1       711 2.39554E+00 3.70158E-01 2.33230E-01 6.71831E-02 4.97677E-03-3.33318E-02
 -1       712 2.54060E+00 1.49282E-01 1.15233E-01-4.60496E-02 6.26976E-02 2.59179E-01
 -1       713 2.11612E+00-1.14068E-01 3.06721E-02-1.17033E-01 5.03619E-02 7.29975E-02
 -1       714 8.86152E-01 2.56801E-02 2.55218E-04 1.31138E-02-6.39243E-02-8.26075E-02
 -1       715 1.10665E+00-6.24550E-02-3.62556E-01-8.35217E-02-4.14266E-02 9.27768E-03
 -1       716 1.63071E+00 6.47285E-02-3.52149E-01-1.47258E-02 5.69217E-02 1.20466E-01
 -1       717 6.64129E-02 5.57945E-02 2.53587E-02-3.64683E-02 2.05057E-02-5.02572E-02
 -1       718-1.66140E+00-1.27279E-01-4.57920E-01-6.23531E-02 7.69862E-02 1.45947E-01
 -1       719-1.30453E+00 5.06688E-02 2.18493E-01-1.10685E-01-1.70678E-02 1.31101E-01
 -1       720-1.35399E+00 1.02330E-01 1.94965E-01 1.51914E-01-8.79338E-02-1.93629E-01
 -1       721-2.10228E+00-1.66032E-01-2.53456E-01-6.21987E-02-1.62262E-02-1.74823E-02
 -1       722-3.13348E+00 3.04414E-01-2.80900E-02-7.88457E-01-6.96128E-02 3.63730E-01
 -1       723-5.59642E+00-2.78720E-01-2.49129E-01 1.25071E-01-2.52495E-01-5.55474E-01
 -1       724 0.00000E+00 0.00000E+00 0.00000E+00 0.00000E+00 0.00000E+00 0.00000E+00
 -1       725 0.00000E+00 0.00000E+00 0.00000E+00 0.00000E+00 0.00000E+00 0.00000E+00
 -1       726 0.00000E+00 0.00000E+00 0.00000E+00 0.00000E+00 0.00000E+00 0.00000E+00
 -1       727-3.80030E+00-3.33020E-01-4.36189E-01-5.64412E-01-1.42094E-01 2.28021E-01
 -1       728-5.07768E+00-6.27393E-01-5.60029E-01-7.72466E-01 1.31187E-01 3.54984E-01
 -1       729-3.27319E+00-1.82955E-01-4.08179E-01-2.36063E-01-1.73063E-01 1.54972E-01
 -1       730-2.80415E+00 3.82495E-01-5.75059E-02 1.10767E-01-1.41484E-01-3.23377E-01
 -1       731-3.73608E+00 9.54934E-02 7.32852E-03 1.52935E-01-2.71245E-02-2.89021E-01
 -1       732-1.70025E+00 1.74101E-01 1.61002E-01-1.04100E-02-4.81506E-02-1.23994E-01
 -1       733-3.82330E+00-4.17088E-01-2.96441E-01 6.23413E-02 7.54396E-02-7.69508E-01
 -1       734-1.14070E+00 2.63313E-02 8.21184E-02 2.94154E-02-2.14074E-02 1.52195E-02
 -1       735-1.55266E+00-8.00143E-02 1.62368E-01 5.80857E-02 4.22846E-03-1.32116E-01
 -1       736 3.89830E-01 2.12475E-01-1.11311E-01 5.03095E-02 3.72211E-02-1.54469E-01
 -1       737-3.40836E-01-1.84383E-01-6.30120E-02-1.51536E-03-4.86180E-02 2.22247E-03
 -1       738 2.01903E+00 3.25370E-01-5.31505E-01 1.79291E-02 7.37370E-02-5.93039E-01
 -1       739 9.80775E-01-3.76300E-01-5.20877E-02-1.74439E-01-1.11006E-01 1.46780E-01
 -1       740 2.44170E+00-4.40039E-02 1.25081E-01-1.34455E-02-3.31861E-02-1.17801E-01
 -1       741 2.58753E+00 1.07172E-01 5.52280E-03 6.66506E-02 5.16795E-02-3.16961E-01
 -1       742 2.97525E+00 5.49964E-02 3.19574E-01-2.11760E-01-6.84148E-02 2.37277E-01
 -1       743 1.98473E+00-2.17695E-01-2.66926E-01-9.25040E-02 2.30429E-01 1.16644E-01
 -1       744 3.52921E+00-4.56737E-02 1.38138E-01-1.18846E-01 3.88040E-02 5.58899E-01
 -1       745 8.79869E-01-9.53980E-02 1.70948E-01 1.58612E-02-4.54704E-02-5.86154E-02
 -1       746 6.98483E-01-2.06761E-01 1.03795E-01-1.40246E-01-1.54382E-01 1.11970E-01
 -1       747 3.75771E-01-1.27904E-01-1.21068E-01-1.07377E-02-5.82513E-02-1.15147E-01
 -1       748-1.82461E-02-6.33828E-02 2.50770E-02 2.26909E-02 1.13066E-02-4.56018E-02
 -1       749-4.11198E-01-2.17226E-01 5.09805E-02-4.25693E-02-2.64920E-02 5.69101E-02
 -1       750 2.48419E-01 1.43252E-01-2.18646E-01-3.05875E-02 2.30997E-02 1.58449E-01
 -1       751-2.13156E+00-4.43195E-01-6.65577E-02-1.73036E-01-6.93530E-02 4.67793E-01
 -1       752-1.44222E+00 3.01442E-01-1.44942E-01 3.12406E-02 5.30699E-02-6.58266E-02
 -1       753-2.03583E+00 2.00563E-01-1.23544E-01-2.85830E-01-1.63455E-01-1.17918E-01
 -1       754-2.96726E+00-1.41532E-01 3.50560E-01-1.14608E-01-7.99410E-02 2.86977E-01
 -1       755-2.01884E+00 2.98227E-01-2.11821E-01 7.04976E-02 9.28193E-02-4.95701E-01
 -1       756 0.00000E+00 0.00000E+00 0.00000E+00 0.00000E+00 0.00000E+00 0.00000E+00
 -1       757-3.94213E-01-2.41454E-01-1.88890E-01 1.29152E-01-1.53476E-01-1.76834E-01
 -1       758 5.82615E-01-3.49209E-01-1.45684E-01 1.17967E-02-8.56593E-02 5.34055E-02
 -1       759 3.15105E+00 4.14329E-01 5.56701E-02 8.30719E-02-2.39197E-02-4.63682E-01
 -1       760 4.98910E+00 3.17304E-01-6.31334E-01 4.81686E-01 1.82687E-01-8.42098E-01
 -1       761 3.79970E+00 1.79190E-01-4.47924E-01 4.75831E-01 1.20114E-01-7.68287E-01
 -1       762-5.67544E-01 4.90088E-01 2.83475E-01 9.95068E-03 9.32605E-02-5.17696E-02
 -1       763-6.14400E+00-2.50679E-01 5.82189E-01-8.88197E-01 2.17154E-01 7.10043E-01
 -1       764-2.05857E+00 3.12144E-01 3.14621E-01-8.03883E-02 1.42951E-01 5.14566E-01
 -1       765 0.00000E+00 0.00000E+00 0.00000E+00 0.00000E+00 0.00000E+00 0.00000E+00
 -1       766-2.57014E+00-5.13894E-02 1.84570E-01-1.59742E-01 1.19784E-02 2.74418E-01
 -1       767-2.62461E+00-5.01223E-02-2.05142E-01-2.03815E-01 2.75263E-02 6.47099E-01
 -1       768-8.78099E-01 7.11477E-03 3.00566E-01-2.15945E-01-5.31279E-02 7.59000E-02
 -1       769-7.65836E-01 4.90888E-03 7.76246E-03-1.28110E-01 1.44123E-01 2.63992E-01
 -1       770-1.53561E+00-1.14084E-01-6.65911E-01 1.41876E-01 2.09314E-01-1.35691E-01
 -1       771-1.00633E+00 2.28490E-01 5.10536E-01-2.87866E-02-1.92972E-01-1.95001E-01
 -1       772 1.22578E+00 1.27929E-01-2.45705E-01-3.43776E-02 8.34409E-02-2.60874E-01
 -1       773 5.02036E-01-7.10992E-02-1.76277E-02 1.28246E-01-4.67564E-02 4.61417E-02
 -1       774 1.88835E+00 3.18324E-02 7.97425E-02-3.91336E-01-6.17073E-02 5.33679E-01
 -1       775 5.22345E+00 2.00908E-01 1.81999E-01 9.55624E-01 1.17677E-01-9.33143E-01
 -1       776 2.46140E+00-1.02698E-01-4.83237E-01 2.88541E-01 3.66838E-01-3.42221E-01
 -1       777 1.77907E+00-3.54062E-01-1.64754E-01 2.59402E-01-6.21323E-02-2.95044E-01
 -1       778 1.07103E+00-7.08860E-02-3.12008E-01 2.15704E-01-6.63008E-02-5.88232E-02
 -1       779 8.71056E-01-3.36562E-01-4.76442E-01-1.08540E-01 1.09620E-01 1.41238E-01
 -1       780 2.75638E-01-2.96899E-02 6.40746E-02 1.61279E-01-4.96512E-02 1.83034E-01
 -1       781-1.11070E+00-1.02803E-02 1.22714E-01 4.93881E-02-6.65231E-02 1.17345E-01
 -1       782-1.96325E+00 8.73969E-02 6.75848E-01 3.09005E-02-9.78152E-02 2.90673E-01
 -1       783-1.52523E+00 9.17935E-02-1.62408E-01 9.68610E-02 7.62566E-02-6.63289E-01
 -1       784-2.56977E+00 1.72055E-01 5.61311E-01-3.29519E-01-6.37870E-02-1.96507E-01
 -1       785 0.00000E+00 0.00000E+00 0.00000E+00 0.00000E+00 0.00000E+00 0.00000E+00
 -1       786 0.00000E+00 0.00000E+00 0.00000E+00 0.00000E+00 0.00000E+00 0.00000E+00
 -1       787-1.52338E+00-1.43999E-01 1.12935E-01 2.23743E-01 1.96718E-01 3.89716E-02
 -1       788-6.09808E-01 4.00239E-02 9.67018E-01-1.29842E-01 1.01636E-01-5.74354E-02
 -1       789-5.33609E-01 6.45810E-02 1.44635E-01-1.40759E-01-8.79697E-03 3.12759E-02
 -1       790-1.55717E-01 2.10070E-04-5.14162E-02-6.99595E-02 1.46186E-02-3.24602E-02
 -1       791 1.58041E+00-1.21401E-01-2.11711E-01-5.97746E-02-2.19894E-02 1.83031E-01
 -1       792 6.88254E-01 7.95037E-02 2.06930E-02-1.36958E-02-4.93893E-03 1.81094E-02
 -1       793-1.72441E-01-8.50765E-02-5.18088E-02 1.94892E-02 4.77489E-02 1.29190E-02
 -1       794-1.67254E+00 3.57204E-02 1.70843E-01-6.52585E-02 2.62004E-02-1.67054E-01
 -1       795 0.00000E+00 0.00000E+00 0.00000E+00 0.00000E+00 0.00000E+00 0.00000E+00
 -1       796 2.09036E-01 2.30760E-02-8.95731E-02-5.58965E-02-2.28100E-02 1.04994E-01
 -1       797 7.73076E-01 9.34098E-03-2.45482E-01 2.12978E-02-2.31085E-02 3.19835E-02
 -1       798-3.61552E-01 2.16375E-02 1.46702E-01-9.34338E-02 7.13626E-02-1.65529E-02
 -1       799 3.19555E-01 4.01398E-02-3.43902E-01 3.86980E-02 9.12513E-02 3.83376E-02
 -1       800 0.00000E+00 0.00000E+00 0.00000E+00 0.00000E+00 0.00000E+00 0.00000E+00
 -1       801-2.81408E-01 6.23675E-02 4.49170E-01 8.82127E-02-8.72904E-02 1.48458E-02
 -1       802-2.46035E-01 3.75057E-02 1.05304E-01 1.08171E-01-3.67040E-02 1.25035E-01
 -1       803-1.82321E-03-6.43444E-03 1.05377E-01 3.27911E-03 3.58154E-02 4.19288E-02
 -1       804 2.08539E+00 1.88585E-01 1.68894E-01 5.57486E-02-1.16433E-01 3.61751E-01
 -1       805 1.62629E+00 8.14591E-02-2.59210E-01 1.62487E-01 2.00617E-01-9.35786E-02
 -1       806 2.55359E+00 1.00611E-01-3.86655E-01 2.45353E-02-6.85303E-02-1.54956E-01
 -1       807 8.72632E-01-9.68185E-04-3.63039E-01-2.76034E-01-6.03378E-02 4.90719E-02
 -1       808 4.26175E-01-2.26371E-02-1.65460E-01 6.77617E-02 6.57149E-02 2.34282E-02
 -1       809 4.43818E-01-7.25567E-02-3.50134E-02-7.03974E-02 1.78847E-02-6.37035E-02
 -1       810 1.31253E-01 1.21322E-01 1.46752E-01-2.17063E-02-1.35235E-01-2.11572E-02
 -1       811-9.26760E-01-2.13579E-02 5.72972E-02 2.29191E-02 1.06175E-03-2.02680E-02
 -1       812-1.20004E+00 1.35261E-01 4.85088E-01-9.63516E-03-4.08546E-02 3.03759E-02
 -1       813 0.00000E+00 0.00000E+00 0.00000E+00 0.00000E+00 0.00000E+00 0.00000E+00
 -1       814-1.84456E+00-4.69728E-03 2.10522E-01 2.29091E-01-2.71424E-01 2.95718E-01
 -1       815-1.32638E+00 3.67244E-01 5.36922E-01 7.62055E-02 8.84511E-02-1.45902E-01
 -1       816-2.84784E+00-1.40235E-01 2.30318E-01-6.54608E-02 2.63269E-01-6.85486E-01
 -1       817-3.98021E-01 1.07374E-01 3.47950E-01 8.93460E-02-2.59904E-01-1.41289E-01
 -1       818-5.54538E-01 2.25021E-01 4.67947E-02 2.26278E-01-1.06303E-01 1.12881E-01
 -1       819-5.88602E-01 1.91523E-01 2.04491E-01 1.21824E-02 3.33044E-02 2.60398E-02
 -1       820-1.68254E+00 3.89739E-02 2.82375E-01-1.29961E-01 2.66712E-01-5.18392E-01
 -1       821-2.44479E-01-1.67242E-01 1.01086E-01 2.65677E-03 1.26363E-01-3.77820E-01
 -1       822 6.83040E-01-9.57389E-02-7.41864E-02-1.32991E-03 8.41829E-03 2.48723E-02
 -1       823 1.63196E+00-1.05466E-01-1.85571E-01-1.20937E-01 1.67182E-01-1.45261E-01
 -1       824 2.29183E+00-3.59296E-01-8.78812E-01 3.10547E-01-1.65998E-01 1.93361E-01
 -1       825 1.84099E+00 4.95472E-01-4.56318E-01-5.37187E-01 1.00332E-01-1.74779E-01
 -1       826 1.71251E+00-4.45344E-02 5.72241E-02-2.46079E-01-1.43736E-01-1.72889E-01
 -1       827 2.02380E+00-3.26019E-02-3.76725E-01 5.77138E-03-1.42625E-01 4.72898E-01
 -1       828 6.79076E-01-2.70529E-01-5.38168E-01-3.86138E-02-4.48375E-02-1.59061E-02
 -1       829 1.26182E+00-8.80598E-03-2.00589E-01 1.04194E-01-1.01396E-01 4.55117E-01
 -1       830-2.55234E-01 2.74260E-02-2.67120E-01-5.07028E-02-2.24484E-01 2.81876E-01
 -1       831-1.75257E+00-4.45914E-02 2.10151E-02-1.96854E-01 3.91623E-02 2.82189E-03
 -1       832-1.37692E+00 1.02293E-01 2.25533E-01 1.63658E-02-7.35295E-02 5.04456E-02
 -1       833-2.66826E+00 1.43562E-01-8.37344E-02-2.78098E-02-2.87831E-01 5.39547E-02
 -1       834-4.50619E+00 1.12075E-01 9.75669E-04-5.43971E-01 4.28833E-02-6.83781E-01
 -1       835-6.14054E+00-5.04658E-01-5.58365E-01-4.41080E-01 3.74102E-01-1.50746E+00
 -1       836-2.73476E-01-1.29961E-01-2.38034E-01-1.21223E-02-1.81892E-01-1.01848E-01
 -1       837 1.60261E+00 4.80142E-02-1.91476E-01-1.75621E-01-1.55674E-01-5.18007E-01
 -1       838 1.51754E+00 1.14966E-01-1.71003E-01-4.16172E-02 4.30634E-02-9.36607E-01
 -1       839 4.17881E+00 1.88384E-02-3.79428E-02-2.89967E-01 3.10757E-02-1.04558E+00
 -1       840 3.69990E+00 2.91478E-01-1.20322E-01-2.65392E-01-3.66678E-03-6.31603E-01
 -1       841 2.47757E+00-7.10349E-02-4.60811E-01-4.17398E-02-9.30969E-02-3.36403E-01
 -1       842 2.54160E+00 1.33961E-01 1.30993E-01-2.31265E-01 8.00709E-02-4.42245E-01
 -1       843 6.37816E+00 2.36380E-01 4.90172E-01 9.73712E-02-1.79172E-02 5.84576E-01
 -1       844 4.32171E+00 2.55834E-01 3.94213E-01 3.13661E-01-1.59367E-02 9.63013E-01
 -1       845-5.90015E-01-1.90514E-01-1.00545E-01 6.48351E-02 6.05199E-02 2.37847E-01
 -1       846-1.81987E+00-3.33447E-01-1.82777E-01 1.25179E-01 2.39758E-02 2.74532E-01
 -1       847-2.31566E+00-2.08415E-01-1.60507E-01 3.34973E-01-5.76003E-02 1.01054E+00
 -1       848-2.86857E+00 2.28021E-02 1.42893E-01 3.86618E-02 8.40183E-02 3.92911E-01
 -1       849 0.00000E+00 0.00000E+00 0.00000E+00 0.00000E+00 0.00000E+00 0.00000E+00
 -1       850-9.20825E+00-1.76389E+00-1.41130E-01 4.29831E-02 7.44822E-01 4.70418E-01
 -1       851-9.56875E+00-1.80101E+00-2.34788E+00 2.91051E-02-5.61024E-03-7.22784E-01
 -1       852-1.21071E+01-2.34664E+00-3.14384E+00-1.55027E-01-2.73538E-01-1.55020E+00
 -1       853-5.12689E+00-3.73914E-01-4.90747E-01 5.33304E-01-6.54593E-02 4.08843E-01
 -1       854-2.98102E+00 6.78186E-02 2.38374E-03 5.39865E-02-7.71221E-02-6.28506E-01
 -1       855-3.81161E+00 3.61695E-01 5.78478E-01 3.29985E-01-6.65002E-02-7.21851E-01
 -1       856-1.01249E+00-1.08177E-01-1.28179E-01 2.98830E-02-7.51587E-02-7.43748E-01
 -1       857-5.84021E-01-4.97855E-01-1.08521E-01-1.08860E-01 1.14481E-01-6.33421E-01
 -1       858 5.37884E-01-2.67815E-01-1.25512E-01-2.26561E-02-5.52978E-02-9.85925E-01
 -1       859 1.84558E+00 2.31510E-01-2.32331E-01-9.54479E-02 1.99327E-02-8.36694E-01
 -1       860 8.02424E+00 8.03106E-01 4.52770E-01 1.52775E-01-2.27472E-02-2.68570E-01
 -1       861 5.18365E+00 9.91445E-01 7.58393E-01-1.02442E-01 2.25519E-01-7.81802E-01
 -1       862 6.54846E+00 4.19125E-01 1.66575E-01-3.89177E-01 7.48775E-04-1.34420E+00
 -1       863 5.95964E+00 4.68863E-01 5.87344E-01 1.42318E-01 8.92117E-02 7.20790E-01
 -1       864 8.68660E+00 2.46371E-01 1.07650E+00 6.62240E-02 1.60867E-01 1.20460E+00
 -1       865 1.08786E+00-4.94971E-01 2.13058E-01 2.66740E-01 1.53601E-01 5.88466E-01
 -1       866 4.36496E+00 5.24077E-01 2.82492E-01-1.40771E-01-2.10681E-01 7.45845E-01
 -1       867-2.78310E-02-3.37203E-01 2.48672E-01-9.61735E-02-1.99551E-01 8.03664E-01
 -1       868-1.98381E+00-2.66433E-01-2.91485E-01-1.00013E-02-1.56954E-01 7.93808E-01
 -1       869-4.84292E+00-6.13684E-01-7.67456E-01 1.90832E-02 7.51127E-02 8.06170E-01
 -1       870-7.57743E+00-7.04661E-01 4.48518E-02 2.86715E-01-1.33024E-02 1.00311E+00
 -1       871 0.00000E+00 0.00000E+00 0.00000E+00 0.00000E+00 0.00000E+00 0.00000E+00
 -1       872 0.00000E+00 0.00000E+00 0.00000E+00 0.00000E+00 0.00000E+00 0.00000E+00
 -1       873 3.84431E+00 3.85542E-01 8.05552E-01 2.50041E-01-2.12106E-01-5.11249E-01
 -1       874 1.96531E+00-3.74246E-02 1.83529E-01 1.21631E-01-1.45404E-01 4.30379E-02
 -1       875 5.04874E+00 2.82399E-01 4.92690E-01 2.42784E-01-4.21265E-01-6.99518E-01
 -1       876 4.22109E+00 3.39982E-01 2.18214E-01-1.22807E-01 2.43990E-01-8.27266E-01
 -1       877 4.78260E+00 6.52261E-01 8.73572E-01-6.65325E-02 1.29263E-01-8.07796E-01
 -1       878 7.75689E+00-2.53985E-02-8.89427E-02-5.19286E-01 6.93644E-01-1.44827E+00
 -1       879 8.62619E+00 8.37879E-01 7.96755E-01 4.51148E-01-2.55745E-01 5.31128E-01
 -1       880 6.32876E+00 1.22265E+00 1.47445E+00-8.42865E-02 2.09558E-01 6.83343E-01
 -1       881 4.49096E+00 4.05880E-02 5.52957E-01 2.32817E-01-2.89953E-02 1.01553E+00
 -1       882 4.21739E+00-4.97477E-01-5.73676E-01-2.71372E-01-5.51829E-01 5.18196E-01
 -1       883-3.01082E+00 3.57023E-01 1.08838E-01-2.81737E-01-3.58176E-02-3.59628E-02
 -1       884-4.90282E+00-3.66239E-02-4.90858E-01-2.44503E-01 3.46411E-01 5.10016E-01
 -1       885-4.42860E+00-2.44465E-01-3.05019E-01-1.03575E-01 7.68418E-03 6.42475E-01
 -1       886-8.77444E+00-9.49830E-01-1.07294E-01 2.24822E-01 1.98661E-01-9.83032E-01
 -1       887-5.31314E+00-3.65103E-01-3.29424E-01 9.77694E-02-6.39455E-02-5.99846E-02
 -1       888 0.00000E+00 0.00000E+00 0.00000E+00 0.00000E+00 0.00000E+00 0.00000E+00
 -1       889-4.91831E+00-3.72182E-01-4.51464E-01 1.87409E-01 1.99207E-01 4.50863E-01
 -1       890-4.90900E+00 1.33987E-01-2.39867E-01-2.54438E-01-1.01150E-01-4.27967E-01
 -1       891-7.50151E+00-9.32810E-02-3.13427E-01-2.27461E-01 4.27543E-01-7.92575E-01
 -1       892-3.32163E+00-9.73230E-03-3.49928E-01 1.04008E-01-5.31069E-02 4.28544E-01
 -1       893-1.59045E+00-1.44292E-01-1.11574E-01-1.55109E-01 1.15917E-01 3.56401E-02
 -1       894-1.18115E+00-3.26425E-02-1.66671E-01 2.28346E-01 4.50710E-02 3.40400E-01
 -1       895-9.99708E-01 6.19779E-02 1.15724E-01 3.87530E-02 8.03425E-02-1.36477E-02
 -1       896-1.24067E+00-2.37786E-01 3.62330E-02 9.21293E-02-8.11350E-02-2.21140E-01
 -1       897-1.93962E+00-1.84036E-01 1.66726E-03-1.07597E-02-7.52257E-02-9.41884E-01
 -1       898-2.14095E+00-7.23383E-02 6.89924E-02 1.87018E-02 1.16082E-01-1.19509E+00
 -1       899-1.16044E+00-1.15815E-01-3.71097E-01 6.15495E-02 4.81140E-02-5.31532E-01
 -1       900-2.02825E-02 1.80643E-01 8.18799E-02 9.52622E-02-1.80363E-02 2.76833E-02
 -1       901 1.29118E-01 2.50307E-02 2.62959E-01 3.06928E-02-1.36589E-02 1.68299E-01
 -1       902 2.52908E+00-1.32407E-01-1.08252E-01-2.16223E-01-7.33149E-02-1.15168E-01
 -1       903 2.15985E+00-3.97403E-02 2.73089E-01 3.05427E-01-5.89453E-02 2.04077E-01
 -1       904 3.51725E+00-2.50499E-01 7.16438E-03-4.07158E-01-8.98386E-03-5.88081E-01
 -1       905 3.03798E+00-1.45599E-01-1.41243E-01 3.61235E-01-4.91527E-02 6.57151E-01
 -1       906 7.61622E+00 1.90788E-01 6.99845E-01-7.95245E-01 1.36937E-01-1.02307E+00
 -1       907 8.49056E+00 4.61214E-01 2.50571E-01-3.02977E-01-3.31461E-01-5.20898E-01
 -1       908 4.07258E+00 3.33809E-02 3.60673E-01-2.87413E-01-1.07309E-01-4.31824E-01
 -1       909 2.20429E+00 1.56655E-02-2.69054E-01 1.64231E-01 9.27103E-02 1.95131E-01
 -1       910 1.35390E+00-6.49431E-02 2.38361E-01-4.01650E-03-2.29222E-03 8.81057E-02
 -1       911 8.96919E-01-7.89108E-02-2.84436E-01 1.11057E-01-5.37720E-02 2.84268E-02
 -1       912 7.34574E-01-6.32946E-02-3.54336E-01 1.30610E-01 9.15799E-03 1.85701E-01
 -1       913 2.79454E+00 6.22297E-01 3.31677E-01 7.74961E-02 2.48202E-01 9.51954E-01
 -1       914-2.58262E-01-2.01227E-01 5.13259E-02-8.34495E-02-5.68910E-02 2.00272E-01
 -1       915-8.74425E-03-1.09581E-01-1.68330E-01-5.51239E-02-2.07744E-02-4.45824E-02
 -1       916-1.97777E-01 2.56448E-02-2.73655E-01-3.98242E-02 5.70014E-02-8.45417E-02
 -1       917-1.05679E+00 8.03470E-02-8.60032E-02-9.43053E-02 7.73027E-02 6.15297E-01
 -1       918-3.30758E+00-2.01772E-01-1.95576E-01 3.05014E-01-7.52269E-02 4.14040E-01
 -1       919-2.75099E+00-3.24856E-01-4.12085E-01-1.13503E-01 4.93242E-02-2.28723E-01
 -1       920-4.13270E+00-5.79510E-01-3.54357E-01 1.02085E-01 9.05234E-02 4.93051E-01
 -1       921-4.07359E+00-1.78410E-01-3.81758E-01-5.31143E-01 4.03341E-02-5.34979E-01
 -1       922-9.62583E+00-1.95302E+00-6.33817E-01-8.33970E-01 4.74269E-01-3.58560E-01
 -1       923 0.00000E+00 0.00000E+00 0.00000E+00 0.00000E+00 0.00000E+00 0.00000E+00
 -1       924 0.00000E+00 0.00000E+00 0.00000E+00 0.00000E+00 0.00000E+00 0.00000E+00
 -1       925 0.00000E+00 0.00000E+00 0.00000E+00 0.00000E+00 0.00000E+00 0.00000E+00
 -1       926-1.87296E+00 3.24827E-01 4.29704E-01 6.22437E-01 3.73572E-01 1.13116E-01
 -1       927-2.67023E+00-3.21870E-01-5.05436E-01 1.44937E-01 1.56660E-01-3.20931E-01
 -1       928-1.15364E+00 5.44699E-02 2.08234E-01 1.83145E-01 1.47831E-01 8.36538E-02
 -1       929 2.64104E-01 6.39461E-02 5.95912E-02 6.85127E-02 1.60273E-03 1.13264E-01
 -1       930 7.72255E-01 4.96349E-02 5.18050E-02 4.70140E-02-2.70492E-03 5.89458E-03
 -1       931 1.03482E+00 1.70330E-01 1.08458E-02 5.06838E-02 6.96977E-02 2.96074E-01
 -1       932 1.62239E+00-6.85416E-02-4.07073E-02 6.01998E-01 3.86983E-02 3.30572E-01
 -1       933 1.27668E+00-3.46687E-01-3.23405E-01 1.80592E-01-3.07438E-01 3.27708E-01
 -1       934 2.61726E+00-4.19827E-02-7.18552E-02 4.75368E-02-2.31064E-01-3.33432E-01
 -1       935 2.04985E+00 2.04858E-01 2.24588E-01 5.74464E-02 2.36587E-02 1.57245E-01
 -1       936 9.35635E-01 8.96174E-02 2.94542E-01 2.15464E-01-5.57020E-02 8.91621E-02
 -1       937-3.39599E-01 6.89640E-02 1.29825E-01-8.66058E-02 1.19486E-01-7.65888E-02
 -1       938-1.03142E+00 4.20984E-02 3.98404E-02-5.16011E-02 1.28019E-02 3.44558E-02
 -1       939-2.83329E-01-6.10529E-06 3.81714E-01 1.42693E-01 6.33068E-02-7.75998E-02
 -1       940-1.72213E+00 2.24671E-01 2.23772E-02-1.66152E-01 2.00437E-02-2.78100E-01
 -1       941-7.93981E-01 4.37656E-02-4.21873E-02 1.71966E-01 1.90919E-01-3.15047E-01
 -1       942 0.00000E+00 0.00000E+00 0.00000E+00 0.00000E+00 0.00000E+00 0.00000E+00
 -1       943 0.00000E+00 0.00000E+00 0.00000E+00 0.00000E+00 0.00000E+00 0.00000E+00
 -1       944 0.00000E+00 0.00000E+00 0.00000E+00 0.00000E+00 0.00000E+00 0.00000E+00
 -1       945-2.17756E+00 7.47898E-01 1.11514E+00 1.73191E-01 2.84071E-02 1.12356E-01
 -1       946-2.04630E+00 8.17070E-01 1.09390E+00-1.68846E-02 9.77960E-02 1.83704E-01
 -1       947-1.42274E+00-1.34787E-01 4.31243E-01-2.64089E-02-8.87260E-02 3.71956E-02
 -1       948-1.87332E+00 2.01744E-01 5.43802E-01-1.43165E-01 8.76732E-02 4.50890E-01
 -1       949-2.19212E+00-2.69566E-01-1.50306E-01-4.10847E-01 9.32707E-04-3.25430E-01
 -1       950-1.72252E+00 8.92941E-02 2.10434E-01-3.72570E-01-3.62980E-02-2.45496E-01
 -1       951-2.67060E-01-3.24836E-02 3.21724E-01-1.17413E-01 6.72435E-02 1.06052E-01
 -1       952-7.86457E-01-5.75054E-02 2.49795E-01-8.99946E-03 2.26893E-01 1.59945E-01
 -1       953-4.55949E-01-1.17651E-02-5.46641E-02-5.31598E-03 7.39431E-02-4.17432E-02
 -1       954-6.60548E-01 7.24900E-02 5.78166E-02-2.14738E-02 3.71857E-02-1.65075E-02
 -1       955-2.31181E-01 1.44244E-01-7.12779E-02-1.23361E-01-6.31943E-03-6.52791E-02
 -1       956 1.21865E-01-3.09666E-02-1.87388E-01 7.46795E-02 8.22341E-03 1.29207E-01
 -1       957-6.83768E-02 7.98507E-03-8.61544E-03 4.26054E-02-4.14924E-02-3.60065E-02
 -1       958 3.99134E-01 9.89241E-03 9.67983E-02-7.68726E-03 3.42049E-02-1.39259E-02
 -1       959 1.25677E+00-2.61814E-01-2.08835E-01 1.79345E-01-1.88776E-01 3.35808E-02
 -1       960 2.19089E+00-5.75700E-01-3.55373E-01-8.02305E-02-2.70476E-01-3.30574E-01
 -1       961 2.99232E+00-6.06477E-02-3.40569E-01 8.24695E-01-1.76466E-01 5.01310E-01
 -1       962 1.93071E+00-4.44688E-02-3.87163E-01-5.76657E-03-2.55308E-01 5.15848E-01
 -1       963 2.85899E+00 1.10020E-01-1.02176E-01-3.93931E-01-1.85087E-01-4.92685E-01
 -1       964 1.88335E+00-2.81044E-01-3.05854E-01-1.30001E-01-1.74049E-01 5.46597E-02
 -1       965 1.69907E+00-1.97524E-01-2.97738E-01-1.63891E-01 3.96242E-02-2.75763E-01
 -1       966 1.90979E+00 1.48499E-04-1.28875E-01 5.30001E-01 8.45502E-03-1.81688E-02
 -1       967 1.78060E+00 3.44564E-02-9.53150E-02 2.67102E-01-4.33303E-02 1.76143E-01
 -1       968 3.71673E-01-4.23033E-02-6.43814E-02 8.46292E-02-6.47425E-02-1.94070E-02
 -1       969 1.11980E+00-2.47339E-01-3.01711E-01-2.09619E-01-2.31483E-01-3.31869E-02
 -1       970 1.65158E-01-1.51541E-02-8.98331E-02-2.87122E-02-1.64874E-02 3.06120E-02
 -1       971 3.38734E-01-6.44375E-02-1.02336E-01-4.61988E-02-6.22850E-02 9.57367E-04
 -1       972 2.50023E-01 1.36209E-02 1.08400E-01 1.42272E-01 1.62994E-02 2.21321E-01
 -1       973 2.07344E-01 7.54764E-02 5.56740E-02 8.02448E-03-3.81642E-02-1.83202E-01
 -1       974-4.81858E-02 1.53987E-01 3.13876E-01-9.02505E-02 9.72841E-02-5.06737E-02
 -1       975-5.93398E-01 2.13203E-02 1.68506E-01 7.06577E-02-4.98323E-03 1.38867E-01
 -1       976-1.43049E+00 2.65486E-01 2.72166E-01 3.17022E-01-2.64662E-02 2.03190E-01
 -1       977-1.78157E+00-2.77091E-02 1.67833E-01 7.80322E-02 2.67514E-01 2.56837E-01
 -1       978-2.24696E+00 2.63152E-01 3.35001E-01-6.37968E-01 2.76356E-01-3.79051E-01
 -1       979 0.00000E+00 0.00000E+00 0.00000E+00 0.00000E+00 0.00000E+00 0.00000E+00
 -1       980 6.84421E-01-1.04215E-01-2.40598E-01 2.15169E-02-1.52698E-01-1.01963E-01
 -1       981-1.20091E+00 5.05014E-01 1.42831E-01-3.61791E-02 1.71250E-01-4.29183E-02
 -1       982 0.00000E+00 0.00000E+00 0.00000E+00 0.00000E+00 0.00000E+00 0.00000E+00
 -1       983-1.34203E-01-7.56436E-02-2.53428E-01 1.36247E-02 5.02029E-02 3.74073E-02
 -1       984-4.08962E-02-1.57135E-01-8.62555E-02-1.34957E-02 7.45460E-02 2.71086E-02
 -1       985-3.23769E-01-2.10991E-01-6.63873E-02 3.58474E-02 1.08896E-01 1.09967E-02
 -1       986 9.77459E-01-6.78731E-02-3.57457E-01 6.61885E-02 1.68982E-01-9.55867E-02
 -1       987-1.93006E-01 8.23247E-02 1.24196E-01 4.31070E-02-8.20955E-02-7.14537E-02
 -1       988-3.72294E-02 4.72179E-02 5.60257E-02-8.97217E-03-8.12867E-02-4.28981E-02
 -1       989-8.19661E-02-6.56281E-03-2.31972E-03-2.54273E-02-8.85556E-02-7.92526E-02
 -1       990-8.25606E-01 3.40679E-01 4.48085E-01-1.44556E-01-9.08093E-02 3.28582E-02
 -1       991-2.39672E+00 3.79681E-01 3.30822E-01-2.48044E-01-1.17801E-02 2.56625E-01
 -1       992-2.21461E+00-1.85954E-01 1.42814E-01 5.15920E-01-1.69736E-01-1.31009E-01
 -1       993-9.64963E-01-1.77423E-01-3.15652E-02 1.40421E-02-1.00399E-02 1.14552E-01
 -1       994 0.00000E+00 0.00000E+00 0.00000E+00 0.00000E+00 0.00000E+00 0.00000E+00
 -1       995-2.28768E+00-7.50623E-01 4.62666E-01-1.15593E+00-2.06574E-01-7.40885E-02
 -1       996-2.35263E+00-5.45385E-01 4.92777E-01-7.03955E-01-2.55563E-01 1.01067E-01
 -1       997-2.31421E+00 2.02304E-01 4.39754E-01-4.72965E-01-1.34980E-01 1.36482E-01
 -1       998-2.56899E+00 1.13013E-01 3.42806E-01-1.50577E-01-1.68490E-01 2.00973E-01
 -1       999-2.52876E+00-3.10423E-01-4.13699E-01 1.21416E-01-2.42285E-02-1.52268E-01
 -1      1000-1.09043E+00 1.92442E-01 3.20501E-01-1.49055E-01-9.31077E-02 5.56000E-02
 -1      1001-1.02848E+00 1.20136E-01 1.59095E-01 2.23333E-02-1.34051E-01 1.30899E-02
 -1      1002-1.17217E+00-8.29998E-02 1.18022E-01 1.36791E-01 2.51694E-02-2.17285E-01
 -1      1003-2.79434E-01-1.74454E-01-1.98712E-02 9.89768E-02-1.51970E-02-1.45459E-01
 -1      1004-8.70186E-01-9.91851E-02-1.32328E-01 1.91456E-01 1.35709E-02-1.13309E-01
 -1      1005-3.38949E-01 3.95275E-02 7.48928E-02 6.38990E-02-4.81532E-02 1.52270E-01
 -1      1006-5.81420E-02 1.24235E-01-1.88632E-01 6.39091E-02-2.90152E-02 8.74419E-02
 -1      1007-1.45562E-01 1.17921E-01 1.58774E-01 2.18492E-02-1.25453E-02 4.82475E-02
 -1      1008 1.33799E+00-7.77704E-02 1.83793E-01 2.44959E-01-5.37701E-02-6.65750E-02
 -1      1009 2.05623E+00 3.44359E-01 4.45624E-01 5.03730E-02-3.35909E-02-1.53449E-01
 -1      1010 2.06100E+00-1.15723E-01-2.84699E-01-4.08638E-01 1.82941E-01 1.28544E-01
 -1      1011 2.78020E+00 2.74616E-01 1.46889E-01 1.02546E+00 2.04398E-01-1.13407E-01
 -1      1012 1.15394E+00-3.62889E-01-1.99338E-01 2.37400E-01 3.01902E-01-2.42586E-01
 -1      1013 2.72498E+00-5.74158E-01-4.08531E-01 4.52700E-01 1.02500E-01-3.37518E-01
 -1      1014 2.17165E+00-1.26760E-01-6.38009E-01-7.75967E-01 1.55163E-01 2.24797E-01
 -1      1015 1.62551E+00-2.43445E-01-5.89549E-01-3.11744E-01 3.32878E-01 2.33006E-01
 -1      1016 2.99043E+00-1.96104E-01-2.49892E-01-5.65093E-01 1.62302E-01 4.66365E-01
 -1      1017 2.28507E+00-5.83662E-01-8.28995E-01 7.10358E-01 1.60971E-01-7.99344E-02
 -1      1018 3.18278E+00-1.40852E-01-1.88005E-02 1.32225E-01 1.89179E-01-1.45411E-01
 -1      1019 2.98496E+00 5.34156E-01 1.70690E-01-7.73389E-02 1.77277E-01 1.95488E-01
 -1      1020 1.75298E+00-3.95022E-01-4.00193E-01-5.36052E-01 1.71383E-01 3.11055E-01
 -1      1021 3.65066E+00-4.15350E-01-1.08923E-01-9.48802E-02-6.14083E-02 5.24853E-01
 -1      1022 2.04016E+00-1.44537E-01-3.20280E-01 3.12467E-01 1.83385E-01-2.45944E-01
 -1      1023 1.56975E+00-1.07764E-01-1.74656E-01 6.67854E-02 2.38801E-01-2.50653E-01
 -1      1024 2.56127E+00 4.99530E-01 3.79351E-01 2.29366E-02-2.46623E-02 7.69161E-02
 -1      1025 5.91562E-01-1.26781E-01-1.29560E-01-1.38561E-01 1.53479E-02 6.22288E-02
 -1      1026 1.40349E+00 1.25973E-01 3.48190E-01 2.79482E-01-1.56920E-01-2.94965E-01
 -1      1027 1.14288E+00-1.02960E-01-3.27874E-01-9.11663E-03 3.90745E-02 1.15606E-02
 -1      1028 6.90269E-01 1.04171E-01 1.67014E-01-1.36873E-01 2.38608E-03 1.22734E-01
 -1      1029 1.45565E-01 8.68640E-02 2.80743E-02-5.01133E-02 5.09342E-02-1.46353E-01
 -1      1030-6.23645E-02 8.54961E-02 1.39375E-01 2.97072E-02-5.64478E-03-6.56787E-02
 -1      1031 1.07109E-01 9.26962E-03-1.91007E-01-1.11956E-01 3.32932E-02-4.45012E-02
 -1      1032-6.29471E-01 1.06037E-01 2.13725E-01-1.12834E-01-1.08935E-02 1.98626E-01
 -1      1033-6.66115E-01-5.92958E-02-8.96870E-02-1.34538E-01-2.82616E-02 3.81165E-02
 -1      1034-1.13449E+00-1.69555E-01-5.69896E-02 6.77386E-02-7.07817E-02 2.05005E-02
 -1      1035-1.06784E+00 4.30630E-02 3.46753E-01 4.48348E-01-7.03458E-02-4.08201E-02
 -1      1036-1.18813E+00 3.26540E-02 1.66394E-02 1.58378E-01-8.24081E-02-6.12851E-02
 -1      1037-2.62994E+00-7.23054E-02 1.81217E-01-1.10363E+00 1.19254E-01 1.70100E-01
 -1      1038-2.34421E+00-3.28719E-01 1.18168E-01-3.58784E-01 9.91582E-02 1.79991E-01
 -1      1039-2.82487E+00 2.16457E-01 6.93049E-01 3.23680E-01-1.76850E-01-3.10652E-01
 -1      1040 0.00000E+00 0.00000E+00 0.00000E+00 0.00000E+00 0.00000E+00 0.00000E+00
 -1      1041 0.00000E+00 0.00000E+00 0.00000E+00 0.00000E+00 0.00000E+00 0.00000E+00
 -1      1042-3.39290E+00 8.00371E-02 8.15681E-01-5.87625E-01-1.42796E-01 5.40960E-01
 -1      1043-3.39849E+00-3.68731E-01-1.47167E-01-1.81236E-02-1.55285E-01-2.05385E-01
 -1      1044-1.96708E+00 7.53690E-02-9.09209E-02 2.15325E-01-2.29635E-01-1.06410E-01
 -1      1045-1.52408E+00-1.59046E-01-3.34803E-01-2.13192E-01 2.59874E-02 3.56933E-01
 -1      1046 1.15336E+00-3.55990E-02-1.61665E-01 1.37500E-01-8.46173E-02-3.96104E-01
 -1      1047 2.68561E+00 3.02161E-01-5.57201E-02 2.98867E-01-1.48205E-01-1.17544E+00
 -1      1048 1.33704E+00-7.12050E-02 9.32766E-02-4.14709E-02 8.57194E-02 6.78184E-02
 -1      1049 3.14693E+00-4.71395E-01-2.84974E-01 5.04614E-01 5.26128E-02-4.54703E-01
 -1      1050 2.12077E+00 3.67868E-02 8.98740E-02-2.43536E-01 9.04322E-02 8.17716E-02
 -1      1051 1.00129E+00 1.30606E-01 7.70002E-02-1.27801E-02 7.50167E-02 6.14207E-02
 -1      1052 1.08937E-01 8.24997E-03 1.59705E-01 2.24040E-02 5.16304E-02 6.24224E-02
 -1      1053 2.26258E-01-2.45240E-01 9.74957E-03-1.47883E-01-1.55781E-03 8.25164E-01
 -1      1054-3.85617E+00 1.41142E-02 2.15230E-01-5.17212E-01 3.97330E-02 3.36880E-01
 -1      1055 0.00000E+00 0.00000E+00 0.00000E+00 0.00000E+00 0.00000E+00 0.00000E+00
 -1      1056 0.00000E+00 0.00000E+00 0.00000E+00 0.00000E+00 0.00000E+00 0.00000E+00
 -1      1057 0.00000E+00 0.00000E+00 0.00000E+00 0.00000E+00 0.00000E+00 0.00000E+00
 -1      1058 0.00000E+00 0.00000E+00 0.00000E+00 0.00000E+00 0.00000E+00 0.00000E+00
 -1      1059 0.00000E+00 0.00000E+00 0.00000E+00 0.00000E+00 0.00000E+00 0.00000E+00
 -1      1060-7.37492E+00-7.86728E-01 2.86694E-01-1.37145E+00-9.56307E-02 5.19787E-01
 -1      1061-3.24224E+00 8.85666E-02-1.43513E-01 7.24347E-01-4.67294E-02-5.50107E-01
 -1      1062-7.75188E+00-3.84987E-01-4.14373E-01 6.13540E-01 2.87933E-02-1.08885E+00
 -1      1063-7.88979E+00-4.62616E-01-1.08524E+00-3.82337E-01-2.81751E-01-1.47570E-01
 -1      1064-2.38424E+00-7.06540E-02 4.23306E-02-5.82521E-03-9.98901E-02-2.08103E-01
 -1      1065-4.63826E+00-3.01968E-01-4.91277E-01 2.88839E-01-1.29044E-01-1.22537E+00
 -1      1066-1.00220E+00 3.75968E-01 1.71005E-01 2.04828E-02-3.46718E-01-6.12410E-01
 -1      1067 3.46617E-01-2.07156E-01 1.39494E-01-7.85697E-02 1.25055E-01-6.34658E-01
 -1      1068 2.49938E+00-1.12336E-01 2.65450E-01-1.07978E-02-2.49522E-02-2.57931E-01
 -1      1069 4.62564E+00 2.26578E-01 3.22185E-01-8.14460E-02 3.69806E-03-2.85550E-01
 -1      1070 5.36199E+00 2.74659E-01-1.99025E-01-1.64321E-01 1.78426E-01-3.14566E-01
 -1      1071 5.95335E+00 3.32138E-01 6.58722E-01-3.95436E-01-1.65229E-02 6.54111E-01
 -1      1072 8.01769E+00 6.68114E-01 6.12318E-01-2.73682E-01 1.12704E-01 7.58263E-01
 -1      1073 1.20654E+01 9.44778E-01 6.87821E-01-8.93825E-01 3.57758E-02 1.08086E+00
 -1      1074 4.26318E+00-5.25397E-01-3.11562E-02 4.62771E-01-9.27181E-02-1.10939E+00
 -1      1075 8.23699E+00 3.15128E-01 8.53803E-01-4.20171E-01-3.51776E-01 1.28260E+00
 -1      1076 5.97020E+00 3.66917E-01 5.29068E-01-1.10662E+00-1.49260E-01 1.56892E+00
 -1      1077 7.87278E+00 4.61434E-01 1.66880E-01 2.91810E-01 6.85478E-01 2.47007E-01
 -1      1078 2.23510E+00-1.49075E-01-2.05915E-01 2.12204E-01-1.61877E-02 1.85869E-01
 -1      1079 3.93112E+00 2.10294E-02 4.24400E-02-4.35638E-03 2.59106E-02 8.94928E-01
 -1      1080 2.40779E+00 3.53485E-01 2.71127E-01-2.01242E-01-1.17836E-01 7.45024E-01
 -1      1081 6.88644E-01-5.54403E-02-5.31321E-02-1.15348E-01 5.88027E-02 1.77798E-01
 -1      1082 3.01273E-01 6.82774E-01 2.73737E-01-1.52890E-01-1.09431E-01 5.26140E-01
 -1      1083-2.65374E+00-2.04627E-01 3.75760E-02-1.97224E-01 1.02973E-01 6.68750E-01
 -1      1084-2.88923E+00-4.29528E-01-4.47471E-01-3.30937E-01 4.50461E-02 9.47038E-01
 -1      1085-3.72783E+00 5.62513E-02-5.18588E-01 1.30465E-01-2.10691E-01 4.83934E-01
 -1      1086-5.85725E+00-7.06831E-01-4.04636E-01 1.40086E-01 1.69466E-01 8.37269E-01
 -1      1087-6.66098E+00-3.90916E-02 7.35780E-03 1.54530E-01 9.89860E-02 1.35686E-02
 -1      1088-5.72902E+00-4.11285E-01-2.34695E-02-1.50241E-02 2.05872E-02 1.85603E-01
 -1      1089-8.97492E+00-8.08808E-01-7.17328E-01-7.37748E-01-1.90911E-01 6.84264E-01
 -1      1090-4.00339E+00-5.89486E-01 1.61365E-01 4.91304E-01-3.92947E-01-1.84542E-01
 -1      1091-1.02990E+01-3.00285E+00-1.92231E+00 2.26703E+00-6.56330E-01-3.47148E-01
 -1      1092 0.00000E+00 0.00000E+00 0.00000E+00 0.00000E+00 0.00000E+00 0.00000E+00
 -1      1093-8.50263E+00-1.16194E+00-1.46204E+00-1.32707E+00-9.04937E-02 7.66253E-01
 -1      1094-1.00246E+01-2.77910E+00-7.03905E-01-1.61451E+00-7.28334E-01 7.79555E-01
 -1      1095 1.33093E+00 1.02146E-02 1.24945E-01 5.64238E-02 5.38827E-02-9.31053E-01
 -1      1096 6.09051E-01-6.28640E-01-5.45111E-01 8.83158E-02 1.11588E-01-9.60231E-01
 -1      1097 3.98753E+00 1.53218E-01 2.02941E-01-1.45559E-01 1.61794E-01-4.45177E-01
 -1      1098 6.17231E+00-1.41958E-01 2.42550E-01 2.37242E-01 3.69692E-01-7.17003E-01
 -1      1099 1.19590E+01 1.69834E+00 1.52950E+00 4.06774E-01 7.39706E-01-9.52761E-01
 -1      1100 7.20385E+00 9.94737E-03-3.18164E-01 3.60419E-01 5.86649E-01 3.13845E-02
 -1      1101 4.70573E+00-3.72793E-01-2.69703E-01 2.50211E-01 4.66975E-01 4.87125E-01
 -1      1102 1.70376E+00-6.13701E-01 1.74167E-01-2.63542E-01 2.78029E-03 6.07195E-01
 -1      1103-1.80924E-01 6.55213E-01 1.78523E-01-1.95852E-01 3.83938E-02 7.51354E-01
 -1      1104-1.17154E+00 1.64678E-01-1.41772E-01-1.25055E-01 6.34237E-03 7.77282E-01
 -1      1105-7.50262E+00-8.73692E-02-5.86989E-01-4.48119E-01-3.05489E-01 1.13057E+00
 -1      1106-1.17778E+01-2.34348E+00-2.61288E+00-3.92986E-01-1.74564E-01 1.95746E+00
 -1      1107-7.46678E+00-1.13598E+00-2.45833E-01 1.34204E+00-3.66938E-01-1.56693E-01
 -1      1108 0.00000E+00 0.00000E+00 0.00000E+00 0.00000E+00 0.00000E+00 0.00000E+00
 -1      1109 0.00000E+00 0.00000E+00 0.00000E+00 0.00000E+00 0.00000E+00 0.00000E+00
 -1      1110-3.01991E+00 6.14402E-01 1.16560E-01 2.16005E-01 1.74101E-02-4.92604E-01
 -1      1111-3.66629E+00 1.53361E-01 1.50419E-01 3.20626E-01-1.85108E-01-1.18253E+00
 -1      1112-1.64018E+00 5.73028E-02 2.71942E-01-2.06075E-02-4.30269E-03-3.93724E-01
 -1      1113-2.52662E+00-4.50240E-01-1.06575E-01 2.08614E-01 6.05509E-02-9.87535E-01
 -1      1114-3.21649E+00-7.34123E-01-3.01657E-01 1.21844E-01 1.49525E-01-9.58057E-01
 -1      1115-2.51266E-01-1.87027E-01-3.90719E-01 1.19048E-01 4.48313E-02-1.09627E-01
 -1      1116-3.06850E-01-1.74189E-01 7.30899E-02 5.56350E-02 1.69863E-02-5.68620E-02
 -1      1117 1.85853E+00-2.20466E-02-4.78185E-01 2.85527E-01 9.94141E-02-8.44342E-01
 -1      1118 4.28042E+00 3.95626E-01 3.14465E-01 3.46412E-01 1.17312E-02-9.91260E-01
 -1      1119 3.32957E+00 5.30559E-02-3.22297E-01 3.08529E-01-1.06948E-03-7.04398E-01
 -1      1120 7.88989E+00-1.94009E-01 3.41204E-01 1.00972E+00-8.83697E-02-4.73039E-01
 -1      1121 4.88459E+00-4.76636E-01-1.09314E-01 2.82130E-01-1.40771E-01-1.27096E+00
 -1      1122 4.28845E+00-3.92123E-02 1.61770E-01-1.59983E-01 9.47908E-02 1.01068E+00
 -1      1123 2.34401E+00-2.70436E-01-4.00323E-01-2.31938E-02 2.20206E-03 2.43302E-01
 -1      1124 1.09030E+00 1.00686E-01 4.31510E-01 3.59815E-03-1.27007E-01-6.41979E-02
 -1      1125 1.90669E+00 3.02844E-01 5.29633E-01-1.81018E-01-3.38269E-02 8.64216E-01
 -1      1126-6.04477E-01-5.30370E-01-7.89510E-01-1.76368E-01-4.17554E-01 3.62649E-01
 -1      1127-2.44605E-02 9.78779E-02 2.99525E-01-3.27889E-02-4.45219E-02 1.41023E-01
 -1      1128 6.25001E-02 2.46738E-03-1.98805E-01-6.16719E-02-1.94624E-02 8.93324E-02
 -1      1129-2.31674E+00-5.73322E-03 4.32503E-01-2.58206E-01-2.00450E-01 7.43581E-01
 -1      1130-2.23959E+00 5.34148E-01 4.26909E-01 9.78625E-02 3.34497E-02 3.45240E-01
 -1      1131-1.83235E+00 5.32816E-01 3.40017E-01 1.76351E-01 1.31356E-02-6.34585E-02
 -1      1132-4.45795E+00-2.81681E-01-1.41481E-01-4.19623E-02-6.10008E-03 8.46317E-01
 -1      1133-2.30765E+00 3.56766E-01-8.64908E-02-1.90227E-01-1.54461E-01 2.39364E-01
 -1      1134-2.29802E+00 3.64064E-01 4.93315E-01-3.74980E-03-3.44009E-02-3.52926E-01
 -1      1135 6.56651E-01-2.60996E-01-2.67479E-01-9.89007E-03 7.10970E-02-1.10224E-01
 -1      1136 8.28388E-01-3.70923E-01-7.86188E-02 1.13065E-01-4.36785E-02-2.56002E-01
 -1      1137 1.96081E+00-4.37800E-01-4.22209E-01-1.01751E-01-1.05410E-01-2.43060E-01
 -1      1138 3.12960E+00-6.04299E-01-1.93316E-01 6.68642E-02-6.35231E-02-6.87133E-01
 -1      1139 2.73127E+00-1.60893E-01 3.00322E-01-6.53647E-02 9.17901E-03-4.91329E-02
 -1      1140-1.05067E+00 3.36624E-01 4.24000E-01-1.60019E-02 8.13443E-03 2.60544E-01
 -1      1141-1.55666E+00-1.94474E-02-3.47279E-01 7.03009E-02 2.23081E-03-1.25162E-01
 -1      1142 0.00000E+00 0.00000E+00 0.00000E+00 0.00000E+00 0.00000E+00 0.00000E+00
 -1      1143-5.85450E+00 4.09628E-01 1.47676E-01 8.17240E-01 2.67027E-02 9.15640E-01
 -1      1144-7.06222E+00-5.81087E-02-6.11689E-01 1.41510E-01 2.05976E-01-2.51972E-01
 -1      1145-3.85461E+00 1.42831E-01 2.90429E-03-4.60839E-01-3.80477E-01-1.05075E+00
 -1      1146 1.33582E+00 1.86561E-02 5.41742E-02-8.58706E-02 5.11801E-02-4.57445E-01
 -1      1147 1.39621E+00 8.62995E-02 4.36964E-01 1.33584E-01 2.94371E-03-5.02072E-01
 -1      1148 3.46275E+00-3.85728E-02-3.80000E-02-2.61552E-01-3.73644E-02-7.14560E-01
 -1      1149 2.37415E+00-4.62883E-01 5.99404E-02 3.52084E-01-9.26125E-02-7.57705E-02
 -1      1150 8.83543E+00 4.13393E-01 7.26399E-01-3.34632E-01-2.38117E-01-7.43791E-01
 -1      1151 3.86133E+00 3.27240E-01 5.53535E-01 6.87232E-01 1.32012E-01 9.97815E-01
 -1      1152-1.81025E+00 6.72739E-02 1.51043E-01 2.46052E-01 4.35467E-02 1.06761E+00
 -1      1153-1.89498E+00 9.48281E-02-4.47879E-01 5.31565E-02 4.44791E-02 2.12172E-02
 -1      1154 0.00000E+00 0.00000E+00 0.00000E+00 0.00000E+00 0.00000E+00 0.00000E+00
 -1      1155 0.00000E+00 0.00000E+00 0.00000E+00 0.00000E+00 0.00000E+00 0.00000E+00
 -1      1156-8.38859E+00 5.18193E-01 8.23511E-01 1.28349E+00 1.61775E-01 1.63959E+00
 -1      1157-8.87708E+00-2.63484E-01-1.19139E-01-5.01915E-01 2.80088E-01-1.12431E+00
 -1      1158-4.03228E+00-4.82464E-02 7.06239E-02-3.31177E-01 7.56383E-02-4.30830E-01
 -1      1159-6.46977E+00-8.34077E-01-1.07039E+00-3.22557E-01-4.35567E-01-1.71026E+00
 -1      1160-2.37377E+00 4.95550E-01 2.14793E-01 2.18215E-02 1.98930E-01-2.19267E-01
 -1      1161-2.12821E+00-2.72051E-01-5.69260E-01-2.80915E-01 7.23697E-02-1.06795E+00
 -1      1162-1.84597E+00-1.25229E-01 4.04762E-03 7.06727E-02-3.21590E-02-8.20236E-01
 -1      1163-1.21659E+00 2.92031E-02-9.62937E-02 1.36220E-01 6.18529E-02-6.41266E-01
 -1      1164 3.18734E+00-1.18261E-01-3.77246E-01 2.67159E-01-8.71997E-02-3.47208E-01
 -1      1165 8.78643E+00 6.96487E-01 9.17001E-01 5.08006E-01-1.92700E-01 1.45741E+00
 -1      1166 9.15082E+00 7.46878E-01 8.86892E-01-5.75730E-01-9.80159E-02-1.63361E+00
 -1      1167 9.93655E+00 4.89281E-01 1.60269E-01 7.51105E-01-2.04103E-01 1.90429E+00
 -1      1168 4.13155E+00-6.47456E-02-3.23397E-02 5.17151E-01-2.21978E-01 5.11555E-01
 -1      1169 8.05828E+00 5.97311E-01 4.64307E-01-1.22185E-01-2.36863E-01 4.46906E-01
 -1      1170 3.04868E+00 1.53618E-01 4.35632E-01 9.50439E-02-3.74094E-02 6.86544E-01
 -1      1171 2.70743E+00 6.04809E-01 1.98368E-01 1.84088E-01 2.44998E-01 1.15073E+00
 -1      1172 1.46447E+00 3.37516E-01 4.73368E-01-2.49380E-01-1.19537E-01 5.83661E-01
 -1      1173-4.61111E-01-6.00555E-01-1.06634E-01-1.26574E-01-4.45013E-02 7.29904E-01
 -1      1174-6.43131E-01 4.17505E-03-2.26519E-01-3.21400E-02 9.59653E-03 5.63342E-01
 -1      1175-1.59793E+00 4.93186E-02 4.10885E-01 3.88992E-02 7.57482E-02 2.76467E-01
 -1      1176-4.04992E+00-8.34559E-02-5.45592E-01-2.81986E-01 2.07284E-01 4.20366E-01
 -1      1177-9.58068E+00-2.07689E+00-1.05117E+00 4.34401E-01-7.03041E-02 1.09196E+00
 -1      1178-8.78588E+00-2.40940E+00-5.20903E-01-1.29273E+00 1.40131E-01-1.06419E+00
 -1      1179 0.00000E+00 0.00000E+00 0.00000E+00 0.00000E+00 0.00000E+00 0.00000E+00
 -1      1180 1.89924E-01-4.21256E-01-5.81182E-01 4.07969E-02-1.66527E-01-7.60809E-01
 -1      1181 4.57370E+00 3.09202E-01 7.58159E-01 1.39679E-01 2.88628E-03 7.80681E-01
 -1      1182-3.17107E+00-1.13159E+00-1.32234E+00 2.29687E-01-3.29181E-01 1.21427E+00
 -1      1183 0.00000E+00 0.00000E+00 0.00000E+00 0.00000E+00 0.00000E+00 0.00000E+00
 -1      1184-9.55199E+00-1.12226E+00-4.75964E-01 9.56372E-01 1.06323E-01 9.52914E-01
 -1      1185-1.10267E+00-1.59524E-01-9.10756E-02 1.06339E-01-1.17429E-01-1.17111E-01
 -1      1186-2.05584E+00-3.46413E-01-5.49354E-01 6.08094E-02-2.48889E-02-8.60883E-01
 -1      1187 1.89220E+00 4.38137E-01 5.72834E-01 5.66750E-02 2.23571E-01-5.77103E-01
 -1      1188 9.57177E-01-1.09971E-01-7.13345E-02 1.05759E-01-1.34837E-01 9.77115E-02
 -1      1189 2.15014E+00 2.65222E-01 1.82363E-01 4.02625E-02-6.07315E-02-1.94326E-01
 -1      1190 4.77445E+00 1.66639E-01 3.86515E-01-4.60601E-01-7.39275E-03-1.26670E+00
 -1      1191 3.95579E+00 1.52269E-01 3.56282E-01 5.69318E-02 1.13037E-01-6.80044E-01
 -1      1192 2.10040E+00-2.61759E-01-8.63397E-02-3.17324E-01-6.11743E-02-1.20308E-01
 -1      1193 2.85811E+00-2.83781E-01 1.31216E-01 4.95100E-01-9.02913E-02 2.27067E-01
 -1      1194 5.52156E+00 2.63503E-01 4.09167E-01 6.36430E-01-1.81122E-01 4.38242E-02
 -1      1195 7.61674E+00 1.93613E-01 4.61385E-01-9.57695E-01 3.03366E-02-2.01814E+00
 -1      1196 7.26841E+00 5.27572E-01 3.79323E-01-3.01482E-01 1.42112E-01-1.14085E+00
 -1      1197 3.30793E+00-3.75346E-01-2.53001E-01 5.43609E-01 1.82749E-02 7.24711E-01
 -1      1198 8.65355E+00 3.52392E-01 1.73618E-01-2.06129E-01-1.39610E-01-6.70493E-01
 -1      1199 4.05034E+00-7.53608E-02 1.58249E-01-4.24451E-01-1.76880E-01-4.28277E-01
 -1      1200 2.21361E+00-3.61552E-01-2.60727E-01 1.72198E-01-2.74977E-01 1.84030E-01
 -1      1201 3.29154E+00 2.90408E-01 1.45649E-02 2.51928E-01 1.32948E-01 1.33500E-02
 -1      1202 1.11783E+00-9.61039E-02 2.12363E-01-1.86436E-01-5.47279E-02-3.09733E-01
 -1      1203 4.85770E+00 2.56719E-01 5.35896E-01-1.34373E-01-2.97572E-01 8.25676E-01
 -1      1204 1.56750E-01 4.13736E-02 1.64258E-01-6.20911E-02 9.94932E-05-8.53215E-02
 -1      1205-1.20867E-01-8.70950E-02-2.72735E-02-7.33225E-02-1.31916E-02 8.31119E-02
 -1      1206-2.30912E-01-6.88352E-02-1.69399E-01-5.01157E-02 1.41180E-04-7.86309E-02
 -1      1207-1.71664E+00 8.14166E-02-1.84895E-01-1.96017E-01 1.46642E-01-9.36293E-02
 -1      1208-5.45458E+00-3.92703E-01-5.61637E-01 4.32584E-01 9.19347E-02 1.44087E+00
 -1      1209-4.93710E+00-4.96656E-01-8.63886E-01 1.48888E-03-2.18559E-01 8.15743E-01
 -1      1210-2.17841E+00 5.45523E-01 1.21004E-01-3.03723E-01 2.69903E-01-1.57985E-01
 -1      1211-6.92902E+00-6.89703E-02 4.14973E-02-4.41462E-01 2.95974E-01 1.10673E-01
 -1      1212-3.64683E+00-1.17960E-02 3.48747E-02 4.09432E-01 1.05423E-01 5.20308E-01
 -1      1213-3.13327E+00-8.43874E-02 1.85039E-02-6.89388E-01-6.84831E-02-6.35461E-01
 -1      1214 0.00000E+00 0.00000E+00 0.00000E+00 0.00000E+00 0.00000E+00 0.00000E+00
 -1      1215 0.00000E+00 0.00000E+00 0.00000E+00 0.00000E+00 0.00000E+00 0.00000E+00
 -1      1216-1.08940E+00 2.06896E-01 4.50854E-01 1.29643E-01 3.21803E-01 3.51247E-01
 -1      1217-1.22356E+00-1.57161E-01 2.01228E-01 1.44892E-01 2.81910E-01 2.61232E-01
 -1      1218-1.18191E+00 3.10146E-02 2.78189E-01 3.19579E-01 1.88921E-01 1.17289E-01
 -1      1219-1.94634E-01-2.99366E-02 4.77270E-02 5.64930E-02 4.45292E-02-1.83760E-02
 -1      1220 8.73396E-01 1.28259E-01 1.83698E-02 4.33416E-02-7.96587E-02-4.02910E-02
 -1      1221 7.65990E-01 5.62926E-03-2.38810E-01 5.67235E-02-1.05637E-01-6.24316E-03
 -1      1222 1.98861E+00 2.45163E-02 4.64063E-02-5.55689E-01-1.78660E-01-8.48816E-02
 -1      1223 1.54459E+00-6.39386E-01-3.45337E-01 1.75646E-01-4.04568E-01 1.14167E-01
 -1      1224 1.78503E+00-4.61184E-01-4.96760E-01-1.56379E-01-2.98681E-01-2.02874E-01
 -1      1225 1.99246E+00-1.71916E-01-3.19238E-01 1.22836E-01-1.72525E-01-1.83996E-01
 -1      1226 1.71793E+00 3.24652E-01 3.77193E-01-2.35624E-02 3.02922E-02 9.14874E-02
 -1      1227 1.03311E-01-7.97363E-02 9.92865E-02-8.87339E-02-1.01847E-01-8.77244E-02
 -1      1228-1.11807E+00-1.75660E-01-5.53986E-02 9.59277E-03 8.01710E-02 4.50771E-02
 -1      1229-8.39933E-01-2.70446E-03 2.53272E-01-9.36559E-02 1.05075E-01-1.72961E-01
 -1      1230-1.96097E+00 2.95474E-01 3.04027E-01-5.03438E-01 9.31321E-02-3.59132E-01
 -1      1231-1.24108E+00 5.60524E-01 4.29263E-01-1.72960E-01 4.37783E-01-2.14072E-01
 -1      1232 0.00000E+00 0.00000E+00 0.00000E+00 0.00000E+00 0.00000E+00 0.00000E+00
 -1      1233 0.00000E+00 0.00000E+00 0.00000E+00 0.00000E+00 0.00000E+00 0.00000E+00
 -1      1234 0.00000E+00 0.00000E+00 0.00000E+00 0.00000E+00 0.00000E+00 0.00000E+00
 -1      1235-2.50077E+00 3.34729E-01 8.63507E-01 3.52256E-01-1.29379E-03 1.17329E-01
 -1      1236-1.59581E+00 9.09056E-01 1.05924E+00-2.08269E-03 2.02986E-03 2.83715E-01
 -1      1237-3.02204E+00-4.66312E-01-1.69742E-01-8.13994E-01-1.05175E-01-4.60331E-01
 -1      1238-2.19748E+00 1.17852E-02 2.86693E-01-2.34312E-01 4.17212E-02-3.12159E-01
 -1      1239-1.72989E+00 2.54842E-01 5.22206E-01 3.15690E-01 2.17998E-01 2.82995E-01
 -1      1240-1.26958E+00 1.95045E-02 1.60790E-01-7.70933E-02-3.38680E-02-5.21219E-02
 -1      1241-7.52290E-01-2.23300E-01 3.02699E-01 4.98826E-02 2.00668E-01 1.68262E-01
 -1      1242-8.82086E-01-4.93743E-02-1.48274E-03-1.81988E-01 1.54829E-02-9.39595E-02
 -1      1243-1.93166E-01 7.10159E-02 8.79486E-02 8.83797E-02-5.02494E-02 1.40735E-01
 -1      1244-4.78606E-02 3.10250E-02-3.29139E-02 4.85726E-02 3.62279E-02-6.16693E-03
 -1      1245 7.89325E-02 9.32690E-02 8.34141E-02 3.19275E-02 2.14762E-02 5.10508E-02
 -1      1246 3.13490E-01 6.46560E-02-3.66250E-02-9.13595E-02 3.71805E-02-8.48240E-02
 -1      1247 1.17485E+00-2.56854E-01-1.83463E-01-1.18062E-01-1.47542E-01 4.82168E-02
 -1      1248 2.39170E+00-9.28787E-02-2.32019E-01-2.67973E-01-1.27580E-01-2.95953E-01
 -1      1249 2.89278E+00 1.15926E-01-3.89868E-01 9.89764E-01-3.63704E-01 3.12282E-01
 -1      1250 1.86091E+00-2.37792E-01-4.33102E-01 2.76983E-01-3.87934E-01 4.17585E-01
 -1      1251 2.41187E+00-8.71688E-02-5.54054E-01-6.55946E-01-1.11691E-01-3.43495E-01
 -1      1252 1.45522E+00 2.24415E-02-2.53869E-02 3.25032E-01 4.03209E-02 3.95107E-02
 -1      1253 5.44937E-01 1.83699E-01-7.89274E-03 8.18419E-02-1.38106E-01-2.89959E-01
 -1      1254 3.80684E-01 3.36679E-02-2.41093E-02 9.70288E-02-4.04142E-02 4.86219E-03
 -1      1255 4.45006E-01-1.28989E-01-2.10204E-01 4.62822E-02-8.27861E-02-1.02415E-01
 -1      1256 7.16092E-02-1.24089E-02-4.61644E-03 6.68613E-02-9.69518E-03 4.36245E-02
 -1      1257 1.88057E-01-9.68906E-02 2.48662E-02-3.27918E-02-9.95134E-02-1.65949E-01
 -1      1258-1.18247E-01 7.08122E-02 2.44430E-01-4.73008E-02 2.40392E-04-5.09720E-02
 -1      1259-4.01059E-01-4.06996E-02 4.83193E-02-4.86545E-02 6.54990E-03 1.76086E-03
 -1      1260-5.94703E-01 7.68010E-02 1.79973E-01 1.26660E-01 7.35034E-02-1.76034E-02
 -1      1261-3.88332E-02 7.04600E-02 2.61342E-01-8.18381E-02 1.90888E-01-5.60372E-03
 -1      1262-1.11082E+00 3.54626E-01 3.54308E-01 1.23622E-01 6.24878E-02 7.23294E-02
 -1      1263-2.03472E+00-3.83790E-01 2.07056E-01 1.55717E-01 2.66057E-01 1.64090E-01
 -1      1264-2.10584E+00-3.08955E-01 3.51346E-01-9.18202E-01 1.20414E-01-3.26882E-01
 -1      1265-1.57086E+00-9.37133E-02 3.50183E-01-5.81026E-01 1.94509E-01-3.58209E-01
 -1      1266 0.00000E+00 0.00000E+00 0.00000E+00 0.00000E+00 0.00000E+00 0.00000E+00
 -1      1267 5.29195E-01 6.99791E-02-1.60719E-01 1.18338E-02-1.25493E-01-1.59509E-01
 -1      1268-1.95291E+00 1.16836E-01 8.00360E-02 4.31879E-02-6.35330E-02-2.07426E-01
 -1      1269-5.76251E-01 8.58770E-02 1.80628E-01-1.94371E-02 1.25688E-02 2.63091E-02
 -1      1270-7.64107E-03-5.64364E-02-1.32616E-01 3.93554E-02 1.11048E-02 1.00376E-01
 -1      1271 1.33759E-01 7.53809E-02 1.11887E-01-1.64270E-02 5.22012E-02 2.08298E-01
 -1      1272-1.62765E-02-1.46884E-02-2.52155E-02 1.57852E-02 3.74408E-02 9.36422E-02
 -1      1273 1.54344E+00 6.54970E-02 8.72960E-02-2.15409E-01 1.16364E-01 2.12818E-01
 -1      1274 7.80521E-01 6.95523E-02 2.07527E-02 2.04985E-02-5.17084E-02 5.72177E-02
 -1      1275 1.40636E+00-1.46502E-01 2.01419E-01 2.71292E-01-1.09687E-01-3.01404E-01
 -1      1276 1.97061E+00-3.52682E-02 6.98876E-02 2.15619E-01-1.20785E-02-2.98620E-01
 -1      1277 2.76721E+00 2.66157E-01 2.34288E-01 7.06972E-02-1.02910E-01-1.00953E-01
 -1      1278 2.05088E+00-1.56285E-01-4.88388E-01-1.73543E-01 1.84925E-01-2.58963E-02
 -1      1279 2.78282E+00-1.60067E-02-5.84871E-03-2.76454E-01 1.89020E-01 3.61478E-01
 -1      1280 8.82148E-01-1.12529E-01-2.85549E-01 1.06994E-01-2.76049E-02-8.69419E-02
 -1      1281 2.08402E+00-2.53268E-02-5.35510E-01-6.31542E-02 7.54802E-02 1.52803E-01
 -1      1282 4.24985E+00 6.12254E-02 3.22506E-01-5.13962E-01 7.62213E-02 4.64758E-01
 -1      1283-2.38406E-02-1.77340E-02 1.47059E-01 7.86601E-02-4.06359E-02-9.95037E-04
 -1      1284-1.74286E-01 7.17232E-03-8.41329E-02-2.69040E-02-3.80015E-02 4.51276E-03
 -1      1285-8.41043E-02 2.10936E-02 7.89816E-02 7.15316E-02-5.40968E-02-1.78838E-02
 -1      1286-1.04033E+00-7.56910E-02-8.00239E-03-7.32900E-02-7.68338E-02 2.70186E-02
 -1      1287-2.21471E+00 4.97683E-02 1.30077E-01-1.71604E-01-1.01865E-01 1.35172E-01
 -1      1288-1.11689E+00 4.29069E-01 9.10520E-02-6.24805E-01-2.85963E-01-1.77267E-01
 -1      1289-2.42943E+00 4.40210E-02 2.83428E-01 5.82259E-01 3.29160E-02-3.07953E-01
 -1      1290-2.71831E+00 1.06031E-01-1.85004E-01 2.24273E-01-1.14107E-02-3.93798E-01
 -1      1291-1.46841E+00 2.07897E-01 5.66260E-01 3.02246E-02-1.81238E-01-3.40286E-01
 -1      1292-1.74169E+00 3.62722E-01 7.38079E-01-3.23426E-01-1.85745E-01-1.47744E-01
 -1      1293-4.89526E+00-1.35430E-01 2.05064E-02 2.88506E-01-2.19318E-01-5.15598E-01
 -1      1294 0.00000E+00 0.00000E+00 0.00000E+00 0.00000E+00 0.00000E+00 0.00000E+00
 -1      1295 0.00000E+00 0.00000E+00 0.00000E+00 0.00000E+00 0.00000E+00 0.00000E+00
 -1      1296-2.07874E+00 8.14173E-01 3.70990E-01-6.30993E-01-2.89609E-01-2.83837E-03
 -1      1297-1.65367E+00 4.17090E-01-3.13152E-01-1.61773E-01-3.64083E-01-1.14779E-01
 -1      1298-1.67762E+00 3.22023E-01 7.35235E-01-2.64585E-01 2.44273E-02 1.43880E-01
 -1      1299-1.76988E+00 1.61101E-01 3.87402E-01 3.34890E-02 1.02912E-02 3.33501E-01
 -1      1300-2.77245E+00-1.82668E-01-4.70002E-01 2.21952E-02-3.78274E-02-2.62309E-01
 -1      1301-6.10642E-01 4.43465E-01 4.26114E-01-1.32936E-01-2.29729E-01 1.23224E-01
 -1      1302-7.07190E-01 4.07676E-01 4.86920E-01 1.58952E-01-2.51213E-01 1.45249E-01
 -1      1303-1.50708E+00 1.94602E-01 2.35447E-01-1.79933E-01-8.12773E-02-1.17066E-01
 -1      1304-1.04801E+00-1.88261E-01 1.29545E-01 8.91553E-02-2.52026E-02 4.63259E-02
 -1      1305-2.19754E+00-1.49862E-01-2.16300E-03 2.19124E-01 6.35368E-02-3.22777E-01
 -1      1306-1.13665E-01 3.72095E-01 1.80242E-01 1.96255E-01-1.60736E-01-5.03808E-02
 -1      1307-5.70200E-01 1.58061E-01-1.59029E-01 6.57947E-02-1.60022E-01-1.96226E-01
 -1      1308 1.48922E-02 1.83779E-01 1.96061E-01 4.47320E-02-9.07573E-02-9.05107E-04
 -1      1309-1.10923E-01 2.93490E-02 4.42751E-02-3.53455E-03-3.05828E-02-4.72896E-02
 -1      1310 5.10952E-01 1.29774E-03 9.32928E-02 1.20781E-02-2.10043E-02 6.13059E-03
 -1      1311 1.20647E+00-2.74829E-01-3.92151E-01-1.33154E-01 4.21919E-01-3.65381E-01
 -1      1312 3.30420E+00-2.20976E-01-5.68228E-01 4.85137E-01 1.54244E-01-2.68581E-01
 -1      1313 2.80739E+00-4.07711E-01-1.21895E-01 8.56768E-01 4.15811E-02-1.63203E-01
 -1      1314 2.25225E+00-4.03268E-01-6.72005E-01-8.87248E-02 2.63745E-01-2.45053E-01
 -1      1315 1.46442E+00-1.48975E-01-4.04626E-01-3.87778E-01 4.77683E-01-2.78445E-01
 -1      1316 3.35976E+00 1.99006E-01 1.48580E-01-6.26480E-02-3.82991E-02 4.78069E-02
 -1      1317 1.73036E+00-4.06564E-01-7.37629E-01 3.02777E-01-1.38979E-02-2.99314E-01
 -1      1318 1.91628E+00 4.42513E-02-2.09665E-01-3.97320E-02 7.31108E-02-2.77630E-01
 -1      1319 2.32307E+00 2.08846E-01 2.21356E-01-6.97360E-02-2.12933E-02 1.30148E-01
 -1      1320 5.83635E-01-7.62899E-02-2.58451E-01-6.01460E-02 1.90333E-01 5.11571E-02
 -1      1321 8.18932E-01 9.18186E-02 6.96696E-02-1.24291E-01-1.68574E-01 1.75918E-01
 -1      1322 4.61131E-02-7.92435E-02-1.45577E-01 2.55518E-02 7.07006E-02 3.85376E-02
 -1      1323-2.27770E-02-8.96293E-02 6.98428E-02-4.24911E-03 1.92997E-02-4.07299E-02
 -1      1324-1.28389E+00-2.66598E-01 2.40835E-02-6.72193E-02 4.61482E-03 1.32934E-01
 -1      1325-5.79904E-01 1.82422E-01 3.81848E-02 5.77324E-02-4.56757E-02 5.68740E-02
 -1      1326-7.11648E-01 2.70619E-01 2.30181E-02-1.80108E-01-1.49737E-02 1.03634E-01
 -1      1327-1.48489E+00-2.18475E-01-2.50897E-01-2.33484E-02 7.55115E-02 1.02886E-01
 -1      1328-1.28171E+00 1.42919E-01 4.24460E-01 3.18313E-01-1.62546E-04-1.06705E-01
 -1      1329-1.40686E+00-2.29845E-02 1.88405E-01 7.19165E-02-4.06697E-02-2.27626E-01
 -1      1330-3.13621E+00 1.11500E-01-1.46868E-01-8.08856E-01-8.54470E-02 1.74564E-01
 -1      1331-1.76960E+00-2.33462E-01 2.73408E-01 6.18712E-03-2.70643E-02 5.51317E-02
 -1      1332-2.85459E+00 6.61072E-01 8.05535E-01 4.53841E-01-1.93231E-01 4.19785E-02
 -1      1333 0.00000E+00 0.00000E+00 0.00000E+00 0.00000E+00 0.00000E+00 0.00000E+00
 -1      1334 0.00000E+00 0.00000E+00 0.00000E+00 0.00000E+00 0.00000E+00 0.00000E+00
 -1      1335 0.00000E+00 0.00000E+00 0.00000E+00 0.00000E+00 0.00000E+00 0.00000E+00
 -1      1336 0.00000E+00 0.00000E+00 0.00000E+00 0.00000E+00 0.00000E+00 0.00000E+00
 -1      1337-3.56782E+00 1.33624E-01-4.80234E-01-5.35581E-01-2.59935E-01 7.14671E-02
 -1      1338-2.91613E+00-4.56992E-02-1.71743E-01-1.46765E-01-1.31206E-01-1.64689E-01
 -1      1339-2.35757E+00 1.62727E-01 7.07581E-02-2.82283E-01-1.31509E-03 4.08028E-01
 -1      1340-1.11656E+00 1.99462E-01-1.08017E-01-7.79712E-02-4.70704E-02 2.39624E-01
 -1      1341 1.70736E+00 2.16200E-01 2.35810E-01-7.34066E-02 3.03985E-02 3.96450E-03
 -1      1342 2.00451E+00 3.80795E-01 5.15612E-01 2.67859E-02-5.59752E-02 3.40978E-02
 -1      1343 3.99667E+00 1.22349E-01 9.34062E-02 3.79318E-01 2.50204E-01-5.19457E-01
 -1      1344 2.42567E+00-6.26325E-02-5.92406E-03 1.81208E-01 9.28963E-02-2.97635E-01
 -1      1345 2.98103E+00 2.56836E-01 2.29182E-01-1.05070E-01 4.37031E-02 3.60917E-01
 -1      1346 5.86864E-01 1.14860E-01-6.95663E-02 8.21174E-02-1.16140E-01 2.30092E-02
 -1      1347-2.15713E+00-3.73394E-01-4.66337E-01 5.48949E-02 1.45642E-03-1.68761E-01
 -1      1348-3.20167E+00-3.02973E-01 1.46363E-01-4.36566E-01 1.07477E-01 8.19340E-03
 -1      1349-2.94461E+00-6.22969E-02 9.43059E-02-1.37097E-01-4.36185E-02 1.18235E-02
 -1      1350 0.00000E+00 0.00000E+00 0.00000E+00 0.00000E+00 0.00000E+00 0.00000E+00
 -1      1351 0.00000E+00 0.00000E+00 0.00000E+00 0.00000E+00 0.00000E+00 0.00000E+00
 -1      1352-7.85876E+00-1.08895E+00-9.19009E-01-1.51394E+00-1.62934E-01 6.68462E-01
 -1      1353-3.41805E+00-2.86554E-01-2.43054E-01-2.69890E-01-2.17746E-02-9.09858E-02
 -1      1354-6.34504E+00-4.48543E-01-4.90865E-01 4.71035E-01-1.71247E-01-9.40366E-01
 -1      1355-6.84079E+00-6.83316E-01-1.15547E+00-3.52199E-01-2.61153E-01 6.25480E-02
 -1      1356-7.21030E+00-1.04408E+00-1.05915E+00 2.07222E-01 3.12335E-02-1.11843E+00
 -1      1357-4.00278E+00-8.16352E-02-2.60414E-01-1.18661E-01-4.25476E-01-3.07130E-01
 -1      1358-2.34466E+00-1.59435E-01 2.56234E-01 9.14353E-02 7.54994E-03-4.43654E-01
 -1      1359-2.78524E+00-5.53209E-01-1.21442E-01-8.75430E-03 7.56541E-02-4.50206E-01
 -1      1360-1.83398E+00-1.74925E-01-3.99850E-01 8.09736E-02 7.57696E-02-8.48099E-01
 -1      1361-1.18592E+00 1.86066E-01 8.90499E-03-5.24787E-02-1.76269E-01-7.43182E-01
 -1      1362 8.27744E-01 8.29957E-03-1.65699E-01 1.50362E-02-7.12135E-02-1.64016E-01
 -1      1363 2.65734E+00 7.37285E-01 3.33025E-02 1.15139E-01 1.27698E-01-9.54347E-01
 -1      1364 3.75928E+00 2.09404E-01 4.56597E-01 1.51899E-02 1.25331E-01-5.13985E-01
 -1      1365 3.24471E+00 2.59830E-02 1.25299E-01-4.30999E-01 9.00726E-02-2.21318E-01
 -1      1366 5.09141E+00 9.61930E-01 4.67301E-01-6.63418E-02-2.86347E-01-1.13269E+00
 -1      1367 8.41865E+00 5.40120E-01 9.59604E-01-6.31494E-01-4.15964E-02-3.56746E-01
 -1      1368 5.60289E+00 3.60386E-01 5.97395E-01-6.04486E-01-2.44145E-01-3.64164E-01
 -1      1369 5.46645E+00 4.63438E-01-3.45547E-01 5.43523E-01 2.35119E-02-9.71286E-01
 -1      1370 7.59843E+00 2.05503E-01 9.35404E-01-5.77243E-01 6.62170E-02 5.18412E-01
 -1      1371 1.34590E+01 2.34721E+00 2.59746E+00 1.66086E+00-1.15608E+00-6.38672E-01
 -1      1372 3.17340E+00-3.26756E-01-1.57170E-01-1.20461E-01 1.21840E-01 6.91301E-01
 -1      1373 8.62026E+00 1.03862E+00 1.39421E+00-4.12807E-01 2.23670E-01 2.31845E+00
 -1      1374 4.45815E+00 2.44226E-01 9.43550E-01 1.43239E-01 3.65133E-02-1.01301E-01
 -1      1375 4.97076E+00 6.08833E-01 5.64602E-01-2.54791E-01 1.40427E-01 1.20757E+00
 -1      1376 2.08864E+00 3.14344E-01 2.37626E-01-4.60996E-02-1.64172E-01 5.21292E-01
 -1      1377 9.24056E-01 2.64713E-02-2.34575E-01 2.16537E-02-1.12968E-01 2.39071E-01
 -1      1378 5.45026E-01-3.66235E-02 2.05648E-01-9.52823E-03-2.06256E-02 4.99800E-01
 -1      1379-5.39798E-01 1.51805E-01-8.35022E-02-4.54846E-02-6.34959E-02 6.17412E-01
 -1      1380-1.78075E+00-3.01728E-02-1.16330E-01 4.38285E-02-1.38391E-01 6.71183E-01
 -1      1381-1.79015E+00-2.44110E-01-1.22223E-01-1.96096E-01 8.53333E-02 7.58631E-01
 -1      1382-3.33678E+00-1.39888E-01-3.79154E-01 2.32146E-02 1.32863E-02 3.28873E-01
 -1      1383-5.35812E+00-5.59189E-01-2.50581E-01 5.15802E-02-1.99497E-01 4.95993E-01
 -1      1384-4.24870E+00-1.07865E-01 3.59590E-02-1.96770E-01 2.44993E-01 6.47684E-01
 -1      1385-6.41852E+00 2.47797E-01 9.09261E-02 1.02346E-01-1.20945E-01-3.56109E-01
 -1      1386-6.08135E+00-9.89335E-04-3.60463E-01 2.29160E-01-1.29622E-01-1.56164E-01
 -1      1387-7.18131E+00-4.20282E-01 5.27086E-01-3.42635E-01 1.52425E-01 4.96842E-01
 -1      1388-1.07573E+01-1.85015E+00-1.71092E+00 9.45765E-02 3.28442E-01-8.99970E-01
 -1      1389 0.00000E+00 0.00000E+00 0.00000E+00 0.00000E+00 0.00000E+00 0.00000E+00
 -1      1390-9.14899E+00-3.10828E+00-2.72315E+00-2.03471E+00 5.08074E-02 1.54651E+00
 -1      1391-9.47189E+00-2.57342E+00-2.66662E+00-2.59556E+00-3.38615E-01 1.77156E+00
 -1      1392-3.65454E+00-9.30033E-02-4.49308E-02 3.85683E-05 4.43260E-02-8.11533E-01
 -1      1393-4.19646E+00 2.06865E-01-1.98589E-02-1.90125E-01-3.49328E-01-3.66132E-01
 -1      1394-2.30596E+00-1.86822E-01-1.48073E-01 4.18075E-01-3.99216E-02-9.98416E-01
 -1      1395 5.18632E+00 2.21767E-01 4.36473E-01 7.42015E-01-2.35194E-01-9.09929E-01
 -1      1396 7.42355E+00 1.40536E+00 1.42343E+00-5.45628E-02-5.79083E-02-5.98449E-01
 -1      1397 9.00041E+00 5.92155E-01 1.07304E+00 6.75252E-01-2.16200E-02-5.25657E-01
 -1      1398 1.03856E+01 5.99728E-01 1.78285E-01 5.79240E-02 4.45659E-02 4.56910E-02
 -1      1399 5.99218E+00-4.22423E-01-1.17211E+00 6.62536E-02 2.73304E-01 1.39667E-01
 -1      1400 6.54790E+00 1.91396E-02-1.20850E-01 1.86141E-01 3.39272E-01 4.74467E-02
 -1      1401 2.47207E+00-4.71857E-01-1.53418E-01 2.71575E-01-2.56332E-01-4.40256E-01
 -1      1402 2.57257E+00-2.98420E-01 1.48979E-01-5.64379E-02 8.75199E-02 4.13381E-01
 -1      1403-1.26184E+00-2.38944E-01-5.21430E-01-3.51099E-01 1.21328E-01 8.34279E-01
 -1      1404-5.14395E+00-4.67452E-01-3.55994E-01-1.65407E-01-1.05318E-02 8.34531E-01
 -1      1405-1.02893E+01-1.77143E+00-1.15877E+00-1.43423E-01-5.75670E-02 1.15125E+00
 -1      1406 0.00000E+00 0.00000E+00 0.00000E+00 0.00000E+00 0.00000E+00 0.00000E+00
 -1      1407 0.00000E+00 0.00000E+00 0.00000E+00 0.00000E+00 0.00000E+00 0.00000E+00
 -1      1408 0.00000E+00 0.00000E+00 0.00000E+00 0.00000E+00 0.00000E+00 0.00000E+00
 -1      1409-5.38300E+00 1.42217E-01 1.85741E-01-1.78802E+00-1.79246E-01 1.00020E+00
 -1      1410-3.33271E+00-1.95337E-01 7.08913E-02 5.86764E-01 5.61155E-02-7.98239E-01
 -1      1411-8.71457E+00-7.87067E-01-9.90327E-01-6.61128E-01-5.66762E-01-4.13802E-01
 -1      1412-3.70682E+00-3.30781E-01-7.78800E-01-3.00126E-01 1.75160E-01 4.24680E-01
 -1      1413-2.30545E+00-9.13045E-02 1.66717E-01-4.76790E-03-4.57780E-02-4.31259E-01
 -1      1414 1.77901E-02 9.75690E-02-3.32149E-01 8.63476E-02 9.13168E-02-4.12094E-01
 -1      1415 5.72309E-01-1.36083E-01 2.80236E-02 3.67712E-02-2.27847E-02-5.79259E-01
 -1      1416 1.99769E+00 5.85647E-01 5.36917E-01 1.71401E-02 1.19557E-01-9.27092E-01
 -1      1417 4.64244E+00 4.85737E-01 4.22289E-01 6.27365E-02 1.76396E-02-7.46088E-01
 -1      1418 3.03677E+00 4.03372E-01 3.20446E-01 2.64785E-01 3.25859E-01-3.48684E-01
 -1      1419 4.85969E+00 4.43457E-01 3.20704E-01-1.32499E-01 1.81294E-01 1.11177E+00
 -1      1420 2.49564E+00-1.02593E-01-3.26641E-01-1.11182E-01 6.65226E-02 6.70460E-01
 -1      1421 3.71691E+00-5.17139E-02 4.10413E-01 1.33149E-01 2.47810E-01 6.11620E-01
 -1      1422 1.88352E+00-7.63588E-02 5.29056E-02-4.71581E-01 1.87647E-02 9.88347E-01
 -1      1423-1.33723E-01-2.54986E-01-2.46199E-01-2.76894E-02-1.72397E-01 3.90605E-01
 -1      1424-1.71903E-01-1.30221E-01 9.11428E-02-1.45202E-02-7.44446E-02-1.84080E-02
 -1      1425 0.00000E+00 0.00000E+00 0.00000E+00 0.00000E+00 0.00000E+00 0.00000E+00
 -1      1426 0.00000E+00 0.00000E+00 0.00000E+00 0.00000E+00 0.00000E+00 0.00000E+00
 -1      1427-1.02112E+00-3.34815E-01-3.88769E-01-2.02737E-01 2.69804E-01 2.59783E-01
 -1      1428 2.96256E-02-3.18419E-02-1.55490E-01-1.45800E-02 1.70187E-01-1.16050E-02
 -1      1429 1.74331E+00 9.07282E-02-4.27355E-01 6.65777E-02 9.44064E-02 6.94989E-02
 -1      1430 1.48415E+00-8.84715E-03 5.26360E-01-8.42598E-02-2.18568E-01 3.05481E-01
 -1      1431-4.27209E+00-1.06352E-01 1.19153E-01 1.30969E-01-2.28237E-01-8.16579E-01
 -1      1432-1.42749E+00 2.12897E-01 2.69700E-01-1.89865E-02-8.78138E-02-2.70060E-02
 -1      1433-6.60921E-01 1.51816E-01 1.55112E-01-1.53755E-01-6.06430E-02-3.23397E-02
 -1      1434-6.23020E-02-1.30596E-01 1.00543E-01 3.92208E-02-2.06542E-01-2.35928E-01
 -1      1435 1.43917E+00-6.50338E-02-2.84982E-01-6.50084E-02 8.37855E-02-9.71654E-02
 -1      1436 1.82352E+00-1.73205E-01-4.56342E-01-2.32668E-01 5.57136E-02-2.79906E-01
 -1      1437 1.28824E+00-3.90594E-01-5.09922E-01 4.18878E-03 4.05318E-02 3.42593E-01
 -1      1438 2.09596E+00-1.74669E-01 1.69520E-02-4.70933E-01-2.04791E-01 8.81931E-01
 -1      1439 1.68919E+00-9.11164E-01-9.12595E-01-1.83665E-01 1.46192E-01 1.12243E-01
 -1      1440 1.57927E+00-3.15222E-01-4.29784E-01-2.74963E-02 5.78988E-02 7.96994E-02
 -1      1441 8.59746E-01 2.08584E-03 6.59616E-02 1.43081E-01-1.31399E-01-1.11252E-01
 -1      1442 7.79253E-01-5.73969E-02-2.49296E-02 1.25017E-01 1.14605E-01 3.61800E-02
 -1      1443-1.50712E+00 1.29247E-01 2.06481E-01 1.06380E-01 2.46748E-02 4.69004E-02
 -1      1444 0.00000E+00 0.00000E+00 0.00000E+00 0.00000E+00 0.00000E+00 0.00000E+00
 -1      1445-1.92145E+00 6.74394E-02 4.37132E-01-1.62145E-01-7.95783E-02 1.31855E-01
 -1      1446 2.07654E+00-6.86931E-02-2.80311E-01-6.96391E-02 7.10086E-02-1.13694E-01
 -1      1447-7.35602E-01 4.83533E-02 6.16559E-02-3.85283E-02 4.56515E-02 2.07925E-02
 -1      1448-1.10577E+00 3.92607E-02 3.39675E-01 8.35974E-03 1.37703E-01 1.36242E-01
 -1      1449-1.32185E+00-3.66427E-02 5.59732E-01-1.93019E-01 6.18347E-02 1.26618E-02
 -1      1450-1.95641E+00 4.53348E-01 1.01468E+00 1.31775E-01 2.78974E-01-5.03693E-02
 -1      1451-1.28960E+00-1.67152E-02 7.14628E-01-1.90223E-02-8.45736E-02-1.15259E-01
 -1      1452-1.45008E+00 1.42265E-01 4.72218E-01 1.61532E-01 1.20480E-01-1.07225E-01
 -1      1453-7.72756E-01 2.78324E-02 3.08549E-01 6.26554E-02-6.80943E-02-1.21392E-02
 -1      1454-6.03502E-01-3.78318E-02 3.90891E-02-3.06736E-02-5.37111E-02-3.26542E-02
 -1      1455-3.41597E-01-9.74161E-02-1.77190E-02 1.86770E-02-5.34350E-02-5.49753E-03
 -1      1456 1.11075E-01 3.18725E-02 5.59040E-02-9.89242E-03 3.11531E-02 6.33249E-02
 -1      1457 1.33091E-01 1.72760E-02-1.65653E-01 1.53592E-02 2.27827E-02 4.32477E-02
 -1      1458 1.46985E-01-1.01257E-02-1.72656E-01-2.72488E-02 6.02009E-02 3.21254E-02
 -1      1459 8.43937E-01 9.79188E-02-2.78505E-01 1.67195E-04 4.39937E-02 1.27524E-01
 -1      1460 1.51074E+00-2.49353E-01-5.27835E-01-1.57793E-01-7.88630E-02-1.81505E-01
 -1      1461 1.04145E+00-8.29600E-02-4.50903E-01-1.21389E-01-1.36906E-01 6.22014E-02
 -1      1462 6.29583E-01 1.39151E-01-1.55818E-01-1.61366E-01 5.57719E-02 1.94401E-02
 -1      1463 2.29478E-01 3.21593E-03-1.18673E-01 4.64630E-02 6.63286E-02-3.02251E-02
 -1      1464-8.99242E-02-3.41602E-02-7.84995E-03-2.00853E-02-1.89675E-02 2.78608E-02
 -1      1465-4.54991E-01-4.65574E-02 1.09924E-01-3.64872E-02-1.83164E-02 2.82905E-02
 -1      1466-3.90043E-01-4.10270E-02 2.06685E-01 9.36841E-02-2.68649E-02 3.75335E-03
 -1      1467-4.84308E-01-1.97704E-01 3.39208E-01-9.89112E-02-5.03849E-02-2.35939E-02
 -1      1468-1.50425E+00-2.79322E-01 4.19276E-01 1.29510E-01-1.09763E-01 7.89140E-02
 -1      1469 0.00000E+00 0.00000E+00 0.00000E+00 0.00000E+00 0.00000E+00 0.00000E+00
 -1      1470 0.00000E+00 0.00000E+00 0.00000E+00 0.00000E+00 0.00000E+00 0.00000E+00
 -1      1471-2.10531E+00 1.10998E+00 1.15629E+00-2.11589E-01 2.22469E-01-1.85618E-01
 -1      1472-1.16911E+00 3.67295E-02 5.29071E-02 5.83069E-02-2.61009E-01-2.42563E-01
 -1      1473 1.00930E+00 1.28681E-02-5.52948E-02 8.93843E-02-5.04873E-02 3.02351E-03
 -1      1474 1.26304E+00 1.18310E-01 2.93586E-01 1.19126E-01 2.38587E-01-1.44882E-01
 -1      1475 5.14360E+00 6.43370E-01 7.71230E-01 1.18544E-01 1.44041E-01 5.15765E-01
 -1      1476 2.92132E+00-2.24045E-01-5.61955E-01 2.20613E-01-1.59851E-01 3.18377E-01
 -1      1477 3.22681E+00 1.45554E-01 4.75202E-01 1.47444E-01 3.75847E-01 5.93754E-02
 -1      1478-1.29332E+00-1.75010E-01-3.03292E-01 1.09542E-01-2.86521E-01-2.82311E-02
 -1      1479-5.64556E+00-6.46231E-01-4.95742E-01-4.98819E-01-1.71771E-01-3.71352E-01
 -1      1480-7.95898E+00 2.12020E-01-2.85634E-02 4.36159E-01 9.54747E-01 6.28255E-03
 -1      1481-5.91845E+00 1.19268E-01-6.43469E-01-1.14853E+00-1.86285E-01-1.12194E+00
 -1      1482-4.36761E+00-3.59748E-01-1.58735E+00-3.35514E-01 9.84620E-01-2.15403E+00
 -1      1483-1.19110E+00 1.76046E-01-2.66029E-01-1.07744E-01 8.75927E-02-9.26841E-01
 -1      1484 4.91041E-01-3.22294E-01-4.90066E-01 6.35731E-02-1.29945E-01-6.12055E-01
 -1      1485 6.00473E+00 1.10426E-01 3.83809E-01-1.05338E+00 3.21614E-01-1.13342E+00
 -1      1486 7.45242E+00 3.59159E-01 1.22845E+00 4.49905E-01 1.86248E-01 1.21407E+00
 -1      1487 2.29856E+00-3.72855E-01 6.99541E-01 2.71225E-01-2.74789E-01 1.14764E+00
 -1      1488 1.03123E+00 1.40849E-01 3.64253E-01 1.18555E-01 3.67759E-01 3.39482E-01
 -1      1489 1.01859E+00-1.39770E-01 1.26108E-01-3.17852E-02 1.72502E-02 7.00953E-01
 -1      1490-2.26671E+00-2.81256E-01-1.00231E-01-7.81969E-02 4.78506E-02 8.23628E-01
 -1      1491-1.37223E+00 2.30264E-01 6.14522E-01 8.56883E-02 6.22764E-02 3.95809E-01
 -1      1492-5.19988E+00-6.55779E-01-1.11838E+00 2.27833E-01 3.63869E-01 8.96514E-01
 -1      1493-6.35005E+00 1.19306E-01 4.02222E-01-4.24815E-01 2.27953E-01-5.19287E-02
 -1      1494-7.30774E+00-1.17653E-01-3.56517E-02 2.29453E-01 2.08095E-01 1.21181E+00
 -1      1495 0.00000E+00 0.00000E+00 0.00000E+00 0.00000E+00 0.00000E+00 0.00000E+00
 -1      1496 0.00000E+00 0.00000E+00 0.00000E+00 0.00000E+00 0.00000E+00 0.00000E+00
 -1      1497-1.26911E+01-5.83360E+00-4.67705E+00-5.32574E-01 6.07277E-01 3.36539E-01
 -1      1498-9.73939E+00-9.00686E-01-1.24399E-01 5.62855E-01 2.28499E-01 1.11004E-01
 -1      1499-5.39230E+00-4.71212E-01 2.09077E-01 1.48556E+00-1.56235E-01 1.91089E-01
 -1      1500-1.80794E+00-1.39056E-01-3.81321E-02 4.38954E-02 9.84200E-02-8.35751E-01
 -1      1501-2.03125E+00-1.87605E-01-8.05255E-02-8.81552E-02-2.79344E-02-1.30955E+00
 -1      1502 1.23746E+01 2.23166E+00 1.58985E+00-6.54253E-01-2.41322E-01-8.76970E-01
 -1      1503 7.00341E+00-2.39407E-01-1.01416E-01 4.75219E-02-5.08509E-01 1.20265E+00
 -1      1504 8.11726E-01 2.87205E-01 5.28284E-01-6.40621E-02 4.01087E-03 4.94545E-01
 -1      1505-8.43016E+00-1.42898E+00-1.63123E+00 1.22193E-02 2.70969E-01 1.00409E+00
 -1      1506-8.45774E+00-1.10485E+00-1.10358E+00-3.41598E-01-3.60919E-01 3.78611E-01
 -1      1507 0.00000E+00 0.00000E+00 0.00000E+00 0.00000E+00 0.00000E+00 0.00000E+00
 -1      1508 0.00000E+00 0.00000E+00 0.00000E+00 0.00000E+00 0.00000E+00 0.00000E+00
 -1      1509-5.32899E+00-6.99163E-01-8.54333E-03-2.67488E-01-3.15071E-01-1.15491E+00
 -1      1510-1.95823E+00-1.04022E-01 4.98915E-01 3.53926E-01 1.65904E-01-6.87589E-01
 -1      1511 1.54887E+00 4.66785E-01 3.35097E-01 9.72216E-02 4.55150E-02-6.97788E-01
 -1      1512 1.33522E+00-2.37315E-01-6.38759E-01 1.60181E-01-2.75065E-01-1.00844E+00
 -1      1513 4.46638E+00 4.95342E-01 4.85627E-01 6.95712E-03-5.90596E-02-8.02972E-01
 -1      1514 6.79579E+00 1.52892E+00 5.08566E-01 1.45295E-01-2.44496E-02-7.84511E-01
 -1      1515 6.78852E+00 5.93871E-01 3.71039E-01-4.22130E-01 4.01534E-01 9.28288E-01
 -1      1516 8.12346E+00 1.32248E+00 6.12231E-01 5.16029E-01-8.66345E-02 1.97133E+00
 -1      1517 5.41615E+00 7.62736E-01 2.22654E-01-1.77865E-01 1.25211E-02 8.42329E-01
 -1      1518 1.20721E+00-1.27520E-02-2.02937E-01-2.14534E-01-9.39784E-02 7.28214E-01
 -1      1519-2.63471E+00-6.34476E-01-3.99834E-01 7.72047E-02-5.42591E-02 9.88079E-01
 -1      1520-5.40743E+00-7.85433E-01-3.82355E-01 1.12589E-01-2.89843E-01 6.17291E-01
 -1      1521-8.14516E+00-1.93557E+00-8.39536E-01-2.94146E-01 1.20746E-01 1.41463E+00
 -1      1522 0.00000E+00 0.00000E+00 0.00000E+00 0.00000E+00 0.00000E+00 0.00000E+00
 -1      1523-7.42282E+00-1.24711E+00 3.39267E-01-2.68892E-01-2.37751E-01-2.43619E-01
 -1      1524-1.10267E+01-2.27775E+00-1.21034E+00 3.40738E-02-3.03274E-01-5.70819E-01
 -1      1525 1.92927E+00 1.93901E-01-1.42858E-01-1.74147E-01-2.22301E-01 7.59778E-01
 -1      1526 1.23772E+00 1.42292E-01 4.33320E-02 1.87169E-02 6.42665E-02 6.40295E-01
 -1      1527 0.00000E+00 0.00000E+00 0.00000E+00 0.00000E+00 0.00000E+00 0.00000E+00
 -1      1528 0.00000E+00 0.00000E+00 0.00000E+00 0.00000E+00 0.00000E+00 0.00000E+00
 -1      1529-5.54443E+00-3.09038E+00 8.77108E-01-8.78399E-01 1.42860E-01 8.72550E-01
 -1      1530-3.47813E+00 1.83928E-01 8.07265E-01 9.96758E-02 2.72567E-01 1.20295E-01
 -1      1531-3.09835E+00-6.04812E-01 2.28071E-02 4.56843E-01-2.82972E-01-1.46045E-01
 -1      1532-9.55631E+00-9.80109E-01 5.41809E-01-4.17970E-01-3.21550E-01 5.79222E-01
 -1      1533-2.77100E+00-3.90092E-01-3.15296E-01-3.83570E-01 1.35031E-01 1.54382E-02
 -1      1534-2.56301E+00-7.06119E-02 2.35986E-01-2.04166E-01-8.18200E-02-3.32542E-01
 -1      1535-8.84694E+00-1.61171E+00 1.92281E-01-1.52516E+00-2.94577E-01-2.49386E+00
 -1      1536-6.06925E+00-5.94027E-02-6.85403E-01-1.39961E-01 2.76959E-01-8.68597E-01
 -1      1537-7.68655E+00-1.66405E+00-9.05147E-01-4.44696E-01-9.47522E-01-4.43499E-01
 -1      1538-5.56058E+00-6.57583E-02-9.48261E-02 1.99710E-01 2.57483E-01-7.58993E-01
 -1      1539-1.06833E+00-1.20977E-01-1.49134E-01 6.30041E-02 1.42003E-02-1.45919E-01
 -1      1540-1.44309E+00-2.29486E-02-3.01252E-01 5.60380E-02-1.50187E-01-7.65854E-01
 -1      1541-2.64470E+00-6.28048E-01-5.23541E-01 2.16950E-02 1.33352E-01-1.26587E+00
 -1      1542-1.90058E+00-2.39375E-01 1.05278E-01 2.47793E-01 7.56003E-02-7.91432E-01
 -1      1543 3.50485E-01-1.95735E-02 1.11293E-01-4.33582E-02-1.17604E-01-5.27862E-02
 -1      1544 1.82930E+00 1.22399E-01-5.28138E-02 1.09359E-01-2.10602E-01-7.82080E-01
 -1      1545 1.44414E+00 2.13516E-01 2.34532E-02 2.27404E-01 1.12224E-01-5.25204E-01
 -1      1546 4.49829E-01 5.86850E-02-4.19501E-02 1.03538E-01 1.48658E-01-1.47175E-01
 -1      1547 3.62022E+00 9.85539E-02 2.38253E-01-1.44290E-01 1.32042E-03-7.03653E-01
 -1      1548 3.14281E+00 6.15694E-02 2.60110E-02-9.50997E-02 2.36164E-01-6.07816E-01
 -1      1549 1.86997E+00-9.46666E-03-1.57997E-02 2.15854E-02-7.24654E-02 3.53183E-03
 -1      1550 3.40669E+00 1.33005E-01 4.12277E-02 2.40788E-03-2.12912E-01-1.72409E-01
 -1      1551 3.89665E+00 3.82471E-01 3.89050E-02 7.87445E-02 1.29820E-01-3.33522E-01
 -1      1552 5.85195E+00 5.62081E-01 9.30609E-01 2.64762E-01 2.80372E-01-6.63403E-01
 -1      1553 4.90823E+00 6.58805E-01 6.89237E-01 1.30415E-01-1.09287E-01 5.62076E-01
 -1      1554 9.60661E+00 4.74785E-01 6.76972E-01 7.10026E-02-1.02208E-01 2.21443E-01
 -1      1555 2.00978E+01 4.09216E+00 4.54279E-01 1.20009E+00-6.64423E-01 4.14186E+00
 -1      1556 9.40491E+00 1.55049E+00 9.26471E-01-5.48837E-03 4.66297E-01 2.65546E-01
 -1      1557 4.33348E+00-1.38308E-01 3.72275E-01-8.10626E-02-3.41842E-01-2.86251E-02
 -1      1558 6.09495E+00-6.29571E-01-2.77844E-01 3.41584E-01 1.86536E-01 6.98775E-01
 -1      1559 8.98293E+00 1.61757E+00 2.47556E+00 3.05363E-01-1.66103E-01 1.22639E+00
 -1      1560 3.19289E+00 3.91860E-01 4.70698E-01 1.50859E-01 1.76747E-01 1.20032E-02
 -1      1561 3.73532E+00-5.30079E-02 3.14841E-02-6.52162E-02-2.05800E-01 5.06691E-01
 -1      1562 6.41772E+00 1.47346E+00 3.82501E-01 2.91319E-01 3.86788E-01 6.47729E-01
 -1      1563 9.32052E-01-1.71093E-02 2.31247E-01 2.72938E-02 2.83519E-01 4.09172E-01
 -1      1564 1.27571E+00 7.54111E-03-3.02868E-01-4.42648E-02-2.42158E-02 5.20592E-01
 -1      1565 1.30585E+00-1.66471E-01-8.37296E-03-1.21304E-01-2.33188E-01 7.12657E-01
 -1      1566 8.30297E-01 2.65943E-01 7.58974E-01 2.67108E-02-3.22206E-02 5.09309E-01
 -1      1567-1.54862E+00-2.29755E-01-1.89290E-01-2.27283E-02 1.83758E-01 1.93019E-01
 -1      1568-1.37695E+00 3.11563E-01 4.59158E-01-1.12356E-01 1.43602E-01 6.99104E-01
 -1      1569-1.81820E+00-1.91858E-01-9.90438E-02-7.68233E-02 1.00937E-02 6.88337E-01
 -1      1570-1.20057E+00 6.81281E-02 8.73765E-02 2.79849E-02-1.44560E-01 4.15283E-01
 -1      1571-9.76287E-01 6.54644E-02 4.82935E-02-1.53298E-01-9.85463E-02 4.41168E-01
 -1      1572-6.52034E-01-7.13533E-02-2.12677E-01 4.60583E-01-1.52213E-01-1.10362E-02
 -1      1573-3.03124E+00 5.18192E-01 4.82761E-01 1.63109E-01 1.12622E-01 6.27471E-01
 -1      1574-5.89892E+00 3.58100E-01 5.79735E-01-2.30576E-01 5.18648E-01-6.15893E-01
 -1      1575-4.22467E+00-6.58711E-01-2.33401E-01-1.43270E-01 1.02460E-01 2.24956E-01
 -1      1576-4.76521E+00-3.78390E-01-4.35749E-01-4.97906E-01 1.24573E-01-2.19554E-01
 -1      1577-5.54042E+00-1.31148E+00-5.06794E-01-1.76331E-01 7.08861E-01 2.26795E-01
 -1      1578-3.24047E+00-1.16862E+00-5.67481E-01-1.18952E-01 4.81095E-01 1.22968E-01
 -1      1579 0.00000E+00 0.00000E+00 0.00000E+00 0.00000E+00 0.00000E+00 0.00000E+00
 -1      1580 0.00000E+00 0.00000E+00 0.00000E+00 0.00000E+00 0.00000E+00 0.00000E+00
 -1      1581-3.81902E-01 4.72010E-01 6.11876E-01-3.96295E-01-1.31728E-01 2.36007E-02
 -1      1582-3.01670E+00 1.68986E-01 1.51301E-01-7.06877E-01 5.27436E-02-1.84595E-01
 -1      1583-8.44110E-01 1.67315E-02-1.28155E-01-1.01529E-01 9.44911E-02-4.27959E-04
 -1      1584-4.82424E-01 8.84361E-02 5.58457E-02 4.14607E-02-1.88361E-02 8.18870E-02
 -1      1585 6.76141E-01 7.81764E-02-2.26682E-01 5.96075E-03 1.78558E-01 1.23629E-01
 -1      1586 1.90256E-01 1.45669E-01-9.75697E-02-1.72195E-01 2.30843E-01 7.05998E-02
 -1      1587-2.04061E-01-1.88410E-01-3.83760E-01 8.55253E-02-1.40720E-01 1.14470E-01
 -1      1588 6.01111E-02-4.33517E-01-4.92956E-01 4.57869E-01-3.63724E-02 8.50225E-02
 -1      1589 1.44021E+00-4.54305E-01-2.98329E-01 5.54630E-02-1.82161E-02 1.39297E-02
 -1      1590 9.74036E-01 4.59991E-01-7.10648E-02-2.69689E-01 2.95690E-02 2.63983E-02
 -1      1591 1.56984E+00-8.46791E-01-4.09472E-01 2.39805E-01-2.37895E-01 3.77294E-01
 -1      1592 9.74863E-02-3.47703E-01-3.81790E-01-2.20404E-01 1.10261E-01 1.85148E-03
 -1      1593 1.64838E+00-2.75017E-01-5.30391E-01-4.08934E-01-2.83742E-02-8.49346E-02
 -1      1594 8.30674E-02-7.85986E-02-1.99573E-01 4.16772E-02-3.38704E-02-3.47313E-02
 -1      1595-9.24207E-01 6.80221E-02 3.18370E-01-2.91981E-02 3.80870E-02-1.02391E-01
 -1      1596-2.36691E+00-4.11574E-01-4.79727E-01 2.71301E-02-2.18957E-01 2.44331E-01
 -1      1597-3.76062E-01-5.94883E-01 2.43744E-01-1.70692E-01 7.03453E-02-1.51238E-01
 -1      1598-5.03921E-01 5.27981E-01 8.48409E-01 1.82592E-01 7.37147E-02 1.60463E-01
 -1      1599 0.00000E+00 0.00000E+00 0.00000E+00 0.00000E+00 0.00000E+00 0.00000E+00
 -1      1600-5.36271E-01-6.53705E-01 8.26462E-02 1.83768E-02-9.02547E-02-2.57332E-01
 -1      1601-1.24296E-01-2.66193E-01-2.96992E-02 5.22371E-02 7.28879E-02-2.89066E-03
 -1      1602-3.11029E-01 5.78580E-02-1.32290E-01-1.00229E-01-2.27653E-02-4.43582E-02
 -1      1603 7.04084E-04-9.50035E-02-8.40836E-02-2.97700E-02 3.55289E-02 6.29856E-02
 -1      1604 5.14046E-01 1.23655E-01-2.24383E-02 2.34004E-01-2.16390E-03 1.56589E-01
 -1      1605 5.85157E-01-4.94314E-01-4.04439E-01 1.37865E-01-1.14495E-01 1.01395E-02
 -1      1606 1.64908E+00-4.97553E-01-8.33596E-01 1.05621E-01-1.85840E-01 2.20569E-01
 -1      1607 6.74578E-01 5.38551E-01 2.61829E-01 4.31170E-01 3.06860E-01-4.17323E-03
 -1      1608 1.26402E-01-7.27942E-01-4.12834E-01-2.17081E-01-1.71407E-01-8.09459E-02
 -1      1609 3.18313E-01-2.67343E-01-1.56869E-01-7.71017E-02-4.65582E-02 4.52887E-02
 -1      1610-1.88962E-02 1.67009E-01-4.36952E-02-3.69010E-02 1.42020E-02 8.97608E-03
 -1      1611 8.31157E-02-5.43030E-03 1.02729E-02 9.88089E-02 8.13213E-03 8.88553E-02
 -1      1612-3.52486E-01-1.62118E-02-5.03167E-02 2.21603E-01-4.85244E-02 9.36496E-02
 -1      1613-2.66470E-02 4.45149E-02 1.96184E-01 6.10173E-02-2.13265E-02-4.48751E-02
 -1      1614-6.97251E-02-1.28656E-01 7.81717E-02-1.98457E-01 6.69409E-02-8.28378E-02
 -1      1615-1.30341E-01-2.23107E-01 7.95492E-02 7.94090E-02 4.09087E-02 4.09578E-04
 -1      1616 0.00000E+00 0.00000E+00 0.00000E+00 0.00000E+00 0.00000E+00 0.00000E+00
 -1      1617-6.44677E-01-1.39420E-01 9.78631E-02-9.22338E-02 5.97148E-02 9.10604E-04
 -1      1618-2.78643E-01-1.59492E-02 2.55762E-01-1.24831E-02-9.32865E-02-4.88343E-02
 -1      1619-5.21670E-01-4.68480E-01-2.18147E-01 2.81499E-02-3.16026E-01-5.62423E-02
 -1      1620 4.11032E-02 2.13338E-02 9.93530E-02 1.26949E-02-5.18164E-02-2.64251E-02
 -1      1621-1.30527E-01-3.83872E-02 1.86288E-01 6.61401E-02-7.18288E-02-6.65668E-02
 -1      1622-8.58132E-02-1.44537E-01 7.58885E-03 1.28291E-01 3.90175E-02-5.41841E-02
 -1      1623-6.63392E-02 1.06954E-01-3.98117E-02 1.98502E-02-1.13787E-02-1.80917E-02
 -1      1624-1.00598E-02-1.29775E-01-3.90639E-02-1.64395E-02 6.14200E-02 3.61973E-02
 -1      1625 2.54615E-02-5.04637E-02 3.06864E-03-1.69623E-02 5.14017E-02 2.38924E-02
 -1      1626 1.49116E-02 8.71132E-02-2.68433E-03 3.59369E-02-3.85206E-02-2.18914E-02
 -1      1627-1.93046E-02 1.25123E-01 1.22725E-02-9.01479E-03-4.92855E-02-1.27786E-02
 -1      1628 1.78179E-01 2.51715E-02-1.40595E-01-3.11386E-02 6.20246E-02-1.24906E-02
 -1      1629 6.55967E-02 4.38723E-02-1.62492E-01 9.92795E-02-3.10810E-02 7.48749E-02
 -1      1630 1.84282E-01 3.35052E-01-3.46778E-02 1.34189E-02 1.18362E-01-2.50328E-02
 -1      1631 6.63647E-01 5.13758E-02-1.86790E-02-8.11343E-02 7.50313E-02-9.98670E-02
 -1      1632-5.26751E-03-3.71887E-01-3.77995E-01 2.82929E-01-2.31971E-02 7.17874E-02
 -1      1633 2.31452E-01 7.61122E-02-1.03199E-03 1.62300E-01-3.69797E-02 1.14368E-01
 -1      1634 3.86081E-01 1.36372E-01-2.28821E-01-6.53546E-02 1.33783E-01-1.09844E-01
 -1      1635 8.40048E-01 3.49295E-01-1.18804E-01 3.88207E-02 1.09985E-01 1.63344E-01
 -1      1636 3.19493E-01 5.78230E-01 7.56237E-02 1.93058E-01 5.16546E-02 4.70778E-03
 -1      1637 2.32780E-01 1.44663E-01-1.24563E-01 7.15349E-02 3.65999E-02 7.50352E-04
 -1      1638 9.52363E-01 7.84264E-03-2.70855E-01 1.86575E-02-4.35214E-02 1.52624E-01
 -1      1639 3.21216E-01 1.87140E-01-1.02762E-01-4.87292E-02 1.14530E-01 3.34033E-02
 -1      1640 1.17019E-01-6.60929E-02 5.12072E-02 6.21300E-02 1.03533E-03 1.71453E-02
 -1      1641 2.24797E-01-3.15958E-02-5.14672E-02-8.99547E-02-1.39594E-02 4.35560E-02
 -1      1642 2.02612E-02 1.61297E-01-8.53015E-03-6.13737E-02 1.81358E-02 3.30189E-03
 -1      1643 1.16457E-01 5.14662E-02 1.09332E-01-1.08884E-02 4.55793E-02 6.49860E-02
 -1      1644 2.72950E-02 4.95796E-02 7.67396E-02-2.46239E-02 3.16319E-03 6.55774E-04
 -1      1645-9.60548E-02-7.16425E-02 7.31541E-02 2.21192E-02-3.97898E-03 1.42483E-02
 -1      1646-4.62508E-02-1.24333E-01 7.35202E-02-1.01295E-01 3.51223E-02 1.18776E-02
 -1      1647-2.89794E-01 7.80392E-02 8.45389E-02 3.81486E-02 9.79007E-03-2.81313E-02
 -1      1648 3.92365E-02 9.97199E-02 2.85579E-01-1.37370E-01 3.80236E-02 7.57828E-03
 -1      1649-5.03016E-01 3.15261E-02 2.19677E-02 4.01453E-02-7.59931E-02 8.40332E-02
 -1      1650-6.16686E-02 2.83268E-03 1.32822E-01 5.77740E-02 7.86401E-02 5.91023E-02
 -1      1651-1.02437E-01-3.73360E-01-5.05403E-02 1.24579E-01 1.37796E-01 2.20343E-03
 -1      1652-4.23998E-01-1.12841E+00-2.02023E-01-2.17508E-01 2.15193E-02-1.76129E-02
 -1      1653-1.45648E-01-1.72069E-01 4.38429E-01-1.17312E-01 1.76167E-01 3.27641E-02
 -1      1654-3.61386E-01 2.80710E-01 9.16318E-02 1.29668E-01 1.21453E-01 2.09024E-02
 -1      1655-3.89111E-01 5.69293E-01 2.66355E-01 1.63047E-01 8.72986E-02 2.20033E-02
 -1      1656 0.00000E+00 0.00000E+00 0.00000E+00 0.00000E+00 0.00000E+00 0.00000E+00
 -1      1657 0.00000E+00 0.00000E+00 0.00000E+00 0.00000E+00 0.00000E+00 0.00000E+00
 -1      1658 2.21604E-01 3.69287E-02-2.30764E-01-2.39133E-02 7.91728E-03 4.02969E-02
 -1      1659-1.19799E-01 2.35328E-02 8.68842E-03 9.10109E-02-5.90821E-02 2.01018E-02
 -1      1660-5.14707E-03-1.23341E-02-1.53364E-01 5.26386E-02-7.99397E-03-1.30212E-02
 -1      1661 6.90129E-01 3.29385E-02 1.23591E-02 2.56954E-01 2.08984E-02-5.32554E-02
 -1      1662-1.96863E-02 2.77025E-01-9.68275E-02-1.04816E-01 2.49937E-01-5.47614E-03
 -1      1663 7.99472E-01 2.29241E-01-1.97121E-01-3.41800E-03-1.61501E-02 1.79437E-01
 -1      1664 4.72073E-02 8.76330E-02 7.47382E-02-4.94908E-02 3.33400E-02-5.67069E-03
 -1      1665-6.79232E-01 4.33740E-01 4.00906E-01-3.37470E-02 1.12665E-01 6.07591E-02
 -1      1666 0.00000E+00 0.00000E+00 0.00000E+00 0.00000E+00 0.00000E+00 0.00000E+00
 -1      1667-1.91007E+00 8.62036E-02 2.56884E-01 2.90120E-01-1.73669E-01-1.82122E-01
 -1      1668-6.33229E-01-1.41401E-01 9.65182E-02-9.48998E-03 1.10973E-02 9.71398E-02
 -1      1669-5.10720E+00-2.56295E-01-6.96652E-01-3.57962E-02-2.05872E-01-1.04914E-01
 -1      1670-1.95586E+00-1.95353E-02 4.31255E-02 3.13881E-01-1.13122E-01-1.81949E-01
 -1      1671-1.04644E+00-2.49373E-01 2.02036E-01-4.84237E-02-1.11974E-01-1.53621E-01
 -1      1672-4.67197E-01 2.58264E-02 1.18101E-01 1.41339E-01 4.64416E-03-1.59175E-01
 -1      1673-2.00418E+00-2.08908E-01-3.67894E-01 5.84998E-02-2.84445E-02-1.43633E-01
 -1      1674-6.20426E-02-1.27698E-01 4.67773E-03 7.42314E-02 4.87910E-02-4.97449E-02
 -1      1675-9.18987E-01-8.65381E-02-3.29336E-01 1.31759E-02-1.01003E-01-1.54039E-01
 -1      1676 1.22902E-02-6.37152E-02 6.40940E-04-2.25918E-02 4.06436E-02 6.70520E-03
 -1      1677 1.10679E+00-7.16278E-03-3.32833E-01-2.23270E-01 1.28648E-01 4.07957E-02
 -1      1678 6.93877E-02 8.89546E-02-1.11933E-01-2.72632E-02 6.33454E-03-4.86256E-02
 -1      1679 1.28581E-01-4.04045E-01-2.42192E-01-8.97720E-02-6.15822E-02-2.58656E-03
 -1      1680 2.39376E+00 2.04674E-01-1.76206E-01 1.27029E-02 1.29928E-01-5.27071E-02
 -1      1681 2.05802E+00 1.44843E-01 5.99458E-05-3.40223E-01 2.41410E-02 1.55842E-01
 -1      1682 3.70789E-01 1.78081E-03 4.35623E-02-2.48299E-01-4.98870E-02 1.21710E-01
 -1      1683 1.92662E+00-7.79728E-02 2.64181E-01-7.40085E-02 5.48864E-02 1.51752E-01
 -1      1684 4.44087E-02-1.26735E-01-9.41523E-02-2.25177E-02-4.33713E-02 4.28949E-02
 -1      1685 9.57101E-01-2.01493E-01-2.52614E-01 3.82088E-02 1.16279E-01-8.13253E-03
 -1      1686-3.44749E-04 5.16230E-02-6.46489E-02-7.79747E-02 3.29415E-03 1.82924E-02
 -1      1687 3.24707E-02 2.16728E-02-8.84851E-02-1.01584E-01 2.87672E-02 3.76284E-02
 -1      1688-4.51662E-03 1.06784E-02 5.25045E-02-2.31579E-02-1.37047E-02 1.26992E-02
 -1      1689-1.66238E-01-7.05093E-04 1.71116E-01-3.93505E-02 2.73221E-02 1.37991E-02
 -1      1690-7.98563E-01 3.81319E-02 2.37095E-01 4.05940E-01 2.67903E-02 8.09836E-05
 -1      1691 0.00000E+00 0.00000E+00 0.00000E+00 0.00000E+00 0.00000E+00 0.00000E+00
 -1      1692 0.00000E+00 0.00000E+00 0.00000E+00 0.00000E+00 0.00000E+00 0.00000E+00
 -1      1693-1.21347E-01 4.39213E-01 2.91094E-01-1.56281E-01-1.81813E-01 5.68809E-03
 -1      1694-3.71442E+00-1.25120E-01 2.27753E-01-6.78386E-01-7.94153E-02 3.51405E-01
 -1      1695-2.48994E+00-2.25393E-03-8.47252E-02 7.82664E-01-1.73151E-02-4.08919E-01
 -1      1696-4.68450E-01-1.23239E-01-5.01309E-02 1.78533E-01 3.22566E-02-1.50818E-01
 -1      1697 1.56734E+00 1.51824E-01 5.96471E-01 1.96736E-01-4.14842E-02-1.70396E-01
 -1      1698 3.83204E-01 1.53055E-01-2.95201E-01-1.80979E-02 1.07777E-01-4.50186E-02
 -1      1699 3.38644E+00 1.40451E-01 1.21406E-01-2.04742E-01 2.59274E-01-1.47158E-01
 -1      1700 5.24915E-01-2.95542E-01-1.36599E-01 8.09893E-02 2.61109E-02-5.71680E-02
 -1      1701 1.53779E+00-2.60422E-01-2.11228E-01 5.11740E-01 1.56091E-02-1.47464E-01
 -1      1702 6.49826E+00 3.77836E-01 5.72234E-01 1.15813E-01 3.55918E-01-5.73301E-01
 -1      1703 2.08848E+00 2.23590E-01 1.47455E-02-1.02867E+00 2.47639E-01 2.80022E-01
 -1      1704-2.72236E-01-5.43127E-02-2.56544E-02-1.71236E-01-4.33227E-02 8.43515E-02
 -1      1705-2.76924E+00 7.31320E-02-4.34101E-01 1.47570E-01-1.91248E-01 2.68674E-01
 -1      1706-1.66163E+00 3.42937E-01 3.73904E-01-9.25553E-02 6.82576E-02 2.33973E-01
 -1      1707-1.47558E+00 7.38056E-02 1.88378E-01-4.77837E-01-8.03725E-02 2.00389E-01
 -1      1708-9.53805E-01 3.52687E-01 9.16320E-01-3.33260E-01 1.57499E-01 2.27525E-01
 -1      1709 0.00000E+00 0.00000E+00 0.00000E+00 0.00000E+00 0.00000E+00 0.00000E+00
 -1      1710 3.87027E+00-3.85063E-01-3.67472E-01 6.43016E-01-7.50190E-02-1.48549E-01
 -1      1711-6.37137E-03-1.26851E-01-3.44821E-01-5.72709E-02 1.64575E-02-1.06864E-01
 -1      1712-4.64749E-01-1.59642E-01-2.58843E-01-1.47953E-03-4.20469E-02 6.28187E-03
 -1      1713-1.10589E+00-4.02593E-01-6.41508E-01-2.27813E-01-2.95911E-02 1.46850E-01
 -1      1714-4.77380E+00-8.02138E-02-1.64213E-01 2.14746E-01-2.95231E-01 2.10872E-01
 -1      1715 5.05718E-01 1.11695E+00 5.43948E-01 2.25921E-01 7.08150E-02 1.67700E-01
 -1      1716-4.31835E+00-1.60166E-01-6.27880E-01 2.25617E-01-4.98423E-02-3.88915E-01
 -1      1717-9.39715E+00-8.85261E-01-1.13880E+00 2.39553E-02-1.64970E-02-7.52828E-01
 -1      1718-7.01428E+00-6.22983E-01 3.13998E-01-1.40152E-01 2.19260E-01-4.44794E-01
 -1      1719-1.22452E+01-2.76077E+00-1.22638E+00-3.32062E-01 3.35004E-01-6.05787E-01
 -1      1720-5.42749E+00-4.67502E-01-7.11723E-01-2.67118E-01 1.44994E-01-7.63893E-01
 -1      1721-6.13204E+00-1.49039E+00-1.26216E+00-2.15317E-01 4.06021E-01-7.88480E-01
 -1      1722-4.48791E+00-1.14127E+00-4.77543E-01-8.98793E-01 4.10281E-01-2.69092E-01
 -1      1723-6.18133E+00-1.91645E-01 2.43623E-01-3.74668E-01-2.00443E-01-5.28727E-01
 -1      1724-5.41052E+00 3.48974E-01 3.23068E-01-2.73772E-01-5.02899E-01-5.27074E-01
 -1      1725-2.01958E+00-3.37823E-01-3.81774E-01 7.17515E-02 8.40071E-02-7.45811E-01
 -1      1726-1.81561E+00-2.66614E-01-3.17664E-01 6.42609E-03 7.42131E-02-8.07090E-01
 -1      1727 1.60921E+00 1.20441E-01 8.77906E-02-8.90979E-02 1.50519E-01-8.44427E-01
 -1      1728 1.50672E+00-1.31610E-01-1.21677E-01 6.31026E-02-3.18029E-02-9.38959E-01
 -1      1729 2.05035E+00 2.36584E-01 2.70301E-01-1.28841E-02-2.78873E-01-9.69878E-01
 -1      1730 2.72277E+00 2.69058E-01 5.81066E-01-1.28220E-02 1.14452E-01-2.25813E-01
 -1      1731 4.54231E+00 4.15550E-01 2.10127E-01-8.59743E-02 2.70225E-01-7.51296E-01
 -1      1732 4.84562E+00 7.80624E-01 5.90374E-01 7.87522E-02 1.53768E-01-7.92785E-01
 -1      1733 4.23758E+00 3.45481E-01 6.32793E-01-1.73386E-02-6.37933E-02-7.37141E-01
 -1      1734 4.41611E+00 4.03816E-01 6.91290E-01 1.16583E-01 6.22746E-02-8.03054E-01
 -1      1735 2.72895E+00 2.71621E-01 4.93867E-02 1.36077E-01-1.33432E-01-2.59341E-01
 -1      1736 6.40823E+00 4.93572E-01 1.67338E-01-9.66128E-02 1.80763E-01-4.92325E-01
 -1      1737 1.11680E+01 2.28823E+00 4.24080E-01 2.47020E+00-9.52729E-01 1.42868E+00
 -1      1738 3.45870E+00 7.79491E-02 2.45234E-01-2.94998E-01 1.59126E-01 1.56456E-01
 -1      1739 7.04043E+00 7.73838E-02-7.57645E-02-1.68115E-01-1.02009E-01 1.79318E-01
 -1      1740 8.90902E+00 1.03175E+00 1.01247E+00-2.99377E-01-3.59059E-01 4.00693E-01
 -1      1741 8.45066E+00 3.41805E-01 1.09104E+00-4.69144E-02 4.40750E-02 1.17383E+00
 -1      1742 7.73445E+00 9.41372E-01 1.14543E+00-4.48254E-01 2.90430E-01 1.18882E+00
 -1      1743 7.92436E+00 6.76862E-01-1.26356E-01-1.87491E-03 1.09436E-01 7.79703E-01
 -1      1744 5.19766E+00 1.01074E+00 7.05476E-01 2.61632E-01-2.49358E-01 8.80422E-01
 -1      1745 5.13253E+00 8.93087E-01 9.45240E-01 6.80393E-01-1.72870E-01 6.21062E-01
 -1      1746 5.23474E+00-5.62430E-03-5.69792E-01 5.00602E-01 3.60798E-01 7.78552E-01
 -1      1747 1.01387E+00 6.62143E-03 3.73893E-01 7.23711E-02-8.50850E-02 6.08265E-01
 -1      1748 2.05709E+00 4.69089E-01 4.13021E-01 4.04181E-02-1.76247E-01 8.25622E-01
 -1      1749 1.99735E+00 9.44441E-02-1.08110E-01 2.40528E-01 2.23437E-01 6.90006E-01
 -1      1750-1.77185E+00-5.16848E-02 2.24664E-03-8.87258E-03-1.04641E-01 6.89999E-01
 -1      1751-1.28774E+00 1.50206E-02-2.50909E-02-1.17267E-01 9.61904E-02 4.69027E-01
 -1      1752-1.52212E+00-8.63504E-02-1.65422E-01-1.44963E-01 1.55701E-01 4.95271E-01
 -1      1753-2.33108E+00-4.98288E-01-3.87300E-01-2.20528E-01 2.46306E-01 6.14271E-01
 -1      1754-4.24097E+00-3.59980E-02 2.99972E-01 3.63490E-01-1.02096E-02 4.66394E-01
 -1      1755-4.46202E+00-5.80616E-01-2.63032E-01 1.69176E-01 3.16494E-02 5.62564E-01
 -1      1756-2.81693E+00-6.58646E-02-3.91478E-01 1.19213E-01 1.47312E-01 5.31104E-01
 -1      1757-5.32986E+00 5.01616E-02 2.59761E-01-2.08337E-01-1.83818E-02 9.64710E-01
 -1      1758-8.99376E+00-8.06756E-01-1.25851E+00 1.48728E-02-4.84652E-02 7.87780E-01
 -1      1759-7.03401E+00 1.02372E-01-4.75734E-01-2.87552E-01-3.19714E-01 2.73130E-01
 -1      1760-5.80429E+00-1.10109E+00-2.14439E-01 8.43480E-01-2.88975E-01 4.44180E-01
 -1      1761-9.73437E+00-3.53199E+00-2.24716E+00 1.37689E+00-5.67132E-01 6.09856E-01
 -1      1762 0.00000E+00 0.00000E+00 0.00000E+00 0.00000E+00 0.00000E+00 0.00000E+00
 -1      1763-1.32041E-01 1.69291E-03 5.59786E-01-3.20274E-01-3.09134E-02 4.31853E-01
 -1      1764-2.14250E+00-8.26794E-02 2.17521E-01-4.79666E-01-2.74981E-02 9.04837E-01
 -1      1765-5.29414E+00-1.81629E-01-2.91927E-01-1.92556E-01-3.11868E-01-8.09526E-01
 -1      1766-1.41062E+00-3.51014E-02-2.56662E-01 2.28316E-02 2.73389E-02-6.58164E-01
 -1      1767-2.31492E+00-8.14398E-02 7.98693E-02-2.23817E-01-2.93250E-01-5.80554E-01
 -1      1768 8.31960E+00 2.86816E-01 3.05170E-01-5.98806E-01 6.04994E-01-1.77574E-01
 -1      1769 8.10066E+00-2.94469E-01 1.13796E+00 3.09665E-02-1.35694E-01 1.07479E-01
 -1      1770 5.30456E+00 6.60151E-01 1.32725E+00-1.82083E-01-1.43586E-02 8.47767E-01
 -1      1771 5.36162E+00 2.04729E-01 2.73373E-01 3.53790E-01 4.91354E-01 7.89116E-01
 -1      1772 1.59372E+00 2.18365E-01 1.96196E-01 6.21508E-03-3.80104E-02 9.54667E-01
 -1      1773-1.72329E+00-2.51436E-02-1.98408E-01-6.70928E-02 1.06169E-01 7.81424E-01
 -1      1774-4.88392E+00-1.16151E-01-4.03918E-02 3.98852E-01-4.09383E-01 5.11810E-01
 -1      1775-4.09563E+00-1.83763E+00-1.10800E+00 5.62777E-01-3.21422E-01 1.90013E-01
 -1      1776 0.00000E+00 0.00000E+00 0.00000E+00 0.00000E+00 0.00000E+00 0.00000E+00
 -1      1777 0.00000E+00 0.00000E+00 0.00000E+00 0.00000E+00 0.00000E+00 0.00000E+00
 -1      1778-5.38269E+00-1.61004E+00-1.84096E-01-1.00917E+00-4.41913E-01 6.94140E-01
 -1      1779-7.24459E+00-3.29758E-01-5.98583E-01 2.40605E-01-4.15297E-01-8.68251E-01
 -1      1780-9.95690E+00-5.15243E-01-8.34165E-01-5.24298E-01-6.13625E-01-2.12995E-01
 -1      1781 1.42410E+00-4.91840E-02 8.43105E-02-3.02560E-02-9.60834E-02-9.55971E-01
 -1      1782 4.62611E+00 2.08233E-01 6.35919E-01 7.30415E-01 2.39885E-01-1.27394E+00
 -1      1783-3.85959E+00 9.81134E-02 1.33859E-01 4.27261E-02-1.33459E-01 7.07715E-01
 -1      1784 0.00000E+00 0.00000E+00 0.00000E+00 0.00000E+00 0.00000E+00 0.00000E+00
 -1      1785 0.00000E+00 0.00000E+00 0.00000E+00 0.00000E+00 0.00000E+00 0.00000E+00
 -1      1786 0.00000E+00 0.00000E+00 0.00000E+00 0.00000E+00 0.00000E+00 0.00000E+00
 -1      1787-5.72367E+00 7.77470E-02-1.02427E+00-9.10739E-02-2.91497E-01-2.28151E-01
 -1      1788-2.51324E+00-5.05148E-01-2.59768E-01-1.15309E-01-1.56378E-01-7.37565E-01
 -1      1789 1.20818E+00-2.60161E-01-2.09016E-01 4.62465E-02-1.90340E-01-1.01771E+00
 -1      1790 2.12237E+00 1.87830E-02-2.70740E-01 1.35164E-01 3.65319E-01-8.23905E-01
 -1      1791 3.33432E+00-3.49071E-02-2.98649E-01 2.09809E-01-9.76934E-02-4.85043E-01
 -1      1792 1.56051E+00 5.59618E-02-8.58622E-02-5.63097E-02-6.32540E-02 8.00825E-01
 -1      1793-8.97058E-01 1.31053E-01-9.28819E-02-9.08802E-02-4.97163E-02 6.20329E-01
 -1      1794-1.09186E+00 2.61196E-01 3.16283E-01-1.32330E-02 7.39364E-02 7.34938E-01
 -1      1795-2.76134E+00 2.53420E-02-4.90565E-01-6.44873E-02-1.73072E-02 3.80749E-01
 -1      1796 0.00000E+00 0.00000E+00 0.00000E+00 0.00000E+00 0.00000E+00 0.00000E+00
 -1      1797-5.11436E+00-4.19508E-01-5.59102E-01-2.87570E-01-5.05529E-01-7.69445E-01
 -1      1798-1.53817E+00-6.88613E-02-2.25221E-01 6.29983E-02-9.85976E-02-7.56948E-01
 -1      1799 1.39424E+00 1.01401E-01 1.35020E-01 2.22550E-01-3.68154E-02-8.65969E-01
 -1      1800 2.87526E+00-6.87155E-01-6.97125E-01-1.54148E-01-2.20165E-02-5.26442E-01
 -1      1801 3.55518E+00-1.17788E-01 1.90492E-01-1.35457E-01 9.85344E-02 5.60983E-01
 -1      1802 2.35031E+00-9.22229E-01-5.65388E-01 7.72917E-02 4.36473E-03 5.04604E-01
 -1      1803 2.80474E+00 2.60826E-01 4.84989E-01-1.07904E-01 9.85078E-02 4.87181E-01
 -1      1804 9.56567E-01-1.93026E-01 1.11053E-02-8.23098E-02 1.38413E-01 8.37137E-01
 -1      1805-3.34597E+00 3.17460E-01 2.65508E-01 1.25349E-01 3.11207E-02 6.14439E-01
 -1      1806-4.77645E+00-7.91647E-01-7.02873E-01 4.09489E-01-1.54774E-01-3.67746E-01
 -1      1807 0.00000E+00 0.00000E+00 0.00000E+00 0.00000E+00 0.00000E+00 0.00000E+00
 -1      1808-9.97827E+00-8.30254E-01-1.19508E+00 1.34796E+00-2.42245E-03 2.04939E-01
 -1      1809-5.64714E+00-2.05867E-01-2.43540E-01-2.31572E-02 1.13035E-01-8.53916E-01
 -1      1810-4.15752E+00 1.04871E-01-3.88004E-01-1.00925E-01-4.14260E-02-1.30751E+00
 -1      1811-1.50099E+00 1.37749E-01-4.94213E-02-2.07463E-01 1.04782E-01-1.15082E+00
 -1      1812 3.00402E-01-1.31222E-01 7.06803E-03-4.93959E-02-6.62432E-02-1.01412E+00
 -1      1813 1.46858E+00 1.20109E-01 1.88298E-01-2.65383E-01 1.60473E-01-8.58007E-01
 -1      1814 3.87421E+00-1.39166E-01 9.80004E-02-3.33260E-01-3.92320E-02-1.08976E+00
 -1      1815 7.59692E+00 7.16659E-01 6.65248E-01-2.57798E-01-2.15635E-01-1.29925E+00
 -1      1816 5.68513E+00 4.64158E-01 1.50264E-01 8.31472E-02-1.28711E-02 1.21320E+00
 -1      1817 5.46129E+00 1.62062E-01 7.73551E-02 2.97741E-01-1.80654E-01 9.98597E-01
 -1      1818 2.53263E+00-8.61057E-02 2.67782E-01 1.71793E-01-3.08172E-01 7.28230E-01
 -1      1819 1.46182E+00-1.57580E-02-1.79156E-01-3.64938E-02 3.97438E-03 1.10644E+00
 -1      1820-1.56625E+00 3.16391E-02 9.10543E-02-1.08180E-01 6.69163E-02 7.54321E-01
 -1      1821-6.42079E+00-4.33430E-01-3.85553E-01 3.39470E-01 2.09613E-01 1.02344E+00
 -1      1822-5.70843E+00-4.60940E-01 2.45701E-01-1.09577E+00-1.99229E-01-7.99034E-01
 -1      1823-7.62675E+00-2.47409E+00-1.89078E+00 7.40427E-01 1.22410E-02 2.18793E-01
 -1      1824-7.90077E+00 2.34079E-01 3.95440E-01 3.50576E-01 5.85015E-01-2.69911E-01
 -1      1825-4.97186E+00 2.05390E-01-7.87343E-01-4.41666E-01 1.18236E-01-1.76850E+00
 -1      1826-4.52404E+00-1.66606E-01-3.63993E-01 1.03126E-01 2.83783E-01-2.88386E-01
 -1      1827 1.11490E+01 2.22675E+00 1.37282E+00-2.03428E-01-1.68942E-01-1.29485E+00
 -1      1828 7.50330E+00 1.45655E-01 3.11659E-01-1.81283E-01-2.45212E-01 4.64640E-01
 -1      1829 1.01668E+00-9.20734E-02-1.22280E-01-1.73205E-01-1.06503E-01 6.20118E-01
 -1      1830-8.78231E+00-1.13034E+00-1.03303E+00-6.84541E-02-4.06135E-01 5.56082E-01
 -1      1831 0.00000E+00 0.00000E+00 0.00000E+00 0.00000E+00 0.00000E+00 0.00000E+00
 -1      1832 0.00000E+00 0.00000E+00 0.00000E+00 0.00000E+00 0.00000E+00 0.00000E+00
 -1      1833 0.00000E+00 0.00000E+00 0.00000E+00 0.00000E+00 0.00000E+00 0.00000E+00
 -1      1834-7.11985E+00-1.03369E+00-1.04979E+00-2.55606E-02-3.48669E-01-4.19005E-01
 -1      1835-4.98764E+00-6.09426E-01-6.64688E-01 4.81202E-02-1.29068E-01-6.37724E-01
 -1      1836-2.09346E+00 1.12561E-01 5.23146E-01 2.27632E-01 1.20870E-01-7.68558E-01
 -1      1837 2.31249E+00 1.56825E-01 1.14075E-01-2.28268E-02-7.73869E-02-8.78667E-01
 -1      1838 4.89904E+00-1.16049E-02-2.70096E-01 4.64692E-01-3.52808E-01-2.19880E-01
 -1      1839 5.16252E+00 5.73900E-01 2.80197E-01-4.55456E-02 3.46462E-01-3.96804E-01
 -1      1840 4.49106E+00 5.37270E-01 4.44717E-01-4.47552E-02 2.15690E-01-5.75972E-01
 -1      1841 1.17807E+01 1.41084E+00 1.64104E+00-5.49923E-01-2.01785E-01-7.08409E-01
 -1      1842 1.00339E+01 1.39271E+00 9.17953E-01-2.61873E-01-2.01725E-01 8.52852E-01
 -1      1843 7.08306E+00 1.63919E+00 1.19623E+00 2.84679E-02 4.20950E-01 1.14744E+00
 -1      1844 1.30052E+00 1.90229E-02-1.75952E-01-1.56175E-01-8.37277E-02 5.66966E-01
 -1      1845-2.11587E+00-3.61696E-01-4.75645E-01-1.99778E-03-1.44939E-01 5.63457E-01
 -1      1846-5.44885E+00 9.21264E-02 2.07063E-02-3.95152E-01 2.31562E-01 6.57583E-01
 -1      1847-6.05318E+00-5.42456E-01-9.66372E-02-2.48719E-01 9.85110E-02 5.22035E-01
 -1      1848-5.64554E+00-9.95202E-01-4.55924E-01-6.96723E-02-3.79080E-02 5.49021E-01
 -1      1849 0.00000E+00 0.00000E+00 0.00000E+00 0.00000E+00 0.00000E+00 0.00000E+00
 -1      1850-5.45261E+00-4.18764E-01-7.17494E-01-2.63377E-01 2.06527E-01-9.82450E-01
 -1      1851 1.43797E+00 2.78080E-02-1.05529E-01 1.30795E-01-1.49493E-01-6.13948E-01
 -1      1852 1.03725E+00 1.64194E-01 1.12452E-02 1.45741E-01-4.96638E-02-3.73160E-01
 -1      1853 7.47639E+00 1.30579E-01 4.20259E-02-2.17986E-01 2.15602E-01 5.50581E-01
 -1      1854-6.46674E+00-1.10852E+00-9.63691E-01-3.38572E-02 1.20443E-01 7.86040E-01
 -1      1855-1.69502E+00-8.74516E-01-4.73346E-01-1.53200E-01 7.57384E-02-1.21089E-01
 -1      1856 0.00000E+00 0.00000E+00 0.00000E+00 0.00000E+00 0.00000E+00 0.00000E+00
 -1      1857 0.00000E+00 0.00000E+00 0.00000E+00 0.00000E+00 0.00000E+00 0.00000E+00
 -1      1858-3.25479E+00-1.73732E+00-1.38793E+00 4.62728E-01-3.58317E-02-1.83670E-01
 -1      1859-3.32425E+00 3.68933E-01 1.60648E-01 1.83032E-01 2.91426E-02 2.69113E-01
 -1      1860-7.61101E+00 1.23227E-01 4.66269E-01-6.49321E-01-2.06795E-01-6.54235E-01
 -1      1861-6.98004E+00 7.25119E-02-3.69521E-01-5.84299E-01-5.91076E-01-4.07633E-01
 -1      1862-8.58888E+00-6.41769E-01 3.11197E-01 2.30531E-01 2.36787E-01-1.77815E-01
 -1      1863-2.99781E+00-1.68813E-01-4.57562E-01 5.90437E-02 2.63497E-02 8.27572E-02
 -1      1864-3.36071E+00-6.62851E-02 3.30353E-01 2.19627E-01 9.82393E-02-4.91972E-01
 -1      1865-4.88474E+00-3.09843E-01-3.84140E-01 3.43344E-02 5.97428E-01-6.36381E-01
 -1      1866-2.26740E+00-2.80576E-01-1.75188E-01-4.94963E-03 2.70167E-01-6.54469E-02
 -1      1867-1.27009E+00-2.54623E-01-1.00314E-01 2.52754E-02 7.43366E-02-1.62925E-01
 -1      1868-2.71573E+00-7.97741E-01-9.66350E-01 1.23555E-01-8.87527E-02-6.44814E-01
 -1      1869-2.10807E+00-1.13482E-01 5.76300E-02 2.20950E-01 2.45445E-02-7.55117E-01
 -1      1870-1.02774E+00-2.13151E-01-4.55751E-01 1.19890E-01 8.17142E-03-2.07670E-01
 -1      1871 6.89924E-01-2.41966E-02 2.75122E-02 6.84710E-02-1.01198E-01-2.98448E-01
 -1      1872 1.26662E+00 3.76590E-02-2.81091E-01 4.95799E-02-1.05742E-01-4.87399E-01
 -1      1873 2.44204E+00 2.79841E-01 4.30686E-01 1.63698E-01-7.85124E-02-4.89145E-01
 -1      1874 4.56699E+00-1.05677E-01-2.02376E-01 2.48921E-01-3.42261E-01-6.73865E-01
 -1      1875 3.47934E+00 3.69292E-01 3.33187E-01 7.90264E-02-1.19577E-01-1.73230E-01
 -1      1876 9.34429E+00 1.07598E+00 1.52122E-01 1.69517E-01 1.44424E-01-6.25311E-01
 -1      1877 5.57437E+00 1.12072E+00 1.06972E+00-1.17464E-01-3.25196E-01 7.66606E-01
 -1      1878 9.79134E+00 1.12175E+00 7.02439E-01-1.45977E-02-3.66149E-02-6.57078E-02
 -1      1879 1.00816E+01 1.70018E+00 2.37953E+00-6.38884E-02 1.08464E+00 1.81074E-01
 -1      1880 3.27056E+00-4.36371E-01 1.14444E-02-2.36044E-01-1.90932E-01 3.52840E-02
 -1      1881 5.37273E+00 3.33030E-01 4.52458E-02-3.85589E-02-1.80045E-01 2.97412E-01
 -1      1882 5.88108E+00 9.94926E-02 1.69353E-01-2.77739E-02 3.26672E-01 1.00643E+00
 -1      1883 3.87439E+00 5.07966E-01 7.48918E-01-6.71874E-02-1.25819E-01 3.09927E-02
 -1      1884 1.63869E+00-2.83160E-01-1.25324E-01-1.14515E-02 1.10172E-02 1.00098E-01
 -1      1885 4.75086E+00 6.69862E-01 8.16794E-01-5.12018E-02 2.52578E-01 8.00324E-01
 -1      1886 1.39703E+00-2.73807E-02 3.02909E-01 1.76780E-02-1.00030E-01 1.28737E-01
 -1      1887 8.96466E-01-9.54830E-02-3.88233E-01 1.30566E-01-2.11833E-02 3.07835E-01
 -1      1888 1.12995E+00 1.69931E-01 1.12129E-01-7.83175E-02 1.23715E-01 4.71918E-01
 -1      1889 1.16565E+00 7.39579E-03-1.41837E-01-6.95209E-02-9.78848E-02 4.50688E-01
 -1      1890 6.42547E-01-5.26890E-02-1.82532E-03-1.34605E-01-1.12598E-01 4.50280E-01
 -1      1891-6.16444E-01-1.40710E-01-2.60502E-01-3.75742E-02 6.43189E-02 2.09730E-01
 -1      1892-2.02668E+00-2.50718E-01-9.97541E-02-2.31041E-02 4.28652E-02 5.95941E-01
 -1      1893-1.89169E+00-1.06170E-01-2.00972E-01-1.82862E-01 4.85288E-02 5.72510E-01
 -1      1894-1.45478E+00-2.66792E-01-1.70381E-01 5.80965E-03-1.82075E-01 3.06919E-01
 -1      1895-8.48052E-01-5.35287E-02 7.26967E-03 3.15945E-02-4.47944E-02 3.64095E-01
 -1      1896-7.32297E-01-5.09664E-02-1.30666E-01 3.82661E-01-3.68908E-02 8.07604E-02
 -1      1897-4.87230E+00 2.31250E-01 1.65696E-01-4.90232E-01 2.01543E-01 6.83738E-01
 -1      1898-4.26227E+00-1.34835E-01 3.84196E-01-1.85343E-01 3.49441E-01 2.19242E-01
 -1      1899-8.73092E+00-8.55892E-01-2.57318E-01 1.28783E-01-1.57977E-01 7.85474E-01
 -1      1900-4.17126E+00-3.46601E-01-1.30195E-01-8.59543E-02 8.45414E-02 3.87004E-01
 -1      1901-4.07772E+00-5.03563E-01-1.36102E-01-9.26297E-01-6.75622E-05-4.51833E-01
 -1      1902-6.25976E+00-2.35230E+00-7.17838E-01-8.15307E-01 4.16755E-01-7.27076E-02
 -1      1903 0.00000E+00 0.00000E+00 0.00000E+00 0.00000E+00 0.00000E+00 0.00000E+00
 -1      1904-3.62118E-01 6.04507E-01 3.89589E-01-9.74350E-02-1.16358E-01-5.82065E-02
 -1      1905-6.83990E-01-1.54725E-01 2.88945E-01 8.01299E-02-2.07487E-01 9.96069E-03
 -1      1906-3.74629E-01-2.26510E-01 4.75252E-01-2.25751E-01 1.15406E-01-2.18475E-01
 -1      1907-2.22567E+00-5.59824E-02-2.37129E-01-3.58763E-01 2.09649E-01-2.07001E-01
 -1      1908-3.45771E-01-5.66187E-01-1.29914E-01 4.45873E-01 2.71619E-01-2.12455E-01
 -1      1909-1.02207E+00-1.02819E-01-1.00005E-01-2.41137E-01 6.30261E-02-6.71760E-02
 -1      1910-2.91292E-01 8.51833E-02 3.90224E-02 6.22347E-02-4.45095E-02 8.55975E-02
 -1      1911 7.25858E-01-9.10641E-02-3.48695E-01 3.18236E-01-2.37283E-01-4.14693E-02
 -1      1912 5.26339E-01-1.57378E-01-2.09687E-01 1.41786E-02 2.39391E-03 1.60848E-01
 -1      1913 1.50516E+00-5.39709E-01-4.14640E-01 4.96770E-01-2.61529E-01 2.54463E-01
 -1      1914 1.35276E+00 2.82452E-01-1.56275E-01-9.22268E-03-1.98916E-01 2.48152E-01
 -1      1915 1.57299E+00-2.47255E-01-2.03426E-01 4.35627E-01 4.70898E-03 1.91214E-01
 -1      1916 2.59932E-01 1.97750E-01-4.39029E-01 2.44843E-01 2.84432E-02 1.36500E-01
 -1      1917 2.55526E+00-3.01401E-01-4.19353E-01-1.56687E-01-1.97371E-01-3.12080E-01
 -1      1918 2.00960E+00 1.98779E-01 1.66491E-01 5.03605E-01-1.55556E-01 2.15525E-01
 -1      1919 1.02206E+00-2.69281E-02-2.96757E-01-1.72050E-01-1.50139E-01-1.99683E-01
 -1      1920 1.51395E-01-1.14972E-01-2.15022E-01-3.75432E-02-4.71851E-02-9.70186E-02
 -1      1921-1.25395E+00-1.20637E-01 2.30284E-01-1.96172E-01 1.04856E-01-7.79907E-02
 -1      1922-1.69667E+00 1.58920E-02-8.13449E-02-1.38698E-01-1.28583E-01-1.43473E-02
 -1      1923-1.20864E+00 1.89244E-01 9.71089E-02 1.51560E-01 1.55970E-02 7.08576E-03
 -1      1924-2.38417E+00-3.44223E-01-2.20196E-01 6.01978E-01 3.69719E-02 4.81459E-01
 -1      1925-6.83484E-01-2.24365E-01 5.64573E-01 2.67291E-01-8.25137E-02 1.12888E-02
 -1      1926 0.00000E+00 0.00000E+00 0.00000E+00 0.00000E+00 0.00000E+00 0.00000E+00
 -1      1927 0.00000E+00 0.00000E+00 0.00000E+00 0.00000E+00 0.00000E+00 0.00000E+00
 -1      1928-1.41282E+00-8.52520E-02 2.84311E-01-5.72622E-02-1.23825E-01-1.20934E-01
 -1      1929-2.00425E-01-2.07591E-01 3.29515E-01-1.67832E-02 1.00839E-01 8.61118E-02
 -1      1930-4.64225E-01 1.87497E-02 1.19797E-01 1.60324E-02-1.74484E-02 1.61327E-02
 -1      1931 2.69777E-02-1.91029E-02-8.87026E-03 1.78282E-02 4.21198E-03-8.92858E-03
 -1      1932-1.92953E-02-1.06743E-02-7.67873E-02-1.17348E-02-2.16188E-02 2.64004E-02
 -1      1933 2.31672E-01 3.85350E-02-4.60680E-03-9.04772E-02-3.62987E-02-3.20089E-02
 -1      1934 7.78099E-01-7.59968E-02-2.52688E-01-2.76466E-01-8.24022E-02 4.01310E-02
 -1      1935 1.57578E+00 1.55968E-01-4.35318E-02 5.31488E-02-6.27776E-02-2.99748E-02
 -1      1936 1.66225E+00 4.35409E-02-1.81383E-01-1.90849E-01 5.69369E-02-1.43712E-01
 -1      1937 2.62256E+00 4.77807E-01 3.60752E-02-4.92746E-01 9.89668E-02-4.33952E-01
 -1      1938 1.51702E+00-1.11830E-01-7.71897E-01 4.06234E-01-2.40013E-01 2.43610E-01
 -1      1939 7.09582E-02 3.05956E-01 2.77614E-02-5.94727E-03-1.05507E-01 5.62274E-03
 -1      1940 3.66066E-01-5.67442E-01-5.65717E-01-2.62263E-01-5.29003E-02-9.65935E-02
 -1      1941 8.57872E-01 5.20057E-02-1.08660E-01-4.58816E-01-6.39520E-02-1.91098E-01
 -1      1942 1.53919E-01-1.48504E-01-1.73396E-01 1.05152E-01-6.29666E-02-3.57618E-02
 -1      1943-6.36086E-01-2.29555E-01-8.05650E-02-5.19085E-02-1.15311E-01-1.75958E-01
 -1      1944 1.02985E-01 1.59769E-01 3.26718E-01-9.66234E-02 3.53912E-01 5.84382E-02
 -1      1945-8.40562E-01-9.35246E-01 1.44416E-01-1.90492E-01 4.35665E-02-1.06970E-01
 -1      1946 0.00000E+00 0.00000E+00 0.00000E+00 0.00000E+00 0.00000E+00 0.00000E+00
 -1      1947-2.27626E-01-3.38680E-01 1.44044E-01-1.62561E-01-1.84174E-01-1.40730E-02
 -1      1948-4.23286E-01-7.73191E-02 1.73103E-01 2.78621E-01 1.36077E-01-1.56052E-02
 -1      1949-5.91768E-02-1.74009E-01 5.71832E-02 2.12183E-01 5.12255E-02 6.11390E-02
 -1      1950 3.78164E-02-3.15929E-02 3.75469E-02 4.14511E-02 2.75622E-02-1.69497E-02
 -1      1951-4.83831E-01-2.81412E-01 1.37951E-02 2.07931E-01 9.78250E-02-5.59344E-02
 -1      1952-2.14181E-01-2.96196E-01-5.99404E-02 4.60592E-02-5.89676E-02 2.72788E-02
 -1      1953-2.06245E-01-3.05559E-01-9.75801E-02 6.30721E-03-1.76529E-01 6.48144E-02
 -1      1954 6.31223E-03 1.88393E-01-3.86310E-04-6.71269E-03-5.46782E-02 3.71503E-03
 -1      1955-3.32635E-02-1.01596E-01-2.51014E-02 1.99432E-02-1.07600E-02-4.10028E-03
 -1      1956 3.36763E-02 5.63233E-02-9.32575E-03 3.51618E-02 3.01954E-02 4.05632E-02
 -1      1957 8.24880E-02-5.67539E-02 4.60783E-02-5.75999E-03-2.44818E-02 7.47093E-03
 -1      1958 2.84906E-01 1.96389E-01-4.76900E-02 1.04804E-01-4.50492E-02-5.61624E-02
 -1      1959 1.78003E-02-2.15227E-01-4.28475E-01-1.78498E-01 3.26717E-02 7.31739E-02
 -1      1960-2.93785E-01-4.08424E-01-5.24460E-01-5.40441E-02 1.11976E-01-1.14672E-01
 -1      1961 2.05836E-01-1.10677E-01-1.40369E-01-1.88325E-01-7.53369E-02-5.63751E-02
 -1      1962 9.39653E-02 4.63700E-01-1.83352E-02-1.43210E-01-1.79438E-02-2.11551E-03
 -1      1963-1.15182E-04 4.31472E-01 5.85894E-02-1.07574E-01 4.97237E-02-1.62204E-02
 -1      1964 7.36391E-01 4.26408E-01-1.40115E-01-1.07075E-01 7.11556E-02-1.66342E-01
 -1      1965 4.92451E-01 2.24712E-01-1.83198E-01-1.67323E-02 3.21379E-02 2.57946E-02
 -1      1966 3.20338E-01-1.54925E-01-3.75471E-01-4.49760E-02-4.26874E-02-1.05849E-02
 -1      1967 2.93769E-01 2.63534E-02-2.59277E-01-9.89537E-02-3.50519E-03-1.83079E-02
 -1      1968 1.42504E-01-4.68206E-02-7.91738E-02-1.02733E-02 2.55808E-02 5.34773E-02
 -1      1969 5.27077E-01 2.07069E-01 1.95888E-01-8.14887E-02 4.42793E-02-1.72792E-02
 -1      1970 1.41146E-01 9.85026E-02-1.00509E-01 4.94644E-02 3.39822E-02 2.29930E-02
 -1      1971 1.90804E-01 1.87835E-01-2.98621E-02-8.24280E-02 1.02862E-02 5.56555E-02
 -1      1972 1.13063E-01 8.68579E-02-6.95961E-02 1.23675E-01 4.17943E-02 3.57487E-02
 -1      1973 6.01269E-02 9.28178E-02-4.00069E-02 8.50103E-02 2.31138E-02 5.28501E-02
 -1      1974 3.48293E-02-3.63890E-02-5.64879E-02 2.82850E-03 1.08328E-02 1.39405E-02
 -1      1975 3.09214E-02 3.79895E-02 3.40829E-02 5.15704E-02 4.30349E-02 8.83189E-03
 -1      1976-7.63252E-02 3.36251E-02 5.33416E-02 4.12310E-02-4.43298E-02 1.14303E-02
 -1      1977-3.54848E-02-1.18503E-01 3.93905E-02 1.85792E-02-5.98422E-03 2.52244E-03
 -1      1978-6.07575E-02-4.88629E-02 4.87969E-02-6.12663E-03 1.13327E-02-2.89057E-04
 -1      1979-4.01429E-01-2.35975E-02 1.04333E-01-1.11463E-01 8.08210E-02-2.87678E-02
 -1      1980-1.31190E-01-1.46484E-01 1.24999E-01 6.40685E-02-5.34953E-02-1.04631E-01
 -1      1981 2.01748E-03-2.74941E-01 1.12067E-01 3.48398E-02-9.07213E-02-3.07928E-02
 -1      1982-3.83804E-01 4.25143E-02 1.92282E-02-8.68105E-02 1.45565E-01 1.08906E-01
 -1      1983-6.87136E-01-1.26177E-02 3.00102E-01-1.88632E-01 8.97526E-02 1.98045E-02
 -1      1984-1.78972E-01-1.03484E+00-1.14269E-02 2.75210E-02 1.41780E-02 1.46156E-02
 -1      1985-2.87596E-01-7.42629E-01 1.77000E-01 6.28198E-02 1.21899E-02-2.27734E-02
 -1      1986-3.21560E-01 1.30468E-02 4.53370E-01-4.38515E-01 1.49459E-01 5.05730E-02
 -1      1987-3.95537E-01-2.99363E-02 1.38992E-01-3.93985E-01 5.00913E-02-1.22366E-01
 -1      1988 0.00000E+00 0.00000E+00 0.00000E+00 0.00000E+00 0.00000E+00 0.00000E+00
 -1      1989 1.81902E-02-1.27293E-02 9.57649E-02 8.84014E-02-8.59334E-03 3.11613E-02
 -1      1990 1.25822E-01-2.41473E-01-3.63489E-01-9.78037E-02 3.87076E-02-4.67763E-02
 -1      1991 1.74815E-01-4.61692E-02-1.33610E-01 5.29457E-02 6.08593E-02-2.18157E-02
 -1      1992 0.00000E+00 0.00000E+00 0.00000E+00 0.00000E+00 0.00000E+00 0.00000E+00
 -1      1993 0.00000E+00 0.00000E+00 0.00000E+00 0.00000E+00 0.00000E+00 0.00000E+00
 -1      1994-1.13990E-01 1.53945E-01 5.80312E-02 9.59305E-02-5.59738E-02-8.60033E-02
 -1      1995 2.12910E-02 1.93973E-01 5.02015E-02-4.00045E-02-2.23030E-02-1.04358E-02
 -1      1996 2.76888E-01 3.01430E-01-1.89947E-01-1.34390E-01 1.74126E-01-3.89348E-02
 -1      1997 7.71798E-01 6.22619E-03-3.30646E-01 1.32662E-01-2.23627E-02-1.31135E-01
 -1      1998 5.69628E-01 8.75984E-01-2.80142E-02-3.32726E-02-1.27351E-02 1.50517E-01
 -1      1999 7.49701E-01-2.31207E-01-1.02789E-01 7.93959E-02-7.30480E-02 4.87359E-02
 -1      2000 1.29062E-01-2.68184E-02-1.67463E-03-3.19631E-02 1.63538E-02 2.40998E-02
 -1      2001-3.03985E-02-4.15146E-02-1.07597E-01 1.61397E-02 2.41756E-02 6.39745E-02
 -1      2002-1.02646E-01-4.53857E-01 4.24257E-01-5.42641E-01-3.00037E-02-7.97074E-02
 -1      2003-3.71032E-01 1.16593E+00 7.52479E-01-6.70628E-02-3.54066E-01-1.19874E-01
 -1      2004-3.64731E-01-3.28773E-02 1.70910E-01-3.11145E-01-2.09201E-01 3.77369E-02
 -1      2005-1.90032E+00 2.79237E-01 1.29760E-01-1.55081E-01 4.61968E-02-1.32544E-01
 -1      2006-4.03982E+00 8.53048E-02-2.41229E-01-4.82009E-02-1.12085E-01 1.55682E-01
 -1      2007-1.73668E+00-3.88138E-01-2.40453E-01 3.32568E-01-7.88619E-02-9.93165E-02
 -1      2008-1.19303E-01-1.64547E-01 2.45459E-01-1.32503E-04 5.54670E-03 1.11145E-01
 -1      2009 1.14600E-01 1.19548E-02 1.42877E-01 7.81624E-03 4.07065E-02 7.71971E-02
 -1      2010 1.53159E-03-3.94829E-02-5.89277E-03 2.03056E-02 1.89056E-02 3.21729E-02
 -1      2011 2.19889E-01-1.02917E-01-1.41952E-02 6.37059E-02-4.27577E-02-5.15150E-02
 -1      2012-2.07621E-01-6.18740E-01-9.16626E-01 1.00472E-01 5.11032E-01 2.67997E-01
 -1      2013 6.87113E-02 1.89387E-01 5.00289E-03-3.43633E-02-1.86232E-02 2.94035E-03
 -1      2014 2.91686E+00 2.80940E-01 3.77213E-01 7.25617E-02 2.53367E-01-5.38873E-01
 -1      2015 1.50474E+00-9.98264E-03 3.15146E-03-7.86261E-02 9.00047E-02 1.48337E-01
 -1      2016 5.15626E-01 2.45530E-02-3.24466E-01 1.08531E-01 2.40875E-01-3.17207E-02
 -1      2017-3.90530E-03 1.82383E-01 5.23736E-02 1.73849E-02 6.56877E-02 3.20008E-02
 -1      2018 4.20475E-01 5.85945E-02 2.61366E-01-1.53041E-02 3.23663E-02-2.20206E-02
 -1      2019-2.09173E-01-3.52723E-02 7.17889E-02-1.02467E-01-5.47948E-02-2.99545E-02
 -1      2020-2.93924E-02-5.76545E-03 1.24521E-02 2.95900E-03-4.08273E-02 3.86974E-03
 -1      2021-3.94815E-01 2.15240E-02 2.64246E-02 9.36898E-02-2.39296E-02-6.46253E-03
 -1      2022-9.48940E-01 4.13369E-01 4.26927E-01 2.40207E-01 1.15233E-01-9.17695E-02
 -1      2023 0.00000E+00 0.00000E+00 0.00000E+00 0.00000E+00 0.00000E+00 0.00000E+00
 -1      2024 0.00000E+00 0.00000E+00 0.00000E+00 0.00000E+00 0.00000E+00 0.00000E+00
 -1      2025-1.50781E+00 8.01372E-01 5.06547E-01 6.47247E-01-1.80040E-04-4.75532E-01
 -1      2026 1.09468E+00 1.63676E-01 4.08181E-01 6.04945E-02-2.88759E-02-8.00577E-02
 -1      2027-9.68269E-02-7.87665E-02-2.33234E-01-3.07406E-02 2.12306E-02-5.39949E-02
 -1      2028 2.48763E+00 2.81883E-01 2.39867E-01 8.06322E-02-1.76046E-01-4.62626E-01
 -1      2029 1.07601E+00-2.24652E-01-4.44058E-01-2.65788E-02 1.80634E-01-1.37410E-01
 -1      2030 1.52482E-01 4.52910E-01-1.34598E-01-1.78021E-02-5.31347E-02 2.46481E-02
 -1      2031 3.51497E+00 3.04680E-01 2.70022E-01 7.23240E-02-1.02920E-01 2.21517E-02
 -1      2032 2.50550E+00-3.36447E-01-2.26533E-01-1.14378E-01 6.62320E-03 3.77558E-01
 -1      2033 1.82571E+00-2.98956E-01-1.09068E-01-1.70945E-01-6.05203E-02 3.73935E-02
 -1      2034 6.09709E-01 1.09986E-01 1.63394E-01-1.63699E-01-1.10869E-01 6.69712E-02
 -1      2035 1.54825E-01-1.49225E-01-3.11457E-01-2.73959E-02 1.18154E-01 2.02640E-01
 -1      2036-2.69440E-01-3.42097E-01 1.50903E-02 1.43843E-01-1.28711E-01-5.73705E-03
 -1      2037-6.08902E-01 3.58248E-01 6.91553E-01 6.80667E-02-4.91309E-03 5.79882E-02
 -1      2038-5.13687E+00-1.13718E+00-9.36534E-01-4.75740E-01 3.28054E-01 3.27205E-01
 -1      2039 0.00000E+00 0.00000E+00 0.00000E+00 0.00000E+00 0.00000E+00 0.00000E+00
 -1      2040-9.17204E-01-1.58018E-01-2.13307E-01-2.18606E-02-5.09341E-02-2.38008E-01
 -1      2041 4.91208E+00 4.54233E-01 6.81238E-01-2.43565E-01 4.00952E-02-3.74247E-01
 -1      2042 2.92376E+00 9.35327E-02-1.58932E-01-2.68000E-02 6.35787E-02-1.57112E-01
 -1      2043 3.93869E+00 2.27755E-01 2.39368E-01-8.43136E-02-7.11644E-02 5.21343E-01
 -1      2044 4.37533E+00 2.70305E-02 2.29408E-01 1.50332E-01 3.46318E-01 4.63613E-01
 -1      2045-3.50446E-03 1.32029E-02 1.45259E-01-2.83333E-03-1.85032E-02 1.12575E-01
 -1      2046-6.15638E-01-1.77304E-01-5.66283E-01-8.32319E-02-2.28451E-02 8.54941E-02
 -1      2047-2.38194E+00-2.10818E-01-1.15111E-01-3.39426E-02 1.28728E-01 1.69216E-01
 -1      2048-4.85337E+00 5.02708E-02-5.44611E-02 1.86721E-01-5.04343E-01-1.55329E-01
 -1      2049 0.00000E+00 0.00000E+00 0.00000E+00 0.00000E+00 0.00000E+00 0.00000E+00
 -1      2050 0.00000E+00 0.00000E+00 0.00000E+00 0.00000E+00 0.00000E+00 0.00000E+00
 -1      2051 0.00000E+00 0.00000E+00 0.00000E+00 0.00000E+00 0.00000E+00 0.00000E+00
 -1      2052-9.43521E+00-9.66055E-01-2.38028E+00-1.59752E+00-2.92111E-01-5.63384E-01
 -1      2053-5.24033E+00-1.48412E+00-1.63783E+00-1.04414E+00-3.94345E-01 3.12798E-01
 -1      2054-9.87345E+00-1.03568E+00-1.00801E+00-1.50081E-01-4.89291E-01-7.70905E-01
 -1      2055-9.38524E+00-1.04114E+00-1.03444E+00-3.51347E-02-3.41494E-01-1.11887E+00
 -1      2056-7.99167E+00-8.60735E-01-6.39093E-01 1.67243E-01 2.30763E-02-4.77506E-01
 -1      2057-1.92347E+00 1.92703E-01-5.91752E-02 2.69433E-01-7.92418E-02-1.83259E-01
 -1      2058-2.73927E+00-7.28907E-02-1.14929E-01 3.25885E-02 6.83294E-02-4.04355E-01
 -1      2059-3.79358E+00 3.41855E-01 2.07132E-01 1.54335E-01 4.94192E-02-4.52778E-01
 -1      2060-5.77387E+00-8.76032E-01-4.99604E-01 7.14933E-02 5.26837E-01-8.89660E-01
 -1      2061-1.95758E+00-4.09693E-01-4.12637E-01 6.88000E-02 4.62391E-02-7.99651E-01
 -1      2062-6.22514E-01-7.18950E-02-4.89560E-02-1.75655E-01 7.06987E-02-4.17552E-01
 -1      2063 1.40706E+00 5.37566E-02-3.21016E-02 3.68348E-02 8.16649E-02-6.35544E-01
 -1      2064 1.04575E+00-4.40534E-02-1.51284E-01 1.96162E-02-3.07662E-02-6.99386E-01
 -1      2065 2.36539E+00 6.40515E-01 6.55500E-01-8.55605E-02-1.14443E-01-9.90404E-01
 -1      2066 2.94439E+00 2.98089E-01 1.41826E-01 6.00510E-02 2.43733E-02-7.12373E-01
 -1      2067 4.65531E+00 5.70644E-01 9.80112E-01 4.36810E-02 4.11886E-03-9.17845E-01
 -1      2068 5.75314E+00 9.02829E-01 1.00174E+00-4.57440E-02-2.13480E-02-9.40916E-01
 -1      2069 8.08699E+00 2.38903E-01 1.68526E-01-1.26149E-02-1.06885E-01-8.16254E-01
 -1      2070 9.54293E+00 7.90930E-01 1.46696E+00 4.10404E-01-3.83355E-01-2.53582E-01
 -1      2071 1.02460E+01 2.46336E+00 1.45122E+00 4.66082E-01-7.68560E-01 2.60485E-01
 -1      2072 1.12057E+01 1.65823E+00 1.01794E+00-8.17435E-01 1.18838E-01 6.76706E-01
 -1      2073 8.48365E+00 3.10561E-02 4.53239E-01-3.96102E-01 3.76899E-01 1.47026E+00
 -1      2074 1.36383E+01 2.56599E+00 1.25892E+00-9.02725E-01-2.29758E-01 1.55795E+00
 -1      2075 6.34617E+00-2.30324E-01-8.48286E-01 9.13360E-02 2.97222E-01 3.30649E-01
 -1      2076 9.40476E+00 1.46291E+00 7.28322E-01 4.82317E-02-3.37922E-01 3.06617E-01
 -1      2077 1.90513E+00-8.01890E-02-1.98831E-01-1.08554E-02-4.19014E-03 6.47266E-02
 -1      2078 3.58983E+00 4.22091E-02 3.63214E-01 7.69376E-02 1.63036E-01 7.90469E-01
 -1      2079 3.86173E+00 1.56931E-01 1.62172E-01 2.17184E-01 1.66439E-02 4.46225E-01
 -1      2080 5.68895E+00 1.15866E+00 2.84063E-01 1.40699E-01-4.58229E-01 8.60200E-01
 -1      2081 7.98580E-01 6.75502E-03 2.14378E-01 1.09478E-01-1.75994E-01 3.99712E-01
 -1      2082 1.30717E+00 2.16415E-01 4.65102E-01-6.77547E-02-2.88302E-02 8.51792E-01
 -1      2083-3.28543E+00-1.81317E-01 1.16783E-01 1.33301E-01-2.09062E-01 6.45029E-01
 -1      2084-5.37053E+00-5.48819E-01-5.90304E-01 3.35754E-04-1.66236E-01 7.51072E-01
 -1      2085-8.84655E+00-4.32819E-01-2.68029E-01 2.64367E-01-5.54165E-01 2.34736E-01
 -1      2086-9.39196E+00-7.24431E-01 1.44977E-01 3.01549E-01-5.02741E-01 5.71703E-01
 -1      2087-1.07407E+01-3.13904E+00-3.04775E+00 6.25307E-02 7.21029E-01 1.06319E+00
 -1      2088-1.85369E+00-7.64586E-01-6.99748E-01-1.03664E-01 1.34421E-01 8.37200E-01
 -1      2089-4.37667E+00-1.39587E+00-1.14673E+00 5.30662E-01-6.17848E-02 1.09340E-01
 -1      2090 9.49387E-01 1.09070E+00 1.08141E+00 3.60849E-01-1.96378E-01-3.05159E-01
 -1      2091-4.01176E+00-2.12271E-01-4.91832E-01 5.50558E-02 8.36803E-02-7.01911E-01
 -1      2092-3.15760E+00-9.62371E-02-6.27539E-02 9.92549E-02 1.79527E-01-4.55805E-01
 -1      2093-2.34070E+00-2.75679E-01 2.29594E-01-6.04318E-02 7.90390E-03-3.61315E-01
 -1      2094-1.92882E+00-2.07347E-01-1.76264E-01-7.59497E-02-7.91383E-02-7.73826E-01
 -1      2095 2.21898E+00 6.94364E-01 1.12306E+00-2.89989E-02 3.76199E-03-9.46389E-01
 -1      2096 3.80137E+00 1.78736E-01 2.72611E-01-7.01990E-02 1.06731E-01 5.42939E-01
 -1      2097 1.67931E+00 2.63106E-01 1.55275E-01-3.99882E-02 1.79131E-02 8.63837E-01
 -1      2098 1.25623E+00 2.97302E-02-7.25527E-02-6.18941E-02 7.17876E-02 9.59790E-01
 -1      2099-1.85174E+00-1.59475E-02 2.51240E-01-7.55567E-03-1.20016E-01 7.99656E-01
 -1      2100-2.33699E+00-3.41902E-01 3.17733E-01 3.12242E-02 1.08706E-01 5.74548E-01
 -1      2101-2.24695E+00-2.85340E-01 1.45185E-01 7.12297E-03-1.57218E-02 6.68129E-01
 -1      2102-7.79064E+00-4.32780E-01-6.46469E-01 4.85543E-01-3.41035E-01-1.16258E+00
 -1      2103-1.88369E+00 5.89655E-02 8.28511E-02-1.17691E-01-1.84557E-01-7.11506E-01
 -1      2104 4.60934E-01 3.41492E-02-2.51747E-01-5.44312E-01-1.16487E-01-4.52470E-01
 -1      2105 4.51619E+00 2.40197E-01 6.24025E-01-2.59959E-02 1.66736E-01-9.49305E-01
 -1      2106 6.66029E+00-4.57766E-01 7.03773E-01 2.78168E-01 2.20992E-01-1.40649E+00
 -1      2107 8.28401E+00 4.60779E-01 7.92247E-01-6.11443E-01 2.29383E-02 4.99761E-01
 -1      2108 1.00609E+01 4.76825E-01 1.25985E+00-1.09679E+00 1.83410E-01 2.12019E+00
 -1      2109-1.22520E+00 2.94158E-02-2.90105E-01-1.02272E-01 1.71385E-01 7.41291E-01
 -1      2110-3.98738E+00 2.13903E-01-1.31605E-01 3.31208E-02 3.39161E-01 4.16835E-01
 -1      2111-7.03122E+00-7.11921E-01-1.01105E+00 1.22737E-01 1.83406E-01 6.99066E-01
 -1      2112-7.60461E+00-4.52561E-02-7.25537E-01-3.47115E-01-3.17947E-01 1.51721E+00
 -1      2113-9.01167E+00-2.13665E+00-2.36382E+00 2.12041E-01 8.83342E-02-7.04173E-02
 -1      2114 0.00000E+00 0.00000E+00 0.00000E+00 0.00000E+00 0.00000E+00 0.00000E+00
 -1      2115 0.00000E+00 0.00000E+00 0.00000E+00 0.00000E+00 0.00000E+00 0.00000E+00
 -1      2116 9.91075E-01 6.34921E-03-1.21624E-01 2.22617E-02-6.33134E-02-5.53754E-01
 -1      2117 7.65166E-01 1.29127E-01 5.12820E-01 1.53977E-01 1.18675E-01-5.43642E-01
 -1      2118 1.94425E+00-2.45949E-02 8.97592E-02-3.53848E-01-6.12780E-02-6.78267E-02
 -1      2119 2.42428E+00-3.84329E-01-7.17810E-01-3.88266E-02 3.92418E-02-2.06431E-01
 -1      2120 3.27935E+00 2.39299E-01-2.48530E-01 9.89324E-01-5.20737E-02-7.24970E-01
 -1      2121 6.80414E+00 2.14396E-01 7.17335E-02-5.66907E-01 5.66170E-01 5.76063E-01
 -1      2122 2.95909E+00 1.06626E-01 3.77586E-01 1.26384E-01-2.92098E-01-1.80442E-01
 -1      2123 2.84997E+00-6.75697E-01-2.07005E-01-2.93043E-01 2.78678E-01 1.33003E+00
 -1      2124-3.60470E+00 4.11856E-02-2.02775E-01 1.38640E-01-8.29431E-03 3.59965E-01
 -1      2125-3.13695E+00-2.17546E-01 1.21011E-01-1.43717E-01-1.43508E-01 5.69574E-01
 -1      2126 0.00000E+00 0.00000E+00 0.00000E+00 0.00000E+00 0.00000E+00 0.00000E+00
 -1      2127-3.13943E+00 2.64232E-02 1.89627E-01-9.00683E-01 5.49642E-02 4.83896E-01
 -1      2128-3.71146E+00-2.81216E-01 3.28671E-01 5.25663E-01 2.71753E-02-8.26189E-01
 -1      2129-4.00001E+00-1.57874E-01-3.20057E-01-3.26653E-01-2.38239E-01-5.60972E-01
 -1      2130-1.92431E+00-5.97790E-01-6.73580E-01-1.24856E-01 1.96463E-02-4.72490E-01
 -1      2131 1.05984E+00-2.49184E-01-4.21218E-02-3.99854E-02-1.46151E-01 1.66250E-01
 -1      2132 2.22575E+00-2.49638E-02 8.87589E-02-4.37570E-01-1.01569E-01 9.15009E-02
 -1      2133 4.82576E+00-2.65392E-02 5.14752E-01-6.31702E-01-1.78262E-01 9.35678E-01
 -1      2134 1.39078E-02-7.39514E-02 9.52737E-02 1.32783E-01-2.50745E-01 2.18837E-01
 -1      2135-1.47386E+00 2.01124E-01-1.93183E-01 9.10133E-02 2.34456E-01-3.37305E-02
 -1      2136-2.50561E+00-2.34615E-01-3.26800E-01 1.46976E-01 3.72351E-02-4.25406E-01
 -1      2137-4.45294E+00 1.62552E-01 6.34067E-01-2.83367E-01-1.31742E-01 6.40679E-01
 -1      2138-7.03237E+00-1.37013E+00-1.68202E+00-9.70158E-02 4.59077E-04-1.15874E-01
 -1      2139-1.88009E+00 4.88875E-02 8.29190E-02-2.06934E-01-1.51197E-02 3.77269E-01
 -1      2140-1.02684E+00 1.59136E-01 5.23150E-01 3.69486E-02-5.21372E-02-2.63304E-02
 -1      2141-9.33090E-02 2.18403E-02 1.66453E-01-3.79559E-02 1.65905E-02 4.72076E-02
 -1      2142 7.88593E-01-9.96580E-02-5.65351E-02 8.32548E-02-3.34393E-02 1.17529E-01
 -1      2143 2.06222E+00 7.40911E-02-1.07134E-01-3.73647E-01-5.68017E-02 3.01334E-03
 -1      2144 1.14172E+00-2.27593E-02-2.37236E-01-1.20680E-01-4.44057E-02 4.19413E-02
 -1      2145 4.04692E-01-1.01401E-01-2.30830E-01-2.49172E-02-3.26864E-02-3.39516E-02
 -1      2146 1.05044E-01 3.07945E-02-3.24839E-02 1.65774E-02 1.95289E-02 7.75069E-03
 -1      2147 0.00000E+00 0.00000E+00 0.00000E+00 0.00000E+00 0.00000E+00 0.00000E+00
 -1      2148-8.52925E-01 5.29774E-02 6.01166E-01-5.42861E-02 1.80536E-01-6.52466E-02
 -1      2149-4.27251E-01-1.73714E-01 4.02135E-01-5.66245E-03 8.33216E-02 6.49738E-02
 -1      2150-4.59523E-01-1.89511E-01-4.25530E-02 2.11852E-02 9.93681E-03-1.11068E-01
 -1      2151 4.80050E-01 2.11652E-01 6.90848E-02-7.74342E-02 2.30450E-02 3.27528E-02
 -1      2152 7.87699E-01-3.98124E-02-5.55744E-01-3.48961E-02 2.08461E-02-1.61199E-02
 -1      2153 1.70744E+00-1.75166E-01-4.64789E-01 2.19546E-01 3.19635E-02 8.14984E-04
 -1      2154 2.02580E+00-2.14301E-01-7.49595E-01 9.36124E-02 2.08970E-01-3.31239E-02
 -1      2155 5.29715E-01 9.87123E-02-6.05366E-01 1.31974E-01-7.47926E-03 2.80832E-01
 -1      2156 8.18147E-01-5.94691E-02-1.16304E-01-7.68921E-03-1.45762E-01-1.05447E-02
 -1      2157 3.57471E-01 3.80027E-02-9.09038E-02-1.73475E-03-4.27120E-02-3.69236E-02
 -1      2158-2.88371E-01-1.14840E-01 6.33298E-02 5.96417E-02-1.04915E-02-3.01184E-02
 -1      2159-7.46587E-01-2.02631E-01 1.44481E-01 2.25462E-02 1.43506E-01-1.29626E-02
 -1      2160 0.00000E+00 0.00000E+00 0.00000E+00 0.00000E+00 0.00000E+00 0.00000E+00
 -1      2161-1.37625E-02-9.10281E-02-8.62596E-02-6.40608E-03 4.62746E-02-5.35812E-02
 -1      2162 8.82223E-01-1.34999E-01-6.16923E-01-5.35505E-02 1.28954E-01-1.14447E-01
 -1      2163 8.11885E-01-2.61824E-01-4.88768E-01-1.64746E-02-3.84358E-02 4.21941E-03
 -1      2164 0.00000E+00 0.00000E+00 0.00000E+00 0.00000E+00 0.00000E+00 0.00000E+00
 -1      2165-2.32898E+00 2.46670E-01 1.39757E-01-2.14191E-02 4.95223E-02-3.99976E-01
 -1      2166-2.19117E+00 1.55459E-01 2.09524E-01 4.01613E-01 8.08402E-02 2.76148E-01
 -1      2167-1.29642E+00 4.03651E-01 5.11343E-01 6.37131E-02 1.11945E-01-6.78132E-02
 -1      2168-1.43925E+00 5.75640E-03 2.77143E-01 1.02743E-01 8.35999E-02-2.14344E-02
 -1      2169-1.53949E-01-1.09054E-01-2.81831E-01 1.03714E-01-7.57390E-02 1.99082E-01
 -1      2170-3.68637E-01 1.77789E-02 2.11014E-01 8.63880E-02 8.43122E-02-3.88227E-02
 -1      2171 7.09441E-02 2.55665E-02 5.49116E-02 5.37777E-02-1.04226E-02 4.41244E-02
 -1      2172 3.00395E-01-3.99325E-01-3.49084E-01 7.41366E-02-1.26412E-01 1.08920E-02
 -1      2173 4.33043E-01 8.02281E-02 3.19632E-01 1.46427E-01 8.12331E-03-2.02635E-01
 -1      2174 1.37836E+00-3.49790E-01-9.70196E-02-9.53861E-03-6.75753E-02-1.68420E-01
 -1      2175 2.86174E+00 2.12923E-01 1.82869E-01 3.27283E-02-9.47404E-02-3.20963E-01
 -1      2176 1.60124E+00-2.25027E-01-1.24604E-01-1.76576E-01-1.50359E-01-3.98680E-01
 -1      2177 1.32383E+00-7.64511E-01-2.12572E+00 3.77907E-01-5.73751E-01-3.47818E-01
 -1      2178 1.85268E+00-1.20015E-01-3.41914E-01 1.72705E-01-1.69070E-01 2.89220E-01
 -1      2179 1.27606E+00-2.09379E-01-1.27483E-01-5.30194E-02-7.74501E-02 3.34376E-01
 -1      2180 2.33142E-01 2.23783E-01 3.04379E-01-1.15149E-01 3.07860E-02 9.74685E-02
 -1      2181 1.96619E-02-7.96140E-02-2.19403E-01-5.59620E-02-2.55079E-02 1.25091E-01
 -1      2182-1.52054E-01 9.89118E-02 2.85450E-01-1.14350E-01 5.33881E-02 2.06401E-01
 -1      2183-4.92550E-01 2.79127E-01 1.86963E-01-2.95615E-02 3.17834E-02 1.05071E-01
 -1      2184-9.25798E-01-1.41611E-01-3.61573E-01-1.11275E-01-1.89012E-02 2.85541E-01
 -1      2185-1.16382E+00 2.54784E-02 4.41697E-01-4.91566E-02 8.12633E-02 3.06224E-01
 -1      2186-1.93421E+00 2.86221E-01 2.65746E-01 1.45409E-02 1.06712E-01-2.95325E-02
 -1      2187-1.61565E+00-1.70380E-01-4.18296E-01 1.60047E-01 1.08846E-01 2.36573E-01
 -1      2188-2.12379E+00 1.89470E-01 8.47955E-01-2.64670E-01 2.87245E-01 4.17610E-01
 -1      2189-3.45713E+00 9.71406E-02-2.89901E-02-2.89504E-01 9.01885E-02 2.31305E-01
 -1      2190-1.61129E+00 1.94586E-01 2.30329E-01 1.06972E-01 2.46507E-01 2.43254E-01
 -1      2191-2.01470E+00 3.52698E-01 1.32304E+00-2.64548E-01 3.65508E-01 5.34761E-01
 -1      2192-3.07753E+00 4.29928E-01 9.35013E-01-3.12773E-01-4.56257E-03-1.52036E-01
 -1      2193 0.00000E+00 0.00000E+00 0.00000E+00 0.00000E+00 0.00000E+00 0.00000E+00
 -1      2194 1.20174E+00-1.00746E-01-1.89881E-01-3.34462E-02-3.88694E-02-8.33359E-01
 -1      2195 4.12622E+00 1.96420E-01-1.02504E-01 2.22261E-01-2.79417E-01-7.20465E-01
 -1      2196 6.12211E+00 8.06207E-01 2.29490E-01 1.01035E-02-4.34906E-02-2.91124E-01
 -1      2197 8.03309E+00 6.26704E-01 8.56085E-01-3.20005E-01-5.89928E-01-1.45551E+00
 -1      2198 6.46923E+00-7.08288E-01-9.74234E-01 4.43762E-01-4.78436E-01 6.06911E-02
 -1      2199 5.46217E+00 4.71984E-02 4.43479E-01-4.01548E-01-8.03422E-02-3.12240E-01
 -1      2200 8.67938E+00 3.02181E-01 4.00196E-01-5.10612E-01-3.14173E-01-4.84928E-01
 -1      2201-1.06576E+00 7.92449E-02-2.25287E-01 2.19734E-02-5.40066E-02 8.10117E-01
 -1      2202-3.60763E+00 1.50688E-02-3.39688E-01-9.32467E-02-4.76023E-02 3.26985E-01
 -1      2203-5.09623E+00 5.06163E-01 2.90793E+00 7.57729E-02-2.76819E-01-1.51465E-01
 -1      2204 0.00000E+00 0.00000E+00 0.00000E+00 0.00000E+00 0.00000E+00 0.00000E+00
 -1      2205-2.37340E+00-1.83019E+00-2.31339E+00-4.87215E-03-8.11070E-02-5.68193E-01
 -1      2206-7.06005E+00-1.35909E+00-1.48288E+00-2.28690E-01 4.43740E-01-3.04337E-01
 -1      2207-6.12791E+00-4.76173E-01-1.41837E+00-1.74989E-01-4.27088E-01-8.80174E-01
 -1      2208-7.27900E+00 1.67689E-01 2.52081E-01-5.51060E-02 1.58211E-01-1.08539E+00
 -1      2209-5.44105E+00-5.27527E-01-5.45852E-01-1.34031E-01-2.21188E-01-9.95695E-01
 -1      2210 1.43376E+00 3.25658E-01 7.70555E-01-5.89353E-02 7.61282E-02-6.39655E-01
 -1      2211 3.58261E+00-1.02287E-02 2.89467E-02 1.13646E-01 1.24399E-01-7.74715E-01
 -1      2212 6.84583E+00 1.52467E+00 8.66071E-01-2.05616E-01-2.09740E-01-9.41625E-01
 -1      2213 7.51328E+00 7.82791E-02 4.64938E-01 2.69118E-01-2.14486E-01-5.06229E-01
 -1      2214 6.68397E+00 6.42514E-01 1.93787E+00-6.20428E-02 1.90452E-02-5.41399E-01
 -1      2215 1.17624E+01 7.53990E-01 1.32058E+00 4.20162E-01-3.47353E-01 4.57895E-01
 -1      2216 1.18169E+01 2.51435E+00 1.99710E+00 9.51622E-04 5.12002E-01 5.00506E-01
 -1      2217 4.16780E+00 4.60515E-01 5.75753E-01-1.75625E-01 5.55626E-02 8.46718E-01
 -1      2218-1.13252E+00-6.00234E-02 2.35298E-02 1.15695E-02-7.24810E-03 8.15137E-01
 -1      2219-5.20874E+00 8.87475E-02-5.46197E-01-2.81391E-01 1.92750E-01 8.44454E-01
 -1      2220-6.86076E+00-8.21485E-01-1.29387E+00-1.31300E-01 4.69600E-01 1.81106E+00
 -1      2221-8.74879E+00-8.37804E-01-1.86450E+00 5.55648E-01 2.42642E-01 9.55071E-01
 -1      2222-5.15413E+00-1.50372E+00-5.67551E-01-3.99063E-01 4.29967E-01-1.11120E-01
 -1      2223-5.04241E+00 1.32328E-01 4.59721E-01-1.57318E-01 5.63077E-02-1.23840E+00
 -1      2224 1.15343E+01 1.03300E+00 3.28890E+00-3.64721E-02 4.31143E-03 1.49908E+00
 -1      2225 6.03766E+00-3.92348E-02-6.79709E-01-3.94596E-01-6.74430E-01 1.01465E+00
 -1      2226 1.71527E+00-8.30188E-02-3.77976E-01-1.10797E-01-2.37152E-01 5.23799E-01
 -1      2227-4.41537E+00-2.55842E-01-4.62827E-01-6.43988E-02-1.22728E-01 7.79626E-01
 -1      2228 0.00000E+00 0.00000E+00 0.00000E+00 0.00000E+00 0.00000E+00 0.00000E+00
 -1      2229-3.72763E-02 6.18987E-02 9.14885E-02 8.03077E-03 3.77946E-02-6.32443E-02
 -1      2230 1.22648E-01-9.67835E-02-6.31134E-01 3.30435E-02-1.01612E-01-1.49569E-01
 -1      2231 9.10139E+00 1.28672E+00 6.90701E-01 5.10251E-01 4.20454E-01-7.53268E-01
 -1      2232-8.32681E-02-8.17719E-02-1.15513E-01-3.42962E-02 1.73639E-02 9.48248E-02
 -1      2233-1.92723E-01 1.27770E-01 4.32015E-01-5.89963E-02 1.17038E-01 1.26875E-01
 -1      2234-1.74558E+00-3.81457E-02 4.56916E-01-1.49107E-02 8.00767E-02-1.42144E-01
 -1      2235 2.36922E+00 1.59097E-01 1.70379E-01 1.40033E-01 9.66568E-02-2.54218E-01
 -1      2236 2.11590E+00-1.05629E-01-3.39748E-01 3.43626E-01-6.96995E-02-1.41153E-01
 -1      2237 3.20317E+00-2.22697E-01-8.11211E-01 7.27756E-01-2.38267E-01 2.32171E-01
 -1      2238 6.79199E+00-3.47168E-01-5.06110E-01-9.99780E-03-3.44749E-01-6.16793E-02
 -1      2239 2.04335E+00-3.81757E-01-4.27727E-01 7.14019E-02-6.67636E-02 2.90166E-01
 -1      2240 1.19403E+00-2.32607E-01-5.63392E-01-1.63802E-01-2.24917E-01 1.64660E-01
 -1      2241 9.01595E-01 6.16933E-02 1.28114E-01 7.94744E-02-3.40668E-02 1.10837E-01
 -1      2242-1.68085E+00-3.23964E-01 7.79400E-03-8.95453E-02-6.20639E-02 3.88551E-01
 -1      2243-1.84685E+00 2.12936E-01 1.70262E-01 5.49660E-01-4.82995E-02 2.72326E-01
 -1      2244-2.30150E+00-3.13148E-01-5.13830E-02 2.97836E-02 1.35823E-01 3.33927E-01
 -1      2245-2.20112E+00 3.98870E-01 4.02161E-01-5.01039E-01 3.51800E-02-1.53732E-01
 -1      2246-2.80645E+00-1.58190E-01 1.84023E-01-1.84862E-02 2.25770E-01 2.59593E-01
 -1      2247 0.00000E+00 0.00000E+00 0.00000E+00 0.00000E+00 0.00000E+00 0.00000E+00
 -1      2248 0.00000E+00 0.00000E+00 0.00000E+00 0.00000E+00 0.00000E+00 0.00000E+00
 -1      2249-5.12040E+00-1.74289E+00-4.72490E-01-1.62792E-01 1.72911E-01 1.07270E-01
 -1      2250-3.04290E+00 5.14369E-01 6.78874E-01 3.87157E-01 2.01316E-01 9.09614E-02
 -1      2251-6.24381E+00-7.64366E-01-8.09438E-01 6.85043E-02-1.09251E-01-9.02853E-01
 -1      2252-2.10884E+00 2.52956E-01 1.42649E+00-8.32886E-01-3.30109E-01-7.85687E-01
 -1      2253-7.31574E+00-2.66464E-01 4.12713E-01-3.55936E-01 3.89708E-02-8.26781E-01
 -1      2254-4.03510E+00 9.64108E-02-1.45069E-01 2.48204E-01-7.81712E-01 8.47597E-02
 -1      2255-2.34581E+00 6.99232E-01 7.76762E-01-6.19337E-01-2.98174E-01-8.53598E-01
 -1      2256-5.11814E+00 8.13208E-02-8.24506E-02-7.09669E-02 1.67386E-01-9.75022E-01
 -1      2257-2.11954E+00-3.46634E-02-7.46227E-04 1.36504E-01 1.50133E-01-7.91184E-01
 -1      2258 8.90019E-01 1.18388E-01 2.70101E-03 3.82964E-02 3.87815E-02-4.21023E-01
 -1      2259 3.32627E-01 7.26489E-02-1.48014E-01 3.27159E-01 9.18185E-02-1.43571E-01
 -1      2260 4.55526E+00 9.60719E-01 7.20568E-01-1.82894E-02 1.52444E-01-6.00781E-01
 -1      2261 2.53776E+00-2.51653E-01-3.88793E-01 2.55625E-01 2.04628E-01-4.12810E-01
 -1      2262 9.96362E-01-3.33637E-01-2.12862E-01-3.48749E-01-1.10017E-01-1.67623E-01
 -1      2263 6.51451E+00-1.36441E-01-4.26369E-01 5.45954E-01 9.51023E-02-1.01831E+00
 -1      2264 3.68451E-01-5.59498E-01-1.25154E+00 5.77098E-01 5.12370E-01 6.41922E-01
 -1      2265 6.07885E+00 5.51674E-01 1.54667E-01-9.98860E-02 9.49748E-01-9.16970E-01
 -1      2266 2.75491E+00 1.49697E-01 1.90042E-02-7.31361E-02-1.46746E-02 1.53210E-01
 -1      2267 1.45390E+00-2.01974E-01-8.55167E-01-1.90835E-01 5.44638E-01 4.96103E-01
 -1      2268 5.25512E+00-1.55841E-02-8.24589E-01-4.49401E-01-9.26938E-02 9.60850E-01
 -1      2269 1.80605E+00-1.67037E-01 1.66765E-01-4.56973E-01 1.30090E-01-2.09893E-01
 -1      2270 3.52028E+00-3.80828E-01-6.07193E-01-1.40649E-01-2.90417E-01 7.73599E-01
 -1      2271 1.66120E-01-2.30912E-02-2.14015E-01 3.29736E-01 9.04388E-02 2.44674E-01
 -1      2272-2.99680E+00 2.05527E-01 5.35537E-01 1.23966E-02-2.57667E-01 6.38181E-01
 -1      2273-5.96606E+00 1.97296E-01 7.32967E-01 7.31058E-01 4.22446E-01 6.72102E-01
 -1      2274-3.59236E+00 1.26876E-01-2.62731E-01-3.53278E-01-3.27274E-01 1.11747E+00
 -1      2275-2.64438E+00 5.42088E-01 1.88589E+00-1.31695E+00-5.91829E-01-8.67702E-02
 -1      2276 0.00000E+00 0.00000E+00 0.00000E+00 0.00000E+00 0.00000E+00 0.00000E+00
 -1      2277-3.83807E-01-8.07521E-01-4.16133E-01-3.48544E-01-2.22864E-01 5.27985E-02
 -1      2278-1.54070E-01-8.08304E-01 1.26845E-01 1.15850E-02-3.19606E-02 4.10028E-02
 -1      2279-8.81495E-01 1.17680E-02 2.84283E-01-2.68968E-01-1.39548E-01 2.52379E-02
 -1      2280-1.61248E-01-8.82889E-02 8.20364E-02-2.58762E-01-6.73235E-02 2.93494E-02
 -1      2281-6.29602E-02 7.46645E-02 3.28607E-01-3.53324E-02-3.59915E-02 5.63183E-03
 -1      2282-3.47488E-02-2.08020E-01 5.44633E-02-6.22505E-02 2.28572E-03 7.33226E-02
 -1      2283-7.50042E-03 9.22792E-02-4.34955E-02-3.41074E-02-3.42381E-02-2.13831E-02
 -1      2284 2.22154E-01 5.52724E-02 5.92148E-02-1.42081E-01 1.27988E-01-1.04735E-01
 -1      2285-8.56691E-02 3.36798E-01-9.45111E-03-8.40236E-03 2.44462E-02 1.30185E-01
 -1      2286 2.23967E-01 4.71218E-01 9.32785E-02 2.69615E-01-3.80383E-03 1.35695E-01
 -1      2287 5.74876E-02 5.64385E-01 7.94159E-02-4.93778E-02 1.87496E-01-1.94582E-01
 -1      2288 9.00544E-01-2.45198E-01-2.98221E-01 1.66567E-01 1.42693E-01-6.56722E-02
 -1      2289 4.09219E-01-1.82883E-01-1.05875E-01 8.05522E-02-4.84583E-02 4.12714E-02
 -1      2290 7.98111E-02-2.63537E-02 8.10735E-02 1.94823E-02 2.90853E-02 7.33626E-02
 -1      2291-1.79232E-01-7.93843E-02 1.62093E-01-4.00189E-02 3.00059E-02 8.18051E-02
 -1      2292 2.88501E-02-1.65737E-01 5.70971E-02-7.45868E-02 9.65998E-03-6.63094E-02
 -1      2293-5.43349E-02-1.68385E-01 3.31885E-02-2.87734E-02-3.05631E-02 4.98328E-02
 -1      2294-2.34783E-01-3.93406E-01-2.81532E-01-8.55241E-02-3.88236E-02-4.76308E-02
 -1      2295-1.88618E-01-2.49292E-01 9.92748E-02-2.60545E-01-1.38683E-01-1.32955E-01
 -1      2296 1.06704E-02-2.22871E-01-3.22794E-02 3.31932E-02 8.60704E-02 1.59119E-02
 -1      2297-4.94284E-02-2.75856E-02-9.88050E-02 3.14203E-02-1.87990E-02-3.11576E-02
 -1      2298 1.20719E+00-2.30837E-01-4.73233E-02 9.48927E-02-6.72370E-02-3.72408E-02
 -1      2299-1.65160E-01-9.27993E-02-9.01044E-02 8.04896E-02 2.93816E-02-1.74754E-02
 -1      2300-6.61538E-02-3.96080E-01-5.53327E-02-5.80974E-02 3.75041E-02-5.49828E-02
 -1      2301-8.80524E-02 6.99662E-02 3.99910E-04 5.46206E-02 8.62523E-03 1.00845E-01
 -1      2302 0.00000E+00 0.00000E+00 0.00000E+00 0.00000E+00 0.00000E+00 0.00000E+00
 -1      2303-4.87750E-02-4.41220E-01 7.33948E-02 5.45235E-02 6.75760E-02 1.77232E-02
 -1      2304-1.03965E-01 1.96035E-02 1.40449E-01-3.34186E-02 7.86008E-03-2.26420E-02
 -1      2305 4.30597E-02-6.92002E-02 7.98578E-02-7.68431E-04 2.32305E-02 3.10935E-02
 -1      2306-4.80556E-02 8.66147E-02-3.77729E-03 2.95044E-02-7.97993E-03 7.87635E-03
 -1      2307-1.82463E-04 1.48255E-01 1.15341E-01-5.51349E-02 1.07900E-01-1.48240E-01
 -1      2308 5.21945E-02 7.24677E-01 3.18637E-01 2.14283E-01 3.38437E-01 8.60141E-02
 -1      2309-1.04315E-02-6.31695E-02-1.44062E-02-6.89402E-02 3.28619E-02 7.82592E-03
 -1      2310-5.06741E-02-1.61524E-01 3.74695E-02-6.20154E-02 4.16450E-02-2.24145E-02
 -1      2311-8.70106E-02 2.72536E-02 2.10501E-01-8.52864E-02 7.08792E-02-6.91965E-02
 -1      2312 0.00000E+00 0.00000E+00 0.00000E+00 0.00000E+00 0.00000E+00 0.00000E+00
 -1      2313 0.00000E+00 0.00000E+00 0.00000E+00 0.00000E+00 0.00000E+00 0.00000E+00
 -1      2314-5.00554E-03 8.12133E-02 1.65840E-01 2.02305E-02 3.46931E-02-6.68542E-02
 -1      2315 9.55058E-03 6.93976E-02 3.10867E-02 4.30673E-02-2.17739E-02-4.81673E-03
 -1      2316-7.50681E-02-8.08870E-02-1.45034E-01 9.93417E-03 1.60798E-02 4.60838E-02
 -1      2317 1.49486E-02 1.83390E-01 5.02800E-02-3.89189E-02 4.27966E-02-6.40843E-02
 -1      2318 1.22712E-02 5.76868E-01 1.64754E-01-3.15455E-02 8.92800E-02-1.86432E-01
 -1      2319-3.82681E-02 3.96414E-01-1.47539E-01-1.34578E-01-7.70401E-02-3.45987E-02
 -1      2320-1.19800E-02 1.67976E-01 1.31531E-03-4.02538E-02 2.12930E-02-3.43598E-03
 -1      2321-4.21938E-02-1.95222E-02 1.09119E-02-4.78042E-02 1.65702E-02-2.23729E-03
 -1      2322-5.36116E-02 6.97937E-02 1.57163E-01-4.25298E-02 3.65375E-03-6.00493E-02
 -1      2323-1.40261E-02-2.63892E-01 1.04080E-02-5.98190E-02 2.78569E-02-4.00460E-02
 -1      2324-2.48059E-02 7.76928E-02 1.61217E-02 2.70433E-02 5.36525E-02-1.12072E-02
 -1      2325-3.86542E-02-3.63256E-01-3.39562E-02-1.30585E-01 1.27470E-01-6.87251E-02
 -1      2326-3.27397E-02-3.16576E-01-2.80748E-02 9.52161E-02 1.47912E-01 3.70951E-02
 -1      2327 5.60123E-02-3.47156E-01 1.33149E-01-2.29134E-01 2.57222E-01 2.47797E-02
 -1      2328-9.90452E-01 1.36445E-01 9.89995E-01-2.21214E-01-2.56146E-03-4.41230E-01
 -1      2329-1.70645E+00 1.04202E-02 9.17790E-02 3.82654E-01 7.11838E-02 1.13080E-01
 -1      2330-1.76347E+00-4.21889E-01-1.92119E-01 1.09279E-01-4.55350E-02-2.59281E-01
 -1      2331 8.10414E-02 2.73809E-01-1.66564E-02 4.72201E-02-1.32201E-01 3.80276E-02
 -1      2332 1.85712E-01 1.72944E-02 1.08361E-01-1.20335E-01-6.27692E-02-2.11129E-01
 -1      2333 6.01161E-01 6.53767E-01-1.43326E-01-1.35846E-01-2.10713E-01 4.03355E-01
 -1      2334 8.38144E-01-6.35471E-01-5.05929E-01-2.37089E-01-1.17922E-01-1.10813E-02
 -1      2335 1.77772E+00 2.93049E-01-5.27707E-02-1.55944E-01-6.18491E-02 2.55995E-01
 -1      2336-1.45858E-02-7.73657E-02 6.37943E-02-8.47714E-02-3.17370E-02-3.92356E-02
 -1      2337 2.18688E-03 1.65765E-01 1.35297E-01 5.42775E-02 5.68595E-02 1.07460E-03
 -1      2338-1.85175E+00 5.44859E-01 8.70008E-01 2.74466E-01 1.31410E-01-1.69078E-02
 -1      2339 0.00000E+00 0.00000E+00 0.00000E+00 0.00000E+00 0.00000E+00 0.00000E+00
 -1      2340-1.13404E+00-6.45138E-01-5.58144E-01-2.74566E-03 2.45964E-01 2.70995E-01
 -1      2341 1.49330E+00 3.15098E-01 2.56919E-01-5.51974E-02 6.21350E-02-1.19110E-02
 -1      2342 5.47599E-01-4.95700E-01-1.66997E-01-1.06257E-01-2.55473E-01-1.07090E-01
 -1      2343 2.89733E-01 1.42400E-02 9.10374E-03-1.36325E-01-1.38221E-02 7.37793E-02
 -1      2344-8.08523E-01-5.18053E-01-3.66224E-01-1.06280E-01 1.74722E-01 1.86761E-01
 -1      2345-2.72540E+00 1.99079E-01 1.01746E+00 3.95288E-01-3.02240E-01-2.77808E-03
 -1      2346-4.58113E+00-7.38148E-01-8.57131E-01-3.73004E-01-1.74474E-01 1.81737E-01
 -1      2347-2.58827E+00-1.95270E-01 7.03178E-01-6.17542E-01-7.15667E-02 5.23465E-03
 -1      2348-7.44513E+00-7.73331E-01-4.77798E-01-3.30828E-01 4.73244E-01-4.80487E-01
 -1      2349-6.27126E+00 1.83010E-01-1.36590E-01-1.71287E-01-2.52417E-01-6.31504E-01
 -1      2350-3.67778E-01-2.31507E-01 5.99834E-02-7.40040E-02 4.30752E-01-5.76977E-01
 -1      2351-3.98336E+00-1.37393E-01-1.75787E-01 2.05107E-02 1.44463E-02-8.75228E-01
 -1      2352-6.01220E+00-2.03774E-01 1.37174E-02-4.32600E-01-6.31065E-01-6.47500E-01
 -1      2353-1.11625E+00-1.60493E-01-1.27948E-01 3.66016E-02-5.59374E-04-1.49323E-01
 -1      2354-4.85817E-01 2.83578E-01-7.37535E-02-4.34821E-02 1.20058E-01-4.48381E-01
 -1      2355-8.73079E-01 3.88378E-02 8.56091E-03 2.10940E-03 1.07879E-01-5.44277E-01
 -1      2356-1.98240E+00-8.79231E-03-3.78637E-02-2.22744E-01-1.51798E-01-4.20970E-01
 -1      2357-2.87562E-02-1.19297E-01-3.20232E-01 1.43777E-02 1.04891E-01-5.43159E-02
 -1      2358 1.17838E+00-8.55289E-02 1.77367E-02-1.05081E-01-5.77130E-02-5.80646E-01
 -1      2359 1.31436E+00 7.26655E-02-1.20423E-01-3.08421E-01 7.72119E-02-4.00670E-01
 -1      2360 8.52092E-01-1.39204E-01 6.52603E-02-1.68006E-01-1.55273E-01-5.78821E-01
 -1      2361 1.42183E+00-2.21584E-02 1.12233E-01-1.31936E-01-3.97114E-01-7.07837E-01
 -1      2362 1.37131E+00-5.03627E-01-5.68016E-01-8.03070E-01-2.10443E-01 2.08458E-01
 -1      2363 3.29239E+00-7.82340E-01-7.49066E-01 3.82831E-01 2.62928E-01-7.67700E-01
 -1      2364 6.47474E+00-1.02605E+00-7.15415E-01 2.31064E+00-7.29583E-01 9.77927E-01
 -1      2365 8.32303E+00 6.50556E-01 3.78723E-01 1.72806E-01 2.29840E-02 1.35122E-01
 -1      2366 2.96574E+00 5.82038E-02-4.71348E-01 7.21704E-01 1.79537E-01-2.63142E-02
 -1      2367 6.04591E+00 4.27432E-01 7.19338E-01-9.22235E-02-2.23438E-01 5.77332E-01
 -1      2368 6.27747E+00-5.23508E-01-9.79476E-01 5.74409E-02 5.07790E-01 6.69466E-01
 -1      2369 2.08944E+00 6.36124E-01 7.56604E-01-4.50339E-01-1.27286E-01 5.38273E-01
 -1      2370 3.75891E-02 2.31348E-01-6.12337E-01 2.51690E-01-4.59267E-01 5.86497E-01
 -1      2371 2.86903E+00 7.97074E-03-9.63288E-02 6.31735E-02 9.22151E-02 9.60983E-01
 -1      2372 4.64465E+00 6.86507E-02-2.34642E-03 4.76380E-01 5.93278E-01 9.80853E-01
 -1      2373 4.71177E-01-2.15751E-01-1.46461E-01 2.38324E-01-1.40087E-01 2.46989E-01
 -1      2374 1.00548E+00-3.15181E-02-2.02714E-01 1.18521E-01 1.28336E-02 5.18855E-01
 -1      2375 2.48982E+00 3.38379E-01 1.05066E-01 6.26478E-01 3.66857E-01 3.65526E-01
 -1      2376-3.56314E-01 4.41586E-03 3.40500E-01 6.07819E-02-8.25899E-03-9.85267E-02
 -1      2377-1.17990E+00 1.45448E-01 2.92978E-01 9.74717E-02-4.92719E-02 4.22945E-01
 -1      2378-9.37680E-01-2.18897E-02 2.59878E-02-2.72215E-03 2.14420E-01 3.03207E-01
 -1      2379-2.51822E+00-2.12277E-01 3.40709E-01 4.12396E-01-1.61226E-01 4.12186E-02
 -1      2380-4.05297E+00 3.15663E-01 9.07865E-01-7.08463E-01-1.66066E-01 1.07345E+00
 -1      2381-7.95019E+00-8.18984E-01-1.24887E+00 1.78681E-01 5.86727E-01 7.64604E-01
 -1      2382-4.86360E+00 6.24862E-01-3.45963E-03 1.70997E-01 6.74096E-01 2.56562E-01
 -1      2383-4.62422E+00-1.84343E+00-9.44843E-01 9.87238E-02-1.70022E-01 1.21009E+00
 -1      2384 0.00000E+00 0.00000E+00 0.00000E+00 0.00000E+00 0.00000E+00 0.00000E+00
 -1      2385 0.00000E+00 0.00000E+00 0.00000E+00 0.00000E+00 0.00000E+00 0.00000E+00
 -1      2386-1.92334E-01-2.87527E-02 1.39229E-02-3.44722E-03-4.79178E-02 3.55058E-02
 -1      2387-2.12498E+00-4.67774E-01-1.17630E-01-3.40886E-02-2.55365E-02 1.79479E-01
 -1      2388-2.90805E+00-3.08949E-01 4.58167E-01 5.89478E-02-1.45327E-01 1.13289E-01
 -1      2389-8.35902E+00-1.48991E+00-1.43881E+00 1.12832E-01 1.49726E-01-1.06061E+00
 -1      2390-4.89562E+00-4.45238E-01-7.97119E-01-1.09429E-01 2.07892E-01-6.40193E-01
 -1      2391 2.03179E+00-4.86266E-01-2.41870E-01 1.72498E-02-1.45747E-03-5.84092E-01
 -1      2392 5.50419E+00 2.23183E-02 7.97984E-01 7.76711E-02-2.54229E-01-4.10964E-01
 -1      2393 9.37151E+00-3.28378E-01-2.07291E-01-4.67674E-01 6.64575E-01 3.30482E-01
 -1      2394 5.54120E+00 3.54330E-01 1.13094E+00 7.49336E-02-1.68125E-01 7.96847E-01
 -1      2395 1.28106E+00-1.68802E-02 2.17873E-01-8.71077E-03-1.16966E-01 7.63044E-01
 -1      2396-1.41760E+00-6.96978E-03-2.37922E-01-6.43049E-03 2.11262E-01 7.56731E-01
 -1      2397-2.03954E+00 7.74046E-01-5.69391E-01 2.71623E-02-8.60331E-02 4.99218E-01
 -1      2398-8.42173E+00-2.87824E-01-1.30606E+00 1.74243E-02 2.68584E-01 6.27117E-01
 -1      2399 0.00000E+00 0.00000E+00 0.00000E+00 0.00000E+00 0.00000E+00 0.00000E+00
 -1      2400 0.00000E+00 0.00000E+00 0.00000E+00 0.00000E+00 0.00000E+00 0.00000E+00
 -1      2401-6.25537E+00 3.01873E-01-6.14233E-01 2.90877E-01-4.18719E-01-5.45047E-01
 -1      2402-3.26012E+00 4.67901E-01 3.19030E-02-9.85907E-03-1.47745E-01-6.02677E-01
 -1      2403 2.86997E+00-1.91084E-01-6.82768E-03-1.56358E-01 8.50991E-02-5.03196E-01
 -1      2404 4.00379E+00-1.51261E-02 3.73510E-02-8.05301E-02 2.56361E-01-8.88524E-01
 -1      2405 3.47276E+00-4.16983E-01 4.50093E-01 1.01338E+00 3.49447E-02-1.34704E+00
 -1      2406 5.21726E+00-2.32024E-01-3.61265E-01 1.85198E-02 4.92122E-01-6.37261E-01
 -1      2407 5.28108E+00 2.56339E-01 4.01218E-01-5.81632E-01 2.91402E-01 1.05110E+00
 -1      2408 6.17298E+00 1.35988E-01 4.37526E-01-2.45713E-01 2.07905E-02 9.79899E-01
 -1      2409 2.58566E+00-6.87487E-01-2.84495E-01 3.51871E-02 6.66372E-02 7.56739E-01
 -1      2410-1.82400E+00-6.70141E-02-1.28312E-01 2.46663E-02-1.13789E-02 7.16445E-01
 -1      2411-4.02313E+00 1.10999E-01-5.38178E-02 3.07036E-01-2.92364E-01 5.80904E-01
 -1      2412-5.50861E+00 4.42545E-01 3.80796E-03-1.54500E-01-9.82420E-02 9.74949E-01
 -1      2413-8.11349E+00-3.24023E+00-2.30814E+00 8.94999E-01-5.18275E-01 1.06927E-01
 -1      2414-6.23768E+00-3.20957E-01 1.17016E+00 6.76595E-01-4.79677E-01 7.03375E-04
 -1      2415-3.77683E+00 8.40423E-01 6.20381E-01 2.40124E-01-5.73491E-01-7.40367E-01
 -1      2416 4.81002E+00-2.38902E-01-1.38119E-01-1.57449E-01 1.12165E-01 1.56763E-01
 -1      2417 0.00000E+00 0.00000E+00 0.00000E+00 0.00000E+00 0.00000E+00 0.00000E+00
 -1      2418 3.72100E+00 4.61858E-01-1.96314E-01-1.33433E-02 3.24486E-02-6.61168E-02
 -1      2419 6.78946E+00-2.57752E-01-5.73573E-01 8.80324E-01-3.51703E-01-9.99245E-02
 -1      2420-4.33365E+00-8.45213E-02 4.96351E-02-1.52092E-01 1.63271E-01 6.68558E-01
 -1      2421-4.47566E+00-2.78594E-01-8.12944E-01 8.55129E-03 3.32122E-02 1.09960E+00
 -1      2422-6.82037E+00-1.62159E-01 1.02276E+00-3.91678E-01 3.06061E-01 1.92270E-01
 -1      2423 0.00000E+00 0.00000E+00 0.00000E+00 0.00000E+00 0.00000E+00 0.00000E+00
 -1      2424-6.98195E+00 9.38319E-01-5.69235E-01-3.97030E-01-4.42262E-02-1.00377E+00
 -1      2425-6.18655E+00-6.76666E-01-1.44576E+00-5.88592E-02 2.54468E-02-1.22791E+00
 -1      2426-9.04679E-01 3.91191E-02-3.15799E-01 1.13933E-01-7.14189E-02-5.10783E-01
 -1      2427 5.38160E-01-2.81385E-01-3.85518E-01 1.03709E-01 2.58722E-02-6.70264E-01
 -1      2428 3.78688E+00 2.14998E-01 3.41045E-01 6.00956E-02-4.16590E-02-7.41096E-01
 -1      2429 7.26140E+00 6.68480E-01 1.10480E+00-1.02520E-01-8.74682E-02-7.79252E-01
 -1      2430 7.74856E+00 4.48248E-01 1.93542E+00 8.20379E-01-5.19711E-01-7.60304E-01
 -1      2431 7.19159E+00 1.20799E-01 5.92441E-01-1.10137E-01 4.33954E-02 6.04651E-01
 -1      2432 4.25157E+00 3.43548E-01 5.52733E-01 1.82385E-01 1.66414E-01 1.03215E+00
 -1      2433 5.46101E+00 1.50522E-01 9.63997E-02-1.31626E-01-2.98862E-02 9.72109E-01
 -1      2434 1.45881E+00 5.95500E-02-4.39556E-01-1.71058E-01 5.00039E-02 7.34222E-01
 -1      2435-1.44560E+00-2.93181E-02-3.02586E-01 3.50306E-02-1.47360E-01 8.43083E-01
 -1      2436-1.43164E+00 3.96149E-01 7.41432E-02-1.24574E-03 2.68777E-02 6.71909E-01
 -1      2437-5.75977E+00-2.16410E-01-5.92475E-01-5.00006E-01 1.65325E-01 7.53433E-01
 -1      2438-5.08463E+00-8.65942E-01-8.31925E-01-9.84824E-02-2.87274E-02 8.34383E-01
 -1      2439-6.93349E+00-3.45778E-01-1.25380E+00-5.39918E-01 1.23682E-01 9.27234E-01
 -1      2440-6.30694E+00-6.75944E-01-1.53144E+00-2.48478E-01-2.30155E-01 8.46835E-01
 -1      2441-5.75928E+00-2.41030E+00-9.37805E-01-4.12764E-01 3.68915E-01-5.54614E-02
 -1      2442 0.00000E+00 0.00000E+00 0.00000E+00 0.00000E+00 0.00000E+00 0.00000E+00
 -1      2443-7.00203E+00 3.02186E-01-2.80265E-01 1.33565E-01 2.68963E-01-8.34994E-01
 -1      2444-2.02651E+00-4.63436E-02 6.20601E-02 1.43563E-01 8.52118E-02-9.20416E-01
 -1      2445 3.47153E+00 4.54182E-01 6.70420E-01 6.74124E-04 2.34266E-01-7.18534E-01
 -1      2446 8.13318E+00 1.12134E+00 2.74440E+00 1.55939E-01 2.48562E-01-2.73326E-01
 -1      2447 7.10496E+00 3.51255E-03 5.38738E-01 9.93515E-03-9.01932E-02 8.49981E-01
 -1      2448 6.14545E+00 9.58124E-01 5.39999E-01-1.38764E-01 4.64692E-01 8.94652E-01
 -1      2449 0.00000E+00 0.00000E+00 0.00000E+00 0.00000E+00 0.00000E+00 0.00000E+00
 -1      2450-3.24773E+00-4.82110E-01 6.69714E-02-1.67706E-01 6.59388E-02-1.76955E-01
 -1      2451-3.66452E-02-2.32749E-02-9.50994E-02-2.57255E-02 1.94525E-02 1.28927E-01
 -1      2452-1.26600E-01 1.75036E-01 5.03850E-01-5.24906E-02 1.01268E-01 5.25163E-02
 -1      2453-2.25432E+00-5.88130E-01 6.12259E-02-6.70800E-02 3.44968E-02 2.50639E-01
 -1      2454-3.53402E+00-9.01707E-01-1.06166E-01 1.19856E-02 3.50611E-02 1.39691E-01
 -1      2455-2.75963E+00-2.00414E-01 7.43412E-01-5.67634E-01 1.06409E-01-8.91986E-02
 -1      2456-8.82075E+00-2.20895E+00-1.79788E+00 1.28089E+00 3.51874E-01-3.77248E-01
 -1      2457-3.55927E+00-1.16672E-01 2.75892E-01-2.09171E-01-1.36868E-01-2.40886E-01
 -1      2458-1.41295E+00 5.18623E-02 6.55091E-01 2.88729E-01 1.42113E-01 1.26417E-01
 -1      2459 2.48661E+00-1.41274E-01 8.53201E-02 4.58070E-02 5.10083E-02-3.00833E-01
 -1      2460 2.20080E+00 3.21239E-01 5.49914E-02 6.26147E-02-1.09151E-01 4.46208E-02
 -1      2461 4.54741E+00 6.63330E-01 8.39600E-01 4.00187E-01 1.08902E-01 5.99516E-02
 -1      2462 3.15688E+00-9.66153E-02-6.21611E-01 7.50878E-01-1.16608E-01 2.74699E-01
 -1      2463 7.57156E+00-1.13505E-01 4.47813E-01-1.19426E-02 1.41906E-01-2.58315E-01
 -1      2464 1.27461E+00-1.17336E-01-5.75144E-01-1.05985E-01-8.91702E-02 2.63510E-02
 -1      2465 1.02945E+00 1.38526E-01 2.42228E-02 1.44401E-02-1.85230E-02 1.50877E-01
 -1      2466-4.68975E+00 1.56181E-01-1.11213E-01-4.15735E-01 4.60394E-01 6.41926E-01
 -1      2467-3.19867E+00-5.75679E-01-1.64144E-01-4.76957E-02-3.16704E-01 4.01982E-01
 -1      2468-2.25698E+00 2.03441E-01 6.30975E-01-5.44715E-01 9.00410E-02 2.72708E-01
 -1      2469-3.03321E+00-3.32618E-01-3.82957E-02 4.96614E-01 1.42194E-01 2.98009E-01
 -1      2470 0.00000E+00 0.00000E+00 0.00000E+00 0.00000E+00 0.00000E+00 0.00000E+00
 -1      2471-1.95017E+00-1.05599E+00 6.38581E-01-3.94613E-01-5.69847E-01 6.00110E-01
 -1      2472-3.48733E+00 5.98676E-02 1.88768E-01-2.39645E-01-3.74346E-01-9.17152E-01
 -1      2473-7.35767E+00 4.43659E-01 8.48906E-02 5.22859E-01 3.67480E-01-7.03864E-01
 -1      2474-2.33481E-01-5.53603E-02 3.13121E-01 4.22430E-02-2.29842E-02-8.10683E-02
 -1      2475-3.12569E+00-3.39021E-01-6.63624E-01 1.50182E-01-2.02548E-01-2.25720E-01
 -1      2476-1.93824E+00-6.44843E-01 1.58749E-01 1.05719E-01-4.72803E-01-1.27324E-01
 -1      2477-2.76558E+00-1.08623E-01 4.29003E-01 1.28585E-01 1.02549E-01-4.83777E-01
 -1      2478-8.53190E-01 1.57395E-01-2.48918E-01 2.99066E-01-2.34608E-01-1.55928E-01
 -1      2479-2.28076E+00-1.80415E-02 1.53819E-01 2.49768E-01 1.81930E-01-7.08888E-01
 -1      2480-2.68785E-01 1.40998E-01 4.80732E-01 1.30128E-01 6.40364E-02-5.51571E-03
 -1      2481 4.34636E-01-6.58249E-03-4.43644E-02-4.09776E-02 2.62120E-02-3.05680E-01
 -1      2482 3.58279E-01 8.18692E-02-1.18624E-01 1.93943E-01 7.97720E-02-2.62775E-01
 -1      2483 1.17868E+00 3.02765E-02-4.22092E-03 1.99420E-01-6.72575E-03-4.16866E-01
 -1      2484 2.73852E-01-4.12834E-02 4.36400E-01 4.75655E-01 1.98815E-01-9.13076E-02
 -1      2485 1.15785E+00 1.16054E-02-4.94771E-01 2.12598E-01-1.64545E-01 3.86249E-02
 -1      2486 3.03158E+00-1.24462E-01-2.48549E-01-1.49374E-01 3.46752E-01-7.84618E-01
 -1      2487 3.46274E+00 1.08385E-01-4.74149E-03-1.58527E-01 1.63868E-01-2.77345E-02
 -1      2488 2.18050E+00-2.18604E-01-3.60516E-01 5.36069E-01-9.44315E-02-2.14745E-02
 -1      2489 7.15712E+00 4.70417E-01-2.06977E-01-2.91156E-01 3.09148E-01-7.48784E-01
 -1      2490 5.93832E+00 4.87537E-01 9.95342E-02 4.33158E-01 3.86466E-01-3.55569E-01
 -1      2491 1.58133E+00 8.33780E-01 6.04097E-01 1.60453E-01 1.12858E-01 1.30812E-01
 -1      2492 6.08489E+00-3.81379E-01-1.69562E+00-7.17420E-01-2.99158E-01-1.51076E+00
 -1      2493 3.96496E+00-5.99722E-01-9.30603E-01-5.55807E-01 1.14392E-01-1.43925E-01
 -1      2494 4.17942E+00 2.80575E-01 2.50537E-01-4.17998E-01 4.98442E-01 2.81546E-01
 -1      2495 6.32706E+00-4.26040E-01 6.03657E-01-8.06334E-02-3.44727E-01 8.79711E-01
 -1      2496 8.06219E-02 8.65561E-02-2.28794E-01 3.14812E-02 8.96769E-02 6.98556E-02
 -1      2497 2.47754E+00-7.26648E-02-6.03624E-01-2.16661E-01-1.22101E-01-1.28155E-01
 -1      2498 3.85889E+00-4.41487E-01-6.84194E-01-4.58289E-02-2.08822E-01 8.79276E-01
 -1      2499 6.32492E-01-2.28732E-02 1.38347E-01-5.01486E-02 6.84247E-02 3.33393E-01
 -1      2500-5.32369E-01 1.93708E-01 3.24350E-01-4.29706E-02-2.06470E-01 1.17929E-01
 -1      2501-1.27958E+00 1.30939E-02 5.81751E-01-2.62810E-01 1.16825E-01 1.46898E-01
 -1      2502-3.51130E+00-4.08207E-01 1.65285E-01 6.47246E-02-1.78216E-01 5.37165E-01
 -1      2503-4.26610E+00-5.55004E-01-3.30030E-01-4.40338E-01-4.33815E-02-7.42363E-03
 -1      2504-4.63578E-03-1.43639E-01-8.25123E-02-1.41345E-01 4.42315E-02 1.07679E-01
 -1      2505-3.89826E+00 5.24120E-01 2.30228E+00 9.12245E-01 1.69048E-01 1.47250E+00
 -1      2506-4.65827E+00 5.10404E-02-3.45209E-02 4.05067E-02-2.76840E-01 6.13553E-01
 -1      2507-3.24860E+00 1.06236E+00 4.62211E-01-6.12071E-01-6.95306E-01-1.53698E-01
 -1      2508-2.11736E-01-5.79587E-01 1.26842E-01 1.53779E-02-7.82759E-02-1.49103E-01
 -1      2509 0.00000E+00 0.00000E+00 0.00000E+00 0.00000E+00 0.00000E+00 0.00000E+00
 -1      2510 0.00000E+00 0.00000E+00 0.00000E+00 0.00000E+00 0.00000E+00 0.00000E+00
 -1      2511-2.15342E-01 1.95456E-01-1.19859E-01-2.42664E-01-3.44000E-01-1.88819E-02
 -1      2512-2.70532E-01-4.60994E-04 5.56976E-01 1.74872E-01 1.77764E-02 1.26485E-01
 -1      2513 5.35329E-02 7.22601E-04-2.51401E-01-1.33242E-01 9.88533E-02 1.14939E-01
 -1      2514 1.18898E+00 9.35536E-01 5.10064E-01-1.09865E-01-1.01623E-02-3.39033E-03
 -1      2515 3.26300E-02 8.87107E-03-2.64661E-01-1.23285E-01 9.56126E-02-1.35535E-01
 -1      2516 6.30265E-01-1.42816E-01-5.31381E-01-1.58749E-03 7.16428E-02 1.00775E-01
 -1      2517 7.98876E-01 3.76533E-02 2.58489E-02 3.19925E-01 1.04766E-02-1.27682E-01
 -1      2518-1.58746E-01-3.06871E-01-3.51513E-01 9.33600E-02 9.93051E-02-7.37227E-02
 -1      2519 1.62870E-01-1.11652E-01-3.39619E-01-7.54643E-02-5.57837E-03-1.71274E-02
 -1      2520-3.09875E-02-2.54267E-01-6.79158E-02 5.87014E-02-5.39233E-02 7.15828E-03
 -1      2521-7.03667E-01-2.13069E-01-2.69741E-01 2.61492E-01-2.63530E-02 1.77417E-01
 -1      2522 2.14127E-02-3.13958E-01 4.58589E-02 5.16206E-02-1.07496E-01-8.44966E-02
 -1      2523-1.81198E-02 1.80169E-01 6.13854E-02-2.38059E-02-5.13138E-02-5.81744E-02
 -1      2524-5.21605E-01 9.99627E-04 5.30451E-01-5.56629E-02 1.56227E-01-8.70901E-02
 -1      2525-4.34843E-02-2.00085E-01 2.74009E-03-5.03954E-03 1.25435E-05 2.67866E-02
 -1      2526 1.58334E-01 2.64972E-01-1.55415E-01 2.22835E-02-3.20927E-02-7.30821E-02
 -1      2527 2.43046E-01 8.84566E-01 2.97071E-01 3.12635E-02 1.70837E-01 1.91932E-01
 -1      2528 7.91616E-02 1.89205E-01-3.33212E-02 1.78461E-02-5.28796E-02 9.40797E-03
 -1      2529-2.98097E-02 6.49028E-02-3.69877E-02 5.25215E-02-3.78343E-02 2.92125E-02
 -1      2530 3.62208E-02 2.25274E-01 2.57640E-01-8.19664E-03-6.24875E-04-6.82006E-02
 -1      2531 3.94251E-02-5.62088E-01 4.71367E-02 9.90982E-02 5.03806E-02-1.94705E-02
 -1      2532-2.41338E-01-1.49190E-01-3.50351E-02-3.31563E-01 5.96075E-02-2.75450E-02
 -1      2533 0.00000E+00 0.00000E+00 0.00000E+00 0.00000E+00 0.00000E+00 0.00000E+00
 -1      2534-1.33182E-01-1.14256E-01 5.67116E-03 1.31868E-01-5.31714E-03 4.18941E-02
 -1      2535-5.59323E-02 7.59493E-03 8.97142E-02 7.04745E-02 5.17890E-02 1.76221E-02
 -1      2536-8.22828E-02-1.10925E-01 2.93933E-02-1.05763E-02-7.20565E-02 1.97244E-02
 -1      2537-9.20992E-02-2.61824E-01-7.92304E-02-4.33393E-02-6.65887E-02 2.51849E-02
 -1      2538-2.71437E-02 1.18709E-01-8.24630E-02-5.02403E-02-5.36887E-02 7.26932E-03
 -1      2539-2.53190E-02-3.53728E-02-5.69817E-02 1.32344E-02-4.59710E-02-3.43080E-03
 -1      2540 3.58322E-01 5.50849E-02-2.40009E-01-3.87945E-02 1.25611E-01 1.24623E-01
 -1      2541 4.32045E-02 3.43310E-02-4.76492E-03-3.30947E-02-2.40498E-02 3.61215E-02
 -1      2542 2.65871E-01 5.31759E-02-1.11607E-01-5.43766E-02 2.27520E-02 6.41661E-02
 -1      2543-2.86656E-02-6.52613E-02-5.08943E-02 2.82016E-02 8.18169E-03 2.63517E-02
 -1      2544 1.27756E-01-1.27555E-01-1.72887E-02 8.70378E-03 1.46382E-01 1.08575E-01
 -1      2545-8.38582E-01 2.67780E-01 2.88856E-01 1.09145E-02-3.14084E-02-5.64454E-02
 -1      2546-4.44265E-03 1.45266E-03 8.09633E-02 6.21542E-02 8.18077E-02 4.22526E-02
 -1      2547-2.91662E-02 5.71683E-03-3.97361E-02 7.98672E-02-2.07844E-02 4.91444E-02
 -1      2548-7.75938E-02 1.71327E-01 2.79902E-02 4.52388E-02-5.45482E-02-4.76708E-02
 -1      2549 1.66877E-01-2.78029E-01-1.74778E-01 9.55029E-03-7.18063E-02 2.77247E-02
 -1      2550-3.32068E-03-6.42640E-02-5.08297E-02-1.71925E-02 2.72284E-02 4.48264E-02
 -1      2551-2.78429E-03-6.87844E-01 1.01752E-02-2.44900E-02 1.92586E-01 2.86699E-02
 -1      2552-1.08100E+00-2.51256E-01 5.43158E-01-6.97713E-01 9.85889E-02 3.50454E-01
 -1      2553 7.13815E-02 6.01532E-01 3.46337E-01 3.56994E-02-5.55631E-02-9.78622E-02
 -1      2554-1.01989E+00 3.07648E-01 4.32191E-01 1.84171E-01 1.79851E-01 9.76186E-03
 -1      2555-9.89223E-01 2.30057E-01 5.07648E-01-3.34825E-02-1.54102E-01-1.12639E-01
 -1      2556 1.74070E-01 2.47420E-02-5.33319E-02-3.25476E-02-1.07199E-01-1.09844E-01
 -1      2557 8.03577E-01-3.95503E-01-6.33753E-01 9.03356E-02 7.99979E-02 8.84787E-02
 -1      2558 7.98750E-01-2.09397E-01-4.72239E-01 5.63370E-02 1.51236E-01 2.13673E-01
 -1      2559-4.67406E-02-7.09784E-03 1.90902E-01 4.49693E-02-5.51875E-02-3.34708E-03
 -1      2560 3.23428E-02-1.35063E-01 3.04266E-02-3.19726E-02 4.78215E-03-2.37142E-02
 -1      2561-4.17598E-02-1.31181E-01-3.02058E-02-4.21764E-02 6.85920E-02 5.53260E-03
 -1      2562-4.12026E-02 8.81162E-02 7.14586E-02-1.44203E-01 1.71296E-01 2.59402E-02
 -1      2563-6.49208E-02-4.52862E-01-6.86302E-02 2.79357E-02-3.45216E-03-8.70673E-02
 -1      2564 1.50554E-02-3.99558E-01 2.07172E-01 1.89153E-02-1.92795E-01 1.22558E-01
 -1      2565 1.55613E+00-3.61356E-01-7.10696E-02 5.48442E-01-8.36418E-02-2.63559E-01
 -1      2566 2.30925E+00-4.20028E-01-6.38643E-01-3.84564E-01 1.92060E-01-1.84536E-01
 -1      2567 3.67211E+00 4.95362E-02 2.89596E-01 2.60147E-02-1.42511E-02-1.18138E-01
 -1      2568 3.18796E+00-1.06679E-01-8.99812E-02-9.72514E-02 8.83165E-02 5.75552E-01
 -1      2569 1.04287E-02-1.31983E-01-3.25054E-01-3.37138E-03-1.56672E-01-8.35618E-02
 -1      2570 2.62756E-01-3.59129E-02-1.32477E-01 2.28884E-01 2.52504E-03 6.61466E-02
 -1      2571-3.35943E-01-1.58888E-01-6.95551E-02-9.09808E-02 1.37848E-01 1.59751E-01
 -1      2572 0.00000E+00 0.00000E+00 0.00000E+00 0.00000E+00 0.00000E+00 0.00000E+00
 -1      2573-5.93727E+00-1.26208E+00-2.19832E+00 2.53271E-01-3.61516E-01-1.22761E+00
 -1      2574-5.10908E+00-3.47774E-01-9.09523E-02-3.29518E-01-2.39829E-02-3.62812E-01
 -1      2575-9.52147E-01 2.63228E-01-3.29005E-02-2.15875E-01 1.39559E+00-2.13449E-01
 -1      2576-2.98594E+00 1.41740E-01-9.38935E-02 2.02483E-01 8.08233E-01-8.98165E-01
 -1      2577-3.55265E+00-1.04023E-01-1.60361E-01-1.07016E-01-2.78320E-01-5.19077E-01
 -1      2578-2.05355E+00-8.34042E-02 8.91740E-02-1.15010E-01-9.51961E-02-5.26281E-01
 -1      2579-8.25657E-02-2.37939E-01-4.92725E-01-2.67753E-02 9.92332E-02-3.04511E-02
 -1      2580 3.21393E-01-1.50640E-01-4.45728E-01-7.25018E-02 4.24823E-02-5.74237E-01
 -1      2581 1.13623E+00 1.62820E-03 1.40664E-01-1.82815E-02-8.15515E-02-7.01309E-01
 -1      2582 4.50747E-01-1.55802E-01 2.05167E-01 6.15340E-02 1.18135E-01-5.52406E-01
 -1      2583-4.66651E-01-9.57878E-01-1.17407E+00-7.26052E-02-2.59894E-01-2.11846E-01
 -1      2584 4.22556E+00 3.13003E-01 6.67544E-01 1.78998E-01 5.46628E-02-7.19943E-01
 -1      2585 2.81073E+00 1.88065E-01-2.73271E-01-1.79537E-01 3.21485E-01 1.27675E-01
 -1      2586 4.11965E+00-3.50372E-01-1.19297E+00 6.63024E-01 1.34355E-01-1.14036E+00
 -1      2587 6.09457E+00 2.72705E-01 1.64360E-01-2.15869E-01 1.23709E-01-6.70781E-01
 -1      2588 3.72234E+00-4.26786E-01-2.68921E-01-1.24895E+00 9.08510E-02 4.73003E-01
 -1      2589 3.96336E+00-9.08634E-01-2.54458E-01 5.84207E-01-4.05692E-01-4.27241E-01
 -1      2590 4.27063E+00-1.04666E+00-1.53139E+00-8.32319E-01-1.80485E-01 3.42964E-01
 -1      2591 2.89916E+00 1.48034E-02-5.10287E-01 2.03982E-01 1.84026E-01 2.64972E-02
 -1      2592 8.15184E+00 1.10364E+00 6.81208E-01-8.74192E-02-2.50223E-01 5.50564E-01
 -1      2593 2.86469E+00-4.45635E-01 1.23638E+00-2.86181E-02-8.40848E-01 4.80949E-01
 -1      2594 6.49695E+00-3.49842E-01-8.99647E-01 1.32565E-01-2.30538E-03-7.33660E-02
 -1      2595 2.18110E+00 4.36440E-02 4.21908E-01-1.74635E-01-3.14465E-03 3.17052E-01
 -1      2596 2.84364E+00 3.69106E-02-2.63814E-01 2.66332E-02-3.15994E-01 3.46821E-01
 -1      2597 1.67163E+00-8.26359E-01-6.82314E-01-2.08478E-01-1.46934E-01 4.28994E-01
 -1      2598 7.32559E-01 2.45570E-02-3.56101E-02 1.63974E-02 3.00203E-02 7.42336E-02
 -1      2599 1.94717E+00 1.13023E-01-4.32448E-02 8.19477E-02 2.08090E-01 6.61079E-01
 -1      2600-3.44628E-01 4.42664E-02 5.12181E-01-4.17838E-02-5.22747E-02 1.76662E-01
 -1      2601-1.28256E+00 1.69189E-01 3.62957E-01 5.86889E-02-2.32279E-02 5.30734E-01
 -1      2602-1.18620E+00-1.77833E-01 1.40653E-01 1.75101E-01 6.72754E-02 3.28048E-01
 -1      2603-5.98042E-01 3.27866E-01-5.49271E-02 7.35982E-02 1.57319E-01 6.53218E-01
 -1      2604-3.77198E-01 2.95838E-01-6.08421E-01 1.93673E-01 2.43977E-01 8.77272E-01
 -1      2605 1.25908E+00 2.87225E+00 2.19403E+00 3.47632E-01 6.75323E-01 6.13990E-02
 -1      2606-6.45497E+00-4.88472E-01-3.82037E-01 3.92390E-02-1.59180E-01 8.69803E-01
 -1      2607-5.36424E+00-1.04217E-01 1.45581E-01 8.50228E-02 5.66826E-01 8.88586E-01
 -1      2608 0.00000E+00 0.00000E+00 0.00000E+00 0.00000E+00 0.00000E+00 0.00000E+00
 -1      2609 0.00000E+00 0.00000E+00 0.00000E+00 0.00000E+00 0.00000E+00 0.00000E+00
 -1      2610 0.00000E+00 0.00000E+00 0.00000E+00 0.00000E+00 0.00000E+00 0.00000E+00
 -1      2611 1.85446E+00 1.35266E-02-1.53641E-01-3.09043E-02 7.43326E-02-1.34883E-01
 -1      2612 0.00000E+00 0.00000E+00 0.00000E+00 0.00000E+00 0.00000E+00 0.00000E+00
 -1      2613-6.60883E+00-9.80654E-01-1.14898E+00-1.36527E-02 1.01015E-01-7.81456E-01
 -1      2614 2.57910E+00 1.99423E-01-1.87262E-01 5.44745E-02-1.58930E-02-1.16135E-02
 -1      2615 8.25845E+00 1.16159E+00 8.90713E-01 7.00763E-02-3.74383E-01 9.60019E-02
 -1      2616-3.95753E+00-1.45783E+00-2.03553E+00-6.44372E-01-1.99848E-01 1.80482E-01
 -1      2617-8.52444E+00-3.52778E-01-1.81999E+00 4.60014E-01 1.95492E-01-1.07125E+00
 -1      2618-6.52565E+00-3.27135E-01-1.09960E+00 3.95131E-01 2.39753E-01-9.23348E-01
 -1      2619-1.15874E+00-1.90383E-03-2.35058E-01 1.71397E-01 2.04317E-01-9.46149E-01
 -1      2620 7.20922E+00 1.23274E+00 1.80569E+00 2.73942E-01 4.15671E-01-1.33797E+00
 -1      2621 4.90685E+00-8.56715E-02 9.43677E-01-2.06580E-02 2.89382E-01-3.39108E-01
 -1      2622 6.46185E+00 1.90772E-01 5.12847E-01-4.98924E-01-6.42407E-02 1.56105E-01
 -1      2623 3.40495E+00 4.58222E-02 4.85167E-02-1.22266E-01-3.31037E-02 3.81871E-01
 -1      2624 1.33048E+00 2.31770E-01 4.62613E-01-1.53958E-01 1.28906E-02 9.50011E-01
 -1      2625-4.94421E+00 3.04900E-01-1.59620E+00-1.27113E-01 2.45904E-01 6.67878E-01
 -1      2626-3.83023E+00 7.80915E-03-2.15748E-01 4.62232E-03-1.54087E-01-5.93389E-01
 -1      2627-1.23457E+00 3.47125E-01-1.43450E-01 2.24198E-01-1.11810E-01-9.35952E-01
 -1      2628 1.20300E+00 6.81001E-03 3.00532E-01 8.06023E-02-8.11699E-02-5.95507E-01
 -1      2629 7.76064E+00 2.90700E-01 4.78901E-01-6.27001E-01 6.85785E-02-1.04801E+00
 -1      2630 7.05467E+00-1.07115E-01 5.65731E-01-9.05962E-02-1.72130E-01 2.01240E-01
 -1      2631 3.92285E+00 9.62442E-02 3.88675E-01 1.81356E-01 2.33766E-01 5.34070E-01
 -1      2632 6.73510E-01-5.34509E-01-4.16228E-01-2.87101E-01-5.43993E-03 8.13931E-01
 -1      2633 1.49840E+00 1.64513E-01-1.18115E-01 7.92042E-02-3.39532E-02 8.49739E-01
 -1      2634-2.10196E+00-6.23947E-02 2.07375E-01-2.28164E-02-1.81964E-01 8.93178E-01
 -1      2635-8.14134E-01-4.40120E-02-7.53432E-01-3.11266E-01 5.63506E-02 6.80102E-01
 -1      2636-5.02751E+00-3.83731E-01-4.03084E-01-4.73726E-02-2.06472E-01 7.38070E-01
 -1      2637-3.32669E+00 9.15673E-01 1.88381E-01-1.33083E-01 2.43968E-01 8.24847E-01
 -1      2638-8.99635E+00-2.13304E-01-2.68226E-01 6.13938E-01-3.70274E-01 5.92171E-01
 -1      2639-3.26519E+00-1.45828E+00-1.44813E+00 1.04828E-01-3.76125E-01-8.11020E-02
 -1      2640-1.99552E+00 5.07485E-02 2.33974E-01 2.57724E-02-2.09357E-01-3.91423E-01
 -1      2641 1.21105E+00-4.51603E-01-5.62139E-01 9.01026E-03 1.88482E-01-7.92583E-02
 -1      2642 2.25423E+00-4.12539E-02 7.23791E-02-2.48843E-01-4.94012E-02 6.95671E-01
 -1      2643 2.68814E+00-2.26698E-01-3.10826E-01-9.13457E-02 1.09175E-01 7.15339E-01
 -1      2644 3.03920E+00 1.18134E+00 2.15638E+00 3.78143E-01-2.25435E-01 5.87950E-01
 -1      2645-8.91201E-01-2.09822E-01-4.89920E-01-3.02536E-02-1.31236E-02 3.70827E-01
 -1      2646-2.05154E+00-4.20489E-01-2.41262E-01-2.12640E-01-1.81855E-01 4.96408E-01
 -1      2647-8.75805E-01-5.37349E-02-4.54563E-01-1.04394E-02-5.22129E-02 4.59319E-01
 -1      2648-1.76311E+00 1.64554E-01 1.13875E-01-7.94407E-02-1.11964E-01 1.71255E-01
 -1      2649-6.40328E+00-5.45761E-01-7.83865E-01 3.44698E-01-3.51842E-01 5.24984E-01
 -1      2650-3.67945E+00 2.50339E-02 1.55192E-01 7.82615E-02-2.87281E-01-1.96851E-01
 -1      2651 0.00000E+00 0.00000E+00 0.00000E+00 0.00000E+00 0.00000E+00 0.00000E+00
 -1      2652-1.88045E+00 2.19689E-02 6.12156E-01-7.00456E-01-4.21534E-01 4.05753E-01
 -1      2653-1.52910E+00 5.21167E-01 6.13478E-01 8.38788E-02-9.88470E-02-3.12707E-01
 -1      2654-1.80461E+00 8.77894E-02 3.95489E-01-3.07107E-01-1.93359E-01 2.79521E-01
 -1      2655-1.33296E+00-4.26901E-02-1.49211E-01-6.53058E-02-1.10345E-01-4.38035E-01
 -1      2656-1.16819E+00-2.70842E-02 3.34089E-01-1.82316E-01-8.14436E-02-6.22837E-02
 -1      2657-5.93606E-01-1.71413E-01-3.52551E-01-1.91638E-01-4.59873E-02-1.85952E-01
 -1      2658 4.38566E-01-6.70877E-02 3.95405E-01 1.11654E-02-2.91996E-02-4.89088E-01
 -1      2659 1.60809E+00 2.79943E-01 5.44553E-01-6.42289E-02 2.53367E-01-5.85690E-01
 -1      2660 1.57551E+00-1.26881E-01 1.26026E-02 8.45801E-02 1.60447E-01-5.48048E-01
 -1      2661 1.44392E+00-2.15725E-01-5.39003E-01-1.35887E-01 3.39269E-01 2.46770E-01
 -1      2662 1.13492E+00-3.89500E-01-4.49370E-01 2.31059E-01 2.88405E-01 7.32338E-02
 -1      2663 1.59670E+00-2.12893E-01-5.25696E-01 8.19134E-02 8.38678E-02 2.58160E-01
 -1      2664 2.01816E+00 1.40141E-01-2.80040E-01 6.41884E-02 8.56383E-02 1.60389E-01
 -1      2665 1.19541E+00-2.48302E-01 1.70040E-01-8.84260E-02 2.74739E-02 3.85653E-01
 -1      2666 1.81250E-01-8.77007E-02-2.38297E-01-1.90344E-02 6.25843E-02 9.39454E-02
 -1      2667-1.20670E+00 1.32776E-01 2.03465E-01 1.83131E-01-7.53383E-02-1.25000E-01
 -1      2668-1.47251E+00-2.68103E-01-1.48874E-01 2.57453E-01-3.06910E-02 2.55583E-01
 -1      2669-1.91275E+00 2.19698E-01 1.11136E+00 1.10193E-01-2.32392E-01 3.64762E-01
 -1      2670-2.89508E+00 2.18710E-01 2.26334E-01-1.71330E-01-5.44458E-02 5.52376E-01
 -1      2671-2.10813E+00 1.64847E-01 2.00573E-01 1.92829E-02-5.86041E-02 4.24511E-01
 -1      2672-2.22343E+00 5.38599E-01 7.12595E-01 1.43912E-01-3.88321E-01 3.26938E-01
 -1      2673 0.00000E+00 0.00000E+00 0.00000E+00 0.00000E+00 0.00000E+00 0.00000E+00
 -1      2674 6.70335E-02 8.84787E-02 2.09466E-01 1.75061E-02-9.93225E-03-1.35855E-02
 -1      2675 1.21416E-01 4.50233E-02 8.89308E-02 3.64336E-02-9.74694E-03-1.06127E-01
 -1      2676 4.91406E-01 1.45999E-01-1.46490E-02 1.47459E-01 1.78390E-03 2.81605E-02
 -1      2677 0.00000E+00 0.00000E+00 0.00000E+00 0.00000E+00 0.00000E+00 0.00000E+00
 -1      2678-1.46816E+00 1.84837E-01 2.77216E-02-2.06423E-01 1.94990E-01-6.31747E-01
 -1      2679 4.17919E-01-2.86935E-01-1.17405E+00-8.38337E-02-1.63700E-01-6.71828E-01
 -1      2680 8.78377E-01-3.81070E-01 4.15671E-01-2.15534E-02-5.60906E-02-5.70112E-01
 -1      2681 1.38991E+00 1.14819E-01 6.46289E-01 4.17782E-02 2.68345E-03 7.24069E-01
 -1      2682 8.88316E-01 1.05371E-01-9.77784E-02 8.10101E-02-2.77840E-02 2.49248E-01
 -1      2683 8.30219E-01 2.54006E-01 7.24984E-01 1.73638E-02-2.55342E-03 3.95623E-01
 -1      2684 8.79544E-02 2.57229E-01 6.54691E-01-6.02848E-02 1.11420E-01 6.01514E-01
 -1      2685 5.10948E-01 5.42807E-01 1.17368E+00-8.01076E-02 2.74921E-01 7.57803E-01
 -1      2686-2.92822E-01 2.99983E-01 1.23492E+00-1.96496E-02 3.29001E-01 8.63170E-01
 -1      2687 0.00000E+00 0.00000E+00 0.00000E+00 0.00000E+00 0.00000E+00 0.00000E+00
 -1      2688-4.30649E+00-2.06173E-01-4.37068E-01 4.39989E-01 3.36472E-01-4.70303E-02
 -1      2689-4.92969E+00 1.53668E+00 2.10800E+00 3.74705E-01 9.62069E-01 3.28138E-02
 -1      2690-4.00196E+00 3.05864E-01-1.86079E-01-1.22573E-01-4.31497E-02-5.41802E-01
 -1      2691-5.26856E+00-2.35475E-01-4.03140E-01 4.61045E-01-5.59330E-02 5.02458E-02
 -1      2692-4.70591E+00 3.81386E-01 2.95475E-01 1.40333E-01 9.82274E-02-8.59385E-01
 -1      2693-2.09535E+00-2.13691E-01-4.54459E-01-6.86570E-02 2.06879E-02-5.55790E-01
 -1      2694-7.57644E-01 9.01125E-02 3.47324E-02-9.92672E-03 8.61926E-02-3.71922E-01
 -1      2695-7.05378E-01-2.07133E-01-6.57869E-01 5.52839E-02-2.39648E-02-4.93579E-01
 -1      2696-2.44635E+00-3.30545E-01-2.57556E-01 4.77849E-02 5.46309E-02-1.03620E+00
 -1      2697-1.77850E+00-7.27411E-01-1.11304E+00 1.13765E-01-1.62734E-01-5.12510E-01
 -1      2698 6.70450E-01 3.71063E-01 3.50984E-01 1.30433E-01-1.64393E-02-2.92326E-01
 -1      2699 1.55770E+00 4.76399E-01 2.83529E-01 1.23196E-01-3.47441E-02 3.22402E-02
 -1      2700 2.16767E+00-5.43092E-01-6.43470E-01-1.54031E-01 9.26826E-02-7.24935E-01
 -1      2701 5.04308E-01-6.22673E-01-7.53539E-01-1.67881E-01-1.40712E-03-4.75670E-01
 -1      2702 2.60274E+00 2.37502E-02 2.83941E-02-2.98344E-01-1.32304E-01-5.78061E-01
 -1      2703 3.19994E+00-3.58687E-03-2.97405E-01 3.92662E-01 4.32892E-03 2.27979E-01
 -1      2704 1.54477E+00-3.31906E-01-5.55081E-01-3.77934E-01-1.11054E-01 1.92884E-01
 -1      2705 2.14466E+00-9.43468E-02-4.33889E-02-2.25284E-01-7.52884E-02-4.49057E-01
 -1      2706 1.84852E+00-8.23123E-01-9.38576E-01 6.87331E-02 1.11605E-01 3.48236E-01
 -1      2707 4.11400E+00 2.05249E-01 5.92221E-01 2.41973E-01 9.10168E-02 3.52138E-01
 -1      2708 1.43259E+00 1.69127E-01 1.10771E-02-9.98872E-02 1.81602E-01-1.21523E-02
 -1      2709 7.62134E-01-7.63617E-02 3.51875E-02-7.82711E-03-9.92390E-02 2.01437E-01
 -1      2710-9.47253E-01-2.85150E-01-3.75353E-01-2.05517E-01-7.83393E-02 1.97067E-01
 -1      2711-2.60841E+00 4.55687E-01 1.20695E-01 2.29902E-02 4.30374E-01 6.13305E-01
 -1      2712-1.07792E+00 6.20688E-01 4.28688E-01-1.77923E-02 1.07262E-01 2.17208E-01
 -1      2713-4.61998E+00 2.48117E-01 8.34243E-01 2.25456E-01 1.53165E-01 8.69651E-01
 -1      2714-2.17122E+00 2.48180E-01 3.00711E-04 2.62093E-01 1.28648E-01 4.73645E-01
 -1      2715 0.00000E+00 0.00000E+00 0.00000E+00 0.00000E+00 0.00000E+00 0.00000E+00
 -1      2716 0.00000E+00 0.00000E+00 0.00000E+00 0.00000E+00 0.00000E+00 0.00000E+00
 -1      2717 0.00000E+00 0.00000E+00 0.00000E+00 0.00000E+00 0.00000E+00 0.00000E+00
 -1      2718-1.21766E+00 8.61404E-02-2.34241E-02 6.57225E-03 8.04987E-02-6.02960E-01
 -1      2719 9.88539E-01 1.56391E-01 2.11905E-01 1.71317E-02 2.13482E-02-4.80078E-01
 -1      2720 3.63857E+00-2.42411E-01-1.04385E-01-7.71985E-02-2.30475E-01-8.48039E-01
 -1      2721 2.07285E+00-1.22265E+00-5.40477E-01 4.16103E-01-4.58038E-01 1.08016E+00
 -1      2722 9.94531E-01 4.53112E-02 2.60495E-01-4.71898E-02-7.82660E-02 5.57947E-01
 -1      2723-1.03683E+00 4.97442E-02-3.24941E-02-4.98558E-02-2.96562E-02 7.54589E-01
 -1      2724-3.30624E+00-3.84843E-01-6.66786E-01-4.01269E-02 1.56167E-01-7.25866E-01
 -1      2725-1.52112E+00 1.32020E-01 7.21142E-01 1.52977E-01 2.23068E-01-2.38437E-01
 -1      2726 1.18572E+00 5.72209E-02-4.92732E-01 7.91617E-02-9.11326E-02-1.67734E-01
 -1      2727 6.41537E-01 1.17068E-01-5.54732E-02-1.01804E-02 2.74125E-02-2.92938E-01
 -1      2728 1.80781E+00-3.89452E-01-9.94113E-01 1.67536E-01-3.96836E-01-2.89367E-01
 -1      2729 1.74655E+00 2.00849E-01 8.84417E-02 6.08516E-02-1.83325E-01 7.36385E-02
 -1      2730-8.58303E-01 3.51348E-01 1.20527E+00-1.04597E-01 1.06213E-01 4.36556E-01
 -1      2731-8.92007E-01-9.89891E-02 3.72086E-01-8.60086E-02 7.83382E-02 3.61092E-01
 -1      2732-2.11424E+00 3.97855E-01 9.02856E-01 1.21305E-01 1.70894E-01 4.30919E-02
 -1      2733-1.74322E+00-2.63559E-02 1.46215E-01-7.28590E-02 3.10478E-02-2.41822E-01
 -1      2734-2.18858E+00-3.01685E-01-4.83655E-01-2.92502E-01 5.83404E-03-3.83062E-01
 -1      2735 9.48555E-02 5.92576E-01 1.23247E+00 2.11615E-02 4.16981E-02-2.52581E-01
 -1      2736 1.68396E+00 2.25443E-01 1.02306E+00-3.30305E-01 4.80497E-02-8.72406E-01
 -1      2737 1.84894E+00-1.56001E-01-5.89811E-03 2.27280E-01-1.30486E-02 6.25365E-01
 -1      2738 1.86522E+00-1.86853E-01-7.52233E-01-2.26776E-01-1.23063E-01 4.52142E-03
 -1      2739 1.50391E+00 2.40820E-01 4.04357E-03-2.12578E-02-2.29652E-02 2.69847E-01
 -1      2740 1.54538E+00 2.71919E-01 8.60789E-01 1.16652E-01-3.02793E-02 6.67916E-01
 -1      2741-1.67549E-01-4.10283E-01-9.33576E-01 7.99852E-02-8.42087E-02 7.17260E-01
 -1      2742 0.00000E+00 0.00000E+00 0.00000E+00 0.00000E+00 0.00000E+00 0.00000E+00
 -1      2743-2.49765E+00 5.24261E-01-5.29646E-02 3.09349E-01-1.14125E-02-2.52158E-01
 -1      2744-3.50933E-01-6.08646E-02 2.99252E-01-5.16739E-02-1.63446E-01 9.99293E-02
 -1      2745-1.96135E+00 6.71195E-01 4.58008E-01-1.84832E-01-5.77047E-02-1.41482E-01
 -1      2746-8.14520E-01-2.83839E-02-3.83480E-01-2.36003E-02 2.78963E-02-2.11807E-01
 -1      2747-3.40596E-02-1.53285E-01 3.30527E-02-6.39654E-02-4.78206E-02 7.00680E-02
 -1      2748-3.70187E-01 1.96372E-01 1.84773E-01-1.16413E-01 9.81098E-03-2.10583E-01
 -1      2749-1.02847E-01 4.55291E-01 4.85479E-02 2.10997E-01-3.32212E-01-4.00881E-01
 -1      2750-3.13985E-01 1.44142E-01 2.50084E-01 6.26838E-02-8.26453E-03-6.05065E-02
 -1      2751-5.72493E-02-1.83606E-01-9.13631E-02-1.17593E-01-7.38821E-04 1.09959E-01
 -1      2752 9.52623E-01 4.06065E-01 8.15661E-01-5.91487E-02 2.64434E-02-4.03890E-01
 -1      2753 1.13225E+00-9.57819E-02-2.72311E-01 2.41561E-01 6.36322E-02 1.80456E-01
 -1      2754 9.69719E-01-2.73858E-01-7.53911E-01-2.25729E-02-1.08564E-01-3.24873E-01
 -1      2755 4.18358E+00-1.28290E-01-3.62629E-02 1.63756E-01-5.66556E-01-5.36504E-01
 -1      2756 1.24287E+00-1.00695E-01 2.18193E-01-1.46140E-01-1.60199E-02-1.76851E-01
 -1      2757 1.88122E+00 1.79580E-01 6.89282E-01 8.26349E-02 1.12450E-02-4.53926E-01
 -1      2758 5.86288E+00-2.00308E-01-6.44786E-01 8.45332E-02-4.17440E-01-4.30183E-01
 -1      2759 1.19792E+00-3.32149E-01-1.88250E-01-1.66464E-01 2.23050E-02-1.36509E-01
 -1      2760 4.71362E-01 3.28201E-01 5.43696E-02 3.16082E-01 1.44069E-01 2.08211E-01
 -1      2761 1.89528E+00-2.56092E-01-5.33705E-01 1.56962E-01-1.00594E-02-1.15244E-01
 -1      2762 8.51275E+00-5.50630E-01-2.40048E-01 6.35540E-01-8.96284E-01 3.72820E-01
 -1      2763 2.22578E+00-3.22446E-01-7.74884E-02-2.26407E-01-7.13781E-02-1.21429E-01
 -1      2764 5.03284E-01-6.16469E-01-3.45541E-01-2.36673E-01 1.01392E-01 3.86288E-02
 -1      2765 9.76909E-01-1.38450E-01-6.16594E-02 2.22102E-01 1.09958E-01 1.09996E-01
 -1      2766-3.39215E-01-5.08305E-01-4.86556E-01 1.19462E-01 2.11609E-01-3.86643E-02
 -1      2767 1.01306E+00-3.85669E-01-2.93808E-01 1.75605E-01 9.22663E-03 2.49704E-01
 -1      2768 4.65304E-01-7.82362E-02 2.95845E-01 1.73429E-01-2.98431E-02 2.46440E-01
 -1      2769-7.38206E-02-6.74187E-01-3.24313E-01-7.48051E-02 2.63037E-01 3.00057E-01
 -1      2770 1.83470E+00 1.08441E+00 1.45720E+00-1.81168E-01 1.36852E-01 6.74909E-01
 -1      2771 2.46467E-01 1.06101E-01 3.45043E-03-5.82438E-02-3.32435E-03 2.14299E-01
 -1      2772-1.16966E+00-1.97170E-01-6.08475E-01 1.27760E-01-5.89558E-02 3.76517E-01
 -1      2773-9.22195E-01-1.35848E-01-3.55820E-01 2.37819E-01 2.89111E-02 3.71287E-01
 -1      2774-7.49628E+00-4.32316E-01-1.71637E-01-1.32855E-01 5.58057E-01 7.24115E-01
 -1      2775-2.31965E+00 2.98968E-01 5.78645E-01-3.06209E-01 8.11809E-02 6.16935E-02
 -1      2776-1.00808E+00 5.49032E-01 1.40084E-01-2.11766E-01 6.35356E-02-1.27167E-01
 -1      2777-3.08929E-01 3.02714E-01 1.15907E-01 1.53673E-01-5.37684E-02 9.75970E-02
 -1      2778-1.75601E+00 5.35523E-01 4.08545E-01-2.04105E-01-6.52039E-05 4.29880E-02
 -1      2779-8.19169E+00-5.06323E-01 1.08763E+00-1.25925E+00 7.57825E-01 2.10461E-01
 -1      2780-2.19789E+00-1.66858E+00-1.82893E+00 1.54560E-01 1.60887E-01-5.45393E-01
 -1      2781-1.82581E+00 5.21602E-01 5.44854E-01-3.98309E-01 2.15711E-02-2.69035E-01
 -1      2782-1.35367E+00 3.98731E-02 1.02550E-02-3.70703E-01-1.10295E-01-1.20197E-01
 -1      2783-5.78690E-01 2.06592E-01 1.42428E-01 1.73725E-02-5.36054E-02-5.05985E-01
 -1      2784 2.29083E-01-2.86065E-01-2.33863E-01 1.54331E-01 9.10136E-03 1.39941E-01
 -1      2785 2.32265E+00-4.31990E-01-2.05952E-01-3.07254E-01-1.31871E-01-3.30588E-01
 -1      2786 4.12353E+00-2.90569E-01-1.50164E-01 8.40594E-01 8.51413E-01 6.90112E-01
 -1      2787 2.08086E+00-3.14018E-01-9.04251E-01-3.22525E-01-1.87259E-01-1.48230E-01
 -1      2788 3.27817E+00 3.85056E-01 8.78704E-01 1.07558E-02-7.35896E-02 4.70279E-01
 -1      2789 1.45488E+00-5.74298E-01-4.11652E-01 2.34181E-02-1.80513E-01 3.39422E-01
 -1      2790 9.39398E-01-9.26487E-02-2.34157E-01 8.21656E-02-9.64074E-02 4.19049E-01
 -1      2791-6.12657E-01-2.49733E-01-4.20752E-01 4.99168E-02-9.12695E-02 5.06305E-01
 -1      2792-2.40179E-01 1.12503E-01 1.43807E-01 6.98759E-02-6.46895E-02-5.13976E-02
 -1      2793-1.05003E+00-4.07411E-02 4.30028E-01 5.38288E-02-3.38153E-02 3.02651E-01
 -1      2794 4.92959E-02 7.45558E-02 2.27646E-01 4.01061E-02-1.56377E-02-7.68373E-02
 -1      2795-6.17558E-01-1.63175E-01 6.96677E-02 1.17897E-01-4.07415E-02-2.14191E-02
 -1      2796-2.15768E+00 1.65289E-01-1.76751E-01 2.70990E-01 3.33841E-01 6.11627E-01
 -1      2797-1.47390E+00-9.23463E-02-7.03246E-02 2.37547E-02 8.42723E-02 1.47816E-01
 -1      2798 0.00000E+00 0.00000E+00 0.00000E+00 0.00000E+00 0.00000E+00 0.00000E+00
 -1      2799 2.20227E-01 1.42901E-01 3.24863E-01-9.99122E-02-1.69544E-01 1.75254E-02
 -1      2800-7.63751E-01 7.41168E-01 4.74489E-01 2.50924E-01-5.40867E-01-4.83609E-01
 -1      2801-7.55363E-01 9.48611E-02 9.81661E-02-6.38243E-03-2.37880E-03-4.67935E-01
 -1      2802 3.97091E-02 3.01834E-01 1.44287E-01-8.55095E-04-8.95714E-03-1.51361E-03
 -1      2803-1.27310E-03-6.65759E-02-6.27580E-03-1.97469E-02 4.21180E-02 1.31502E-02
 -1      2804 1.48099E-01 8.45342E-02 6.65361E-02 1.51376E-01 1.68774E-01-1.91455E-01
 -1      2805-4.74881E-02 2.59895E-03-1.47424E-01-5.17023E-02 1.29859E-02-2.11174E-02
 -1      2806 6.20813E-01 1.82846E-01 7.36811E-01-1.25733E-01 1.43979E-01-3.44289E-01
 -1      2807 3.50559E-01 3.83932E-01 1.75066E-01 8.37331E-02 8.70190E-02 2.02188E-01
 -1      2808 1.63209E-01 3.61701E-02 1.89312E-01-6.53346E-02 1.61214E-01-2.64748E-01
 -1      2809 3.31029E+00 2.19612E-01 2.40675E-01 3.54075E-01 6.37974E-01-8.17475E-01
 -1      2810-8.53044E-02-1.25192E-01 5.41125E-01 2.34918E-01 4.18913E-01 1.12534E-01
 -1      2811 1.55862E-01 2.35930E-01 7.86557E-02 8.80111E-03-1.88575E-02-9.76384E-02
 -1      2812-2.50717E-02 2.41697E-01-7.33969E-02 2.25636E-02 6.59171E-02-1.01645E-01
 -1      2813 1.41124E+00-7.34833E-02-3.59317E-02-1.34098E-01 6.34468E-01 3.20616E-01
 -1      2814-2.16527E-04-1.10011E-01 1.93037E-02 6.28506E-02 2.21498E-02 2.73607E-02
 -1      2815-3.97975E-02 1.78618E-01-8.43977E-03-2.75731E-03 2.95150E-02-2.73054E-03
 -1      2816-4.50195E-02-1.39799E-01-1.70979E-02-9.57406E-03 2.82223E-02 1.01262E-01
 -1      2817-1.07855E+00-2.66121E-01-1.87629E-01-5.88261E-02-1.52083E-01 5.27363E-01
 -1      2818-1.92134E-01-4.96745E-01-5.17918E-02-7.52478E-02-1.39258E-01-9.21093E-02
 -1      2819-7.87851E-01-9.20305E-01-2.20863E-01 8.07881E-02-1.41030E-01-2.08921E-01
 -1      2820 0.00000E+00 0.00000E+00 0.00000E+00 0.00000E+00 0.00000E+00 0.00000E+00
 -1      2821 0.00000E+00 0.00000E+00 0.00000E+00 0.00000E+00 0.00000E+00 0.00000E+00
 -1      2822 0.00000E+00 0.00000E+00 0.00000E+00 0.00000E+00 0.00000E+00 0.00000E+00
 -1      2823 5.11861E-02-1.62154E-01-1.31991E-01-1.07432E-01-8.48276E-02-3.32649E-02
 -1      2824-1.67635E-01-9.49208E-01-2.59951E-01-1.51666E-01 6.36554E-04 9.32265E-02
 -1      2825-6.23142E-02-8.54610E-02-4.29177E-04-1.48629E-01 8.77260E-02 7.49594E-03
 -1      2826-2.09188E-01-6.68184E-01-1.30199E-01 4.44865E-02 3.33222E-02 2.57757E-02
 -1      2827 5.38014E-03-5.76162E-03 4.48339E-02-1.98675E-02-6.30284E-02 1.55910E-02
 -1      2828-1.12213E-01 2.03415E-01-4.69503E-02-1.86688E-02-4.18354E-02 6.63579E-02
 -1      2829 1.65816E-02 1.63015E-01 9.21365E-02-7.25638E-02 1.25278E-01-1.57918E-01
 -1      2830 2.38036E-01 4.08985E-01 8.03753E-02 1.23536E-01-3.51942E-02 1.14242E-01
 -1      2831 1.65263E-01 3.74132E-01 1.19196E-01 1.54852E-01 1.14272E-02 2.77410E-02
 -1      2832 6.37674E-03 1.03472E-01 5.19520E-02-9.36833E-04 2.72703E-02 8.95980E-03
 -1      2833 9.10645E-02-3.31680E-01 5.15742E-02 6.07161E-02-1.10001E-02-1.68568E-02
 -1      2834-1.51817E-01-8.28688E-01-1.02073E-01-5.81129E-02-5.64939E-02-1.49655E-01
 -1      2835-5.48070E-02 6.28126E-02-8.44892E-02 2.57655E-02-6.62402E-02-3.27495E-02
 -1      2836-6.21086E-03 4.02356E-02 2.50629E-02-3.65603E-02 1.53757E-03-1.66181E-03
 -1      2837-1.84318E-02-3.52410E-01-2.75773E-02 7.33422E-02 1.11058E-01 3.16384E-02
 -1      2838-1.13579E+00-6.47292E-01-4.74524E-01 3.09984E-02 2.31178E-01 2.89065E-01
 -1      2839-3.14033E-01-5.03775E-02-9.55721E-03 7.74025E-02 1.31236E-02-1.15372E-01
 -1      2840 5.42053E-02 1.34294E-01 2.28974E-02-2.98011E-02-1.62985E-02-6.51506E-02
 -1      2841 4.90545E-01-1.08760E-01 1.18401E-01-1.99558E-02-2.46945E-01-1.09366E-01
 -1      2842-4.50532E-03-1.53439E-01-7.53060E-02-8.85047E-02-5.55937E-02 5.78656E-02
 -1      2843-3.04646E-02-9.69313E-02-1.04439E-02-4.22737E-02 2.04767E-04 8.17318E-03
 -1      2844-8.13428E-02 8.31420E-02-8.45765E-02 1.11140E-01 1.41529E-02 1.06301E-01
 -1      2845 0.00000E+00 0.00000E+00 0.00000E+00 0.00000E+00 0.00000E+00 0.00000E+00
 -1      2846 0.00000E+00 0.00000E+00 0.00000E+00 0.00000E+00 0.00000E+00 0.00000E+00
 -1      2847 0.00000E+00 0.00000E+00 0.00000E+00 0.00000E+00 0.00000E+00 0.00000E+00
 -1      2848-1.81190E-01 1.18773E-01-2.78549E-02 1.11493E-01 2.14454E-01-7.41691E-02
 -1      2849-2.13305E-02 8.30917E-02 3.61240E-03 4.25455E-02-5.88676E-02-2.70490E-02
 -1      2850 1.63916E+00-6.13495E-02 2.11539E-02 4.35705E-01 1.25111E-02-1.56068E-01
 -1      2851 1.29924E+00-2.64275E-01-8.86144E-01-3.76342E-01-2.00298E-01 1.09089E-01
 -1      2852 1.84569E+00-2.22796E-01-7.69530E-01 2.53929E-02 4.91638E-02 3.24357E-01
 -1      2853 1.54484E-01 3.15111E-02-1.17831E-01-1.17431E-01-1.04737E-01 1.97127E-02
 -1      2854-1.00510E+00 1.27204E-01 4.09312E-01 1.58737E-01-1.07110E-02 2.19807E-01
 -1      2855 0.00000E+00 0.00000E+00 0.00000E+00 0.00000E+00 0.00000E+00 0.00000E+00
 -1      2856 2.11834E-01 1.28000E+00 4.59128E-01 2.46420E-01 8.30975E-02 2.43590E-01
 -1      2857-2.93927E+00-1.14481E-01 6.58828E-02 8.02851E-02 9.34237E-01-9.34545E-01
 -1      2858-9.99699E-01-1.62295E-01-3.31881E-01 4.00685E-01 1.24417E-01-5.03447E-01
 -1      2859-2.52698E+00-4.27255E-01-2.54913E-01-6.84610E-01 4.55382E-01-2.94606E-01
 -1      2860-3.74916E-01 1.13936E-01 1.23858E-01 2.42265E-01-2.27796E-02-4.07218E-01
 -1      2861-1.64037E-01 1.66556E-02-6.11732E-03 1.05543E-01-6.44502E-02 2.71875E-02
 -1      2862-1.00104E-01 2.70812E-01 5.17142E-01 2.69262E-02-9.17458E-02-6.28186E-02
 -1      2863 1.00154E+00 1.40938E-01 6.54651E-01 1.42849E-01-2.22958E-02-3.62610E-01
 -1      2864 2.02042E+00-3.08890E-01-5.44577E-01 9.73910E-02-3.77485E-02-7.77872E-01
 -1      2865 2.02841E+00 2.52193E-01-3.16383E-02-1.23771E-01-2.03873E-01-5.88244E-01
 -1      2866-4.91308E-01-1.02272E+00-6.64041E-01-1.67263E-02-8.02098E-01-4.39425E-01
 -1      2867 1.52153E-01 4.68195E-01 1.24400E-01-1.09689E-01-5.53333E-02-1.91889E-01
 -1      2868 1.13711E+00-1.66646E-01-1.79429E-01-2.15305E-01-1.14374E+00 5.03477E-01
 -1      2869 1.89658E+00 1.55912E-01 3.28727E-02-6.18799E-01 6.68265E-02 2.20917E-01
 -1      2870 4.62439E+00 2.73320E-01 5.68236E-03-3.68313E-01-9.97939E-01 6.37125E-01
 -1      2871 1.31876E-03-4.27647E-01 1.14439E+00-1.58091E-02-8.80339E-01 2.75405E-01
 -1      2872 7.95291E-01 2.26322E-01 6.02962E-02-2.34835E-01-3.30065E-02 2.93699E-01
 -1      2873 1.47194E+00 5.32680E-01-4.87648E-01 6.24825E-01-4.62278E-01 4.61815E-01
 -1      2874-9.97643E-02-2.68405E-02-3.66375E-02-8.27154E-02 3.58652E-02-1.78859E-02
 -1      2875 1.11019E-01-2.17552E-01-5.37090E-01-9.50554E-03 1.23553E-01 4.29014E-01
 -1      2876-3.80494E-01 2.10888E-02 1.40969E-01-1.45809E-01 1.23348E-02 3.82401E-02
 -1      2877-1.35824E+00 9.16680E-01 8.59424E-01 7.98790E-02 8.82397E-02 4.96044E-01
 -1      2878-7.65385E-01-1.18178E-01 2.21548E-01 2.90857E-02 5.38481E-01 9.67560E-02
 -1      2879-1.15113E+00 9.56640E-01 1.69773E+00-3.51849E-01 4.16575E-01 7.15491E-01
 -1      2880-1.13603E+00 1.02364E-01-4.83901E-01 8.26946E-02 2.59349E-01 1.76601E-01
 -1      2881 0.00000E+00 0.00000E+00 0.00000E+00 0.00000E+00 0.00000E+00 0.00000E+00
 -1      2882-3.16114E+00-3.00077E-01-4.17030E-01 5.72497E-01 5.81801E-02-4.44698E-01
 -1      2883-3.16077E+00 1.53277E+00 3.44485E-01-5.23404E-01 2.95753E-01-1.68576E-01
 -1      2884-2.93959E+00-1.97804E-01 5.91409E-01-3.07037E-01-1.56620E-01-3.12656E-01
 -1      2885-2.24584E+00 2.01179E-01 6.92740E-01-8.82306E-02 3.76832E-02-1.37977E-01
 -1      2886-3.21327E+00 2.41690E-01-8.03450E-02-5.93723E-01 1.00319E-01 2.06244E-01
 -1      2887-1.09707E-01 6.13685E-01 5.15697E-01 6.63147E-02-2.15468E-01-4.88310E-01
 -1      2888 1.17619E+00 4.98934E-01 7.15401E-01-6.33324E-02 5.81628E-02-6.05063E-01
 -1      2889 7.01619E-01-8.71365E-02-2.00267E-01 4.55306E-01-1.65398E-01-3.53978E-01
 -1      2890 1.31827E+00-2.78462E+00-1.44158E+00 4.34235E-01-9.82653E-02-8.58315E-01
 -1      2891 1.57012E+00-3.69223E-01-3.08732E-01-3.50818E-01-1.07506E-02 1.62136E-01
 -1      2892 3.29147E+00-2.40212E-01 2.32979E-01-9.25163E-02 4.28212E-02 3.62831E-01
 -1      2893 3.11157E+00 1.03416E-01 6.55391E-01 1.67694E-01-1.46235E-01 4.20881E-01
 -1      2894 2.59222E+00-7.71423E-02-5.13768E-01 3.85472E-01 1.97544E-01-2.03833E-01
 -1      2895 5.34662E-01 1.73861E-01 5.61909E-01-1.83921E-01-4.58722E-02 4.66554E-01
 -1      2896-1.68713E-01-4.87279E-01-4.88785E-01 1.52839E-03 3.58890E-02 4.14395E-01
 -1      2897-1.94076E+00-9.21393E-01-1.10312E+00 4.34042E-02 2.34219E-02 4.39631E-01
 -1      2898-1.04418E+00-5.84809E-04 9.27927E-01 3.41425E-01-1.75821E-01 2.44170E-01
 -1      2899-6.45092E+00 3.72082E-03-6.01017E-02 1.42201E-01-3.46518E-01 6.60120E-01
 -1      2900-7.38873E-01 3.95968E-02 2.33029E-01-4.54145E-01 3.18078E-01 2.81008E-01
 -1      2901-4.18512E+00-1.71318E+00-9.62668E-01 8.34586E-02-3.72206E-01 1.32041E+00
 -1      2902 0.00000E+00 0.00000E+00 0.00000E+00 0.00000E+00 0.00000E+00 0.00000E+00
 -1      2903-2.70416E+00-1.22447E-01 3.86711E-01-4.95405E-01-7.40137E-02-5.94207E-01
 -1      2904-3.60946E+00-6.16824E-01-1.34696E+00-2.75131E-01-8.49107E-02-3.81167E-01
 -1      2905-2.08256E+00-4.21356E-01-1.14750E-01-1.47471E-03-2.27758E-02-2.36631E-01
 -1      2906-1.21011E+00 1.52623E-01 5.77327E-01-2.21680E-01-1.57411E-01 1.84734E-04
 -1      2907-2.68008E+00-1.36072E-01-1.21199E-02-3.36292E-01-4.58220E-01-5.17028E-01
 -1      2908 1.01150E+00 1.01206E-01 3.03238E-02 7.60200E-02 4.89765E-02-5.48694E-02
 -1      2909 2.32239E+00-2.82041E-01-7.68254E-01-6.20239E-01 2.47391E-01 1.28962E-02
 -1      2910 1.94356E+00 3.55728E-01 5.80852E-02-3.67360E-02 5.51226E-02 1.22259E-01
 -1      2911 4.84605E-01-6.37289E-01-7.53141E-01-1.89483E-01 1.90014E-01 3.22993E-01
 -1      2912 1.40322E+00 6.65090E-02 7.15261E-02-4.00047E-01-1.35513E-02 1.97797E-01
 -1      2913 1.00599E+00-1.94006E-01-5.11152E-01 9.14298E-02 9.79250E-02 1.78707E-01
 -1      2914 1.20150E+00 3.71864E-01 4.45815E-01 1.93149E-01 5.13934E-02 5.56197E-01
 -1      2915-1.94798E+00-3.13089E-01-5.02169E-01-5.73718E-01 3.59140E-02 5.70225E-01
 -1      2916-1.44223E+00 4.47135E-01 4.95956E-01 2.32784E-01-1.49755E-01 4.12099E-01
 -1      2917-2.08871E+00-8.32371E-05 2.47489E-03-5.74072E-01 1.97144E-01 3.61943E-01
 -1      2918-3.20006E+00-6.71861E-01-3.85417E-02 1.29106E-01-1.06650E-01-2.74027E-01
 -1      2919 1.18708E-01 1.04442E-01 1.39275E-01-4.48829E-02 4.09189E-03-4.56686E-01
 -1      2920 2.58244E+00 6.18957E-01 7.22925E-02 1.35474E-02 3.48802E-02-2.06690E-01
 -1      2921 2.30198E+00 5.05801E-01-6.70197E-02 4.36772E-03 9.42205E-02 2.34491E-01
 -1      2922-1.56791E-02-4.68716E-02-5.24674E-02-9.29903E-03-2.90704E-03 2.05814E-01
 -1      2923-1.07293E+00-3.68749E-01-1.31730E-01-4.29339E-02-5.99197E-02 1.22393E-01
 -1      2924 0.00000E+00 0.00000E+00 0.00000E+00 0.00000E+00 0.00000E+00 0.00000E+00
 -1      2925 1.07108E+00-7.63696E-02-1.54273E-02-5.41648E-02 6.96249E-03-7.26020E-01
 -1      2926 3.59865E+00-1.60487E-01-1.80265E-01-1.68875E-01 6.18795E-02-4.26735E-01
 -1      2927-3.61420E+00-3.82861E-01 6.14388E-01-2.69963E-01 5.75803E-02-7.69863E-02
 -1      2928-2.81170E+00-4.90837E-02 4.89803E-01-3.25384E-01-8.25249E-02-1.97896E-02
 -1      2929-2.64655E+00 6.92879E-02 7.28439E-01 3.84431E-01 1.22241E-01-1.43904E-01
 -1      2930-6.76348E-01-1.23529E-01-1.93010E-01 1.11745E-02 8.18723E-03-1.78403E-01
 -1      2931-5.49350E-01 2.76970E-01 1.11190E-01 8.69408E-02-6.27434E-02-2.32718E-01
 -1      2932-6.54864E-01-2.21448E-01 8.20321E-02-8.46793E-02 2.89787E-02-1.11703E-01
 -1      2933-2.14152E-01 1.28618E-01 4.05773E-01 4.56668E-02 6.08247E-02-1.22243E-01
 -1      2934-5.56710E-01-1.09521E+00-1.41097E+00 1.51126E-02 1.14595E-01-3.38186E-01
 -1      2935 9.98634E-01 3.40304E-02-2.26458E-01-6.77311E-03 6.02325E-02-9.58936E-02
 -1      2936 1.87571E+00 3.15275E-01 7.89674E-01-9.69969E-02-1.15595E-01-5.13607E-02
 -1      2937 1.30420E+00-5.00347E-01-5.99943E-01 3.11448E-01-2.74225E-02-3.48361E-01
 -1      2938 1.69476E+00 3.78506E-01 1.11594E-01 1.42396E-01 4.85448E-02-1.59582E-01
 -1      2939 1.84817E+00-2.53886E-02-3.49556E-01 3.19422E-02-4.72735E-02-2.58983E-03
 -1      2940 1.78150E+00 6.66721E-01 3.05560E-01 6.86820E-02-1.06451E-01-1.11731E-01
 -1      2941 2.74195E+00 4.04757E-02 5.99776E-01-2.39026E-01-7.61554E-02-4.69981E-01
 -1      2942 2.32151E+00 1.22692E-02-2.08234E-01 5.14963E-01 1.89196E-01-3.33950E-03
 -1      2943 1.99609E+00-1.06751E-01-3.55503E-01-6.41022E-02-3.84022E-02 1.79071E-02
 -1      2944 1.65671E+00 5.58815E-01 6.14309E-01 3.13895E-01-1.72029E-01-1.14674E-01
 -1      2945 9.45039E-01-9.13350E-02-3.42854E-01 3.02633E-02 1.62337E-03-2.70800E-02
 -1      2946-2.43258E-01-6.71378E-03 2.20476E-01-3.19226E-03 3.84401E-02 6.89871E-02
 -1      2947-5.32755E-02 4.15720E-02 1.42367E-02 1.63088E-02 8.97657E-02 1.20099E-01
 -1      2948-2.86323E-01 3.36541E-01 4.07707E-01-1.43323E-01-4.53393E-02 6.24341E-01
 -1      2949-1.18170E+00-9.98353E-02 2.58101E-01 3.08344E-02-6.78934E-03 1.35503E-01
 -1      2950-2.12461E+00-2.65205E-01-6.03725E-01 7.72455E-02-2.93871E-02 5.60979E-01
 -1      2951-1.55931E+00 6.05888E-01 2.20424E-01-4.28731E-01-1.17788E-01 3.24793E-01
 -1      2952-4.05860E+00 2.40458E-01-3.12617E-02-5.31052E-01-1.35284E-01 4.23053E-01
 -1      2953-1.92113E+00 7.45759E-01 2.22552E-01-6.52579E-01-1.43609E-01 6.21337E-01
 -1      2954-2.11410E+00-3.87114E-03 7.25707E-03 1.14094E-01 6.82342E-03 4.30280E-01
 -1      2955 0.00000E+00 0.00000E+00 0.00000E+00 0.00000E+00 0.00000E+00 0.00000E+00
 -1      2956 0.00000E+00 0.00000E+00 0.00000E+00 0.00000E+00 0.00000E+00 0.00000E+00
 -1      2957 0.00000E+00 0.00000E+00 0.00000E+00 0.00000E+00 0.00000E+00 0.00000E+00
 -1      2958-5.30536E+00-3.92548E-01-8.87248E-01 7.90233E-01 1.31277E-01 3.51460E-02
 -1      2959-2.40947E+00 3.26662E-01-6.98477E-02-5.06160E-01-2.86998E-02-4.03825E-01
 -1      2960-4.71782E+00-8.44262E-02-7.46917E-01-2.75631E-01-9.36059E-02-2.06691E-01
 -1      2961-2.10124E+00 4.32256E-02 3.35938E-01 3.59897E-02-1.33776E-02 4.67657E-02
 -1      2962-1.44218E+00-5.32250E-01-1.32661E-01-6.96577E-02 3.45397E-02-1.22214E-01
 -1      2963-1.96234E+00-5.04812E-01-7.92165E-02 4.87949E-03 9.16169E-02-1.70820E-01
 -1      2964-1.38405E+00 2.20661E-01 7.41864E-03-2.91949E-01 1.00731E-01-4.11829E-01
 -1      2965-1.48476E+00 3.10271E-02-8.10133E-02-6.14931E-02 2.16086E-02-3.45415E-01
 -1      2966-4.18099E+00-1.69084E-01-4.75350E-01 1.41662E-02 1.41455E-01-5.27477E-01
 -1      2967-1.20970E+00-5.70173E-02 2.33702E-01-8.82067E-02-4.18658E-02-1.56834E-02
 -1      2968-2.54905E+00-5.38209E-01-7.02193E-01 7.68488E-02 9.07954E-02-5.06209E-01
 -1      2969 3.42155E-01-3.39140E-01-1.51395E-01 1.65974E-01 1.62263E-01-4.52290E-01
 -1      2970 1.18897E+00 2.06023E-02-2.73000E-01 1.70980E-01 3.75799E-02-3.11408E-02
 -1      2971 2.70665E+00-5.71370E-01-4.35093E-01-7.47100E-02-8.77304E-02-8.28257E-01
 -1      2972 8.69129E-01-6.30959E-01-5.08083E-01-1.79985E-01 3.35263E-02-5.31180E-01
 -1      2973 2.96590E+00 1.75789E-02 2.82970E-01 5.49240E-01-5.77904E-02-2.37725E-01
 -1      2974 4.97182E+00-1.38285E-01-1.59631E-02-2.49471E-01-1.28914E-01-8.92504E-01
 -1      2975 2.38294E+00-1.83740E-01-6.76230E-01-6.59225E-02 6.71550E-02 1.23767E-02
 -1      2976 2.69830E+00 7.62290E-01-6.25486E-02-1.36943E-01-2.82911E-02-1.25293E-01
 -1      2977 3.07923E+00-1.27237E-01-3.60370E-01 4.08283E-01-5.99668E-02 5.49029E-01
 -1      2978 5.65839E+00-1.22191E-01 1.09474E-01-1.48219E-01-3.18446E-01 1.46674E-02
 -1      2979 2.36121E+00-1.70962E-01-5.39797E-01-1.06511E-01-6.16670E-03-1.22880E-01
 -1      2980 2.28196E+00-4.40911E-01-1.07494E-01 5.13650E-01-8.89163E-02 4.18035E-01
 -1      2981 7.66078E+00 7.17125E-01 1.83636E+00-1.74824E-01-4.86918E-01 7.73859E-01
 -1      2982 1.30599E+00-5.94911E-02 1.95285E-01 1.43706E-01-2.66061E-01 5.29405E-01
 -1      2983 1.36776E+00-4.94775E-02 7.89790E-02-3.54650E-02-6.53326E-02 3.40335E-01
 -1      2984 1.94264E+00 1.59553E-01 4.11581E-01-2.59608E-02-1.14245E-01 6.72395E-01
 -1      2985-5.51055E-02 4.68729E-01 1.41170E-01-5.04784E-02 8.87194E-03 8.10012E-01
 -1      2986-1.48364E+00-1.99827E-01 1.57526E-01-2.17998E-01 3.76876E-02 3.21119E-01
 -1      2987-2.68908E+00 3.27482E-01-6.61760E-02-7.46198E-02 7.93968E-02 7.86710E-01
 -1      2988-1.76480E-01 9.12679E-01 7.56563E-01 2.07638E-01-2.07378E-02 3.27824E-01
 -1      2989-1.72067E+00-4.38072E-02-1.59706E-01 1.42248E-01 6.03620E-03 3.14282E-01
 -1      2990-3.11036E+00 8.98292E-02 2.40963E-01-4.76349E-01 1.27432E-01 3.49586E-01
 -1      2991-2.13142E+00-8.97466E-02 1.83577E-01 1.67699E-01-7.62132E-02 2.00814E-01
 -1      2992-2.55053E+00 3.77010E-01-1.28393E-01 2.45127E-01 2.26303E-01 6.18359E-01
 -1      2993-4.08474E+00-5.77652E-01-2.10266E-01-7.29993E-01-2.48239E-01-5.11777E-01
 -1      2994-2.52125E+00 2.66589E-01 9.39832E-01 9.38459E-02-6.78374E-02 1.31820E-01
 -1      2995 0.00000E+00 0.00000E+00 0.00000E+00 0.00000E+00 0.00000E+00 0.00000E+00
 -1      2996 0.00000E+00 0.00000E+00 0.00000E+00 0.00000E+00 0.00000E+00 0.00000E+00
 -1      2997-3.76001E+00 3.77564E-01-8.58120E-01-1.98348E-01 4.35886E-01-9.83418E-01
 -1      2998 6.63844E+00-2.80107E-01 6.02365E-01 1.92740E-01-4.55944E-01-8.77215E-01
 -1      2999 4.44070E-01-1.50454E-02 2.78838E-01-2.25305E-01 4.07659E-02 3.11708E-01
 -1      3000-2.40867E+00-4.54113E-02 7.46936E-01 3.98643E-01 1.54633E-01 2.94447E-02
 -1      3001 1.08214E+00-9.80371E-01-1.86375E+00 4.60709E-01-2.80326E-01-3.71010E-01
 -1      3002 1.95008E+00-5.40666E-01-1.32646E+00 3.25710E-01-2.25261E-01-2.42252E-01
 -1      3003-8.75283E-01-3.07162E-01-1.36448E-01 1.42872E-02 5.03804E-02 2.47514E-01
 -1      3004-2.00903E+00-2.00028E-01-2.36729E-01-6.99921E-01-3.09388E-01-9.09440E-01
 -1      3005-1.87738E+00-4.15565E-01-6.07226E-01-3.11025E-01 7.71399E-02-3.59014E-01
 -1      3006-1.02518E-01 7.37549E-02 1.95714E-01-3.35693E-04 5.67896E-02-1.73629E-01
 -1      3007 1.75754E+00-2.43296E-02 2.44872E-01-4.22908E-01-5.89586E-02-1.87686E-01
 -1      3008 2.77397E+00 1.18354E-01-7.83296E-01-6.93397E-01-2.05152E-01-1.63488E-01
 -1      3009 3.01090E+00 4.09367E-01 6.56101E-02 2.15092E-02-9.23847E-02 1.42821E-01
 -1      3010 2.69146E+00-5.08387E-02 9.06360E-02 5.86287E-01-4.50404E-02 5.14143E-01
 -1      3011 2.13760E+00 5.90115E-01 2.38604E-01 1.39541E-01-1.01357E-01 2.89204E-01
 -1      3012 1.79736E+00 5.88015E-01 7.17252E-01 3.00076E-01-1.10823E-01 3.81596E-01
 -1      3013 7.26452E-02-9.48673E-02-4.76123E-01-1.25973E-02-8.70914E-02 3.21987E-01
 -1      3014-9.10140E-01 3.03668E-01 7.04981E-02 4.71165E-01-4.58599E-02 3.31229E-01
 -1      3015-1.05495E+00-9.15593E-02-5.17110E-01 5.69805E-01-1.87539E-01 7.98854E-01
 -1      3016 0.00000E+00 0.00000E+00 0.00000E+00 0.00000E+00 0.00000E+00 0.00000E+00
 -1      3017-1.89315E+00 4.27318E-01 3.62671E-01 3.15971E-01-1.77119E-01-3.83774E-01
 -1      3018-1.94638E+00 7.69853E-02 5.51243E-02-3.78200E-01-1.42717E-01-2.27156E-01
 -1      3019-5.08301E-01-2.05993E-01-3.28645E-01-8.01553E-02-3.93107E-01 8.72311E-02
 -1      3020-3.47825E+00-3.31939E-01-7.15261E-01 9.93280E-02 6.17000E-02-6.23269E-01
 -1      3021-1.44130E+00 3.27186E-01 2.96984E-01-2.75012E-01 9.07846E-03-2.08738E-01
 -1      3022-2.84599E+00 3.33926E-01 4.17424E-01-1.07922E-01-4.58009E-02-6.62809E-01
 -1      3023-1.04916E+00-2.42406E-01-6.12291E-01-1.70327E-01 4.10249E-02-4.11680E-01
 -1      3024-1.46808E+00-6.04113E-01-8.46340E-01 1.53803E-01-1.25284E-01-5.73077E-01
 -1      3025-4.04067E-01 1.06246E-02-1.11003E-01-2.95610E-03-4.19385E-02-1.41177E-01
 -1      3026 1.41222E-01-5.20561E-03-9.00900E-02 3.66977E-02 2.31406E-03-2.93405E-02
 -1      3027 2.65572E-02-2.47109E-01 2.48644E-02-8.17900E-02-4.59117E-02-4.68183E-03
 -1      3028 5.28347E-01 7.86351E-02 2.93190E-01 7.56598E-02 9.51815E-03-4.63750E-01
 -1      3029 5.06846E-01 5.74657E-02 5.44547E-01-7.24257E-02 1.68132E-02-1.83848E-01
 -1      3030 1.43182E+00 3.76425E-01 3.11083E-01-8.78406E-02 8.47104E-03-3.63557E-01
 -1      3031 1.62508E+00-4.34939E-01-7.44707E-01 1.91190E-01 2.47855E-02 1.30953E-03
 -1      3032 3.71509E+00-1.51297E-01-3.37500E-01 8.78695E-02-3.93585E-02-3.46302E-01
 -1      3033 1.43549E+00-8.96406E-01-6.48962E-01-4.54242E-01 3.40400E-03 6.58488E-02
 -1      3034 4.77646E-01 1.82401E-02-1.76031E-01-2.38453E-01 8.75609E-02-1.69249E-01
 -1      3035 1.69731E+00-3.93781E-01-2.52622E-01 1.47858E-01-9.54646E-02 1.13560E-01
 -1      3036 2.48076E+00 5.39920E-01 1.25054E+00-9.68731E-02 6.44732E-02 1.00724E+00
 -1      3037 1.07604E+00-3.73130E-01-1.96038E-01 2.71745E-01-3.16403E-02 2.54914E-01
 -1      3038 5.50100E-01 1.26968E-01 3.51446E-01 1.44877E-01 3.20373E-02 1.69881E-01
 -1      3039 1.15484E+00-3.06569E-02-9.89644E-02-1.99479E-01-2.49418E-01 2.98398E-01
 -1      3040 2.36526E-01-3.20233E-02-1.76186E-01 1.10067E-02-4.09917E-02 2.86011E-01
 -1      3041-1.55797E-01-2.49811E-02-8.61955E-02 1.51585E-01-8.87895E-03 3.09681E-01
 -1      3042-7.26036E-01-2.78146E-01-4.15740E-01-5.84224E-02 1.10706E-02 3.30495E-01
 -1      3043-6.57134E-01-3.46372E-01-9.48015E-01 3.78115E-01-1.19922E-01 6.97228E-01
 -1      3044-1.55995E+00-3.53483E-01 3.44885E-02-1.21612E-01 1.02636E-01 4.31608E-01
 -1      3045-4.21420E+00-3.79355E+00-3.42178E+00 8.29174E-01 3.59070E-01-7.40316E-01
 -1      3046-2.48563E+00 2.87792E-01 1.16748E+00 4.74174E-01 9.43011E-02-2.23481E-01
 -1      3047-4.85904E+00 2.04821E+00 1.78569E+00-6.92495E-01 4.66198E-02-2.23012E-01
 -1      3048-7.90687E-01 5.88416E-02-3.35976E-03-2.23561E-01-8.77499E-02 1.25445E-02
 -1      3049-3.28728E-01 6.88637E-03 2.47974E-01 7.65847E-02-1.29825E-01 9.40753E-02
 -1      3050 5.87241E-02 7.22440E-02 5.43585E-02-4.78013E-02-3.99051E-04 5.56209E-02
 -1      3051-1.45886E-01-1.33511E-01-8.13466E-02-3.71039E-02-1.39868E-01-2.30529E-02
 -1      3052-4.23245E-01 6.58259E-02 7.96570E-02-1.62316E-01-2.43370E-02-1.64255E-01
 -1      3053-3.45589E-01 5.22334E-01-9.01665E-02 2.92659E-01-1.70341E-01 4.43813E-02
 -1      3054-2.69774E-01 1.75788E-01 1.83709E-01 6.74904E-02-2.47325E-02-4.29013E-02
 -1      3055 2.23903E-01 1.65643E-02-6.24101E-02-1.67722E-01 5.72662E-02-2.73418E-02
 -1      3056 1.01861E+00 4.32946E-01 1.06895E+00-1.48623E-01 1.55576E-02-3.36370E-01
 -1      3057 2.17652E+00 1.62743E-01 7.05676E-01 2.46262E-01 7.55401E-02-5.05550E-01
 -1      3058 5.12376E-02 1.35136E-01 9.24791E-02-6.74879E-02 1.18996E-01-1.64499E-01
 -1      3059 2.89937E+00-8.74764E-01 8.20722E-01 1.06316E+00 1.33089E+00 1.30836E+00
 -1      3060 5.55321E+00-2.29900E-01-8.11724E-01-7.78466E-01 9.96979E-02-1.18830E-01
 -1      3061 1.24175E+00-1.59046E+00-3.63719E-01 5.48080E-01 7.25768E-01 1.48691E+00
 -1      3062 1.48635E+00-4.72229E-01-5.36022E-01-5.57364E-02-9.57626E-02 3.93382E-01
 -1      3063 6.98672E-01-9.83782E-02 6.47662E-02-1.13894E-01 1.62955E-01 7.11608E-01
 -1      3064-2.01191E+00-7.26324E-02-4.68111E-01-1.69970E-01 1.59299E-02 2.98645E-01
 -1      3065-1.32969E+00 6.00876E-02 2.66819E-01 2.69644E-01-9.50127E-03 1.27894E-01
 -1      3066-1.20209E+00-3.31046E-01 1.50364E-01-5.73478E-01-1.25810E-02-1.72264E-01
 -1      3067-9.14260E+00-2.13998E+00-5.67893E-01-1.95448E+00 2.85854E-01-5.77378E-01
 -1      3068 0.00000E+00 0.00000E+00 0.00000E+00 0.00000E+00 0.00000E+00 0.00000E+00
 -1      3069 0.00000E+00 0.00000E+00 0.00000E+00 0.00000E+00 0.00000E+00 0.00000E+00
 -1      3070-4.28949E-02-2.37838E-01-6.90381E-02 7.35679E-02-3.01706E-02 5.95234E-02
 -1      3071-6.63987E-02 7.08698E-02 1.42762E-01-1.87717E-02-1.57043E-01 4.26754E-02
 -1      3072-8.17445E-01 1.46901E-01-6.20944E-02-2.26035E-02-1.08966E-01-7.73078E-01
 -1      3073-9.50188E-02 3.10076E-02-2.66984E-01-4.91631E-02 9.25282E-02 2.33919E-02
 -1      3074 2.80024E+00-1.30468E-01-2.33946E-01-2.28332E-01 4.05590E-01-4.68421E-01
 -1      3075 5.49539E-01 1.72224E-01 1.57959E-02-3.91871E-02 1.28097E-01 1.70791E-01
 -1      3076 2.55307E+00-1.07596E+00-1.29173E+00-2.32588E-01 7.64219E-01-5.64598E-01
 -1      3077 1.54694E-01-1.39577E+00-1.31444E+00 5.98139E-01 4.37795E-01 7.62958E-02
 -1      3078 6.28350E+00 4.29292E-01 1.06871E+00-7.16611E-02 8.37414E-01 2.91485E-01
 -1      3079 1.55164E-01 1.10469E-01 1.22520E-01-2.60768E-02 2.34030E-01 2.47547E-01
 -1      3080 2.12454E+00-1.41511E-01-2.44256E-01 3.14660E-02 5.33947E-01 9.05002E-01
 -1      3081-5.46341E-02 8.77176E-02 7.11498E-02 3.42347E-02 6.35397E-02 7.42399E-02
 -1      3082 2.72044E-01-1.02664E-01 8.70198E-02 6.60578E-02 1.23457E-01 2.10319E-01
 -1      3083 7.36657E-01-8.05834E-02-1.46013E-02 9.68762E-02 4.75053E-02 3.46098E-01
 -1      3084-2.61620E-01-1.34411E-01-5.91050E-01 9.58093E-02-1.94267E-02 6.33436E-01
 -1      3085-6.73633E-01-1.05441E-01 4.78656E-03 1.19061E-01-3.42649E-01 1.68145E-01
 -1      3086 1.66200E-02-1.07305E-01 1.53924E-02 2.98781E-02-6.61000E-02 2.76162E-03
 -1      3087-5.95268E-01 3.22533E-01 3.67950E-02-1.43336E-01-6.91145E-01 3.27699E-01
 -1      3088 0.00000E+00 0.00000E+00 0.00000E+00 0.00000E+00 0.00000E+00 0.00000E+00
 -1      3089 0.00000E+00 0.00000E+00 0.00000E+00 0.00000E+00 0.00000E+00 0.00000E+00
 -1      3090-3.39911E-03 1.85241E-01 4.60345E-02-2.90127E-03-5.52325E-02-7.61337E-03
 -1      3091 2.77424E-03-3.16325E-01 2.09173E-02-1.04774E-01-2.18298E-01 1.30648E-01
 -1      3092 7.51176E-03 5.16890E-02-1.94314E-03-1.81069E-02-8.21305E-03 1.85303E-03
 -1      3093 2.11207E-02 1.35972E-01-4.88633E-02-3.57105E-02-2.41932E-02 8.35867E-03
 -1      3094 4.64347E-02 1.30867E-01 1.04006E-02 1.19972E-01-3.24561E-02-3.15703E-02
 -1      3095 2.61924E-02 2.25383E-01-2.63231E-01-2.49213E-01 1.34484E-02 6.06707E-02
 -1      3096 1.78386E-02 4.25787E-01 9.91126E-02-6.25798E-02 4.15404E-02-1.57025E-02
 -1      3097 1.07777E-01 6.54917E-01 1.72581E-01 4.70650E-02 1.16928E-01 2.38320E-01
 -1      3098 1.19889E-01 4.18876E-01 1.54009E-01-4.09836E-02 1.54815E-02 1.60265E-01
 -1      3099-2.10710E-02 1.75551E-03-2.55878E-01 1.60908E-02 4.71926E-02-7.52113E-02
 -1      3100 2.36956E-03 5.35586E-02 1.72286E-01 1.14041E-03-4.01521E-02 8.60411E-03
 -1      3101 5.02230E-02-1.23360E-01 1.25468E-02 3.27274E-03-2.73611E-02-1.31878E-02
 -1      3102 1.53568E-01-4.43091E-01 1.05326E-01 4.25968E-03 9.01420E-02-5.10970E-02
 -1      3103 0.00000E+00 0.00000E+00 0.00000E+00 0.00000E+00 0.00000E+00 0.00000E+00
 -1      3104-2.72607E-02-1.06347E-01-5.49377E-02 6.72976E-02 6.73754E-02 1.16530E-01
 -1      3105 1.09689E-03-3.09448E-02-2.57106E-02 2.78283E-02 4.01167E-02 4.35849E-02
 -1      3106-5.32778E-03 1.79028E-02 2.56883E-02 1.63827E-02-3.40431E-02 1.07476E-03
 -1      3107-7.28366E-06-3.12822E-01 1.25634E-01-1.99445E-03-1.35408E-02-8.38099E-02
 -1      3108 1.53877E-01-7.32961E-02 2.17009E-02-5.62184E-02 9.14322E-02 4.64409E-02
 -1      3109-2.32064E-01-6.85973E-01 1.44737E-01-9.07744E-02-7.10174E-03 1.74687E-01
 -1      3110-6.65443E-02-1.10846E-01 2.90294E-02 9.01153E-02 5.37579E-02-4.67322E-02
 -1      3111 1.44324E-01-8.32531E-02 9.29854E-02 8.60663E-02 7.83268E-02 3.71020E-02
 -1      3112 5.84874E-02 5.57846E-02 2.01722E-02-2.61112E-02-3.73051E-02 2.02794E-02
 -1      3113 1.53412E-01 6.14718E-01-3.77675E-03-5.07259E-02 2.33340E-03-1.89124E-01
 -1      3114 1.81265E-02 1.82310E-03 4.20122E-03 4.69946E-02 4.44012E-02-4.79468E-03
 -1      3115 3.58499E-03 2.71825E-02 2.92475E-01 1.86103E-02 1.23605E-01 3.49420E-02
 -1      3116-2.31566E-01-2.84704E-01 9.42893E-02-3.20139E-01 2.70128E-01 1.55289E-01
 -1      3117 0.00000E+00 0.00000E+00 0.00000E+00 0.00000E+00 0.00000E+00 0.00000E+00
 -1      3118 0.00000E+00 0.00000E+00 0.00000E+00 0.00000E+00 0.00000E+00 0.00000E+00
 -1      3119 0.00000E+00 0.00000E+00 0.00000E+00 0.00000E+00 0.00000E+00 0.00000E+00
 -1      3120-8.45508E-01 5.66092E-01 2.76137E-01-1.47535E-02-1.08079E-01-2.52504E-01
 -1      3121-1.50224E+00 3.48903E-01 2.46111E-01 1.24523E-02 1.02302E-01 1.48218E-02
 -1      3122-3.06338E-01 7.03328E-02-7.42182E-02 2.15275E-01 1.76957E-01-1.37323E-01
 -1      3123 1.55027E-01 4.97502E-02-1.03714E-01 2.03458E-01-1.38299E-01-6.13994E-02
 -1      3124 7.15167E-01-4.18369E-01 1.37586E-01 2.06915E-01-1.37727E-01-2.50353E-01
 -1      3125 8.38875E-01-2.56555E-01-5.00479E-01 1.87546E-01-9.67726E-02-5.89272E-01
 -1      3126 1.21788E-01-4.20039E-03 1.99215E-01-3.26428E-02-2.08080E-01-1.95294E-01
 -1      3127 8.47427E-01-3.44474E-01-7.69788E-01-1.99519E-01-2.43424E-03 4.42594E-01
 -1      3128 1.69389E-01 5.52244E-02 4.60613E-02-1.17830E-01-1.91242E-01 7.08314E-02
 -1      3129-5.22550E-02-8.11970E-02-9.53512E-02 1.58698E-02 2.66649E-03 6.03272E-02
 -1      3130-1.03705E+00 1.55435E-01 3.89377E-01-1.96033E-03-2.07150E-02 2.03075E-01
 -1      3131-1.14683E+00-2.35611E-02-1.60373E-01-2.04303E-01 5.04944E-02 6.02109E-02
 -1      3132-1.70402E+00 6.48999E-01 5.82087E-01-3.95653E-01 2.22189E-01 6.16808E-01
 -1      3133 0.00000E+00 0.00000E+00 0.00000E+00 0.00000E+00 0.00000E+00 0.00000E+00
 -1      3134-6.74642E-01-5.57043E-02 3.29000E-01-2.53970E-01 4.63562E-02 2.65762E-01
 -1      3135-2.72118E+00-2.98672E-01 4.43278E-03 1.19702E-02 3.09347E-01-5.37718E-01
 -1      3136-1.53704E+00 5.06525E-01-2.39644E-01-7.21317E-02 2.57556E-01-8.84103E-01
 -1      3137-1.45832E-01 6.86915E-02 4.41617E-02 1.30504E-01 6.72373E-02-3.95036E-03
 -1      3138-1.24590E-01 1.25949E-01 6.65173E-02 1.19008E-01-9.41420E-02-6.09798E-01
 -1      3139-5.98157E-01 1.94230E-01 3.39045E-01-2.25797E-02-2.54627E-03-3.50595E-02
 -1      3140 1.34183E-01 1.87050E-01 1.18027E-01-2.28321E-01 2.96363E-02-2.44797E-01
 -1      3141-7.67455E-01 1.36667E-01 1.38639E-01 4.57403E-02 1.72848E-02-5.98568E-01
 -1      3142 1.38906E+00-8.02468E-02-2.12179E-01 6.33665E-03 1.12085E-01-5.00657E-01
 -1      3143 2.47397E-01-8.62174E-02 5.81476E-02 1.12012E-01-1.10622E-01-1.11954E-01
 -1      3144 6.39715E+00 1.67080E-01 9.41343E-01 7.64130E-01-6.55242E-01-4.78444E-01
 -1      3145 2.19989E-01-1.86411E-01-4.20265E-01 3.99404E-03-1.71145E-01-5.30481E-02
 -1      3146 7.97201E-01-5.24152E-01-9.40965E-01 6.57950E-01-4.58866E-01-5.15461E-01
 -1      3147-1.77824E-01-2.96173E-01-9.23468E-02 1.76943E-01-4.99659E-02 3.01120E-01
 -1      3148 8.72696E-01-8.63963E-02-1.15683E-01-6.54006E-02-6.88247E-02 6.24835E-01
 -1      3149 4.69721E-02-3.50172E-02-4.77639E-03 8.16588E-03 6.66765E-03 2.03710E-02
 -1      3150-6.81888E-01 1.14627E-01-2.17848E-01-8.90543E-02 3.58155E-02 1.74074E-01
 -1      3151-1.24058E+00 5.49693E-01 8.07409E-01 3.95238E-01 6.87994E-02 3.08232E-01
 -1      3152-4.25401E-01-2.93373E-01-5.25837E-02 7.77146E-02 5.33884E-02-9.69406E-02
 -1      3153-1.75628E+00 8.05110E-01-7.33119E-01 1.30143E-01 8.47775E-01-3.77011E-03
 -1      3154-5.68391E-01-2.83222E-01 4.73392E-01-5.54004E-01 3.84148E-01 5.57479E-01
 -1      3155 0.00000E+00 0.00000E+00 0.00000E+00 0.00000E+00 0.00000E+00 0.00000E+00
 -1      3156-2.56574E+00-1.89708E-02 3.22332E-01-4.39935E-01-3.66168E-01-2.13502E-02
 -1      3157-6.12810E+00 1.32360E+00 1.06559E+00-1.09498E-01-5.72015E-01-5.48654E-01
 -1      3158-7.52892E+00-6.71983E-02-3.23346E-01-1.20751E-01-6.28314E-01-4.98139E-01
 -1      3159-2.26409E+00 7.27657E-02 5.24985E-01-2.21586E-01-1.75693E-01-9.08864E-02
 -1      3160-1.74941E+00-3.01878E-02 1.50104E-01-1.01621E-01-1.75830E-01 1.63313E-01
 -1      3161-1.42432E-01 7.07073E-01 8.73198E-01-8.72813E-02-1.14566E-01-4.38428E-01
 -1      3162-1.63545E-03 4.30832E-01 6.76057E-01 4.53715E-02-1.92807E-01-2.05791E-01
 -1      3163 1.26985E+00 6.48685E-01 9.69786E-01-2.96162E-02 1.31316E-02-3.94004E-01
 -1      3164 5.84718E-01-1.29781E-02 3.54366E-01 3.70910E-02-7.94133E-02-2.55373E-01
 -1      3165 1.14183E+00-3.18949E-01-1.76475E+00 1.23728E-01 3.49719E-01-4.96615E-01
 -1      3166 1.21040E+00-2.22570E-01-3.87801E-01 5.33983E-01-1.35037E-01-8.18743E-03
 -1      3167 5.31964E-01-2.71415E-01-6.16848E-01 4.15515E-02-2.19605E-01-1.64941E-01
 -1      3168 2.54596E+00-5.69728E-01-7.38539E-01-2.69549E-01 1.56798E-01-3.25075E-01
 -1      3169 5.77707E+00-1.99347E-01-3.79739E-01 1.80638E-01 6.03261E-01 3.58546E-01
 -1      3170 1.06333E+00-3.36695E-01-7.87696E-01-6.03696E-02 4.91421E-02 2.07294E-01
 -1      3171 2.40922E+00 8.68870E-02-5.45801E-01 4.75550E-01 1.60382E-01-1.58941E-01
 -1      3172 3.23527E-01 2.29173E-01 6.64381E-01-1.09728E-01-6.73019E-03 5.59079E-01
 -1      3173-5.21041E-01-7.01397E-01-4.36926E-01 1.96297E-01-2.33595E-01 2.43122E-01
 -1      3174-1.01629E+00-3.54162E-01-5.71112E-01-3.71640E-02-7.63972E-02 7.90682E-01
 -1      3175-1.06040E+00 2.06521E-01 1.05777E+00 1.83349E-01-2.41300E-01 2.11549E-01
 -1      3176-2.74241E+00-4.87897E-02 4.52265E-01 1.93788E-01-1.05653E-01 4.82554E-02
 -1      3177-6.90436E+00 6.58217E-01 1.09995E+00 3.38107E-01-9.28562E-01 7.40644E-01
 -1      3178-3.56130E+00 4.32485E-01 7.27386E-01 3.44964E-02 7.20045E-02 7.62714E-02
 -1      3179-9.58018E-01 1.57442E-01 1.54605E-02-3.03756E-01 8.13873E-02 3.14120E-01
 -1      3180-3.03248E+00 3.29612E-01 3.65046E-01 2.38235E-01-1.59532E-01 1.76741E-01
 -1      3181-4.23458E+00-1.94261E+00-1.86384E+00-5.57513E-01 4.73494E-01 1.45036E+00
 -1      3182 0.00000E+00 0.00000E+00 0.00000E+00 0.00000E+00 0.00000E+00 0.00000E+00
 -1      3183 0.00000E+00 0.00000E+00 0.00000E+00 0.00000E+00 0.00000E+00 0.00000E+00
 -1      3184 0.00000E+00 0.00000E+00 0.00000E+00 0.00000E+00 0.00000E+00 0.00000E+00
 -1      3185-3.98880E+00-1.57856E-01-8.81438E-01-6.85055E-01-1.84973E-01-2.70266E-01
 -1      3186-2.34657E+00 2.85645E-01 2.18463E-01-3.49244E-01-1.13364E-02 6.49728E-02
 -1      3187-1.49420E+00 2.32255E-01-5.21727E-02 1.83254E-01-2.25939E-01-4.74867E-01
 -1      3188-1.59392E+00 5.81112E-01 3.46284E-01 2.69404E-01 4.78223E-02-1.43333E-01
 -1      3189-1.09260E+00 4.38552E-01 4.45845E-01-6.54145E-02-5.67265E-02-5.86381E-01
 -1      3190-1.65414E+00 1.70364E-01-2.05438E-01 1.11683E-01-2.92149E-02-4.21940E-01
 -1      3191-2.74233E+00-4.88285E-01-3.66041E-01-2.87624E-01-2.73843E-01-4.79855E-01
 -1      3192-9.40141E-01-2.85151E-01-5.05246E-01-8.59932E-02-2.03153E-02-1.25955E-01
 -1      3193 1.01953E-01-6.67614E-02-9.73598E-02 2.55758E-02-8.20148E-02 2.11127E-02
 -1      3194 8.37861E-01 4.89284E-03-1.80646E-01 4.47878E-02 3.34630E-02-6.20889E-01
 -1      3195 9.91544E-01 9.91380E-02 6.74857E-02 1.14794E-03-2.78920E-03-6.02616E-02
 -1      3196 9.85734E-01-7.12664E-01-7.50308E-01-1.93274E-02 1.81102E-01 2.72478E-01
 -1      3197 3.62483E+00-8.14581E-02 1.06627E-01 4.53744E-02 2.48059E-01 5.12497E-01
 -1      3198 1.69980E+00 1.97111E-01 2.08936E-01 2.39137E-01 3.33829E-02 1.12923E-01
 -1      3199 3.30999E-01-3.47733E-01-4.82527E-01-8.60941E-02-1.42184E-03 2.15269E-01
 -1      3200 1.30754E+00 5.87331E-01 7.28086E-01 5.62555E-02-6.50645E-02 4.54389E-01
 -1      3201-1.07651E+00-8.38301E-02-3.03960E-02 6.51527E-03-2.94212E-02 4.88162E-02
 -1      3202-1.45854E+00 8.33710E-02-2.27625E-02-2.65313E-01-1.13055E-01 2.23404E-01
 -1      3203-2.29223E+00-3.66005E-01-7.19631E-01-2.95969E-01-5.21319E-02 4.64261E-01
 -1      3204-1.85663E+00 2.54862E-01 4.24790E-01 9.92619E-02-1.65575E-01 3.17294E-01
 -1      3205-1.69522E+00 2.28654E-01 1.93852E-01-2.98666E-01 3.80848E-02 2.42861E-01
 -1      3206-1.57214E+00 3.33237E-02-9.89973E-01 3.04100E-02 1.64361E-01 1.14657E+00
 -1      3207-1.83925E+00-3.51572E-01-6.77924E-02-1.30240E-02-5.72893E-02-1.96761E-01
 -1      3208-9.33086E-02 4.22892E-02 2.99903E-01-7.46138E-02-3.59650E-02-3.52072E-01
 -1      3209 1.69372E+00 1.98371E-01-6.59472E-01 2.55316E-01 2.17213E-01 4.73097E-01
 -1      3210 1.19551E-01-9.57673E-02-3.01356E-01-8.16401E-02 6.87500E-02 4.39010E-01
 -1      3211-1.88748E+00-2.16636E-01 1.04746E-01-5.54547E-02-4.08465E-02 4.11898E-01
 -1      3212-2.56830E+00-7.63474E-03 3.34684E-01 9.50629E-03-1.47425E-01 2.51588E-01
 -1      3213 1.22401E+00-1.40897E-01-2.97291E-01 1.70201E-01-1.45293E-01-5.73851E-01
 -1      3214-1.61789E+00 1.98733E-01 2.20665E-01-7.33911E-02-9.63538E-02 7.47099E-01
 -1      3215-1.05633E+00-4.04423E-01-2.37571E-01 9.38184E-03-1.36394E-01 4.49715E-01
 -1      3216 2.26799E+00 3.77311E-02 4.24279E-01-7.63266E-02-8.74592E-02-9.66629E-02
 -1      3217 6.85943E+00-2.62301E-01-1.04510E-01-1.42778E-01 1.01185E-01 1.04550E-01
 -1      3218 5.62127E+00 4.51312E-01 1.63466E-01-4.45771E-02 2.50170E-01 6.13256E-01
 -1      3219-3.22828E+00-2.33022E-01-2.30152E-01 5.86496E-02 2.66459E-01 3.01621E-01
 -1      3220 0.00000E+00 0.00000E+00 0.00000E+00 0.00000E+00 0.00000E+00 0.00000E+00
 -1      3221 0.00000E+00 0.00000E+00 0.00000E+00 0.00000E+00 0.00000E+00 0.00000E+00
 -1      3222-2.20143E+00 4.74168E-01 4.68473E-01 2.01191E-01-9.33062E-02-3.06508E-01
 -1      3223-2.86463E-01 8.47659E-01 4.35417E-01 1.86167E-01-2.43481E-01-8.31141E-02
 -1      3224-5.93338E+00 4.83602E-01 4.88997E-01 1.63718E-01-5.52641E-01-8.98671E-01
 -1      3225-4.59382E+00-4.24088E-01-8.51502E-01-3.28529E-01-2.33122E-01-5.31353E-01
 -1      3226-1.36564E+00 2.55854E-01 3.40898E-01 5.76780E-02-1.51390E-02-3.84390E-01
 -1      3227-1.81981E+00-3.10078E-01-4.71577E-01-1.68423E-01-6.30568E-02-5.02721E-01
 -1      3228-1.77904E-01 3.75695E-01 1.62313E-01-1.83701E-01-1.29835E-01-1.21326E-01
 -1      3229-2.69242E-01 5.16872E-02 2.70231E-01-1.21423E-01-5.71148E-02-2.64011E-01
 -1      3230 1.09434E-03-3.24455E-03-1.57839E-01-1.89171E-01 7.00600E-02 4.38637E-02
 -1      3231 2.85294E-01-3.64372E-01-4.85768E-01 1.85877E-01 2.14534E-01-7.00008E-01
 -1      3232 1.19312E+00 1.16599E-02-9.10514E-02-1.49813E-01-9.24136E-04 8.64811E-02
 -1      3233 6.45209E-01 6.08956E-03-6.37659E-01-5.81121E-02 2.40974E-01-1.73283E-01
 -1      3234 1.02187E+00-7.59140E-01-1.37019E+00-2.22695E-01 3.47064E-01-6.06343E-01
 -1      3235 1.45368E+00-2.71881E-01 1.95967E-01-6.06827E-01-2.80072E-01-4.81493E-01
 -1      3236 2.05494E+00-2.03546E-01-4.54423E-01 2.53075E-01 2.23103E-01-5.53134E-01
 -1      3237 3.57303E+00-3.52161E-01-3.03224E-01 3.30437E-01 7.39913E-03-7.97507E-01
 -1      3238 2.32702E+00-1.79521E-01-1.05240E-01-5.52019E-01 2.01626E-01 5.32974E-01
 -1      3239 2.52564E+00 3.19141E-01-9.11150E-03 3.47129E-01 4.14777E-02-1.83855E-01
 -1      3240 2.68603E+00-4.83401E-01 1.05695E-01 1.60835E-01 1.38726E-01 2.07881E-01
 -1      3241 1.74736E-01-4.03314E-01-7.67996E-02 1.68379E-01 2.24126E-01 1.46864E-01
 -1      3242-4.38591E-01-2.41417E-01-1.53773E-01 6.41238E-02-3.61720E-02 8.51816E-02
 -1      3243-1.48773E+00 2.84418E-01 6.54503E-01 3.48713E-01-1.39556E-01 5.54521E-01
 -1      3244-3.76046E+00 7.75321E-01 6.73056E-02 2.34354E-01-4.13081E-01 7.58634E-01
 -1      3245-3.64916E-01 9.62091E-01 7.43126E-01 6.11849E-01-3.95726E-01 1.08289E+00
 -1      3246-1.57961E+00 6.36441E-01 2.97428E-01 5.20395E-01-4.38349E-01 1.02207E+00
 -1      3247 0.00000E+00 0.00000E+00 0.00000E+00 0.00000E+00 0.00000E+00 0.00000E+00
 -1      3248-2.09102E+00-3.22730E-01-4.54172E-01 7.33591E-02-6.39644E-02-4.72131E-01
 -1      3249-1.19614E+00 3.80233E-01 1.01837E+00-1.82222E-02-3.08261E-01-6.29265E-03
 -1      3250 4.63077E-02 5.15279E-01 1.10622E+00-2.04937E-01-2.09921E-01-8.64186E-01
 -1      3251-4.14899E-01-2.79785E-01-5.72594E-01-2.70437E-01 1.52734E-01-2.24008E-01
 -1      3252 1.17992E+00-4.59671E-01-6.54695E-01-4.49393E-01 1.78571E-01-2.32575E-01
 -1      3253 8.82863E-01-2.19606E-01-1.23499E+00-3.53146E-01 6.03505E-01 3.69964E-01
 -1      3254 4.93041E-01 1.08116E-01 1.92065E-01-1.13233E-03 7.71988E-02 5.05670E-01
 -1      3255 7.53055E-01 1.89583E-01 6.37079E-01 2.07368E-01 1.96299E-01 4.63151E-01
 -1      3256-1.29993E-01-1.63140E-01-7.88938E-01-2.44429E-01 3.64205E-01 5.62666E-01
 -1      3257 1.87228E-01 1.42668E-01 7.10211E-01 1.89599E-01-8.66639E-02 4.24524E-01
 -1      3258-7.12525E-01 8.50823E-02 7.21066E-01 1.11920E-01-3.10465E-01 1.77301E-01
 -1      3259-2.30277E+00 4.37293E-01-1.76460E-01-2.28611E-01 1.77399E-03 5.32814E-01
 -1      3260-7.04021E-02-9.80610E-02-7.64152E-01 3.42272E-02-1.84803E-01-6.49195E-01
 -1      3261 1.51917E+00-8.99780E-02-1.86884E+00 1.02717E-01-3.09581E-01-5.09863E-01
 -1      3262 0.00000E+00 0.00000E+00 0.00000E+00 0.00000E+00 0.00000E+00 0.00000E+00
 -1      3263-1.79572E+00 5.02334E-01 8.39045E-01 3.80921E-01 5.20340E-01-1.08350E-01
 -1      3264-9.91441E-01 4.06886E-01 8.79603E-01 3.46961E-02 5.72866E-01-1.05305E+00
 -1      3265-1.07177E+00 5.06812E-01 8.53911E-01 2.15518E-01 3.07837E-01-9.18922E-01
 -1      3266-9.14182E-01-2.85210E-01-1.10423E-01-1.28503E-01 1.66895E-02-3.30900E-01
 -1      3267-8.21283E-02-4.58880E-03-1.69347E-01-8.72721E-02 1.57893E-01-6.44584E-01
 -1      3268 9.09011E-01 3.97218E-01 1.41417E+00-6.86000E-02 2.01272E-01-8.26371E-01
 -1      3269 1.22220E+00-6.82043E-01-1.71677E+00 3.21633E-01-2.87067E-01-5.89674E-01
 -1      3270 3.15890E-01 2.74498E-02 2.38396E-01-3.62685E-01-4.67437E-01 1.83643E+00
 -1      3271-1.09577E+00-3.53424E-01-9.71625E-01 9.88666E-02-1.53070E-01 8.00447E-01
 -1      3272-1.54600E+00 2.44360E-01-2.57964E-01 2.82049E-01 3.86271E-01 7.50164E-01
 -1      3273-9.03182E-01 2.07705E-01-8.38910E-02 1.61174E-02 3.85379E-01 1.00776E+00
 -1      3274 0.00000E+00 0.00000E+00 0.00000E+00 0.00000E+00 0.00000E+00 0.00000E+00
 -1      3275-4.61942E+00-5.29904E-01-1.16744E+00-2.24094E-01 1.62493E-01-6.39903E-01
 -1      3276-1.95548E+00 3.63809E-01 2.63070E-01-5.98732E-02 3.02943E-01-6.00977E-01
 -1      3277-2.76367E-01 5.15647E-01 7.52293E-01-5.93793E-02 9.71179E-02-4.55544E-01
 -1      3278-2.41774E-02 5.27412E-01-1.36540E-03 3.58596E-03-9.67586E-02-1.46771E-01
 -1      3279 7.58361E-01-1.13864E-01-1.60698E-01 4.88548E-02 2.59930E-02-2.06647E-01
 -1      3280 5.14637E-01 1.18494E-02 4.10727E-01 5.32071E-02 7.33392E-03-4.47754E-01
 -1      3281-4.75361E-01-6.24353E-01-6.40819E-01 8.91622E-02 6.79379E-03-3.81232E-01
 -1      3282 2.09447E+00 3.61079E-01 6.40125E-01 2.79774E-02-9.51940E-02-4.32702E-01
 -1      3283 2.69367E+00-1.97506E-01-2.19704E-02-5.64356E-02 1.41580E-01-5.79970E-01
 -1      3284 1.41083E+00-7.83660E-01-1.68133E-01 1.84944E-01 2.67798E-01-4.80198E-01
 -1      3285 4.77972E+00-1.39372E-01-5.66156E-01-8.03750E-02-5.07831E-01-3.69388E-01
 -1      3286 5.70642E+00 2.87599E-01 2.22246E+00 4.01689E-01-1.39772E-01-2.51139E-01
 -1      3287 4.42434E+00-5.30032E-01-8.79003E-01 3.22410E-01-1.88074E-02 4.20139E-03
 -1      3288 6.29322E+00-1.09178E+00-1.11920E+00-4.58302E-03-6.36167E-01-7.32841E-01
 -1      3289 4.62262E+00 1.49855E-01 6.96644E-02 4.92445E-01-1.44702E-01-8.64712E-02
 -1      3290 7.63338E+00 7.76839E-01 9.37289E-01 2.33979E-01 5.10811E-02 5.34914E-01
 -1      3291 3.07022E+00 3.50830E-01 7.12701E-01-2.62439E-01-5.08012E-02 1.67841E-01
 -1      3292 6.02237E+00-1.15966E+00-1.45950E-01-7.20510E-02-1.87392E-01 9.08642E-01
 -1      3293 4.83898E+00-1.79836E+00-1.16524E+00-4.05700E-02-4.27068E-01 1.30320E+00
 -1      3294-1.19720E-02-5.57934E-01-7.78142E-01 1.25908E-01 7.77213E-02 4.68291E-01
 -1      3295 1.84930E+00-4.58275E-01 4.87299E-01-2.87292E-01-3.25791E-01 2.97612E-01
 -1      3296 5.64530E+00 3.23052E-01 1.86083E-01-3.95601E-01-7.20486E-01 7.74291E-01
 -1      3297 2.54749E+00-6.38649E-02 2.69071E-01-2.67856E-01 5.21119E-02 6.95607E-01
 -1      3298 2.26044E+00 1.02841E+00 1.53252E+00 4.08655E-02 3.16138E-01 3.56348E-01
 -1      3299-5.89747E-02-4.14155E-01-3.96651E-01 7.82864E-02-1.84782E-01 4.72149E-01
 -1      3300-1.99352E-01-3.10452E-01 2.65849E-01-2.71704E-02 1.07094E-01 3.13320E-01
 -1      3301 1.25991E-02 5.62067E-02-3.15407E-01-1.64776E-01-6.84176E-02 4.17341E-01
 -1      3302 3.05672E-01 5.24866E-01 7.39441E-01 1.04630E-01 3.39637E-02 4.67769E-01
 -1      3303-2.05457E+00-2.62427E-01-7.68334E-01-9.13082E-03-4.75772E-02 6.77254E-01
 -1      3304-7.57273E-01 1.13851E+00-9.82895E-02-4.99850E-02 1.93482E-01 5.19027E-01
 -1      3305-7.13933E+00-2.79588E-01-3.77961E-01-6.88936E-01 6.82756E-01 1.70981E+00
 -1      3306-8.52121E+00-1.51891E+00 9.69529E-01-3.47607E-01 8.39185E-01 2.66428E-01
 -1      3307-3.67331E+00 2.69484E-01 9.29034E-01-3.69735E-01-1.60540E-03 3.33183E-01
 -1      3308 0.00000E+00 0.00000E+00 0.00000E+00 0.00000E+00 0.00000E+00 0.00000E+00
 -1      3309 0.00000E+00 0.00000E+00 0.00000E+00 0.00000E+00 0.00000E+00 0.00000E+00
 -1      3310 0.00000E+00 0.00000E+00 0.00000E+00 0.00000E+00 0.00000E+00 0.00000E+00
 -1      3311 0.00000E+00 0.00000E+00 0.00000E+00 0.00000E+00 0.00000E+00 0.00000E+00
 -1      3312-3.01906E-01-3.97391E-02 1.14330E-01-2.40710E-02-1.02110E-01-1.49306E-01
 -1      3313-1.25847E+00-6.76761E-01-1.40748E+00-2.70088E-02-4.95746E-02-8.60883E-01
 -1      3314 7.72814E-01 8.42820E-01 1.57306E+00-3.20999E-01 2.47142E-01-1.10594E+00
 -1      3315 2.37499E+00 5.31399E-02 1.00476E-01-1.68014E-01-1.25248E-01-5.30637E-01
 -1      3316 3.78282E+00-8.49701E-01-3.00386E-01-1.20517E-01 5.85644E-01-3.83516E-01
 -1      3317 5.02462E-01 1.47365E-01 7.01555E-01 3.55024E-02 2.64583E-02 8.60307E-01
 -1      3318 0.00000E+00 0.00000E+00 0.00000E+00 0.00000E+00 0.00000E+00 0.00000E+00
 -1      3319 0.00000E+00 0.00000E+00 0.00000E+00 0.00000E+00 0.00000E+00 0.00000E+00
 -1      3320-5.76875E+00 7.59363E-01 5.29728E-01 3.01513E-01 7.96467E-01 1.76116E-01
 -1      3321-1.38965E+00 9.42427E-01 1.01209E+00 3.64712E-02 4.95999E-01-8.34607E-01
 -1      3322-1.67871E+00-2.75776E-01-7.67085E-01-1.68506E-01-1.71020E-02-9.53884E-01
 -1      3323-1.19825E+00 4.94417E-01 4.62838E-01-1.99979E-01 2.57002E-03-2.09398E-01
 -1      3324 3.98252E-01 4.47629E-02 4.38206E-01 4.02356E-03 1.39936E-01-1.66332E-01
 -1      3325 5.48166E-01-3.66183E-03 2.86493E-01 2.91763E-01 1.20176E-01-4.68476E-01
 -1      3326 3.27567E-01-1.13605E-01 1.08568E-01-8.26749E-02 9.37954E-02-1.83083E-01
 -1      3327 6.70230E-01 7.47111E-01 1.32831E+00 2.52953E-02 4.67683E-01-1.14806E+00
 -1      3328 6.31441E+00-8.21305E-01-3.93306E-01-4.14876E-01-8.85220E-01-8.19332E-02
 -1      3329 1.31090E+00-1.63247E-01-2.79637E-01 1.66037E-01-7.12972E-02 4.57695E-01
 -1      3330 1.32394E+00 1.11569E-01 1.03781E+00 1.09386E-01 9.13415E-02 7.73313E-01
 -1      3331 6.80490E-01-1.94059E-01-2.55237E-01-2.38384E-02-7.10786E-03 6.68564E-01
 -1      3332-2.26845E+00-9.08668E-03 2.00628E-01-1.84036E-01 2.87332E-01 7.61539E-01
 -1      3333 4.64584E-01 4.81235E-01-8.44525E-02-1.87528E-01-2.15709E-01 3.63097E-01
 -1      3334-6.82601E-01 4.48700E-02 3.88435E-02 1.96848E-01-2.16668E-03 2.44262E-01
 -1      3335-1.63742E+00 1.09903E-01-3.23152E-01 2.89244E-01 1.73486E-02 2.91259E-01
 -1      3336-3.26748E+00 7.75330E-02-2.58658E-01-1.01482E-01 2.69136E-02 4.36345E-01
 -1      3337-6.20799E-02 3.77667E-01 5.60012E-01 1.80815E-01-1.31341E-02 3.00566E-01
 -1      3338-2.21205E+00 4.31699E-01 1.64307E+00-7.13341E-02 2.52774E-01 1.15967E+00
 -1      3339-1.62832E+00-9.27858E-02-1.08976E-03 2.51266E-02-8.92828E-02 7.11914E-01
 -1      3340 4.00840E-01 6.04656E-03-6.26990E-01 1.17127E-01-3.32325E-02 1.12852E+00
 -1      3341-5.42802E+00 5.77627E-01 5.86475E-01-2.35032E-01-1.31396E-03 4.97437E-01
 -1      3342 2.13341E-01 5.17964E-02-4.01864E-02 1.32172E-01-2.50422E-02 1.52586E-02
 -1      3343-2.05328E-01 3.34002E-01 2.03274E-01-1.13641E-01-1.99945E-01-1.86398E-03
 -1      3344-4.69944E-01 2.28725E-02-4.21341E-01-1.65418E-01 6.49218E-02-3.38665E-01
 -1      3345-2.76172E+00-9.44977E-02-2.02865E-01 2.14277E-01 1.71590E-01-3.30220E-01
 -1      3346-3.70325E-01-2.23625E-02-4.00043E-01-8.32931E-02-1.44060E-01-3.90836E-01
 -1      3347 2.63184E-01 1.36071E-01 4.42311E-01-5.19311E-02 8.41090E-02-3.11076E-01
 -1      3348-6.18482E-02-2.50261E-01-6.22610E-01-1.09302E-01 5.47145E-02-3.45795E-01
 -1      3349 2.90871E-01 2.55831E-01 2.84362E-01-6.33479E-01 7.42002E-01-6.86328E-01
 -1      3350 4.60421E-01-1.05488E+00 1.00009E-01 1.69922E-01 3.47534E-01-2.42302E-01
 -1      3351-1.53191E-01-5.30608E-01-3.69759E-01 1.23449E-02 3.60904E-02-2.91086E-02
 -1      3352 4.54420E-01 1.05682E-01-5.72696E-01-4.09348E-01 2.39198E-01 1.30315E-01
 -1      3353 5.23306E+00-1.11078E+00-1.02203E+00 1.35666E-01-6.45990E-01 1.27850E+00
 -1      3354-1.17540E-01-4.64435E-01-5.17778E-01 1.28578E-01 1.84237E-01 6.67124E-02
 -1      3355 3.98411E-01-4.44148E-01-1.30355E-01 1.93165E-01 1.94671E-01 1.29061E-01
 -1      3356 1.88337E-02-6.70277E-02 4.49955E-02 7.99899E-02 7.28041E-02 5.58509E-01
 -1      3357-8.79738E-02 1.08968E-02 2.44976E-01 5.75985E-02 4.85848E-02 1.63485E-01
 -1      3358-1.24262E+00 1.88796E-01 2.08105E-01-7.30149E-02 5.88415E-02 6.11624E-01
 -1      3359 7.75355E-01 9.74627E-02-2.70946E-01-2.07452E-01-3.25282E-01 2.08318E-01
 -1      3360 5.12580E-02-2.34788E-01-1.10403E+00 3.75901E-02-4.81991E-01 7.51697E-01
 -1      3361-4.10568E+00 5.58937E-01 2.03108E-02-4.46991E-02 4.19145E-01 9.55866E-01
 -1      3362-3.21246E+00-1.25918E+00-2.09109E+00 1.59128E-01 9.65135E-02 9.40955E-01
 -1      3363-1.97484E-01-3.21197E-01-2.19347E-01-1.97323E-01 1.20251E-03-1.38642E-01
 -1      3364 0.00000E+00 0.00000E+00 0.00000E+00 0.00000E+00 0.00000E+00 0.00000E+00
 -1      3365-5.14644E-01 1.85122E+00-1.47642E-01-3.29012E-02-3.97772E-02-7.64819E-01
 -1      3366-8.36148E-01 2.28751E-02-2.71200E-01-4.18448E-01-3.27145E-01-7.92852E-01
 -1      3367-1.06625E+00 1.00274E+00-1.82561E-01 6.63223E-01-2.07340E-01-6.78583E-02
 -1      3368-1.90690E-02 1.72120E-02 1.04975E-01-1.50608E-01-7.82311E-02 2.53686E-02
 -1      3369-8.68060E-01-3.09337E-02 3.31399E-01-5.20700E-01-8.04860E-02-3.24954E-01
 -1      3370-8.39962E-02 1.73011E-01-6.15634E-02-7.88002E-02-2.62621E-02-5.67318E-02
 -1      3371-9.73886E-02-1.18706E-01-2.86327E-01-8.74144E-02 1.03562E-01-2.82485E-02
 -1      3372 2.38998E+00-4.39162E-01-1.87122E-01-1.54945E-01 2.05580E-01-6.51456E-01
 -1      3373 1.81980E+00-1.95864E-02-2.51620E-02 2.77501E-01-1.66119E-02-4.17177E-02
 -1      3374 1.71497E-01 6.06885E-02-5.32494E-03-1.15338E-01 1.18166E-01 9.86693E-03
 -1      3375 4.61766E+00-3.22079E-01-7.71282E-02-1.38993E-01-6.90378E-02 5.77461E-01
 -1      3376 4.36522E-01 2.37735E-01-1.15947E-02 2.71521E-01 1.18398E-01 1.07662E-02
 -1      3377 1.22690E+00-2.62460E-01-7.34273E-02 2.57821E-02 1.94922E-01 2.60532E-01
 -1      3378 7.48019E-02-5.37590E-01 7.38829E-01-7.30715E-01-2.15800E-01 7.09268E-03
 -1      3379 1.81602E-01-1.03821E-01 2.60943E-02 1.41429E-01 3.00059E-02 6.21695E-03
 -1      3380-9.14893E-02 1.28567E-01-1.98437E-02 1.84682E-02 2.88728E-02 1.54041E-02
 -1      3381 3.37339E-01 1.37039E-01 5.13938E-02 1.87965E-01-9.92429E-02 1.72518E-01
 -1      3382 2.81065E-01-2.94457E-02 1.84874E-01 1.02304E-01 3.38340E-02 1.34529E-01
 -1      3383-1.13782E+00-4.17418E-01-5.25169E-01 2.73673E-01-1.29613E-01 3.80716E-01
 -1      3384-5.85156E-02 3.39511E-02 4.18123E-02 4.20712E-02-5.92154E-02-3.93958E-02
 -1      3385-5.81873E-02-1.21120E-01 1.35794E-01-4.65143E-02-9.94890E-02 8.22679E-02
 -1      3386 0.00000E+00 0.00000E+00 0.00000E+00 0.00000E+00 0.00000E+00 0.00000E+00
 -1      3387-4.80624E-03 9.22529E-02 8.27107E-02-3.53508E-02-2.00693E-02-1.08766E-02
 -1      3388 2.08149E-01-1.54670E-01-2.21598E-01 2.22173E-01 1.00371E-01 1.39333E-01
 -1      3389-8.08207E-02-1.71297E-01-5.05877E-02 6.76432E-02 2.34762E-04-1.91328E-02
 -1      3390 1.99908E-03 1.17486E-01-1.53626E-02-4.12072E-02 3.44582E-02-2.92089E-03
 -1      3391-1.70979E-01-3.26487E-01 1.94451E-03-5.34824E-02-9.15508E-04 7.08412E-03
 -1      3392-1.36853E-01 6.81506E-01 2.67100E-01 1.37585E-01-1.46745E-01 1.40371E-01
 -1      3393-3.40313E-01 5.70788E-01 2.61121E-01-1.51207E-01-2.42421E-01 4.85728E-03
 -1      3394-1.07658E-01-1.21678E-01-2.66855E-02-1.29446E-01 9.06168E-02 3.32880E-03
 -1      3395-9.73441E-02 7.52442E-03 5.31648E-02-1.21256E-01-4.32537E-02 6.28806E-02
 -1      3396-1.65885E-02-9.87899E-02-1.34148E-02-2.31126E-02 4.47371E-02 1.90189E-02
 -1      3397 5.44467E-01-8.43537E-02 1.16226E-01-1.15802E-01 1.39450E-02-2.49086E-01
 -1      3398 1.73688E-03-3.00260E-01-1.60144E-01-6.55936E-02 5.70626E-02 8.50490E-03
 -1      3399 1.23680E-01 6.63724E-02 8.85998E-02 1.53590E-01-2.70084E-03-1.78892E-03
 -1      3400-3.47330E-04-3.82801E-02 5.48319E-03-7.80589E-02 3.53601E-02-4.02691E-03
 -1      3401-8.87976E-02-2.63725E-01 1.65064E-02-5.20102E-02 3.72145E-02-3.16483E-02
 -1      3402-1.99386E-01 3.31172E-01 1.22198E-02 1.94968E-01 1.26632E-01 1.37845E-01
 -1      3403-1.51263E-01 3.31384E-01 4.92701E-01 2.80597E-01 1.15168E-01-2.85392E-01
 -1      3404 8.27615E-02 2.95175E-02 9.44288E-02-2.64181E-02 7.56025E-02-2.21612E-02
 -1      3405 2.39092E-03-6.81199E-02-2.62637E-02 8.88387E-04 1.48981E-02 2.17081E-02
 -1      3406 3.24475E-01-6.48077E-01-3.52207E-01-1.09745E-01-3.62347E-01-1.34835E-01
 -1      3407 5.51906E-02-4.42346E-01-7.03569E-01-4.05067E-01-8.78739E-02 5.57234E-01
 -1      3408 4.12436E-02-1.99442E-02-9.97868E-02-8.79237E-02-4.92511E-02-1.71424E-02
 -1      3409 3.97289E-02 9.94164E-02 1.83384E-02-3.38813E-02 2.50893E-02-2.50891E-02
 -1      3410-1.03634E-01 1.53497E-01 4.20298E-02 5.18190E-02 4.03144E-02-2.21944E-02
 -1      3411 0.00000E+00 0.00000E+00 0.00000E+00 0.00000E+00 0.00000E+00 0.00000E+00
 -1      3412-4.50773E-01 5.90528E-01 7.33546E-02-1.02206E-01-1.75291E-01-1.70381E-01
 -1      3413-5.06952E-01-2.22520E-01-4.15526E-03 1.91412E-01 2.15221E-02-2.71982E-01
 -1      3414 1.27533E-01-1.05603E-01-2.96318E-02 5.38975E-02 4.12731E-02-1.59943E-01
 -1      3415 1.25553E+00 1.06844E-01-1.58794E-01-1.09239E-01-3.57149E-02-1.65551E-01
 -1      3416 4.87679E-02-1.79217E-02-1.17864E-01 1.73041E-01-2.48551E-01 7.21247E-03
 -1      3417 2.77926E-01-6.65118E-02-4.03408E-01 1.43600E-01-1.16497E-01-4.00606E-02
 -1      3418 1.35728E-01-1.70323E-01-1.05530E-01 1.06972E-01-1.48798E-01 6.21276E-02
 -1      3419 4.97493E-01-5.20970E-01-3.51135E-01 1.81061E-01-2.07924E-01-7.66756E-02
 -1      3420 1.52928E+00-5.04163E-02-2.74436E-01-2.06920E-01 7.06855E-02-7.58584E-02
 -1      3421 6.34785E-01 3.11181E-02-3.26437E-01-1.40774E-01-6.22125E-02 5.07652E-02
 -1      3422-3.01892E-01-1.47667E-02 3.03035E-01-1.06599E-01-4.03454E-02 4.32698E-01
 -1      3423-2.50809E-02 2.21165E-01 2.75362E-01-2.99750E-02 3.54535E-01-7.41729E-02
 -1      3424-7.34407E-01 6.54836E-02 1.43473E-01-2.17043E-01 8.34086E-02 2.49667E-01
 -1      3425 2.66871E-01-8.12840E-02 1.68456E-01-1.66688E-01 1.54525E-01 4.09036E-03
 -1      3426 3.68965E-01 5.74046E-01 3.31238E-01-8.68163E-02 3.86880E-01 9.98786E-02
 -1      3427-1.15627E+00 5.31584E-01 4.92971E-02 3.23390E-01 2.05756E-01-1.83390E-01
 -1      3428-3.30095E-01 4.45428E-01 2.00797E-03-1.40699E-01-1.88446E-01-1.45537E-01
 -1      3429 1.16147E-01-5.50143E-02 7.59087E-03 1.98183E-02 9.70704E-02-6.44656E-03
 -1      3430-3.10197E-02 5.80737E-01 2.60215E-03-3.20548E-02 1.14899E-01-4.12523E-01
 -1      3431 2.75068E-03 5.47036E-02 3.15522E-02 3.82318E-02 7.51952E-03 1.41112E-02
 -1      3432-4.58445E-02-1.05912E-01-8.88352E-02-7.21139E-03 3.75052E-02 4.29589E-02
 -1      3433 2.56887E-01 1.37599E-01 3.99552E-02-1.39344E-02-6.79769E-03-7.14502E-02
 -1      3434 3.21064E-01-5.36644E-01-6.04828E-01-1.75826E-02-3.06050E-01-1.09092E-01
 -1      3435 2.95820E+00-7.68817E-01 4.69408E-01 2.20933E-01 9.80225E-02-7.67773E-02
 -1      3436 2.41553E-01-4.03210E-01-3.55035E-01-1.51964E-01-1.56220E-01 7.72920E-01
 -1      3437 1.92556E-01-8.25420E-02-4.70073E-02-2.25092E-01-1.17793E-01 6.40715E-02
 -1      3438-4.79848E-01-5.99325E-01-2.56468E-01 2.18594E-01-1.42902E-01 8.19420E-02
 -1      3439 7.75604E-03 2.70532E-03 1.75842E-02-7.61841E-02 1.14188E-02-4.58526E-02
 -1      3440-2.04090E-02-9.75433E-02 1.13468E-01-7.78697E-02 3.95774E-02-1.06652E-02
 -1      3441-1.22890E-01 8.01921E-03 1.10562E-01-7.96990E-02 3.11177E-01-8.40025E-02
 -1      3442-1.09436E+00 1.98346E+00 1.18019E+00-2.19552E-01 9.93881E-01-1.11333E-01
 -1      3443 0.00000E+00 0.00000E+00 0.00000E+00 0.00000E+00 0.00000E+00 0.00000E+00
 -1      3444 0.00000E+00 0.00000E+00 0.00000E+00 0.00000E+00 0.00000E+00 0.00000E+00
 -1      3445-7.36748E-01 1.57505E-01 1.64052E-01 1.01839E-01 2.37358E-01 9.23413E-02
 -1      3446-1.75050E+00 2.80495E-01-3.85592E-02 4.18400E-01 3.60285E-02-1.23402E-01
 -1      3447-9.59701E-01-4.79606E-01-7.02197E-01 3.59446E-01 9.11247E-02-8.86542E-01
 -1      3448-5.01779E-01-2.86134E-01-5.03637E-01 8.70478E-02 6.33445E-03-3.46797E-01
 -1      3449 6.87211E-02-1.23665E-01-2.87110E-01 1.89782E-02 7.90244E-02-5.00831E-01
 -1      3450 5.50387E-01-1.04028E-01 1.73903E-01 1.52331E-01 3.41906E-02-2.42055E-01
 -1      3451 2.90495E+00 9.18073E-01 1.34809E+00-2.97879E-02-1.85002E-01-7.74365E-01
 -1      3452 1.77427E+00 6.08741E-03 3.21646E-02-2.16610E-01 4.91697E-02-3.13087E-01
 -1      3453 1.87262E+00-2.91655E-01-4.90971E-01-4.54211E-01 1.55733E-01-2.26787E-01
 -1      3454 1.73978E-01-7.55541E-02-7.54177E-02-2.28375E-01 2.22739E-02 2.89242E-01
 -1      3455 1.11441E-02 7.44009E-02 3.80439E-04-1.15417E-01 9.47281E-03 1.37354E-02
 -1      3456 1.48755E-02 3.69332E-02-1.86545E-02-1.09371E-01 1.10615E-02 1.80155E-02
 -1      3457 1.37969E-01-4.99658E-02-2.18004E-03-1.70451E-01-5.65653E-04 2.57718E-01
 -1      3458-1.58168E-01-1.02013E-01-7.78536E-02-8.00730E-02 5.53654E-02 4.90552E-01
 -1      3459-7.29633E-01 7.24884E-03-6.03353E-02-4.41148E-03 2.67765E-02-2.89834E-02
 -1      3460-2.45640E+00 8.27624E-01 6.01070E-01 3.34005E-01-3.27403E-01 6.40823E-01
 -1      3461-1.78563E+00 8.52025E-01-2.26447E-01 8.40612E-02 1.18826E-01 4.16392E-01
 -1      3462-1.78342E+00 5.67447E-01 1.05836E+00 3.90604E-01-6.55378E-02 3.82365E-01
 -1      3463 0.00000E+00 0.00000E+00 0.00000E+00 0.00000E+00 0.00000E+00 0.00000E+00
 -1      3464 0.00000E+00 0.00000E+00 0.00000E+00 0.00000E+00 0.00000E+00 0.00000E+00
 -1      3465-4.54908E+00-1.17525E+00-6.04312E-01-3.83932E-01-4.88716E-01-5.52769E-01
 -1      3466-2.51614E-01 7.03296E-02 2.55505E-01 2.68854E-02 1.24134E-01-9.50278E-02
 -1      3467-6.46539E+00 4.11663E-01-6.35697E-01-1.11077E-01-1.90927E-01-4.85262E-01
 -1      3468-1.70178E+00-1.55698E-01-1.08505E-01 4.13740E-01-3.21175E-02-2.33133E-01
 -1      3469 6.75690E-01-1.37131E-02-2.15917E-01-2.07547E-01 1.89350E-01-1.43017E+00
 -1      3470 1.31252E-01-7.32198E-01-4.91937E-01-2.73264E-01-2.98720E-01-7.38788E-01
 -1      3471 3.60933E-01-7.33582E-01-1.15384E+00 1.04715E-01 2.32802E-01-1.12729E+00
 -1      3472 1.07471E+00-4.77964E-01-8.08862E-01 3.73005E-02-5.96229E-02-4.29348E-01
 -1      3473 1.40040E+00-1.71620E-01 4.22103E-02 4.36242E-01-1.00292E-01-1.58081E-01
 -1      3474 3.27649E-01-9.87257E-02 5.96822E-02 2.48761E-01-7.01704E-02-6.64987E-01
 -1      3475-2.17682E-01-1.05670E+00-1.67716E+00 2.40889E-02 1.59994E-02-7.84758E-01
 -1      3476 5.29299E+00 2.24237E-02-3.74029E-01-1.64335E-01 3.75310E-01-3.25346E-01
 -1      3477 7.25313E+00-3.05876E-01 7.31339E-02-3.26103E-01 2.68869E-01 1.37021E-01
 -1      3478 4.39523E+00 1.72790E-02 1.50226E-01 4.35356E-02 2.42314E-01 1.46582E-01
 -1      3479 4.07281E-01-1.07418E-01-4.04781E-01-8.86896E-02-2.64898E-01-4.96505E-02
 -1      3480 3.02168E+00-7.24505E-01-1.81172E-01 7.19138E-01-6.62276E-02 1.87947E-01
 -1      3481-4.51301E-01 5.05899E-01 2.74453E-01 1.02508E-01 1.90447E-01 6.21165E-01
 -1      3482-9.25335E-01-4.29417E-01-7.88300E-01-2.23486E-01 6.95291E-02 7.40985E-01
 -1      3483-1.15249E+00 8.05701E-01 7.10415E-01-2.23533E-01-2.02365E-01 3.59570E-01
 -1      3484-1.32520E+00 3.47774E-01 2.41131E-01-4.24786E-01-4.07800E-02 1.75494E-01
 -1      3485-9.41837E+00-2.88609E+00-8.93479E-01 1.48368E+00-8.46221E-01 8.92729E-01
 -1      3486 0.00000E+00 0.00000E+00 0.00000E+00 0.00000E+00 0.00000E+00 0.00000E+00
 -1      3487 0.00000E+00 0.00000E+00 0.00000E+00 0.00000E+00 0.00000E+00 0.00000E+00
 -1      3488-9.12872E-01 7.51558E-01 7.90322E-02 3.79194E-01-1.64324E-01-2.35404E-01
 -1      3489-2.05401E-01-6.85403E-01-1.89680E+00 2.39719E-01 6.62311E-01-4.59297E-01
 -1      3490-9.04505E-01 5.00195E-01 6.29858E-01 1.52059E-01-2.49296E-01-3.11942E-01
 -1      3491-1.27185E+00-4.86434E-01-8.77856E-01-1.69174E-01 4.47163E-02-4.71282E-01
 -1      3492-2.43727E+00-1.39800E+00-1.62225E+00-1.68174E-01 1.48295E-01-7.04045E-01
 -1      3493 3.19386E-01 5.45814E-01 6.98392E-01 4.70561E-02-1.92167E-01-1.23010E+00
 -1      3494 9.77368E-01 5.39684E-01 1.16886E+00 3.40366E-01-1.36396E-01-8.39417E-01
 -1      3495 1.73776E+00 7.80923E-01 1.56654E+00 5.01669E-01-2.00737E-01-8.80332E-01
 -1      3496-6.69940E-01-1.87293E-01 1.16102E+00 1.56937E-01-3.10854E-01-1.71107E+00
 -1      3497 1.62243E+00-2.69278E-01-2.01103E-01 5.47163E-01-9.69938E-02-1.92712E-01
 -1      3498 3.46855E+00-2.90079E-01-1.42026E-01 4.73050E-02 3.35110E-02-6.65506E-01
 -1      3499 3.86376E-02 6.18722E-04-3.89526E-01 1.89596E-01-2.44337E-01 2.54842E-02
 -1      3500 2.23417E+00-1.28291E-01-1.29260E+00-3.32469E-01 2.86305E-01-3.12630E-01
 -1      3501 1.74489E+00-2.64006E-01-3.39022E-01-2.75088E-01 1.56186E-01-6.27659E-01
 -1      3502 1.57355E+00-5.31508E-02 5.91558E-03-4.27128E-01-4.93099E-02 6.97425E-01
 -1      3503 8.58100E-01-9.83238E-01-1.83970E+00 2.47316E-01 2.23229E-01 1.20900E+00
 -1      3504 1.48317E+00 6.90881E-01 1.05042E+00-3.15809E-01-1.77853E-01 9.19770E-01
 -1      3505 1.80453E+00 3.83619E-01 6.95060E-01-1.78263E-02-1.03633E-01 4.66832E-01
 -1      3506 6.29383E-01 5.70179E-01 1.09752E+00-7.91053E-02-7.28765E-02 8.79987E-01
 -1      3507-7.69765E-01-4.04476E-01-9.26895E-01-2.77239E-01 1.32449E-01 1.04411E+00
 -1      3508-1.78325E+00 1.79322E-01-4.46466E-01 3.66873E-01-2.82187E-01 6.49029E-01
 -1      3509-3.28472E-01-1.44232E-01 4.79226E-02-2.26149E-01 2.23235E-01-4.99998E-02
 -1      3510-6.30669E-01 1.88056E+00 3.31984E+00 2.94566E-01-1.45260E-01 5.99076E-01
 -1      3511-2.26070E+00 1.73499E-01 7.73719E-01 8.02124E-01-2.41405E-01 1.13718E+00
 -1      3512 0.00000E+00 0.00000E+00 0.00000E+00 0.00000E+00 0.00000E+00 0.00000E+00
 -1      3513 0.00000E+00 0.00000E+00 0.00000E+00 0.00000E+00 0.00000E+00 0.00000E+00
 -1      3514-5.21799E+00 3.66975E-01-4.77127E-01 1.85390E-01 4.48058E-02-8.17067E-01
 -1      3515-1.94235E+00 1.25200E-01-3.41902E-01 5.13323E-02 2.61174E-01-5.83221E-01
 -1      3516-2.82825E+00 2.24039E-01 7.23191E-01-3.15219E-01-5.33059E-01-1.02816E+00
 -1      3517-1.22839E+00-3.78075E-01-9.31872E-02 1.01398E-02-3.37153E-02-3.93057E-01
 -1      3518-8.83480E-01 1.46346E-01-4.05607E-01 3.70356E-02 9.25296E-02-4.44105E-01
 -1      3519-1.71133E+00 8.35987E-02 1.92656E-02-9.24769E-02-1.73792E-01-6.31180E-01
 -1      3520 7.26635E-01 2.02567E-01 2.08143E-01 6.83762E-02 9.81275E-02-1.62032E-01
 -1      3521 2.66918E+00-2.91010E-01-1.09410E-01 1.66193E-01 8.43976E-02-6.92025E-01
 -1      3522 3.78965E+00-1.34270E+00 3.04932E-01-1.59646E-01-2.13505E-01-1.22370E-01
 -1      3523 1.46723E+00 5.99693E-02 1.74578E-01-1.65398E-01-3.40977E-02 2.03848E-01
 -1      3524 1.63825E+00-4.06467E-01-9.20286E-02-1.13609E-02-2.03394E-01 6.90174E-01
 -1      3525 3.63869E+00-3.03276E-01-1.79033E-01 4.13504E-01 5.78512E-01 1.09560E+00
 -1      3526 4.97748E-01 8.21726E-02-1.16417E-01 3.69786E-02 3.28952E-02 1.02886E-01
 -1      3527-2.81876E+00 6.84411E-01-1.77040E-01-5.41435E-03-1.20077E-02 6.05661E-01
 -1      3528-7.57807E-01 1.18607E+00 1.73775E+00 1.59843E-01-3.46935E-01 1.28103E+00
 -1      3529-5.43182E+00-8.04652E-01-8.00366E-01-6.05187E-03-1.30226E-01 4.74010E-01
 -1      3530 0.00000E+00 0.00000E+00 0.00000E+00 0.00000E+00 0.00000E+00 0.00000E+00
 -1      3531-2.20454E+00-4.81103E-01 2.58583E-01-7.38469E-02-3.09938E-02-8.91746E-02
 -1      3532-2.14934E+00 1.74634E-01 6.92421E-02 1.05603E-01-7.92657E-03-3.88465E-01
 -1      3533-1.45349E+00-4.81513E-01-8.96989E-01-3.48556E-01-7.17067E-02-8.02854E-01
 -1      3534-9.48717E-01-2.84774E-01-4.46602E-01 3.86196E-01 8.71439E-02-8.86350E-01
 -1      3535 1.43264E-01-4.15266E-02-1.23105E-01 2.78942E-02-6.38901E-03-2.98893E-01
 -1      3536 2.04027E+00 2.95129E-01 2.73212E-01-9.81002E-02 1.66518E-01-8.57188E-01
 -1      3537 5.30175E+00-9.25042E-01-2.30014E-01-5.78437E-01 1.48722E-01-1.09397E+00
 -1      3538 1.88049E+00-4.61586E-01-3.28591E-01 2.82453E-01 7.26429E-02-2.47047E-01
 -1      3539 9.48219E-01-5.29587E-01-1.19894E+00-3.86831E-01 2.82196E-01-9.23715E-01
 -1      3540 2.09072E+00-2.06529E-01-1.08233E-01-5.00216E-02 9.52438E-03 3.79968E-01
 -1      3541 5.78022E+00-6.58640E-01-4.99400E-01 6.32866E-02 5.83343E-01 6.15565E-01
 -1      3542 3.05943E-01-3.22793E-01 1.55706E-01-5.95485E-03-6.26858E-02 7.09841E-01
 -1      3543-1.20886E-01-4.39232E-01 1.37450E-01 2.18963E-01-4.57055E-02 3.21850E-01
 -1      3544 2.71379E+00 2.64076E-01-1.91973E-01 2.95270E-01 2.27728E-01 3.77425E-01
 -1      3545 2.30821E-01 1.48950E-01-4.48879E-01 3.15624E-01 2.00101E-01 1.00785E+00
 -1      3546-4.24379E+00-9.94466E-02-3.70114E-03 5.71326E-02-2.60215E-01 5.99886E-01
 -1      3547-4.89573E+00 1.07600E+00 3.10479E-01-5.28931E-02-4.10766E-01 6.22371E-01
 -1      3548-2.55877E+00-5.09532E-01 4.14261E-01-3.32182E-02-9.71423E-02 1.57951E-02
 -1      3549-4.84277E-01 1.12414E+00 1.89122E+00 4.25339E-01-2.26555E-02 1.24362E+00
 -1      3550-6.42677E-01-2.63937E-01 7.28858E-02-7.23512E-02 6.22413E-02-1.44379E-01
 -1      3551-1.97806E-01-3.31188E-01-5.67370E-01-9.71520E-02 1.95936E-02-6.46868E-01
 -1      3552 5.58134E-01 1.16532E-01 3.64413E-01-4.63752E-02-9.21737E-06-3.12139E-01
 -1      3553 1.34615E+00-9.78453E-03 2.34459E-01 1.09603E-01-2.37297E-02-3.81708E-01
 -1      3554 1.86666E+00-2.36015E-01-1.91756E-01-2.35020E-01-4.21237E-02-2.14873E-01
 -1      3555 2.17037E+00 8.22849E-01 1.07810E-01 3.85973E-02-2.78896E-03 5.32797E-02
 -1      3556 5.04407E-01-9.17672E-02 1.08869E-01 2.09171E-03 1.76789E-02 7.42418E-02
 -1      3557 1.51637E-01-2.53497E-03-1.86424E-01 3.41844E-02 2.68145E-02 1.27743E-01
 -1      3558-7.94192E-01-1.47640E-01-3.71324E-01-3.02389E-02 2.72404E-02 3.18126E-01
 -1      3559 1.59875E-01 1.09694E+00 5.84095E-01 6.30488E-01-4.74138E-01 1.44866E+00
 -1      3560 0.00000E+00 0.00000E+00 0.00000E+00 0.00000E+00 0.00000E+00 0.00000E+00
 -1      3561 0.00000E+00 0.00000E+00 0.00000E+00 0.00000E+00 0.00000E+00 0.00000E+00
 -1      3562 0.00000E+00 0.00000E+00 0.00000E+00 0.00000E+00 0.00000E+00 0.00000E+00
 -1      3563-8.02220E-01-3.10684E-02 3.74725E-01 2.61331E-01-9.22417E-02-8.39556E-01
 -1      3564-7.09537E-01 1.23533E-01 4.50514E-01-2.88586E-03 6.33412E-02-5.36341E-01
 -1      3565-2.29336E-01 6.20587E-02 3.05808E-01-6.60171E-02 2.39977E-01-1.24857E+00
 -1      3566-1.60011E-01 6.62367E-02 1.07162E-01-9.93075E-02 2.67626E-03-2.32158E-01
 -1      3567-5.65455E-02 7.72957E-02 5.70641E-01 2.27140E-02 8.73458E-04-9.89920E-01
 -1      3568 2.45825E-02-7.59209E-02 5.25691E-01 3.40380E-02-4.56918E-02-7.92375E-01
 -1      3569 7.03279E-01 2.21682E-01 2.76548E-01-2.17069E-02-4.43383E-02-1.17377E-01
 -1      3570-5.44885E-01-1.60502E-01-2.45243E-01 2.65869E-01-1.27070E-01-9.87437E-01
 -1      3571 1.19508E+00-2.63326E-01-6.08739E-01 4.05711E-01-2.98596E-01-9.53015E-01
 -1      3572 1.54067E+00-2.28421E-02-1.13441E+00-4.72965E-01-2.85548E-01-5.16658E-02
 -1      3573 1.30955E+00 4.90423E-01-9.68640E-03-5.39452E-02 1.47083E-02 2.38883E-02
 -1      3574 1.52386E-01 4.83631E-02 2.62650E-01-2.73259E-01-3.23256E-01 1.24927E+00
 -1      3575-2.34419E-01-5.17183E-01-9.31046E-01 1.08540E-01 2.96801E-02 6.21418E-01
 -1      3576 1.90450E-01-5.48273E-02-3.60966E-01-5.61331E-02-8.15660E-02 7.83149E-01
 -1      3577 2.81946E-01-1.16828E-01-4.84054E-01 2.34034E-01-4.78542E-02 8.79454E-01
 -1      3578-1.57909E+00 5.80229E-02 6.65348E-01-9.61850E-02-2.56988E-02 9.44526E-01
 -1      3579 0.00000E+00 0.00000E+00 0.00000E+00 0.00000E+00 0.00000E+00 0.00000E+00
 -1      3580 0.00000E+00 0.00000E+00 0.00000E+00 0.00000E+00 0.00000E+00 0.00000E+00
 -1      3581 0.00000E+00 0.00000E+00 0.00000E+00 0.00000E+00 0.00000E+00 0.00000E+00
 -1      3582-4.20753E+00-9.23158E-01-2.09331E+00 8.24820E-01 2.36275E-01-1.17174E+00
 -1      3583-1.13918E+00 1.02154E+00 2.40067E+00 1.37102E-01 9.20566E-02-3.30388E-01
 -1      3584-1.08619E+00 6.35025E-01 4.13583E-01-2.51108E-01-8.40731E-02-2.33555E-01
 -1      3585-4.62526E+00 1.41626E+00 9.81445E-01 1.43209E-01 4.38858E-01-6.00737E-01
 -1      3586-3.50761E+00 5.24721E-01-4.55386E-01-3.78303E-01-6.54274E-02-8.29608E-01
 -1      3587-2.73220E+00-3.21036E-01-1.68054E-01 2.79865E-01 2.05050E-01-7.96972E-01
 -1      3588-4.21012E-01-6.48329E-01-3.94059E-01 1.22863E-01-2.61708E-03-2.96493E-01
 -1      3589 4.27016E+00 3.34417E-02-3.50283E-01 6.64226E-02-3.60924E-01-2.61040E-01
 -1      3590 3.54363E+00 1.97854E-01 5.76683E-01-8.31198E-02 5.76206E-02-7.03601E-01
 -1      3591 2.31188E+00-5.03746E-01-2.60010E-01 2.74838E-01 1.89824E-01-4.82264E-01
 -1      3592 6.62300E+00 8.40610E-01 7.82120E-01 2.52918E-01-2.14991E-01-5.48676E-01
 -1      3593 6.47840E+00 4.87268E-01 1.29978E+00 4.66573E-01-4.63744E-01-4.19230E-01
 -1      3594 1.81166E+00-6.57485E-02-7.21908E-02-2.04641E-01 2.52159E-02-3.16003E-02
 -1      3595 7.62412E+00-4.56083E-02-7.75178E-01 6.87027E-02-4.65015E-01-2.58025E-01
 -1      3596 7.67700E+00 3.38118E-01 1.86063E+00 2.59775E-01 9.74782E-02 2.26316E-01
 -1      3597 1.60596E+00-3.59895E-01-2.48497E-01-2.41059E-01-7.52575E-02 4.37770E-01
 -1      3598 1.80789E+00 1.61736E-01 1.22127E-01 4.45528E-01 1.32189E-01 9.05918E-01
 -1      3599 1.34034E+00-8.42444E-01-4.77910E-01 3.43231E-01-1.36443E-01 2.47879E-01
 -1      3600 6.39329E+00-5.22854E-01-2.06584E-01-4.34624E-02 1.40929E-01 9.83001E-01
 -1      3601 2.24785E+00-4.65224E-01 5.85576E-02-3.06737E-01-3.33552E-01 5.39911E-01
 -1      3602 5.19623E+00 5.21890E-02-1.31426E-01-7.39106E-02-4.63624E-01 9.75325E-01
 -1      3603-8.97648E-03-4.49832E-01-5.93165E-01-4.32201E-03-1.42460E-01 4.13243E-01
 -1      3604 1.11852E+00 1.63472E-01 9.99821E-02-2.65270E-02 6.95574E-02 4.04647E-01
 -1      3605 1.52958E+00-2.63845E-02-4.78081E-01-1.65854E-01-2.61929E-01 4.94861E-01
 -1      3606 1.07522E+00 4.60413E-01 6.74283E-01 4.20755E-02 1.14934E-02 7.22726E-01
 -1      3607-1.65706E+00 2.23345E-01-1.32861E-02-8.34182E-02 6.12383E-02 5.80059E-01
 -1      3608-1.39301E+00-1.21291E-01-3.83677E-01-1.92146E-01-8.89746E-02 3.04484E-01
 -1      3609 3.98598E-02 6.70258E-01 9.50157E-01 4.44902E-02 1.79046E-01 4.01946E-01
 -1      3610-2.51732E+00-5.66994E-01-8.96780E-01-1.25594E-01-3.17451E-02 5.84313E-01
 -1      3611-2.15197E+00 3.85153E-01-1.34643E-02-3.01205E-01-1.50998E-01 4.04237E-01
 -1      3612-7.80046E+00 5.38292E-02 1.02346E+00-6.82935E-02 3.85733E-01 5.56733E-01
 -1      3613-4.81306E+00 6.02020E-01-8.53933E-01-1.41399E-01-7.99818E-02 5.63544E-01
 -1      3614-7.67721E+00-1.69038E+00-1.36644E-01-1.20087E+00 2.18350E-01-3.31243E-01
 -1      3615-3.96139E+00-4.78504E-01-6.14350E-01-7.29499E-01-2.35735E-01 3.53931E-03
 -1      3616 0.00000E+00 0.00000E+00 0.00000E+00 0.00000E+00 0.00000E+00 0.00000E+00
 -1      3617 0.00000E+00 0.00000E+00 0.00000E+00 0.00000E+00 0.00000E+00 0.00000E+00
 -1      3618-3.71386E+00 8.10802E-01-4.24639E-01-1.04512E-01-5.22372E-01-9.78533E-01
 -1      3619-5.45078E-01-3.86920E-01-7.19824E-01-1.79394E-01-1.30533E-01-9.94260E-01
 -1      3620 2.65940E+00 2.54859E-01 1.83266E-01-3.58066E-01-5.31660E-02-3.34154E-01
 -1      3621 3.24585E-02 1.24842E-01 3.77800E-01 1.72321E-01 1.93377E-01 8.29037E-01
 -1      3622 0.00000E+00 0.00000E+00 0.00000E+00 0.00000E+00 0.00000E+00 0.00000E+00
 -1      3623 0.00000E+00 0.00000E+00 0.00000E+00 0.00000E+00 0.00000E+00 0.00000E+00
 -1      3624-7.90269E-01 6.56804E-02 7.39574E-01-2.82265E-01-1.04071E-01-6.75615E-01
 -1      3625-1.17204E+00-1.72420E-01-5.20995E-01-3.19726E-01-1.60599E-01-8.10287E-01
 -1      3626-1.36275E+00-6.82659E-02-2.08959E-01 5.57910E-01-6.38641E-02-8.51689E-02
 -1      3627 5.21104E-02 5.48732E-01 9.95684E-01-1.66297E-01 2.61888E-01-9.15986E-01
 -1      3628 2.14543E+00 1.86061E-01 1.56849E-01 3.68856E-01-2.65105E-01-4.91681E-01
 -1      3629-1.89542E-01-3.82806E-01 2.83410E-01 3.68473E-01-8.68013E-02-6.44633E-02
 -1      3630 8.90967E-01 7.00732E-01 1.78855E+00-9.26530E-02 9.77373E-02-8.41456E-01
 -1      3631 6.86352E-01-2.21807E-01-2.34730E-01-1.19641E-01 5.51966E-02-1.90479E-01
 -1      3632 1.08955E+00-2.52042E-03 7.39833E-01-1.72655E-01 1.50646E-01-1.05350E+00
 -1      3633-8.52242E-02-9.63232E-03 4.31136E-01-2.93673E-01 6.60599E-01-1.01401E+00
 -1      3634 6.67132E+00-8.68227E-01-5.65562E-01-5.10687E-01-5.16006E-01-3.05814E-01
 -1      3635 8.32312E-01 1.11941E-01-6.12426E-01 2.27714E-01 8.45572E-02 2.27017E-01
 -1      3636 1.58896E+00 2.55738E-01 8.20434E-01 3.79925E-01 1.01876E-01 1.00233E+00
 -1      3637-7.14590E-01-3.21796E-02-1.49115E-01 2.05707E-01 7.10583E-03 2.30666E-01
 -1      3638-7.57442E-01-5.79652E-01-1.36254E+00 2.59913E-01-8.01949E-02 9.02885E-01
 -1      3639-5.64676E-01 2.43191E-01 2.26356E-01 2.58684E-01-7.76041E-02 1.49852E-01
 -1      3640-1.77852E+00 9.37749E-01 2.17113E+00-9.78093E-01 2.07320E-01 1.24713E+00
 -1      3641-5.56374E+00 1.26609E-01-6.24910E-01-1.96566E-01-2.57034E-02 4.17560E-01
 -1      3642-1.09884E+00-1.51875E-01-1.03476E-01 3.26384E-01-1.27395E-01 5.01461E-01
 -1      3643-1.68013E+00 1.57167E-01 5.82713E-01-3.77108E-01-9.37995E-02 1.48200E-02
 -1      3644-6.23804E+00 8.01328E-01 3.86786E-01 1.62509E-01 4.91646E-01-7.25697E-01
 -1      3645-4.56242E-01 1.57490E-01 2.19949E-01-1.63628E-01-1.99720E-01-2.57478E-01
 -1      3646-2.61511E+00-2.99193E-01-4.19484E-01 3.46990E-01 2.08979E-01-7.89394E-01
 -1      3647-1.56026E-01-1.45881E-01-1.16949E-01-1.79278E-01-1.67046E-03-2.36478E-01
 -1      3648-2.64887E-03-2.13709E-01-4.69740E-01-7.44633E-02-8.09636E-02-2.44926E-01
 -1      3649 4.54359E+00-2.20470E-01 3.08606E-01-1.75980E-01-2.61914E-01-9.29375E-01
 -1      3650 4.57708E+00-1.85626E-01-3.16110E-02 5.75629E-01 8.07320E-02 4.12096E-02
 -1      3651 1.97262E-01-1.59220E-01-5.01640E-01 8.33764E-02 1.14548E-01-5.59343E-02
 -1      3652 3.68360E-01-6.30312E-02-2.45684E-01 1.52915E-01 5.18044E-02 2.99599E-01
 -1      3653-1.26517E+00 8.95450E-02 1.13183E-01 9.45622E-03-7.46169E-02 4.32892E-01
 -1      3654-1.84172E-01 3.73030E-01 1.53741E-01-2.23434E-01-1.43034E-01 2.75614E-01
 -1      3655-2.32823E-01-1.33021E-01-3.63519E-01 2.45999E-01-5.81080E-03 4.72585E-01
 -1      3656-4.02096E-01 1.37923E-02 3.30725E-01 2.58541E-01 4.15682E-02 6.46183E-01
 -1      3657 0.00000E+00 0.00000E+00 0.00000E+00 0.00000E+00 0.00000E+00 0.00000E+00
 -1      3658 0.00000E+00 0.00000E+00 0.00000E+00 0.00000E+00 0.00000E+00 0.00000E+00
 -1      3659-1.54008E+00 7.78838E-01 6.81873E-01 1.20074E-02-2.00540E-01-5.89148E-02
 -1      3660-1.27824E+00 7.92830E-01 1.41707E-01-1.27788E-02 7.59882E-02 2.62188E-01
 -1      3661-4.36113E-01-1.88531E-03 8.96119E-02-9.69569E-02-6.42110E-03-4.01294E-01
 -1      3662-9.19060E-01 5.11793E-01 2.76559E-01 9.83929E-02 5.68156E-02-9.90553E-01
 -1      3663 9.86495E-02 2.24168E-01-4.05725E-02-8.87025E-02-3.47067E-02 4.51346E-03
 -1      3664 5.49090E-01-1.17704E-01-4.14496E-01-8.71273E-02-1.93158E-03-2.31592E-01
 -1      3665 4.95479E-01 2.38887E-01-2.69271E-02-1.24632E-01-1.47243E-02 1.21937E-02
 -1      3666 2.18143E+00-3.22472E-01 3.48401E-02-5.84831E-02 4.17127E-02-9.13257E-01
 -1      3667 2.28229E+00-1.26865E-02 2.18058E-01 4.11223E-01 6.90631E-02-4.47026E-01
 -1      3668 6.58167E-01-4.99094E-01-2.42262E-01 3.49934E-02-8.09514E-02-1.50887E-01
 -1      3669-1.06500E-01-6.20542E-01-1.90145E-01-4.93013E-02-6.56688E-02-9.64050E-02
 -1      3670 9.20622E-01 7.39608E-01 5.17051E-01 1.40940E-01 2.01211E-01 2.48003E-01
 -1      3671 4.90153E+00-4.73646E-01-2.43920E-01-5.09562E-01-6.01801E-02-1.05248E+00
 -1      3672 1.52453E+00-3.48953E-01-2.28957E-01-1.03196E-01 5.99601E-02 1.02273E-01
 -1      3673 1.47283E-01-5.25489E-02-7.26049E-02 9.85219E-02 9.66020E-02 3.99832E-02
 -1      3674 9.95777E-01-7.80999E-01 6.24392E-02-8.98125E-02 2.25985E-01 4.80192E-01
 -1      3675 4.61952E-02-3.51559E-02-3.34230E-01 2.28096E-01-3.18017E-02 2.10498E-01
 -1      3676 1.50961E-03-1.91185E-01 4.63416E-02-3.26995E-02 1.11980E-01 7.88651E-02
 -1      3677 1.86609E-02 3.16840E-02 5.64012E-02 1.52002E-01 3.17361E-02 6.37576E-02
 -1      3678-7.10202E-02 8.69272E-02-3.48959E-02-4.64526E-02 3.64135E-02 1.14974E-02
 -1      3679-4.26963E+00 5.76422E-02-5.68479E-02-3.12697E-01 4.08081E-02 7.75620E-01
 -1      3680-1.78287E+00 2.62406E-01 2.58717E-01-4.76320E-01-4.05851E-01-1.87268E-01
 -1      3681-4.22331E-01-1.54417E-01-1.12645E-01-1.53491E-01 6.58162E-03 2.19158E-01
 -1      3682-1.48648E-02 2.34214E-02-3.87187E-02 2.44691E-02 1.80651E-02 3.24969E-02
 -1      3683-5.11327E-01-2.77978E-01-9.56102E-03 5.65436E-02-1.66824E-01-1.33863E-01
 -1      3684-3.03048E-02 4.02899E-01 6.29431E-03-2.09011E-01-4.25288E-01-4.22130E-02
 -1      3685 4.96416E-02 2.22915E-01 3.57144E-01 2.19310E-01-8.26380E-02-1.07514E-02
 -1      3686-6.59976E-02 1.13321E-02 1.73807E-01 4.00015E-02-1.15498E-01 2.61016E-02
 -1      3687-1.06239E-01 2.16841E-02-1.96606E-01-3.20765E-02 4.57476E-02 2.31397E-02
 -1      3688 6.74725E-02-1.82148E-01-3.89933E-01-1.93065E-01 1.66322E-01 1.57406E-01
 -1      3689 3.17001E-02-3.63131E-01-1.40569E-01-1.65201E-01-7.36740E-02-9.40956E-02
 -1      3690 1.45567E-02-1.31470E-02-5.75272E-02 1.58750E-02-5.58225E-02-4.39994E-02
 -1      3691 8.69782E-02-4.94070E-02-2.46915E-02 1.07915E-01-1.15807E-03-2.04719E-02
 -1      3692 2.25300E-02-7.22020E-02 2.94559E-02-1.71366E-02-8.98592E-03-1.84338E-02
 -1      3693 5.32610E-02 4.26846E-01 1.22005E-01 1.94160E-01-6.26971E-02-7.29551E-02
 -1      3694 4.77764E-02 1.62358E-01 1.32156E-02 1.51873E-02 1.80492E-02 3.32981E-02
 -1      3695 8.29794E-02 1.80372E-02 1.47049E-02-2.83701E-03-5.16561E-02-1.83103E-02
 -1      3696 3.02898E-02-1.39993E-01-9.96661E-02-7.07669E-02 8.44849E-03 8.53301E-03
 -1      3697 1.78351E-01-2.13321E-02-2.26608E-02-5.58413E-02-5.43474E-02 8.18094E-02
 -1      3698 1.27851E-03 7.53164E-02-2.58805E-03 3.70966E-02-2.32979E-02-9.29176E-04
 -1      3699 2.84698E-01 4.53175E-02 2.11108E-01 8.35083E-02 6.61830E-02 5.80601E-02
 -1      3700-1.07072E-01-1.53200E-01-1.11543E-01 3.34183E-02 5.82716E-03 3.70838E-02
 -1      3701-1.09477E-03-7.94795E-03-1.01895E-02 1.89817E-01-6.60386E-02-3.09608E-02
 -1      3702 8.87637E-02-7.86776E-04-2.58301E-01 8.55276E-02-8.55890E-02-4.00631E-03
 -1      3703 2.67597E-02 3.28585E-01 8.45714E-02-1.26757E-01 8.66992E-02 1.16292E-02
 -1      3704-3.05949E-01 7.49723E-02 1.00579E-01 2.36160E-02 1.56216E-02-6.63253E-02
 -1      3705-9.01802E-01-3.11354E-01-1.39845E-01-3.95768E-02-9.27838E-02 1.49299E-01
 -1      3706 6.23241E-02 7.00529E-02 1.50730E-01 1.86751E-01-4.47094E-02-1.52356E-02
 -1      3707 3.24260E-03 8.34611E-02 7.78413E-02 7.46982E-03-3.39025E-02-2.43868E-02
 -1      3708 1.29602E+00 5.17494E-02-8.64526E-02-7.27420E-03-2.57575E-02-8.86794E-02
 -1      3709 3.50757E-01-1.07760E-01-1.44213E-01-6.85601E-02-5.87234E-02-2.99826E-02
 -1      3710-4.13864E-04 3.44854E-01-6.87931E-02-3.78170E-02-2.18174E-02 2.19965E-01
 -1      3711 4.26372E-01 1.20241E-01-2.70923E-01-1.06389E-01-4.40870E-02 1.53438E-01
 -1      3712 1.70596E-01-1.67941E-01-2.81341E-01 9.81669E-02-8.19640E-02-2.93787E-01
 -1      3713 1.26190E-01 1.75970E-01-2.95602E-01 4.07195E-02 1.81610E-02 7.30540E-02
 -1      3714 2.15016E-01 2.09591E-01-2.87748E-01-1.27027E-01-2.09487E-01 5.05761E-02
 -1      3715 1.71370E-01 6.26836E-02 8.14417E-02-1.19774E-01-9.50698E-02 8.19898E-02
 -1      3716-5.90348E-01-4.94080E-02 2.56357E-01-1.64047E-01-1.19078E-02 2.03053E-01
 -1      3717 8.46956E-02-4.34873E-01 3.32252E-01-1.46506E-01 2.06014E-01-1.81587E-02
 -1      3718-1.15276E-01-3.59004E-01 3.65268E-01 9.85923E-02 2.18336E-01 1.21253E-02
 -1      3719-8.04348E+00-3.58952E+00-6.22533E+00 3.32090E-01 4.72057E-01-2.15446E+00
 -1      3720-6.10623E-01 5.72341E-01 1.49852E-01 1.01358E-01-1.40286E-01-2.24882E-01
 -1      3721-3.17729E+00 1.03561E+00 1.09248E-01 1.62651E-02 1.41410E-01-1.05840E-01
 -1      3722-3.40523E-01 3.62950E-02-1.21232E-01 7.88145E-02-5.04044E-02-5.29635E-02
 -1      3723 8.83438E-01-2.64839E-01-1.03694E+00-2.88273E-01 3.69721E-02-4.98653E-01
 -1      3724 1.48761E+00-7.23733E-01-4.86505E-01-1.61586E-01 3.14868E-02-3.29605E-01
 -1      3725 2.36169E-01 2.97409E-01-1.82949E-01-2.33630E-02-2.61997E-01 5.34594E-02
 -1      3726 1.37848E+00-1.19790E+00 5.96187E-01-6.52295E-01-4.40011E-01-1.63592E-01
 -1      3727-9.36930E-02-2.01486E-02-3.20570E-01-2.91907E-02-4.81502E-02-7.14346E-03
 -1      3728-4.67458E-02 4.62264E-03 1.79038E-02-3.47663E-02-3.55759E-02-7.04858E-03
 -1      3729-1.17860E+00 4.22794E-01 4.05234E-01-1.80807E-02-6.11965E-02 6.18874E-01
 -1      3730-8.53713E-02-4.29810E-02 7.61063E-02 1.82259E-02 6.51763E-03-2.46026E-02
 -1      3731-1.29535E+00-3.94460E-03 8.08193E-01 4.80422E-01-1.62582E-01 5.24871E-01
 -1      3732-3.63034E+00 8.01945E-01 5.00424E-01-2.42508E-01-1.25502E-01 1.24111E+00
 -1      3733 0.00000E+00 0.00000E+00 0.00000E+00 0.00000E+00 0.00000E+00 0.00000E+00
 -1      3734-1.01955E+00 1.19684E-01-1.36900E-01 2.57412E-02-5.24032E-03-3.45316E-01
 -1      3735-5.26271E-01-1.91461E-04 2.25091E-02 2.67451E-01 4.83233E-02-2.98362E-01
 -1      3736-7.07082E-01-3.59768E-01-8.47403E-01 1.58767E-01 5.81739E-02-7.90510E-01
 -1      3737-2.70529E-01-1.85345E-02-2.09712E-01 9.66345E-02-5.75954E-02-4.55755E-01
 -1      3738 1.60404E-02 1.19259E-02 1.20411E-02 4.85366E-02 3.23025E-02-3.82864E-01
 -1      3739 3.15162E-01-5.89500E-02-1.46380E-01 5.40077E-02-6.42720E-02-3.78886E-01
 -1      3740 7.15198E+00-1.64005E-01-1.93202E-03-2.50049E-01 1.63837E-01-1.45241E+00
 -1      3741 5.06516E+00-7.06305E-01-5.37393E-01 1.60771E-01 2.38113E-01 3.39852E-01
 -1      3742 6.96915E-01-2.31926E-01 5.62770E-01-1.01727E-01-1.42004E-02 9.89424E-01
 -1      3743 7.54852E-01-1.20245E-01 5.48185E-02-1.03542E-01 3.02023E-02 4.30592E-01
 -1      3744 1.59888E+00-3.53567E-01-1.45205E-02 6.71713E-01-1.07177E-01-7.73224E-01
 -1      3745 7.27679E-01 2.51390E-01 3.02733E-01-1.29555E-01-8.74838E-02 5.74862E-01
 -1      3746 4.31862E-01 1.44488E-01 1.65592E-01-2.10689E-01 1.15880E-02 2.81537E-01
 -1      3747 3.20651E-01-1.56948E-02-1.80463E-01-1.15653E-01 4.01108E-02 3.67541E-01
 -1      3748-2.97221E-01-2.21013E-02 1.03599E-02-1.28289E-02 3.94734E-02 2.00690E-01
 -1      3749-4.86014E+00 3.82647E-01 1.51356E-01 1.03546E-01 6.25028E-02 7.00418E-01
 -1      3750-2.39273E-01 3.41086E-01-3.19997E-01-1.60820E-01 1.26399E-01 8.36472E-01
 -1      3751 0.00000E+00 0.00000E+00 0.00000E+00 0.00000E+00 0.00000E+00 0.00000E+00
 -1      3752-4.93198E+00-1.99709E-01-9.23485E-02-3.89455E-01-5.88254E-01-5.12572E-01
 -1      3753-7.80547E-02-8.06870E-02-3.63001E-01-3.97263E-02 1.83307E-01-8.28794E-01
 -1      3754 2.98301E-01-4.77206E-01-1.06625E+00 1.47741E-01 1.58011E-01-9.86356E-01
 -1      3755 3.29455E+00 9.73477E-01 1.38142E+00 1.01197E-01-8.51607E-03-8.10304E-01
 -1      3756 6.31369E-01-7.49514E-01-7.77619E-01 8.54407E-02-1.00009E-01-2.41730E-01
 -1      3757-1.22865E-01-3.46018E-01 2.25536E-01 2.29059E-01-2.56984E-01-1.51225E-01
 -1      3758 1.24398E+00-3.29003E-01 8.71887E-02 2.50485E-01-3.28001E-02-3.31680E-01
 -1      3759 1.01279E+00 8.46843E-02 1.31593E+00 2.17244E-01-1.88911E-02-7.02171E-01
 -1      3760 2.11755E+00-1.66458E-02-2.71881E-01-1.53442E-01 1.45088E-01-1.06278E-01
 -1      3761 6.66892E+00 1.02367E-01 1.13388E+00 2.60450E-01-1.03177E-01-2.05919E-01
 -1      3762 3.79511E-01-2.54260E-01 4.49959E-02 1.00796E-01-5.52886E-02 8.38043E-01
 -1      3763 1.20543E+00-1.76874E-01-3.51679E-01 2.47054E-04-6.02358E-02 2.80583E-02
 -1      3764-4.29343E-01 2.06335E-01 4.71519E-02-7.80428E-02 3.37893E-03 5.32400E-01
 -1      3765-2.61237E+00-6.07011E-01-7.85707E-01 4.27579E-02 8.57882E-02 6.29177E-01
 -1      3766-1.10354E+00-4.29979E-01-4.86252E-01 7.10068E-02-1.10116E-01 5.13423E-01
 -1      3767-1.00089E+00 8.49412E-01 1.10326E+00 1.66307E-01-2.19638E-01 9.54641E-01
 -1      3768 0.00000E+00 0.00000E+00 0.00000E+00 0.00000E+00 0.00000E+00 0.00000E+00
 -1      3769-1.79924E-01-1.43280E-01-1.26381E+00 4.19103E-01 4.09798E-01-3.27391E-01
 -1      3770-2.84006E+00 7.84876E-01 8.74834E-01 5.41212E-02-1.91063E-01-1.00993E-01
 -1      3771-2.70370E+00-1.58657E+00-1.97719E+00-2.81242E-01 2.41144E-01-6.76869E-01
 -1      3772 1.26133E-01 6.10554E-01 1.02210E+00-1.56379E-01-2.04182E-01-1.24550E+00
 -1      3773 7.09854E-01 3.60384E-01 1.29314E+00 8.81679E-02-6.15074E-02-1.01922E+00
 -1      3774 1.23380E+00 8.15087E-02 1.13559E+00 2.19525E-01 1.24525E-01-8.48796E-01
 -1      3775 1.86225E+00 3.51167E-01 9.32653E-01-3.07968E-01-9.58038E-02-1.01978E+00
 -1      3776 1.54002E+00-3.30038E-01-2.89279E-01 5.05408E-01-2.23221E-02-2.50908E-01
 -1      3777 2.18703E+00-4.61865E-01-9.68638E-01 4.50644E-01 1.57027E-01-5.18677E-01
 -1      3778-8.17631E-02 6.83222E-02-4.22639E-01 2.12998E-01-2.09227E-01-2.82895E-02
 -1      3779 1.16583E+00-3.16842E-01-1.45249E-01 2.84435E-01 1.11252E-01-5.70127E-01
 -1      3780 1.10919E+00-6.61091E-01-8.89472E-01-1.96520E-01 3.79028E-01-3.88275E-01
 -1      3781 2.61215E+00-2.66420E-01-6.52237E-02-3.17524E-01 4.80144E-02-2.13763E-01
 -1      3782 1.46449E+00-2.09434E-01 2.44751E-01 3.07348E-01 4.20364E-02 2.43463E-01
 -1      3783 2.11892E+00-2.69013E-01-2.92668E-01-1.10195E-01 1.41682E-01 4.34277E-01
 -1      3784 2.26385E+00 5.68710E-01 7.48982E-01-1.14033E-01-1.22389E-01 7.05019E-01
 -1      3785 1.03575E+00-4.45433E-01-1.91245E+00 2.07060E-01 4.50483E-01 8.92449E-01
 -1      3786 1.48708E+00 2.19746E-01 1.08200E+00-1.59955E-01-3.07079E-02 1.10584E+00
 -1      3787-8.38940E-01-9.77337E-01-1.34063E+00-6.45402E-02 2.39165E-01 4.33969E-01
 -1      3788-7.60482E-01-1.92239E-01-1.23020E+00-1.37438E-01 3.33443E-02 8.29446E-01
 -1      3789-4.56909E-01 5.66580E-01 7.73885E-01-1.29950E-01-2.05780E-01 3.47853E-01
 -1      3790-2.74925E+00-1.44774E-01-7.50665E-01 4.02824E-01-3.30207E-01 6.36912E-01
 -1      3791-1.77718E+00 6.63234E-01 3.63552E-01-1.98485E-01-9.89459E-02 2.40539E-01
 -1      3792-3.97753E-01-1.62402E-01 2.25662E-01-3.56137E-01 2.42321E-01-2.02358E-01
 -1      3793 0.00000E+00 0.00000E+00 0.00000E+00 0.00000E+00 0.00000E+00 0.00000E+00
 -1      3794-4.47872E+00 2.87564E-01-1.84045E-01 1.27530E-01-5.78855E-03-1.07438E+00
 -1      3795-4.28875E+00-2.60436E-01-2.57494E-01 2.11113E-01 7.87517E-02-7.48997E-01
 -1      3796-1.24261E-01 2.04097E-01 4.35320E-01 2.31522E-01-2.85117E-01-6.86404E-01
 -1      3797-1.40758E+00-1.46150E-01-4.39792E-01-1.65807E-01 6.47333E-02-6.26318E-01
 -1      3798-4.75939E-01 2.61362E-02-3.14843E-02-1.47702E-02 5.80347E-02-6.08086E-01
 -1      3799 2.90169E-01 8.18747E-01 8.23111E-01 2.21949E-01-1.53226E-01-7.29826E-01
 -1      3800 8.89665E-01 4.15718E-01 4.92444E-01 7.37140E-02 7.72685E-02-4.00968E-01
 -1      3801 3.85872E+00-3.01769E-01 4.98721E-01 1.34568E-01 1.85140E-01-8.86121E-01
 -1      3802 5.06379E+00 2.04884E-01 2.17786E+00 1.77841E-01-1.17358E-01 6.39803E-01
 -1      3803 4.02279E+00-1.57230E-01-2.98762E-02 1.94063E-01 2.30953E-01 7.43650E-01
 -1      3804 4.96476E-01-3.76966E-02 3.48970E-01-1.03869E-01-9.10761E-02 6.60318E-01
 -1      3805 9.79195E-01 2.15109E-01 3.16761E-01 5.70216E-02-5.59976E-02 6.19322E-01
 -1      3806 1.93452E-01-6.70662E-01-9.02091E-01-9.42618E-02 2.65730E-02 6.20651E-01
 -1      3807 2.87845E-01 5.41355E-02-1.94644E-01 6.53877E-02 1.91111E-01 1.07491E+00
 -1      3808-8.31676E-01 1.19469E+00 2.26325E+00 1.34668E-01-2.54401E-01 1.40252E+00
 -1      3809-2.25766E+00 9.31216E-01 1.44021E+00 1.83643E-01-4.98288E-01 6.60949E-01
 -1      3810 0.00000E+00 0.00000E+00 0.00000E+00 0.00000E+00 0.00000E+00 0.00000E+00
 -1      3811 0.00000E+00 0.00000E+00 0.00000E+00 0.00000E+00 0.00000E+00 0.00000E+00
 -1      3812-8.36664E+00-2.11660E+00-3.85457E+00-1.01190E+00-3.64252E-02-8.10510E-01
 -1      3813-7.43095E-01 5.20088E-02 4.60451E-02 1.18822E-01-3.00285E-01-1.25672E+00
 -1      3814-1.22738E+00-1.68523E-01 4.00896E-01-3.20134E-01-2.42279E-01-3.86998E-01
 -1      3815 3.84138E-01 5.49545E-01 1.81463E-01-2.43962E-01 1.71630E-01-4.01864E-01
 -1      3816-1.56456E+00 8.34419E-02 2.01743E-01-1.56165E-02-1.18389E-01-6.46068E-01
 -1      3817 1.98335E+00 2.30213E-01 1.56318E-01 8.44588E-02 8.48884E-02-6.54808E-01
 -1      3818 5.12946E+00-4.39880E-01 1.43808E+00 2.82107E-01-1.41757E-01-3.39120E-01
 -1      3819 5.66832E+00-1.28502E+00-4.91259E-01 4.81414E-01-1.38798E-01-6.47766E-01
 -1      3820 9.38677E-01-1.42168E-01-1.11414E+00 2.73143E-02 4.83938E-01 1.33022E+00
 -1      3821-1.74606E-01-6.02561E-01-4.37790E-01 7.56927E-02-1.68116E-01 5.78095E-01
 -1      3822 1.23322E+00-1.40714E-01-2.90807E-01-3.35211E-03 2.90947E-02 6.36285E-01
 -1      3823-2.35600E+00 7.62052E-01 2.79014E-01 7.45912E-02 3.60166E-01 4.12273E-01
 -1      3824-1.61595E+00 5.55865E-01 3.83390E-01 6.27063E-02-1.81503E-02 6.19429E-01
 -1      3825-6.02482E+00 3.07051E-01 3.00995E-02 1.27205E-01-2.94762E-01 7.63961E-01
 -1      3826-7.36931E+00-3.12336E+00-3.17324E+00-4.44884E-01 4.23023E-01 1.53353E+00
 -1      3827-1.59288E-01-9.50428E-02-1.33560E-01-6.65117E-02-1.35213E-02 1.63196E-01
 -1      3828 0.00000E+00 0.00000E+00 0.00000E+00 0.00000E+00 0.00000E+00 0.00000E+00
 -1      3829 0.00000E+00 0.00000E+00 0.00000E+00 0.00000E+00 0.00000E+00 0.00000E+00
 -1      3830 0.00000E+00 0.00000E+00 0.00000E+00 0.00000E+00 0.00000E+00 0.00000E+00
 -1      3831-1.18536E+00 5.52678E-01 2.29292E-01 2.30210E-01-3.66974E-01-2.71941E-01
 -1      3832 1.97945E-01 3.93732E-01 1.49189E-01-3.37111E-02-2.33321E-02-5.19103E-01
 -1      3833-3.72652E-01 9.78896E-02 1.44017E-03-2.92513E-01 2.18013E-01-7.57171E-01
 -1      3834 7.29710E-01 6.03839E-02 6.64339E-01 1.16791E-01-1.62969E-01-7.90669E-01
 -1      3835 4.57947E-01 2.89030E-02 2.70320E-01 4.99649E-02 7.52425E-02-1.40574E+00
 -1      3836 1.50724E+00 3.03358E-01-2.44240E-01 5.42109E-01-2.64430E-02 3.30137E-01
 -1      3837 7.24092E-01-3.18290E-01-7.88596E-01 1.77989E-01 1.70861E-01 3.29678E-01
 -1      3838-2.05015E-02-3.18081E-01 2.14235E-01 8.55776E-02 1.37391E-01 4.86856E-01
 -1      3839 3.94566E-01-1.78413E-01-1.40229E-01 3.67564E-01-4.09783E-01 1.19449E+00
 -1      3840-9.72639E-01-1.79889E-01-8.07010E-01 4.70944E-02 1.63206E-01 8.93436E-01
 -1      3841-4.42000E-01 2.89884E-01 8.35125E-01-1.25277E-02-3.44621E-01 1.21431E+00
 -1      3842-1.56434E+00-2.23432E-02-4.02223E-01-2.99016E-01-3.64428E-02 8.60309E-01
 -1      3843 1.32458E+00-3.25680E-01-7.66706E-01 1.09961E-01 4.23611E-01 7.56634E-01
 -1      3844 0.00000E+00 0.00000E+00 0.00000E+00 0.00000E+00 0.00000E+00 0.00000E+00
 -1      3845-1.53334E+00 4.65272E-01-1.64349E-02 9.87790E-02 1.97856E-01-5.47440E-01
 -1      3846-1.27776E+00 7.51073E-01 1.87241E+00 2.47552E-01 4.87484E-01-6.34075E-01
 -1      3847-4.39689E-01 3.14396E-01 3.21991E-01-1.24629E-01 5.63632E-03-6.83533E-01
 -1      3848-3.26389E-01 4.62636E-01 5.48005E-01 1.50060E-01 2.49610E-01-1.18619E+00
 -1      3849-1.10880E+00 4.88006E-01 1.13512E+00-2.29869E-01 1.27437E-01-1.22187E+00
 -1      3850 8.67329E-02 1.44990E-01 4.79412E-01-4.24533E-03 1.10828E-01-7.48868E-01
 -1      3851-7.61584E-02 2.70231E-01 8.98484E-01-8.29895E-02 2.26644E-01-7.59169E-01
 -1      3852-4.64757E-01-4.05854E-01-8.49667E-01 2.75851E-02-1.15865E-01-1.25045E+00
 -1      3853 1.41683E-02 2.88211E-01 5.96056E-01 7.91982E-02 1.50308E-03-1.23747E+00
 -1      3854-4.32872E-02-2.84836E-01 7.07507E-02-1.52234E-01 5.97604E-02-6.00149E-01
 -1      3855 1.18053E+00 2.02866E-01 1.45405E-01 7.48597E-02-2.11539E-01-1.23143E+00
 -1      3856 1.06903E+00-2.47703E-01 6.66843E-01-3.05900E-01 1.72379E-01-1.07852E+00
 -1      3857-4.27522E-02-1.00123E+00-9.19857E-01-3.52127E-01-3.49709E-01-2.11964E+00
 -1      3858 5.63222E-01-9.15773E-01-1.51567E+00 2.17750E-01-3.49315E-01-8.47327E-01
 -1      3859 6.93786E-01 1.19710E-01 2.50826E-01 6.32512E-02 1.95495E-01-1.12389E+00
 -1      3860 1.52630E+00-4.48650E-01-1.18832E+00-3.29243E-01-2.63866E-01 1.03418E+00
 -1      3861 2.85344E-01-3.98880E-01-7.05284E-01 1.62869E-01-4.13482E-02 2.37428E-01
 -1      3862 1.11574E+00-9.88170E-02-4.83402E-01-3.67711E-01-4.08835E-01 1.11390E+00
 -1      3863 8.01752E-01-3.03761E-01 2.28596E-01 1.97964E-01 3.92934E-02 5.84034E-01
 -1      3864 8.37089E-01 5.24373E-02 3.72577E-01-2.46232E-01 1.07578E-01 7.14951E-01
 -1      3865 5.37476E-01-3.22450E-02-1.65810E-03-1.02642E-01 8.81589E-02 1.08193E+00
 -1      3866 3.82244E-01 7.92665E-02-2.36428E-01 4.05980E-02-6.82278E-02 9.15562E-01
 -1      3867-2.74154E-01-2.74797E-01-5.49641E-01 2.68437E-02-1.25065E-01 6.68640E-01
 -1      3868 2.31361E-01 5.35095E-02-4.63886E-01 8.41916E-02 1.00844E-02 1.16346E+00
 -1      3869 1.37938E-01 3.47464E-01 1.65271E-01 2.19377E-01 9.58527E-03 5.69655E-01
 -1      3870-2.01290E+00-4.90113E-01-6.04663E-01-2.79653E-01 2.30711E-01 9.07707E-01
 -1      3871-1.27028E+00 2.73077E-01-6.60721E-01 2.68487E-01 3.99718E-03 7.90432E-01
 -1      3872-4.65447E-01 5.13386E-01 2.71250E-01 5.35970E-03-3.94525E-02 7.34646E-01
 -1      3873-3.16661E-01 2.50035E-01-1.69589E-01-2.42308E-01 1.22009E-01-1.57149E+00
 -1      3874-1.25190E-01-2.72479E-01-8.65079E-01-3.09366E-01-5.93257E-02-1.94282E+00
 -1      3875-4.27951E-01 6.58378E-01 7.37928E-01-2.84394E-01 1.93675E-01-1.68431E+00
 -1      3876 1.90155E-01 4.95370E-01 1.50173E+00-1.20083E-01 3.71671E-01-8.94252E-01
 -1      3877-1.39354E-01-9.17904E-01-2.73696E+00-3.34276E-01-1.52529E-01-1.85807E+00
 -1      3878 9.97277E-01-3.36301E-01-6.61493E-01-1.46670E-01-2.45256E-02 1.25561E+00
 -1      3879 5.81468E-02 1.12873E-01 7.58511E-01 1.22777E-01 2.32136E-01 1.68078E+00
 -1      3880-2.40838E-01-4.39260E-02 1.06667E+00 2.51333E-01 3.42032E-01 7.69165E-01
 -1      3881 1.67628E-02 3.55150E-01 8.37876E-01-1.56768E-01 1.70141E-01 8.87004E-01
 -1      3882 1.00004E-01 8.10490E-01 2.04824E+00 8.62769E-02 3.25244E-01 1.50672E+00
 -1      3883-1.28100E+00-6.81767E-02-5.45602E-01 1.01850E-01 2.60070E-01 4.72383E-01
 -1      3884 0.00000E+00 0.00000E+00 0.00000E+00 0.00000E+00 0.00000E+00 0.00000E+00
 -1      3885 0.00000E+00 0.00000E+00 0.00000E+00 0.00000E+00 0.00000E+00 0.00000E+00
 -1      3886 3.31368E+00 3.52607E+00 4.17737E+00-6.89807E-01-5.78498E-01-1.78225E-01
 -1      3887-2.52219E-01-6.89573E-01-9.70782E-01 1.29960E-02-4.53686E-01-7.01704E-01
 -1      3888-1.98262E+00 1.39069E+00-2.30524E-01 4.11337E-01-2.05754E-01-6.01589E-01
 -1      3889-1.45295E+00 1.76490E+00 1.48734E+00-1.61446E-01-4.91390E-01-1.42268E+00
 -1      3890-4.65605E+00 1.50653E+00 1.03937E+00-3.41789E-01 6.43915E-01-1.35046E+00
 -1      3891-2.71741E+00 1.43587E-01-2.69173E-01 7.22980E-02-2.58368E-01-5.53919E-01
 -1      3892-3.93258E+00 8.64096E-01 3.11403E-01-1.49730E-01 1.94374E-01-8.44751E-01
 -1      3893-3.32099E-01 1.58281E-01-8.35172E-02-6.49457E-02 3.40929E-02-5.64425E-02
 -1      3894-5.85514E-01 3.28253E-01 6.32984E-02-7.57813E-02-4.42582E-03-2.60201E-01
 -1      3895 1.07468E-01 2.47139E-01 1.07005E+00-7.23837E-02 3.76764E-01-5.30532E-01
 -1      3896 3.55732E+00-7.72477E-01 3.25455E-01-1.32589E-01 5.73165E-02-7.06243E-01
 -1      3897 8.59190E-01-7.87506E-01 5.26264E-01 1.34387E-02 4.59753E-01 5.45165E-01
 -1      3898-1.86212E-01-3.64160E+00-3.34637E-02-9.46012E-01 3.72446E-01-1.96653E+00
 -1      3899 3.58210E+00-1.44326E-01 3.99409E-01-3.18408E-02 4.93151E-01 8.47797E-01
 -1      3900 9.21141E-01-6.90108E-02 9.93955E-02 9.56472E-03-1.32087E-01 1.71715E+00
 -1      3901 1.25027E+00-9.82442E-02-1.30512E-01-5.50603E-02-2.33292E-01 5.20317E-01
 -1      3902-3.35963E+00 2.94883E-01-3.74666E-01-8.74801E-02-1.66649E-02 9.15391E-01
 -1      3903-1.19587E+00 2.65547E-01 2.10990E+00 7.03608E-01 2.24080E-02 2.10382E+00
 -1      3904-3.11342E+00 9.72377E-01 1.63436E-02-1.59683E-02 2.40349E-01 2.07979E+00
 -1      3905-5.04230E+00 7.97622E-02-6.80057E-01-2.15722E-01-1.67813E-01 5.35986E-01
 -1      3906-1.64340E+00 4.55198E-02 7.58205E-01 2.69159E-01 5.59379E-01 9.30830E-01
 -1      3907 0.00000E+00 0.00000E+00 0.00000E+00 0.00000E+00 0.00000E+00 0.00000E+00
 -1      3908 1.44530E-01 3.49364E-01 1.10666E+00-2.46760E-01 8.80101E-02-5.38333E-01
 -1      3909 1.14778E-01 1.23725E-01-7.38940E-02-1.15465E-01-1.58578E-01-1.07646E+00
 -1      3910 1.37292E+00-1.13234E-01 5.00490E-02-1.57427E-01-1.37451E-01-4.94634E-01
 -1      3911-2.88746E-01 5.51221E-01 2.01979E-01 1.63334E-01 6.87126E-01 7.54972E-01
 -1      3912 1.27310E+00-1.10157E+00-4.97596E-01 1.52281E-01-2.37414E-01 1.10436E+00
 -1      3913-9.04425E-02-1.77661E-01-1.13608E+00 1.78605E-01-2.49245E-01 3.39762E-01
 -1      3914-9.72362E-01-3.25637E-01-7.64234E-01 2.78796E-01-1.10590E-01 1.08494E+00
 -1      3915-1.41683E+00 3.61003E-01 6.80880E-01 6.49775E-02 2.65763E-01 9.32719E-01
 -1      3916-7.30026E-02 2.23017E-01-7.34473E-01 1.22581E-01 2.93445E-01 1.18781E+00
 -1      3917 0.00000E+00 0.00000E+00 0.00000E+00 0.00000E+00 0.00000E+00 0.00000E+00
 -1      3918-2.20556E-01 9.70440E-02 4.42203E-01 2.49225E-02-4.59904E-02-1.62487E-01
 -1      3919-2.71634E-01-4.59353E-01-1.80560E+00 1.49844E-02-3.95317E-01-7.15118E-01
 -1      3920 6.51832E-01 6.13188E-02 2.57535E-01-1.12291E-01-6.51800E-04-6.66027E-01
 -1      3921-1.41162E-01-6.14621E-02 3.69144E-01-2.80594E-01 2.48382E-02-1.63255E+00
 -1      3922 2.61613E+00-9.00871E-01-6.38269E-01 2.98073E-01 5.90325E-01 2.38594E-01
 -1      3923-9.42485E-01-4.86649E-02-5.84704E-01 3.00264E-01 1.80839E-01 1.10982E+00
 -1      3924 8.57381E-01 2.78667E-01 6.06047E-01 3.35156E-02-1.68671E-02 5.26438E-01
 -1      3925 2.01503E-01-2.24147E-02-1.58157E-01 2.16431E-04 9.80548E-02 1.01544E+00
 -1      3926 2.44320E-01-1.20928E-01 2.97263E-01-1.19459E-01-3.54718E-01 4.04125E-01
 -1      3927 1.59470E-01-7.60057E-02-4.93128E-02 1.30419E-01 8.01705E-02 1.33602E+00
 -1      3928-5.31797E-01-3.91004E-01-4.80811E-01 1.29507E-01 2.07780E-01 1.13892E+00
 -1      3929 1.05940E-01 1.38251E+00-1.06093E+00-1.16626E+00 1.20091E+00-1.63357E-01
 -1      3930-1.66734E-01-6.83570E-01-3.24367E-02-2.21382E-01 3.03354E-01 8.24573E-01
 -1      3931 7.57331E-02 5.42690E-02 2.12331E-01 9.24635E-02 1.22353E-01 4.37033E-01
 -1      3932-3.81228E-01 2.20650E-01 6.47678E-02-5.28669E-03-1.40596E-01 5.43794E-01
 -1      3933-8.89977E-01 5.49298E-01 4.37544E-01 2.50723E-01-5.20586E-01 4.23890E-01
 -1      3934 0.00000E+00 0.00000E+00 0.00000E+00 0.00000E+00 0.00000E+00 0.00000E+00
 -1      3935-1.17898E-01-3.69353E-02-1.31682E-01-2.23235E-01-1.92288E-01-8.99009E-02
 -1      3936-1.47481E-01 4.63478E-01 1.07499E-03-3.96784E-01-2.37437E-01-2.80382E-01
 -1      3937-6.21762E-02-1.20191E-01 1.52649E-01-8.72523E-02-7.56280E-02 1.08612E-01
 -1      3938-1.23340E-02-1.42203E-01 4.54790E-02-1.07719E-02 4.36244E-02 3.22348E-02
 -1      3939 4.29975E-02 1.73609E-01 1.30566E-02-2.50378E-02-4.61611E-03 8.29627E-03
 -1      3940 1.55530E-02 1.50748E-02-2.69895E-02-7.18773E-02 6.82240E-02-1.65474E-02
 -1      3941 1.06302E+00-8.73036E-01-4.06190E-01-1.14487E-01 3.53650E-01-5.45587E-01
 -1      3942-3.37866E-02-7.62145E-02-9.96722E-02 7.79004E-02 1.29842E-01 2.02341E-01
 -1      3943-1.07757E-01 6.64601E-02-8.06864E-02-2.96929E-02 9.40082E-03 8.95490E-02
 -1      3944 3.43427E-01 4.52692E-01 5.18193E-02-1.73929E-01 2.65539E-01-2.04484E-01
 -1      3945 2.29795E-01-1.04832E-01 2.74831E-01 3.97140E-01 3.35715E-01 2.63678E-01
 -1      3946-3.41938E-02-2.02737E-01-2.74024E-01 3.08752E-02 1.00990E-01-4.24290E-02
 -1      3947 6.67074E-02 7.19602E-02-7.59126E-03 1.39162E-02 1.21395E-02 2.82929E-03
 -1      3948-4.17429E-02-3.74070E-01-1.17575E-02-6.40203E-02 2.46662E-02-4.65294E-02
 -1      3949-6.65281E-02-2.08618E-01 2.32649E-01-9.44556E-02-1.69049E-01-5.59540E-02
 -1      3950 6.67305E-03-2.60828E-01 8.22122E-02-9.36629E-03-8.27491E-03-5.54823E-02
 -1      3951 1.05177E-02-5.94865E-01 9.27872E-02-6.90934E-04-5.64808E-02-1.33458E-01
 -1      3952-9.34248E-02 1.46025E-01 8.89354E-02 1.60760E-01-1.18743E-01 1.82685E-01
 -1      3953 0.00000E+00 0.00000E+00 0.00000E+00 0.00000E+00 0.00000E+00 0.00000E+00
 -1      3954 0.00000E+00 0.00000E+00 0.00000E+00 0.00000E+00 0.00000E+00 0.00000E+00
 -1      3955-1.23538E-01-4.48067E-01-1.75701E-03 2.82241E-02 6.66829E-02 2.37203E-02
 -1      3956 5.16991E-02-7.10161E-02 7.83187E-02-7.61636E-02 4.93894E-02 5.59170E-02
 -1      3957 5.39493E-02 9.96171E-02 1.55128E-02-9.86893E-03 4.40034E-04 9.31373E-03
 -1      3958-1.25522E-02 2.77075E-02-7.42931E-02-1.06265E-02-2.89168E-02-1.20995E-02
 -1      3959-3.64757E-02 2.52199E-02-5.12912E-02-4.74855E-02 9.82355E-03-3.75175E-02
 -1      3960 7.94314E-02 1.63884E-01-1.83489E-02-9.90695E-02 6.87545E-02-1.59284E-01
 -1      3961 1.84455E-01 3.26377E-01 7.86474E-02 8.62393E-02 1.61769E-01 1.40061E-01
 -1      3962-9.38722E-04 9.55606E-03-2.33471E-01-1.03541E-01-2.27704E-02-2.66829E-01
 -1      3963-3.75710E-02 4.43398E-01 2.77658E-01 3.19559E-01 3.67079E-01 1.03857E-01
 -1      3964 1.58229E-01 8.36037E-02-1.01130E-01 2.84053E-02-7.37653E-02-5.47781E-02
 -1      3965-9.16582E-02 9.86947E-02-2.11318E-01-1.14525E-02-6.15363E-02-6.85410E-02
 -1      3966-2.53138E-02 9.88493E-02-3.77653E-02-4.32112E-02 5.53486E-03-4.62066E-03
 -1      3967 3.73611E-03 1.05245E-01 7.18564E-02 2.78832E-02 1.99181E-02-1.54002E-02
 -1      3968-1.44447E-01-6.25668E-01-5.07226E-02 5.12500E-02-9.48390E-02-5.44008E-02
 -1      3969 4.83786E-03-7.87935E-02-1.27586E-03-2.84096E-02 1.97542E-02 9.89557E-05
 -1      3970 8.74464E-02 4.88112E-02-1.46412E-02-5.13135E-02-1.76061E-02-4.01181E-02
 -1      3971-3.85776E-02 1.15955E-03-9.49553E-02 1.26775E-01-5.50443E-02 6.34238E-02
 -1      3972 1.47663E-01 3.28443E-01-5.87842E-02 1.51043E-01-3.19389E-03 1.03037E-01
 -1      3973-9.24706E-02-7.56479E-02-9.78767E-02-4.49916E-02-1.27078E-02-9.52686E-03
 -1      3974-3.85464E-02 9.74170E-02-2.84849E-01-5.33276E-02-2.07852E-01 1.25025E-01
 -1      3975 3.61053E-02 8.86016E-02 2.00409E-02-1.20697E-02 3.46750E-03-4.25434E-03
 -1      3976-8.34658E-04-1.30743E-01 1.92048E-01-1.44668E-01 1.01078E-01-6.53664E-02
 -1      3977 8.07419E-02 1.72106E-02 1.38963E-01 8.45461E-03 6.90050E-02 6.24273E-02
 -1      3978 2.55586E-02-1.90989E-01 4.32996E-02 1.16390E-02 1.10484E-01 4.85371E-02
 -1      3979 1.09742E-01-2.02523E-01 1.59832E-01 2.74488E-02 9.75281E-02 4.76258E-02
 -1      3980-4.13855E-02-4.12715E-02-4.89924E-02 1.48653E-02-6.97779E-02-9.65688E-03
 -1      3981 0.00000E+00 0.00000E+00 0.00000E+00 0.00000E+00 0.00000E+00 0.00000E+00
 -1      3982 2.81188E-02 3.13627E-01 1.12474E-02 4.07727E-02 1.38558E-01 4.86005E-02
 -1      3983-4.07726E-01 5.70266E-02-1.40664E-02-6.47747E-02 1.26677E-01-3.72400E-02
 -1      3984 1.38521E-01 3.36791E-01-6.54673E-02-6.94555E-03 7.14032E-02-9.85221E-02
 -1      3985 2.35265E-02 4.19952E-02-7.98487E-02 3.17007E-01 2.13588E-01 1.71607E-01
 -1      3986-1.04950E-01 7.04141E-02-4.46701E-02 5.79799E-02-5.86969E-03 4.39430E-03
 -1      3987-4.49704E-02 9.29558E-02 8.55559E-02 4.43732E-02 1.17257E-01 1.11112E-01
 -1      3988-1.24213E-01 2.95783E-01-2.59609E-02-1.31337E-01-8.87000E-02-1.13813E-01
 -1      3989 4.32235E-02-4.63259E-01-3.18659E-01-1.46878E-01-7.89332E-02-3.29998E-01
 -1      3990-7.65914E-03 1.43386E-01 1.72062E-01 1.93991E-01 1.66346E-01 1.49884E-01
 -1      3991-7.25373E-01-4.49517E-01-9.72945E-01-7.28503E-02 1.14949E-01 4.38353E-02
 -1      3992-1.11121E+00 1.44807E+00-6.97286E-01 9.13371E-01 8.08728E-01-1.24738E+00
 -1      3993-1.07223E+00 3.07967E-01-1.65122E-01-1.02873E-01 1.74479E-01 3.75082E-01
 -1      3994-1.15932E+00 6.22905E-01 2.56257E-01 2.21453E-01-1.99476E-01-9.16630E-01
 -1      3995 9.51048E-01-1.50161E-02-2.22559E-01-3.88992E-01 8.32039E-03-1.95590E-01
 -1      3996 2.79178E+00-9.49617E-02 1.07183E-01 7.84043E-02-1.14535E-03-1.02519E+00
 -1      3997 2.26262E+00-1.02165E+00-3.08525E-01 1.28528E-01 3.81878E-01-1.14000E+00
 -1      3998 3.40121E+00-1.90416E+00-1.50901E-01-1.86759E-01-6.46295E-02-2.61790E-01
 -1      3999 1.98385E+00-1.60840E+00 3.54588E-01-1.92505E-01-1.03495E+00-1.10692E-02
 -1      4000 2.77725E+00-6.32452E-02 1.13310E-01 8.01073E-01-3.03283E-01 3.45716E-02
 -1      4001-2.93355E-01-3.58194E-01 5.24367E-02-2.69136E-02-1.43207E-01 2.94063E-01
 -1      4002 5.03312E-01-1.51776E-01 2.01796E-02 8.31914E-02-1.30834E-01 5.45732E-01
 -1      4003-6.55148E-01 2.69145E-01 5.15415E-02 1.03778E-01 1.06494E-01 4.48322E-01
 -1      4004-2.27783E+00-1.68680E-01 2.00257E-01 1.37025E-01-1.56995E-01 4.69973E-01
 -1      4005-1.54068E-01-1.67547E-01-8.15753E-01-1.92552E-01 4.21543E-01 9.19148E-01
 -1      4006-5.77636E-01-2.11824E-02 4.26529E-01-2.48553E-01-2.54293E-03 4.20357E-01
 -1      4007-2.99218E+00 1.00925E+00 8.21247E-01-3.31588E-01-7.52014E-03 1.20589E+00
 -1      4008 0.00000E+00 0.00000E+00 0.00000E+00 0.00000E+00 0.00000E+00 0.00000E+00
 -1      4009 3.09870E-01-1.68578E-01-1.67058E-01-1.36492E-02 3.66557E-01-6.87394E-01
 -1      4010-1.20574E+00-1.12252E-01-1.40006E-01 1.45449E-01 1.45180E-01-3.82668E-01
 -1      4011-7.73000E-01 6.82246E-02 6.30364E-02 1.68476E-01 2.44708E-01-1.31310E+00
 -1      4012-6.26388E-02-1.70443E-01 1.85745E-01 2.91503E-01 1.30715E-02-2.62821E-01
 -1      4013-4.85671E+00 2.60668E-01 6.45140E-01-3.63809E-01-5.65354E-01-8.94933E-01
 -1      4014-4.30388E-02-4.32204E-01-1.41502E+00 1.06699E-01 4.44300E-01-3.02160E-01
 -1      4015-1.97656E-01 3.56509E-01 6.61019E-01-9.04590E-02-3.19149E-01-1.20699E+00
 -1      4016-4.01351E-01-3.55642E-02 4.28728E-01 2.03009E-01-1.79599E-01-6.11865E-01
 -1      4017-1.90973E-01 5.57294E-01 9.89397E-02-1.91779E-02 2.17398E-01-3.61436E-01
 -1      4018 6.16939E-02 4.87378E-02 4.56306E-01 1.78755E-01-2.38891E-01-7.89550E-01
 -1      4019 1.34604E-01-2.64114E-01 2.07607E-01-2.30465E-01-1.31186E-02-4.53220E-01
 -1      4020 1.43063E-01 2.03559E-03 7.28977E-02-2.08686E-02 7.50540E-03-7.55916E-01
 -1      4021-3.09757E-02 2.11616E-01 7.38934E-01 1.68035E-01-4.80836E-01-1.13339E+00
 -1      4022 6.08277E-01 5.34043E-01 2.34879E+00-1.12083E-02-3.91354E-01-1.52700E+00
 -1      4023 2.28275E+00-3.60124E-01-2.65447E-01-7.91230E-01-4.74578E-02 1.02714E-01
 -1      4024-3.01860E-01-5.64616E-01-1.45230E+00 1.53983E-01-1.68021E-02-4.28716E-01
 -1      4025 1.36996E-01-7.84033E-01-1.74650E+00-1.38183E-01 1.01588E-01-1.60086E+00
 -1      4026 4.29531E+00-1.59328E+00 5.84116E-01-2.18368E-01-8.88382E-01 8.21525E-01
 -1      4027-2.47720E-01-5.04043E-02 1.25176E-01-8.85222E-02-2.37536E-01 8.07420E-01
 -1      4028-3.31718E-01 4.89257E-01 6.25972E-01-1.38567E-01-6.12674E-01 3.91602E-01
 -1      4029 7.50593E-01-3.48735E-01-3.28416E-01-1.69691E-01-5.73777E-02 2.18837E-01
 -1      4030 7.53088E-01-1.30005E+00 1.28582E-01-5.62049E-01-2.69130E-01 1.37885E+00
 -1      4031 5.25995E+00-1.28703E+00-1.14160E+00-1.16216E-01 4.76365E-01 3.43899E-01
 -1      4032-4.37778E-01 3.23763E-01 2.12178E+00-1.14893E-01-6.38777E-01 1.23934E+00
 -1      4033 1.10002E-01 2.38167E-01-2.21748E-01-3.11046E-01 6.11022E-02 8.30298E-02
 -1      4034 2.27499E+00-7.55307E-01-7.34559E-01 2.17278E-01 3.76057E-01 1.02921E+00
 -1      4035-8.07689E-01-2.31172E-01 3.31830E-01-5.30431E-01-7.72508E-01 2.54856E-01
 -1      4036-1.32701E-01 3.99309E-01 1.44779E+00-1.26307E-01-7.29864E-01 3.62627E-01
 -1      4037 7.10611E-02-2.14434E-01-8.75883E-01-1.82816E-01 8.68024E-02 5.91474E-01
 -1      4038-7.13435E-02-3.19624E-01 1.03231E-01 3.70854E-01-1.17141E-01-1.23426E-02
 -1      4039 1.24769E+00-2.08744E-01-4.19302E-01 8.38532E-02 1.05383E-01 5.78882E-01
 -1      4040 4.65376E-02-1.61425E-01-6.80574E-01-2.47930E-01 1.71411E-01 1.32523E+00
 -1      4041 2.10860E-03 5.50512E-01 3.55283E-01 2.13884E-01 3.19029E-01 3.43686E-01
 -1      4042 2.96159E-01 9.11664E-01 2.01817E+00-3.90516E-01-1.47976E-01 1.81425E+00
 -1      4043 1.80596E+00 1.79487E+00 1.28084E-01 2.36721E-01 3.01466E-01-1.25212E-01
 -1      4044-2.24089E-01 1.68168E+00 1.66681E+00-6.42604E-02-4.74886E-01 1.77865E+00
 -1      4045-2.73134E+00 2.11215E+00 8.51501E-01 3.25787E-01 8.71319E-01-4.36299E-01
 -1      4046 2.62575E-01 1.02289E+00 1.66783E+00 6.96476E-02 7.38562E-02 1.80965E+00
 -1      4047 0.00000E+00 0.00000E+00 0.00000E+00 0.00000E+00 0.00000E+00 0.00000E+00
 -1      4048 0.00000E+00 0.00000E+00 0.00000E+00 0.00000E+00 0.00000E+00 0.00000E+00
 -1      4049-1.92662E+00 2.63630E-01 1.41315E+00-4.36612E-01-2.14402E-01-9.97549E-01
 -1      4050-3.56385E+00 6.70978E-01-1.06157E+00 4.05792E-01 2.41020E-01-7.26013E-01
 -1      4051-2.75124E+00 1.53281E-01 1.31310E+00-8.74555E-02-3.13347E-01-1.26687E+00
 -1      4052-2.27189E-01-5.25065E-01-9.14831E-01 9.57799E-02 2.36532E-01-6.89852E-01
 -1      4053 1.65308E+00 1.48509E-01 4.58230E-01 4.40674E-01-1.17523E-01-5.74105E-01
 -1      4054-1.77156E-01-5.90050E-01-1.34909E+00 5.95130E-02 2.97710E-01 1.26588E+00
 -1      4055-2.03923E+00 1.46957E-02-5.52889E-01-5.62047E-01 2.69611E-01 8.02205E-01
 -1      4056-1.56768E+00-1.05201E+00-1.19250E+00 7.65710E-02-1.87689E-01 4.31056E-01
 -1      4057-8.92116E-02 1.08157E-01-6.36362E-01 3.30296E-02 1.07360E-01-3.32743E-02
 -1      4058-1.38572E+00-7.17100E-01-9.34088E-01 3.32654E-01 1.04020E-01-7.61716E-01
 -1      4059 1.57224E-01 5.99668E-01 5.14266E-02 1.69213E-01 1.87261E-01-3.93503E-01
 -1      4060 2.20746E-01-7.66280E-02-1.03443E-01 3.27636E-02-1.66779E-02-1.25995E+00
 -1      4061 1.06988E+00 9.26551E-02 1.18757E-01 1.20116E-01 2.03822E-01 9.59936E-01
 -1      4062 1.40082E+00-4.36088E-01-1.16967E+00 3.00587E-01 2.64704E-01 8.84230E-01
 -1      4063 1.98553E+00-9.16723E-02 2.03193E+00 1.52872E-01-3.11554E-02 3.91191E-01
 -1      4064 3.56852E-01-6.26469E-01-1.14287E+00-1.60105E-01 1.69249E-01 1.16180E+00
 -1      4065 2.64558E-01 3.82343E-02 8.17301E-01-5.98413E-02-1.38794E-01 6.39133E-01
 -1      4066 9.09577E-01 3.26151E-01 8.57560E-01 2.45999E-02-2.65357E-01 9.56129E-01
 -1      4067-1.47858E+00 3.04617E-01-3.40133E-01 1.47813E-01 1.18431E-01 2.81702E-01
 -1      4068-3.24196E-01 6.81931E-01 8.34893E-01-2.79354E-01 1.99702E-02 6.63799E-01
 -1      4069 4.70008E-02-2.68584E-01-7.63171E-01 1.41120E-01-1.02183E-01 1.51346E+00
 -1      4070-4.11082E+00 1.12840E+00 6.79806E-01-1.06991E-01 4.58007E-01 6.83237E-01
 -1      4071 0.00000E+00 0.00000E+00 0.00000E+00 0.00000E+00 0.00000E+00 0.00000E+00
 -1      4072 3.54910E-01 1.54423E-01 8.86432E-02-8.91337E-02 6.71932E-02-1.12836E+00
 -1      4073-7.79973E-01 6.22635E-01 1.15431E+00-2.94239E-01-3.27685E-01-1.15930E+00
 -1      4074-4.09257E-01 4.72882E-02-1.05929E-01 2.65739E-01-3.52860E-02-6.45137E-01
 -1      4075 4.55527E-01-1.22498E-02-2.96573E-01-2.88782E-01-1.79424E-01-1.55494E+00
 -1      4076-3.31875E-01-9.78645E-03-1.88818E-01 2.47553E-01 4.90066E-02-1.02399E+00
 -1      4077-1.02775E+00-5.63951E-01-1.06343E+00-9.01324E-02-1.47287E-02-1.07928E+00
 -1      4078 1.22958E+00 2.51829E-01 4.44858E-01-2.30783E-01 2.25225E-01-1.85694E+00
 -1      4079 6.99192E-01 1.55492E-03-2.58375E-02-2.68072E-01 9.64813E-02-1.48090E+00
 -1      4080 8.80979E-01 1.62274E-02 4.85671E-01 1.37849E-02 6.04343E-03-1.54735E+00
 -1      4081 9.11767E-02-2.90520E-02-2.28483E-01 6.77536E-02-1.51916E-01-6.67020E-01
 -1      4082 7.02012E-01-1.19440E-01-3.03758E-02 3.25322E-01-1.53595E-01-1.99315E-01
 -1      4083-4.92265E-01-2.22677E-01 1.14056E+00-1.58688E-01-5.00353E-01 1.88758E+00
 -1      4084 3.50081E-01 1.01855E-01 3.11610E-01-2.64940E-01-1.36828E-01 6.81866E-01
 -1      4085 4.09094E-01-2.40033E-01-4.95393E-01 3.18543E-02 1.47800E-01 1.01937E+00
 -1      4086-1.85146E-01-4.71129E-01-8.57289E-01 2.56563E-03 4.98661E-02 1.11638E+00
 -1      4087-5.05307E-01 2.05937E-01 8.80121E-01-3.11130E-02-2.55050E-01 1.45430E+00
 -1      4088-1.08506E+00 2.87130E-01-3.86318E-01-4.18728E-01-1.01065E-02 4.52856E-01
 -1      4089-5.21711E-01 1.55776E-01 1.29528E-01 2.91126E-01 5.15462E-02-3.85100E-01
 -1      4090 7.76126E-01-1.95648E-01 1.97850E-02 2.24437E-01-2.44376E-01-9.07692E-01
 -1      4091-3.61068E-01-3.41315E-01 6.43548E-01-2.13512E-02-3.80923E-01-1.69616E+00
 -1      4092 1.41213E+00-4.19147E-01-2.65423E-02-4.12619E-01 3.55569E-02 3.55033E-01
 -1      4093-5.73148E-01-3.07114E-02-4.55742E-01-1.68703E-01 2.19778E-01 1.41857E+00
 -1      4094-1.25358E+00 7.44517E-02-4.30399E-01-4.13484E-01 1.34553E-01 7.96638E-01
 -1      4095-1.61424E+00 4.77050E-01-5.92028E-01-5.73399E-01-6.89391E-02 7.82179E-01
 -1      4096-1.55183E+00 3.91196E-01-9.88504E-02-5.84376E-01-3.89119E-01-5.09740E-01
 -1      4097-1.40779E+00 5.41943E-01 1.30759E+00 3.84302E-01 3.06586E-01-1.47803E+00
 -1      4098-6.89494E-01 2.38359E-01 1.13001E-02-1.98263E-01-1.77432E-01-7.29583E-01
 -1      4099-3.04168E-01 3.37551E-01 6.48796E-01 1.86673E-02-2.45140E-02-1.09161E+00
 -1      4100-2.01610E-01-3.10221E-02 4.64111E-01-1.44005E-01-7.51445E-02-7.61015E-01
 -1      4101 6.11123E-01 8.18066E-01 1.23934E+00-2.28803E-01 3.47833E-01-7.42337E-01
 -1      4102-4.23167E-01-5.18725E-01-9.06766E-01-3.05654E-03-1.57536E-01-1.02144E+00
 -1      4103-3.08467E-01 4.68148E-03-5.02022E-01-8.53791E-02-5.40099E-02-1.00680E+00
 -1      4104 8.19818E-01-5.94413E-01-2.47396E-01 5.60117E-02-2.09855E-01-1.62021E+00
 -1      4105 2.23475E+00 1.01615E+00 2.33544E+00 1.59723E-01 2.02282E-02-1.42919E+00
 -1      4106 1.13388E+00-1.41327E-01 1.56892E-01-4.90917E-01 1.07873E-02-2.75497E-01
 -1      4107 4.82483E-01-1.16169E+00-2.07640E+00 2.15482E-01-1.06685E-01-1.33111E+00
 -1      4108 6.91624E-01-5.31896E-01-1.42757E+00-8.24164E-02-2.30244E-01 7.27231E-01
 -1      4109-1.47537E-01-4.04442E-01-8.77161E-01-7.36642E-02-1.77485E-01 8.83863E-01
 -1      4110 5.28538E-01 6.50652E-01 8.62762E-01 4.64885E-01 4.97499E-01 5.79561E-01
 -1      4111-1.09994E+00-4.97551E-01-6.69853E-01-5.34696E-02-3.51461E-02 1.16161E+00
 -1      4112-7.51408E-01 6.12167E-01 8.76373E-01-1.08064E-01 1.18082E-01 1.73129E+00
 -1      4113 4.03208E-01 1.48660E-01-7.57791E-01 2.61302E-02-8.94467E-02 1.30900E+00
 -1      4114-1.36251E+00 4.65880E-02-1.20598E-01 5.59838E-01-1.16107E-01 5.41752E-01
 -1      4115 0.00000E+00 0.00000E+00 0.00000E+00 0.00000E+00 0.00000E+00 0.00000E+00
 -1      4116-3.66565E-01-1.21507E-01-2.80462E-01 4.77644E-02-2.56240E-01-1.42912E+00
 -1      4117-5.86265E-01 3.99778E-02-1.04407E+00 5.19268E-01 1.83490E-01-1.91042E+00
 -1      4118-3.73841E-01 1.72765E-01 4.02914E-01-1.42977E-01-2.42714E-01-5.98163E-01
 -1      4119-4.72443E-01-4.84276E-01-1.86632E+00-2.18733E-01-4.38063E-01-1.64423E+00
 -1      4120 4.31315E-01-3.51504E-01-1.20231E+00 1.49271E-01-1.88476E-01-6.04273E-01
 -1      4121 3.47809E-01-8.75358E-01-1.16352E+00-6.21169E-02-5.73765E-02 1.01971E+00
 -1      4122 8.99415E-01 2.83497E-02 8.81081E-01-5.28533E-01-1.93593E-01 1.87176E+00
 -1      4123 3.74081E-01 2.63187E-01 1.76658E+00-2.77600E-01-4.22444E-02 2.01471E+00
 -1      4124 3.52277E-01-8.10024E-01-8.27743E-01-8.07879E-02-1.09456E-01 1.71790E+00
 -1      4125-6.56186E-02 2.82442E-01 1.63931E+00-5.14931E-02 4.35554E-03 1.32525E+00
 -1      4126 1.36688E+00 5.90329E-02-2.07837E-01 1.11732E-01-9.61167E-02 5.75713E-01
 -1      4127-1.24990E-01 6.10008E-01 1.82859E+00-1.05463E-01 1.18097E-01 1.32596E+00
 -1      4128 0.00000E+00 0.00000E+00 0.00000E+00 0.00000E+00 0.00000E+00 0.00000E+00
 -1      4129 0.00000E+00 0.00000E+00 0.00000E+00 0.00000E+00 0.00000E+00 0.00000E+00
 -1      4130-1.04040E+00-6.78291E-01-8.35161E-01 1.87242E-01 2.05013E-02-2.61268E-01
 -1      4131-5.69769E-01-9.31942E-01-9.85397E-01-8.74942E-02-5.63386E-01-7.87087E-01
 -1      4132-2.38721E+00 1.78658E+00 3.72888E-01 2.00751E-01-7.79121E-01-5.08835E-02
 -1      4133-1.29056E+00 1.52916E+00 4.71614E-01-1.81843E-01-1.31124E-01-1.14361E+00
 -1      4134-5.30737E-02-4.42033E-01-1.49743E+00-3.69111E-01-4.22602E-01-1.45519E+00
 -1      4135-1.10760E+00 2.70284E-01-2.15645E-01 6.82234E-02-5.70593E-01-1.27315E-01
 -1      4136-4.24240E+00 3.36662E-01 1.99937E-01 1.66854E-02 1.66944E-01-8.14912E-01
 -1      4137-4.84437E-02 2.33236E-01 8.20898E-01-2.17934E-01 4.13372E-03-2.68545E-01
 -1      4138-7.66161E-02 2.24665E-01-9.23202E-02 3.65683E-01 2.91596E-02 1.61569E-01
 -1      4139 9.57237E-03 3.94865E-01 3.99471E-03-7.72815E-02-1.26089E-01-5.01652E-01
 -1      4140-9.23937E-02 1.66654E-01 5.80469E-01-2.02674E-01 1.10410E-01-6.49361E-01
 -1      4141 3.53907E-03-2.30712E-01-1.39093E-01 2.89343E-02 4.41078E-02-2.98690E-01
 -1      4142 5.04342E-01-1.21843E-01-5.51559E-02-6.39905E-02 5.46100E-03-3.12656E-01
 -1      4143-6.56502E-01-2.34608E+00-3.62741E-01 3.54932E-01-2.08364E-01-5.67732E-01
 -1      4144 5.91160E+00-1.51686E-01-1.04065E-01-1.02625E-01-2.00398E-01-1.77068E+00
 -1      4145 1.71395E+00-1.27401E+00 1.10392E+00 1.02301E+00-2.96977E-01-6.48965E-01
 -1      4146 1.41038E+00-1.81309E+00-1.08048E+00-6.66614E-01 4.90852E-01-3.99049E-01
 -1      4147 3.00960E+00-6.52485E-01 2.06087E-01 5.97116E-02 3.72489E-01 5.98767E-01
 -1      4148 4.93658E+00-1.19711E+00-2.21739E-02 6.30007E-02-6.51880E-01 1.23453E+00
 -1      4149 2.56800E+00-3.02359E-01-2.62178E-01-2.38726E-02 4.43006E-01 8.54850E-01
 -1      4150 2.90060E+00-1.23414E+00-5.68719E-01 2.21787E-01-4.14293E-01 1.39951E+00
 -1      4151-7.36557E-03-1.21397E-01 2.29525E-01-1.86999E-01 9.42022E-02 1.84799E-01
 -1      4152 4.53081E-02 4.13838E-01 8.96495E-01 1.37030E-01 3.15983E-01 6.64162E-01
 -1      4153 4.52138E-01-2.95280E-02-5.63103E-01 2.67455E-01-1.66232E-01 1.02458E+00
 -1      4154-2.47554E+00 6.15151E-01 2.27097E-01-5.96583E-01-5.32368E-02 1.41712E-01
 -1      4155 1.05558E-01-2.75253E-01-8.91797E-01-9.57201E-02-4.06090E-01 4.38668E-01
 -1      4156-3.50109E+00 5.96423E-01 1.62051E-01 2.33062E-01 5.91994E-02 1.35618E+00
 -1      4157-1.43129E+00 1.21899E+00-6.59683E-01-5.89160E-01-1.08473E-02 6.83146E-01
 -1      4158-8.50585E-01-2.59696E-01 2.58783E-02 2.49223E-02 2.11822E-01 6.61504E-01
 -1      4159 6.30318E-01 1.56404E+00 2.59496E+00 1.63123E-02-5.90195E-02-1.60791E+00
 -1      4160-8.85947E-02 3.97683E-01 1.38694E-01-9.21276E-02-8.24518E-02-1.89509E+00
 -1      4161 2.83376E-02-2.64916E-01-1.23925E+00-2.92250E-01-6.13938E-01-6.21790E-01
 -1      4162 4.38377E-01 1.64656E-01 5.73674E-01 4.14294E-02-2.25444E-02-9.49465E-01
 -1      4163 2.63702E-01-6.35282E-01-1.19687E+00-2.41920E-01 3.55857E-01-1.13634E+00
 -1      4164-7.62463E-02 2.55420E-01 2.78696E-01 3.33210E-02 4.71272E-01 5.30783E-01
 -1      4165 5.89678E-01 1.14246E-01-7.47539E-02-2.42836E-02 8.42292E-02 7.71529E-01
 -1      4166-2.74007E-01-4.25549E-01-1.25584E+00 2.74198E-01-1.09194E-01 3.27468E-01
 -1      4167-9.20940E-01-8.66770E-02-5.70961E-01 2.94697E-01-2.90097E-01 9.31645E-01
 -1      4168 3.00439E-02 4.96468E-01 1.77050E+00 1.13490E-01 1.09755E-01 1.03336E+00
 -1      4169 2.42836E-02-1.35262E-01-2.70558E-01 1.52578E-01-1.69320E-01 1.33026E+00
 -1      4170 0.00000E+00 0.00000E+00 0.00000E+00 0.00000E+00 0.00000E+00 0.00000E+00
 -1      4171-2.82305E-01-1.26810E-01 3.40485E-01-1.23035E-01-3.73791E-02-2.55874E-01
 -1      4172 1.54378E-01 1.18057E-01-3.21364E-01-1.04246E-01-2.37005E-01-6.39410E-01
 -1      4173-3.22507E-01-3.41991E-01 2.01501E-01-1.53959E-01 1.61861E-01-1.56770E+00
 -1      4174-6.07841E-01-2.62682E-01-6.30569E-01 2.69941E-01-2.33764E-02 1.38236E+00
 -1      4175 3.85419E-01-2.83925E-01-1.21385E+00 5.25688E-01-2.14422E-01 7.04286E-01
 -1      4176 2.09925E-01 4.88747E-02 8.53172E-01 1.69971E-01-9.92856E-02 1.08772E-01
 -1      4177 4.92269E-01 1.54249E-01-2.71730E-02 2.57192E-02-1.63382E-02 1.38261E+00
 -1      4178 0.00000E+00 0.00000E+00 0.00000E+00 0.00000E+00 0.00000E+00 0.00000E+00
 -1      4179-1.18254E+00 3.51606E-02 1.31670E-01 5.75729E-01-7.91100E-01-4.06336E-01
 -1      4180 3.39817E-01 3.09026E-01 1.57580E-01 3.75648E-02-4.64767E-01 2.74814E-02
 -1      4181-4.11142E-01 4.19866E-02 1.03923E+00-2.73577E-01 3.43721E-01-7.16355E-01
 -1      4182 2.70522E-01-4.83605E-01-4.20748E-01-3.06002E-01 4.89398E-01 1.34250E-01
 -1      4183 3.08123E-01-2.42428E-02 3.09650E-01 4.15161E-02 1.77709E-01 2.47765E-01
 -1      4184-7.93861E-01 2.96120E-01-4.32443E-02-1.09597E-01-1.26239E-01 2.80739E-01
 -1      4185 0.00000E+00 0.00000E+00 0.00000E+00 0.00000E+00 0.00000E+00 0.00000E+00
 -1      4186-1.45996E-01 2.65015E-01 9.30605E-02-9.45791E-02-2.40495E-01-6.12641E-02
 -1      4187-2.01720E-01 6.46010E-01 3.33885E-01-1.52970E-01-3.85098E-01-1.58374E-01
 -1      4188 1.68031E-03-8.61246E-02 6.95320E-02-1.41391E-01-1.85403E-01 2.10637E-02
 -1      4189-1.14519E-01-2.16555E-01-6.39626E-02 6.98922E-02-1.01914E-01 5.50089E-02
 -1      4190 1.54593E-01 1.20158E-01 6.05316E-02 1.01183E-02-5.49803E-03 4.76526E-02
 -1      4191-8.66468E-02-5.35657E-02-6.28602E-02-9.44573E-02-9.56067E-02-6.62284E-02
 -1      4192 2.02163E-02 1.87471E-01-2.06790E-02-1.00475E-01-4.74543E-03 8.74499E-03
 -1      4193 6.70571E-02-2.10218E-02-3.15006E-01-2.43416E-01 1.22594E-01 1.18103E-01
 -1      4194-2.93155E-01-8.51083E-02-3.02502E-01-8.76164E-02 1.48530E-01 2.36082E-01
 -1      4195 5.87208E-01 2.16465E-01-1.11013E-02 7.84719E-03 6.75587E-02-1.14247E-01
 -1      4196 1.80000E-01-5.47051E-01-2.75452E-01 1.63283E-02 3.09737E-01 3.86013E-01
 -1      4197 2.28540E-01 1.84276E-01 5.69562E-02-1.31810E-02 1.57514E-01-8.66081E-02
 -1      4198-8.97763E-02-1.91960E-02 7.88931E-02-1.83913E-02 3.22828E-02 3.27515E-02
 -1      4199 3.40700E-02 2.26434E-01 1.61450E-02 6.14092E-02-5.85746E-03 2.15479E-02
 -1      4200-1.13920E+00 2.19760E-01-1.09818E-02 3.06019E-02-4.77041E-01 6.80347E-01
 -1      4201-4.99668E-02-3.46455E-01 2.95916E-02 6.76870E-02-1.09636E-01-6.00043E-02
 -1      4202 7.83926E-02-3.57858E-01 6.86947E-02 1.00389E-01 4.30677E-02-3.91643E-02
 -1      4203 1.52981E-01-3.76414E-01 1.39636E-01 1.40426E-02 9.74165E-02 2.68417E-02
 -1      4204-1.27359E-01 5.14674E-02 3.11319E-01-4.02348E-01 1.73932E-02 7.84345E-03
 -1      4205 0.00000E+00 0.00000E+00 0.00000E+00 0.00000E+00 0.00000E+00 0.00000E+00
 -1      4206-2.65177E-02-1.20387E-01-2.54053E-02-9.88894E-04-1.19452E-02 9.42840E-03
 -1      4207 4.43421E-03 1.31639E-01-3.16265E-04-8.07685E-02-2.71012E-02 1.52939E-02
 -1      4208 5.46864E-02 1.63636E-01-1.90981E-02-3.37126E-02-2.88946E-02 2.17582E-02
 -1      4209 3.35919E-02 2.62811E-01 9.29528E-02-1.34570E-01 2.10013E-02-8.60035E-02
 -1      4210 5.45484E-02 7.35764E-02-2.27010E-01-1.36858E-02-5.88821E-02-7.55483E-02
 -1      4211 1.24082E-01 1.54045E-01-1.09012E-01 5.44159E-02 2.83450E-02 4.32426E-02
 -1      4212-7.58946E-02-1.81916E-03-3.25695E-02-3.04504E-03-1.02185E-02-1.10530E-02
 -1      4213 1.08580E-02-1.38415E-01 1.01818E-02-1.65851E-02-1.57845E-02-1.03225E-02
 -1      4214 2.24489E-02 1.30777E-01-2.24142E-02-8.03138E-02 5.01258E-02 1.78304E-03
 -1      4215 3.10342E-02 5.18553E-02 7.86059E-02-5.27037E-02 7.79989E-02 7.57490E-02
 -1      4216 5.28347E-04 2.94959E-01 7.54519E-02 1.77268E-01-4.46698E-02-8.50792E-02
 -1      4217-1.94732E-01 6.41995E-02 1.21499E-01-2.89470E-02 1.24419E-01 8.31984E-03
 -1      4218 3.22228E-01 5.08089E-02-4.72254E-03-1.40304E-01-4.71473E-02 1.12160E-01
 -1      4219 1.06269E-02-3.59585E-02-6.79554E-02 2.39017E-02-6.73274E-03 2.91037E-02
 -1      4220-6.70828E-02-1.32408E-01-1.53317E-01 4.62159E-02 3.26752E-02 1.32126E-02
 -1      4221 2.37088E-03 6.98731E-02-1.26021E-02 3.76365E-02-2.67190E-02 2.69659E-03
 -1      4222-2.45321E-01-4.65236E-01-8.57253E-02 1.45793E-01-3.33469E-03-7.64354E-03
 -1      4223 1.38716E-01-3.29134E-02 8.85554E-02-6.03381E-02 8.41830E-02 7.89701E-02
 -1      4224-1.58665E-02-1.04423E-01 7.98058E-02 3.59170E-02 6.85804E-02 2.42461E-02
 -1      4225 2.05236E-02-4.67788E-04-1.47471E-01 1.09926E-01-8.15753E-02 1.15193E-02
 -1      4226 4.83444E-02 1.40370E-01-9.89506E-02 9.81205E-02 5.53497E-02 5.89372E-02
 -1      4227-2.60753E-02-8.36594E-02 3.32559E-02-3.41758E-02 5.23149E-02-3.07268E-02
 -1      4228 0.00000E+00 0.00000E+00 0.00000E+00 0.00000E+00 0.00000E+00 0.00000E+00
 -1      4229-1.25473E-01-1.52578E-02-3.94701E-03 1.92943E-01-3.10896E-02-1.44748E-02
 -1      4230 1.52137E-01-6.17063E-01-3.11608E-01-1.91023E-01-2.65508E-01-4.73006E-02
 -1      4231 4.54732E-02 1.83977E-02 4.41024E-02-4.00203E-02-5.40874E-03 2.85416E-02
 -1      4232-4.74480E-03 2.08982E-01 5.80015E-02 1.94601E-02 9.55214E-02 8.76039E-02
 -1      4233 0.00000E+00 0.00000E+00 0.00000E+00 0.00000E+00 0.00000E+00 0.00000E+00
 -1      4234 2.80011E-02 2.15704E-01 3.59000E-03 7.10184E-04 1.59086E-02 3.23490E-02
 -1      4235 1.07798E-01 2.59578E-01 1.73700E-01-9.41525E-02 9.18063E-02-2.41512E-01
 -1      4236 2.76194E+00-1.12356E+00 1.87062E-01 1.41520E-02-1.48170E-01-1.92806E-01
 -1      4237-2.22437E+00-2.18556E+00-5.85561E-01 4.40432E-01-1.11036E+00 4.37797E-01
 -1      4238 8.71146E-02-2.76982E-01-1.11762E-01 1.55128E-01-8.84002E-02 2.14375E-01
 -1      4239-1.57657E+00 5.92511E-01 4.36098E-01-2.66569E-01 8.73825E-01-6.05503E-01
 -1      4240-2.70457E+00 4.57789E-01-8.29358E-02 1.50541E-01 4.38607E-01-6.97517E-01
 -1      4241 1.03554E-01 2.15834E-01 4.11547E-02-3.40560E-01 1.10481E-01-3.38789E-01
 -1      4242 1.22477E+00-8.20307E-02-7.78582E-02 6.26294E-02-1.76799E-02-5.39290E-01
 -1      4243 1.89122E+00-2.46080E-01-2.47890E-01-8.09183E-02-1.09342E-01-6.17731E-01
 -1      4244 1.32263E+00-2.93749E+00-1.19583E+00 8.95071E-01 1.83216E-01-1.62052E+00
 -1      4245 2.89223E+00-1.03247E+00 9.30358E-02-3.57776E-01 5.54895E-01 9.37850E-02
 -1      4246-2.87131E-01-2.13537E-01 1.93658E-01 2.14362E-01-8.64175E-02 2.03944E-01
 -1      4247-1.91412E-01-2.47189E-01-1.16030E+00-2.07939E-01 5.78280E-01 8.52605E-01
 -1      4248-1.41282E+00 7.33287E-01 7.72889E-01 1.18911E-01-1.06959E-01 7.31307E-01
 -1      4249 1.51091E-01 3.56383E-02 6.70741E-01-7.30073E-02-7.22335E-02 2.09404E-01
 -1      4250 0.00000E+00 0.00000E+00 0.00000E+00 0.00000E+00 0.00000E+00 0.00000E+00
 -1      4251 0.00000E+00 0.00000E+00 0.00000E+00 0.00000E+00 0.00000E+00 0.00000E+00
 -1      4252-6.83627E-02 9.84599E-02 1.08061E-01-4.82625E-02-3.77896E-02 1.17556E-01
 -1      4253-3.58129E-01 1.10488E+00 1.92578E+00 1.97880E-01-5.41001E-01-8.49613E-01
 -1      4254-1.50745E+00 1.53259E+00 1.75657E-01 8.47126E-02-3.20035E-01 7.02019E-01
 -1      4255-1.66305E+00 4.34930E-01 3.26096E-01 4.78715E-01 1.61357E-01-6.88336E-01
 -1      4256 3.17249E-01 2.98479E-01 4.86112E-02 3.97160E-01 9.04431E-02-1.08234E+00
 -1      4257-9.08626E-01 1.99067E-01 9.17211E-01-6.73140E-03-2.64294E-01-8.34207E-01
 -1      4258 6.24896E-01 2.77754E-01 3.99672E-01 2.11838E-01-6.12838E-02-4.36985E-01
 -1      4259 1.56218E-02-2.18370E-01-6.99932E-01 2.62211E-01 2.78505E-01-4.65452E-01
 -1      4260-9.81083E-02 2.32162E-01 6.12656E-01 2.89213E-01-1.26845E-01-8.88493E-01
 -1      4261 7.77864E-02 3.60675E-01 7.57377E-01 1.56045E-01-8.22508E-02-1.30184E+00
 -1      4262 7.03380E-02-4.21497E-01 6.55484E-02 1.21458E-01-1.73199E-02-1.78288E-01
 -1      4263 6.43071E-01 1.50757E-01 3.43711E-01 6.97500E-02-1.00118E-02-1.12035E+00
 -1      4264 6.34723E-01 2.82136E-01 9.77506E-01 7.69225E-02-1.03711E-01-1.65691E+00
 -1      4265 1.55896E-01 1.99166E-01 8.27164E-01-1.41364E-01-9.92298E-02-1.28352E+00
 -1      4266 5.60871E-01-5.36315E-01-8.08124E-01-4.32554E-02 2.98942E-01-1.35541E+00
 -1      4267 3.76311E+00-5.68347E-01-7.61603E-02-8.12188E-01 4.15993E-03-8.34720E-02
 -1      4268-4.68767E-01-1.47722E+00-1.16698E+00 3.06345E-01 2.85289E-01-1.59869E+00
 -1      4269 8.75610E+00 7.78005E-02 2.14808E-01 3.53906E-01-4.81616E-01-1.16492E-01
 -1      4270 7.23566E-01-7.12725E-01-2.58012E-01 6.95218E-01-1.31693E-01-1.20937E+00
 -1      4271-2.51797E-01-2.17615E-01-2.60165E-01-3.48489E-01 1.03311E-01 1.25122E+00
 -1      4272 9.15108E-01-2.05577E-01-8.49363E-01-6.34876E-04 1.90034E-01 8.45159E-01
 -1      4273 5.16892E-01 1.33002E-01-6.44058E-01-2.60801E-01 1.71202E-01 3.92916E-01
 -1      4274-5.38493E-02-4.22550E-02-5.11847E-02-2.00524E-01-2.59350E-02 9.67093E-01
 -1      4275 5.30703E-02 2.67258E-01 5.99243E-01-8.61083E-02-2.01831E-01 1.39322E+00
 -1      4276 1.26391E-01-4.62090E-03-7.03326E-01-3.47986E-02 2.04009E-01 8.79479E-01
 -1      4277-1.96781E+00 9.24221E-02 1.47236E-01 3.12672E-02-1.48750E-01 7.15174E-01
 -1      4278 3.95835E-01 4.84327E-01-2.88901E-01-3.77840E-01 2.16492E-02-2.26527E-02
 -1      4279 5.81315E-02 8.01745E-01 2.00225E+00-3.59490E-01-4.19390E-01 1.77356E+00
 -1      4280-1.51371E+00-3.21396E-01-7.73244E-01-2.66147E-01-8.51157E-02 9.65936E-01
 -1      4281-4.04896E-01 1.40141E+00 2.08700E+00-2.48859E-01-2.69816E-01 1.92332E+00
 -1      4282-3.33666E+00 1.36201E+00-6.26120E-01-9.14560E-02 7.91987E-02 8.72961E-01
 -1      4283-1.53469E+00 4.90733E-01 5.94161E-01-1.70015E-01-6.60035E-01-3.69151E-01
 -1      4284-1.50997E-01-9.88443E-02 5.15114E-01 2.43107E-01 1.06857E-02 2.51854E-01
 -1      4285 5.38269E-01-1.08160E-01-2.88777E-01 1.71962E-02-1.84381E-01-4.63160E-03
 -1      4286-1.30332E-01 7.55064E-01 1.14406E+00-2.09564E-01-5.55260E-01 1.00661E+00
 -1      4287 2.42601E-01-3.04144E-01-8.12934E-01-1.75656E-01 3.66302E-01 1.00853E+00
 -1      4288-1.82993E+00 5.40326E-01-1.54646E-01-3.20036E-01 8.05603E-02 4.81931E-01
 -1      4289 9.75124E-02-3.12820E-02-1.33659E+00-9.13343E-02-3.38497E-01-6.68585E-01
 -1      4290-4.81922E-01-1.90720E-01-4.91996E-01-3.49696E-02-4.63782E-02-4.87856E-01
 -1      4291 1.30717E+00-5.89645E-01-8.66613E-02-7.09524E-03-2.73195E-01-5.14937E-01
 -1      4292-1.27369E+00-8.41824E-01 2.39462E-01 1.16018E-01 1.98910E-02-1.44381E+00
 -1      4293 3.20219E-01-2.60312E-01-5.54220E-01 4.32984E-01-5.50857E-02-4.25314E-01
 -1      4294 5.22029E-01-8.69772E-01-1.54872E+00 1.45760E-01-6.32214E-03 9.64644E-01
 -1      4295 3.75860E-01-1.66322E-01-4.05209E-01-1.18654E-02 3.32578E-01 1.29694E+00
 -1      4296 3.23453E-01 6.64931E-02 1.32407E-01-2.05942E-01 3.90170E-02 9.31553E-01
 -1      4297-8.69408E-02 6.33900E-02 5.67934E-01-5.06759E-02 2.89857E-03 5.26312E-01
 -1      4298-5.73160E-01-8.89479E-02 4.57803E-01 2.23879E-02-2.39994E-01 8.02273E-01
 -1      4299-1.07882E+00 1.91409E-01 2.17575E-01 2.32223E-02 1.02959E-01 5.73456E-01
 -1      4300-1.79842E+00 1.15060E+00 6.18040E-01 8.16441E-02 1.89347E-01 5.85789E-01
 -1      4301 4.36324E-01 3.26227E-01-1.05191E+00 3.25351E-01-6.70394E-02 1.46582E+00
 -1      4302-8.42372E-01 1.47203E-01 9.61076E-02-2.82109E-01 1.24943E-01 2.15539E-01
 -1      4303 0.00000E+00 0.00000E+00 0.00000E+00 0.00000E+00 0.00000E+00 0.00000E+00
 -1      4304-3.45140E+00-2.52410E+00-3.58850E+00 1.85349E-01 1.98559E-01-2.37120E+00
 -1      4305-1.14056E+00-4.89636E-01-5.74945E-01-3.84972E-01-4.34842E-02-1.11272E+00
 -1      4306-5.98306E-01-6.75023E-01-1.13327E+00-1.04243E-01 2.71974E-01-5.30260E-01
 -1      4307 3.88835E-02-3.60855E-01-8.37437E-01-8.49716E-02 2.58465E-01-7.51770E-01
 -1      4308 3.86859E-01-5.08107E-01 1.71994E-01 3.31683E-01 7.61217E-02-5.95628E-01
 -1      4309 6.03959E-02-8.50966E-01-4.07524E-01-7.76013E-01 1.85943E-01-9.55401E-01
 -1      4310 1.88217E-01-6.62403E-01-3.06118E-01-1.62522E-01 3.98528E-01-9.47106E-01
 -1      4311-5.75499E-01 1.46884E-01 1.19398E+00-3.09804E-02-4.24866E-01 8.60209E-01
 -1      4312-4.82817E-01 8.68012E-01 5.18237E-01 2.81435E-01-4.37010E-01 1.85555E+00
 -1      4313 0.00000E+00 0.00000E+00 0.00000E+00 0.00000E+00 0.00000E+00 0.00000E+00
 -1      4314-1.26469E+00 5.99364E-02-7.27668E-01 7.92781E-02-6.28065E-02-1.03670E+00
 -1      4315-1.22199E+00 7.14628E-02-6.59472E-01 1.03138E-01-3.11976E-03-9.54212E-01
 -1      4316 5.30029E-01-2.17006E-03 1.36800E-01 3.39292E-02 5.40568E-02-1.08384E+00
 -1      4317 4.58943E-01-5.17881E-01-4.62289E-01 1.95835E-01-1.72436E-01-8.88678E-01
 -1      4318 1.64201E+00 1.88611E-01 2.45939E-01-1.49806E-03 2.24126E-02 3.17200E-01
 -1      4319 8.87316E-01-1.94955E-01 4.46010E-01-7.00146E-02 5.15148E-02 1.05912E+00
 -1      4320-4.15963E-01 3.55716E-01 1.64250E-01 1.92769E-01 2.90417E-01 1.13447E+00
 -1      4321 2.45484E-01-1.15590E-01 1.82030E-01-1.61175E-01 9.14443E-02-2.77824E-01
 -1      4322 5.42810E-01-5.49760E-01-1.97689E-01-1.96119E-01-1.37084E-01-3.49510E-01
 -1      4323-1.04143E+00 2.51567E-01 4.87474E-01 1.53343E-01 1.05212E-01 1.44756E+00
 -1      4324-5.32866E-03 1.69337E-01-1.53428E-01 1.78768E-01-5.38314E-02 2.14516E-01
 -1      4325 0.00000E+00 0.00000E+00 0.00000E+00 0.00000E+00 0.00000E+00 0.00000E+00
 -1      4326 0.00000E+00 0.00000E+00 0.00000E+00 0.00000E+00 0.00000E+00 0.00000E+00
 -1      4327-2.03129E+00 3.80345E-01-2.35349E-01 1.14926E-01 1.17447E-01-6.14852E-01
 -1      4328-5.12910E-01-8.41499E-02-1.18464E-02-1.01444E-01 5.44694E-02-7.80331E-01
 -1      4329-5.04957E-02 3.73774E-01 1.20964E+00-2.69131E-01 1.67284E-01-7.32660E-01
 -1      4330 2.64985E-01-9.22460E-02-4.73479E-01-2.29605E-01-1.04450E-01-9.05078E-01
 -1      4331 5.06144E-01 1.03490E-01 4.21427E-01-1.41590E-01 1.44459E-02-9.80788E-01
 -1      4332-3.73991E-01-2.89547E-01 1.30547E-01 3.46342E-02 3.79348E-02-1.26422E+00
 -1      4333 1.19792E+00-1.16968E-01 8.33239E-01-1.48618E-01 2.09263E-01-1.03261E+00
 -1      4334 1.80883E-01 8.58129E-01 2.43567E+00-2.32569E-01 2.55842E-01-1.18493E+00
 -1      4335 1.20807E-01 3.17072E-01 2.93447E-01 4.39385E-02 2.89336E-01 1.27570E+00
 -1      4336-1.49496E-01-2.99768E-01-1.26686E+00-2.51183E-02-6.83182E-02 8.52132E-01
 -1      4337 2.01432E-01-6.70871E-02 4.23369E-01 3.84985E-02-7.65744E-02 5.58904E-01
 -1      4338-5.28865E-01 4.54633E-01-1.93248E-01 1.12748E-01 6.84944E-02 6.97782E-01
 -1      4339-4.86250E-01-3.37881E-01-2.02064E+00-8.35367E-02-4.69113E-01-1.07727E+00
 -1      4340-1.59981E-01-2.60369E-01-1.19679E+00 3.96276E-02-2.69464E-01-8.98352E-01
 -1      4341-3.60036E-01 3.27411E-01 9.39300E-01-1.87533E-01 3.89774E-01-8.44628E-01
 -1      4342-6.71518E-02-1.42337E-01-5.33367E-02-4.07286E-02 2.32036E-01 2.06812E-02
 -1      4343-9.19606E-02-3.10842E-01-7.10254E-01 3.87279E-03 1.64681E-01 4.16471E-01
 -1      4344 2.86462E-02-2.42725E-01-5.54939E-01 7.99771E-02 4.96114E-02 1.26240E+00
 -1      4345-4.04396E-02 4.64260E-01 7.49791E-01 1.19753E-01-2.21104E-01 2.71843E-01
 -1      4346 1.73696E-01-1.95207E-01-1.13119E-01 7.84749E-02-1.61769E-01-1.68054E-01
 -1      4347 0.00000E+00 0.00000E+00 0.00000E+00 0.00000E+00 0.00000E+00 0.00000E+00
 -1      4348 0.00000E+00 0.00000E+00 0.00000E+00 0.00000E+00 0.00000E+00 0.00000E+00
 -1      4349 3.51473E-01 1.03175E+00 1.46652E+00-4.79927E-01 4.25860E-01-1.98403E+00
 -1      4350-1.02553E-01 1.18156E-01 2.54365E-01-1.25996E-01-4.97527E-02-1.57015E-01
 -1      4351-6.94523E-02-2.83905E-02 8.61230E-02-4.07646E-02-4.74046E-02-6.31862E-02
 -1      4352-6.46059E-01-1.24126E-01-1.44861E-01 5.34008E-02-1.94807E-02-6.03185E-01
 -1      4353-2.49625E-01-2.10027E-02-7.59295E-01-1.77417E-01-1.18654E-02-5.23640E-01
 -1      4354-7.78724E-01 3.49080E-02-1.49164E+00-1.30857E-01-1.91952E-01-2.52022E-01
 -1      4355-6.64075E-01-1.07630E+00 4.82183E-01-3.63388E-01 4.20191E-01 1.50068E-01
 -1      4356-2.21319E-02 5.25337E-02 1.12329E-01 3.53134E-02 5.16302E-01-8.98335E-01
 -1      4357 3.83986E-01 6.25526E-02-5.97330E-01-1.24268E-01 1.39776E-01 4.55662E-02
 -1      4358 3.38407E-01 6.29765E-02-1.49743E-01 5.76653E-02-5.37270E-02 8.51119E-01
 -1      4359 3.28844E-01 5.37344E-01 1.14620E+00 3.18257E-02 2.30417E-01 7.58234E-01
 -1      4360 2.54250E-02 2.40661E-01 5.05535E-01 1.37467E-02 1.67904E-01 6.00895E-01
 -1      4361-2.12094E-01-3.21600E-01 1.34957E-01 3.52005E-02 7.10053E-02 1.08728E-01
 -1      4362-4.80015E-02-1.25406E-01 2.32387E-01 6.68030E-02-2.35882E-01-5.99962E-01
 -1      4363-9.04175E-01 1.22971E-01-4.47550E-02 2.15826E-02 6.14875E-02-2.92282E-01
 -1      4364 2.49156E-01-4.01906E-01 4.31908E-01 4.06053E-02-5.43948E-01-7.10953E-01
 -1      4365 1.05733E-01 3.42781E-01-7.24513E-02-2.49847E-01-1.19037E-01-1.37595E+00
 -1      4366-6.86905E-01-3.79085E-01-1.40041E-01-1.55549E-01-1.18042E-02-1.18354E+00
 -1      4367 5.10371E-02 6.53335E-02 2.04346E-01 6.60667E-02 3.02900E-01-3.59534E-01
 -1      4368-5.47519E-02-1.23911E-01 3.35355E-01-5.16042E-02-5.82463E-02-1.38782E+00
 -1      4369 5.51061E-02 5.26579E-01 1.16401E+00-2.57717E-01 4.94796E-01-7.57911E-01
 -1      4370-4.02183E-01 4.04087E-01 3.49475E-01 1.59934E-01 3.50461E-01 9.73956E-01
 -1      4371 6.17062E-02 3.28102E-01-4.29505E-01-1.78196E-01 2.57479E-01-5.00143E-02
 -1      4372 2.70282E-02 3.51914E-01-5.14916E-01-1.68369E-01 2.03833E-01 3.82761E-02
 -1      4373-4.94395E-02 9.60535E-02 6.60537E-01 1.14944E-01 5.07361E-01 1.16401E+00
 -1      4374-5.76651E-01-4.99104E-01-5.13362E-01 1.16840E-01-1.06414E-01 1.94649E+00
 -1      4375 1.78128E-01-4.22041E-02-4.34496E-01 1.01611E-02 1.11361E-01 4.26606E-01
 -1      4376 6.18561E-03 1.74948E-01 1.09799E+00 1.19884E-01 1.08004E-01 6.51547E-01
 -1      4377-3.42558E-01-3.32054E-01-3.89466E-01 2.16277E-01 2.65651E-02 1.18696E+00
 -1      4378 1.21806E+00 9.35433E-01 8.39871E-01 2.36555E-01 8.40494E-02 1.67989E+00
 -1      4379 7.27443E-01 2.76392E-01-4.60005E-01 2.82987E-01-9.76481E-02 1.28662E+00
 -1      4380-2.27108E-01 4.59586E-01 7.36894E-01 5.92987E-02 2.02548E-01 1.41368E+00
 -1      4381 5.46706E-01 4.99881E-01 3.49033E-01 2.53074E-01-3.34049E-01 1.11769E+00
 -1      4382 0.00000E+00 0.00000E+00 0.00000E+00 0.00000E+00 0.00000E+00 0.00000E+00
 -1      4383 0.00000E+00 0.00000E+00 0.00000E+00 0.00000E+00 0.00000E+00 0.00000E+00
 -1      4384 0.00000E+00 0.00000E+00 0.00000E+00 0.00000E+00 0.00000E+00 0.00000E+00
 -1      4385 6.51607E-02-6.93362E-04 2.53714E-01-6.99254E-02-8.27137E-02-1.00437E+00
 -1      4386-1.73369E-02-5.83861E-05 1.95711E-01-3.70002E-02 3.09692E-03-5.14837E-02
 -1      4387 3.93997E-01-4.04647E-02 4.19006E-02-1.93042E-01-8.16570E-02-1.59363E+00
 -1      4388-3.08916E-01 1.30713E-01 5.04676E-01-3.79750E-02-7.45719E-02-3.64962E-01
 -1      4389-1.25294E-01 2.06696E-01 4.30704E-01 3.43872E-02-4.81176E-02-2.38662E-01
 -1      4390-2.77994E-01 3.46592E-02 5.52295E-01-1.18283E-01 1.38386E-01-4.99672E-01
 -1      4391 4.03662E-01 9.23271E-02 4.70027E-03 4.33381E-02-8.60117E-02-7.55784E-01
 -1      4392-2.21969E-01-6.51947E-02 1.44136E-01 2.44124E-02 2.23254E-01-5.83469E-01
 -1      4393 3.56524E-01-4.66949E-02-6.31097E-01-2.11665E-01-1.99168E-01-4.67311E-01
 -1      4394 4.40489E-01 8.23843E-02-8.54149E-02-1.78078E-01-9.94017E-02-9.17305E-01
 -1      4395-3.55789E-01 1.31268E-01-4.97028E-01-6.86287E-02-3.07314E-02-2.75291E-01
 -1      4396-6.04347E-01 1.25293E-01-1.07191E+00-9.74328E-02-2.64954E-01-2.97335E-01
 -1      4397 4.00435E-02 1.92215E-01-4.84229E-02-1.44238E-01 3.77850E-01-1.17196E+00
 -1      4398 2.12538E-02 1.40394E-01-6.66192E-02 1.07634E-02 5.38868E-01-6.98583E-01
 -1      4399-3.13336E-02-4.60367E-02-2.71011E-01-3.15560E-02-8.61108E-02 6.21962E-01
 -1      4400-1.91677E-01-2.72589E-02 3.36857E-02 7.73456E-02 1.17504E-01 6.95150E-01
 -1      4401 2.75605E-01-2.37790E-01-6.71008E-01 6.35794E-02-2.72277E-01 8.09514E-01
 -1      4402 5.06099E-02-7.42097E-02 4.02333E-01 1.79382E-01 1.55999E-01 1.22143E-01
 -1      4403 2.91933E-01 2.86717E-01 8.04901E-01-6.87307E-02-1.67148E-01 6.57705E-02
 -1      4404 6.11322E-01-8.14024E-02 2.36959E-01 2.00489E-02-2.22902E-01 5.51435E-01
 -1      4405 3.54470E-02-8.27208E-02 3.46206E-02-5.87786E-02-1.53919E-01 7.20468E-01
 -1      4406 0.00000E+00 0.00000E+00 0.00000E+00 0.00000E+00 0.00000E+00 0.00000E+00
 -1      4407 0.00000E+00 0.00000E+00 0.00000E+00 0.00000E+00 0.00000E+00 0.00000E+00
 -1      4408-1.82815E-02 5.19259E-02 5.67562E-02-4.10964E-03-1.75038E-02-1.98964E-02
 -1      4409-1.24888E-01-1.64921E-01-6.29484E-03 7.95541E-02 2.08577E-02-3.02081E-02
 -1      4410 3.98356E-02-6.41498E-02 4.03050E-02-3.93276E-02 1.33716E-02 2.73735E-02
 -1      4411 0.00000E+00 0.00000E+00 0.00000E+00 0.00000E+00 0.00000E+00 0.00000E+00
 -1      4412 0.00000E+00 0.00000E+00 0.00000E+00 0.00000E+00 0.00000E+00 0.00000E+00
 -1      4413 8.08688E-01 3.78787E-01 2.65688E-01 1.64042E-01 4.30254E-01-1.07783E+00
 -1      4414-1.07182E-01-5.82044E-02 1.92738E-02-6.95099E-03 1.71031E-01-5.04194E-02
 -1      4415-4.21884E-01-1.23519E-01-1.52344E-01-2.29748E-03 1.46506E-01-1.77258E-01
 -1      4416-1.32713E-01-3.50275E-02 1.85289E-01 4.17683E-02 1.31678E-01 6.48152E-02
 -1      4417 4.50864E-03 6.29175E-02 4.60034E-01 7.58890E-02 1.22746E-01 1.13384E-01
 -1      4418 1.35675E+00 2.06832E+00-6.88210E-01 3.81498E-01 6.63100E-01-8.66531E-01
 -1      4419-4.68896E-01-6.25790E-01-9.40463E-01-1.14412E-01 2.42302E-01-1.04410E+00
 -1      4420 2.89402E-01 1.27554E-02-6.54123E-02 1.41663E-01 4.01112E-01-1.04759E+00
 -1      4421-3.17523E-01-1.22352E-01-2.10505E-01 1.59483E-01 1.56483E-01-2.52259E-01
 -1      4422 4.14246E-01 3.46812E-01-2.03664E-01 1.80326E-01 1.11438E-01-1.22490E-01
 -1      4423 4.48655E-01-4.00347E-02-6.08931E-01 6.02909E-02 7.27508E-02-1.09659E+00
 -1      4424-2.17285E-01-1.68351E-01 8.35708E-02-3.24782E-02 1.60639E-01-5.39945E-01
 -1      4425-2.53097E-01-2.64384E-01-2.85134E-01 2.11664E-01-3.12403E-02-8.56896E-01
 -1      4426 2.53991E-01 3.08408E-02-5.23566E-01 7.56964E-02-7.99824E-02-6.85456E-01
 -1      4427-1.75296E-01-2.37865E-01 2.93181E-01 2.76412E-01-3.20292E-01-1.71781E+00
 -1      4428 3.88328E-01-3.96930E-01-4.93174E-02-4.09753E-01-2.52319E-01-1.83397E-01
 -1      4429 1.65398E-01-8.91756E-02-5.51120E-01 1.35097E-01-1.48970E-02-4.16465E-01
 -1      4430-3.72619E-02-1.97152E-01-7.32656E-01 2.72997E-02-1.76063E-02-1.26521E-01
 -1      4431-5.02792E-01-3.89336E-01 1.74185E-01 2.49029E-01 5.63271E-02-1.45122E+00
 -1      4432 2.87672E-01 3.33175E-01 1.35014E+00 2.48548E-01-3.36641E-02-1.19948E+00
 -1      4433-4.92437E+00-2.01878E+00 1.06005E+00-2.21477E-01-1.13842E-01-9.75037E-01
 -1      4434-2.06930E-02-5.02227E-03-1.62651E-01 5.91555E-03-2.32097E-01 5.48424E-02
 -1      4435-3.18486E-02-3.42206E-02-4.40108E-01 4.27780E-02-2.08257E-01 8.14161E-02
 -1      4436-1.04507E-01 8.47176E-02-8.27764E-02 4.69789E-02-4.61904E-01-9.66654E-01
 -1      4437 1.04685E-01 3.45797E-01 4.60103E-01 5.64156E-02-4.30768E-01-6.41545E-01
 -1      4438 4.75589E-02-1.90823E-02-6.19072E-01-3.59974E-01-3.62574E-01 8.76960E-01
 -1      4439-2.70451E-02 8.73006E-02-2.08367E-01-2.59025E-02-3.28178E-01-1.05516E-01
 -1      4440 5.10612E-02-2.03946E-01-5.77595E-01-4.47741E-02-2.40524E-01-5.56142E-02
 -1      4441-1.38327E-01-5.14438E-02-2.81934E-01-1.11026E-01-3.69778E-01-1.38232E-02
 -1      4442-3.29046E+00-1.85692E+00 1.17991E+00-4.39736E-02-2.19728E-01 3.28192E-01
 -1      4443-2.05106E-01 1.21638E-01 7.79765E-01 1.97936E-02-1.75806E-01 7.51627E-01
 -1      4444-6.02339E-01-3.05377E-01 1.09858E-01 4.00115E-02-5.44233E-03 1.14569E+00
 -1      4445-1.06595E+00-7.03400E-01-4.63219E-01-3.31695E-01-1.31117E-02 1.53972E+00
 -1      4446 2.80401E-01 6.08440E-02 6.06967E-02-1.54308E-01-1.94227E-02 4.65698E-01
 -1      4447 1.62473E-01 7.47854E-02 2.78355E-01-8.84913E-02-2.18786E-01 1.08393E+00
 -1      4448-1.25260E-01-1.32881E-01-4.38372E-01-1.82251E-02-4.92438E-02 4.76243E-01
 -1      4449 2.31753E-01 1.27174E-01 2.14290E-01-1.94447E-02-5.36371E-02 8.39543E-01
 -1      4450 2.03034E-01 1.67976E-01 5.19461E-01-3.99181E-01-2.07373E-01 5.93757E-01
 -1      4451-8.81822E-02-1.57751E-01-2.69267E-01-4.63124E-01-9.81861E-02 6.43697E-01
 -1      4452-3.50890E-01 8.19184E-02 7.30309E-01 1.56821E-02-2.85067E-02 5.14888E-01
 -1      4453-2.03331E-01 9.87221E-02 6.48939E-01-3.81351E-02-4.62024E-02 7.13018E-01
 -1      4454-4.27216E-01-1.45218E-01-3.23946E-01-9.00875E-02 5.86633E-02 1.30767E+00
 -1      4455-1.08296E-01 1.50991E-02-3.05641E-01-2.01558E-01 2.34567E-01 1.32179E+00
 -1      4456 1.36173E-01 1.80519E-01 2.87425E-01-1.59171E-01 2.16052E-01 4.86365E-01
 -1      4457-9.81498E-02 2.26798E-02-5.81790E-01 4.86875E-02 8.36356E-02 1.38848E+00
 -1      4458 6.17558E-01-2.25904E-01-8.29198E-01-2.37463E-01 5.48187E-01 7.35548E-01
 -1      4459 4.67757E-01-5.69988E-01-1.70663E+00-7.45178E-02 2.37268E-01 5.33296E-01
 -1      4460 2.18519E-01 8.09580E-02 4.59217E-02 2.87074E-02 3.35982E-01-7.82937E-02
 -1      4461 4.07570E-01 4.51405E-01 5.91432E-01-2.58257E-01 2.59980E-01 1.79789E+00
 -1      4462 6.97715E-02-1.04560E-01-2.18208E-02-1.88385E-02 2.79776E-01 1.30157E+00
 -1      4463-3.81139E-02-6.71734E-02-2.45168E-01-6.75023E-02-1.18733E-02 1.84911E+00
 -1      4464 0.00000E+00 0.00000E+00 0.00000E+00 0.00000E+00 0.00000E+00 0.00000E+00
 -1      4465 0.00000E+00 0.00000E+00 0.00000E+00 0.00000E+00 0.00000E+00 0.00000E+00
 -1      4466 0.00000E+00 0.00000E+00 0.00000E+00 0.00000E+00 0.00000E+00 0.00000E+00
 -1      4467-2.27493E-02 5.22140E-02 7.29312E-02 5.91712E-02 8.78734E-02-5.64551E-01
 -1      4468-1.92193E-01-1.12772E-01 1.76161E-01 1.27163E-02 4.67371E-02-4.73845E-01
 -1      4469 5.50711E-02-2.40131E-01-1.05906E+00 8.56248E-02 3.13400E-01-5.69265E-01
 -1      4470-2.42032E-01-4.46313E-01-7.74299E-01-7.22312E-02 3.69278E-01-3.05011E-01
 -1      4471 1.07877E-02 1.03285E-01 2.80583E-01 2.35512E-01-1.06699E-01-9.54094E-01
 -1      4472 9.11796E-02 1.81351E-01 2.31521E-01 6.26491E-02-4.72875E-02-6.28409E-01
 -1      4473 1.45414E-01-1.12083E-01-6.33685E-01-4.00679E-03-1.56767E-01-4.39875E-01
 -1      4474 2.52895E-01 6.94348E-02 6.48426E-01-1.02885E-01-7.44646E-02-1.04926E+00
 -1      4475 3.80726E-01-2.14238E-02-2.69454E-01 2.72723E-01-2.04526E-01-1.72567E-01
 -1      4476 3.58099E-02-1.48047E-01-5.67734E-01-2.75156E-03-1.18486E-01 2.96535E-01
 -1      4477-2.94222E-01-9.91472E-03 7.68907E-01-4.84379E-02-3.49941E-01 7.94502E-01
 -1      4478 7.50946E-01 2.04942E-01 1.11230E-01-2.50113E-01 1.07918E-02 1.10120E+00
 -1      4479 1.35221E-01-1.08850E-01-1.44350E-01-3.37774E-01 8.56592E-02 1.10255E+00
 -1      4480 2.58846E-01-1.90046E-01 1.67536E-01-2.23606E-01 3.13631E-01 8.51974E-01
 -1      4481 3.88931E-01-1.34096E-01-6.01798E-01-7.53736E-02 2.15800E-01-3.05945E-01
 -1      4482-2.21370E-01 1.54454E-02 2.21988E-01 4.90822E-02 1.71987E-01-1.65081E-01
 -1      4483 7.38584E-01 4.60443E-01 9.71561E-01 1.82024E-01-7.10744E-02-3.80490E-01
 -1      4484 8.69980E-02 5.39199E-02-1.23791E-01 3.47005E-02-2.43260E-01-3.41538E-02
 -1      4485 6.10432E-01-1.70953E-01-1.49262E-01-1.76998E-01-9.65544E-02 3.38721E-01
 -1      4486 2.91270E-01 1.58228E-01-7.76761E-02-2.93462E-02-2.93713E-01 1.42424E-01
 -1      4487 1.83441E-01 5.60488E-02-2.95004E-02 5.65262E-02-1.41984E-01 6.61581E-01
 -1      4488-6.74133E-01-5.40950E-01-1.19278E+00-1.94252E-01 5.52309E-02 1.78667E-01
 -1      4489-4.07694E-01 2.67702E-02 2.60571E-01-1.89415E-01 1.85695E-01 4.58733E-01
 -1      4490-1.88365E-01-1.27533E-01-1.51393E-01-7.25079E-02 3.45546E-01 6.93828E-02
 -1      4491-5.49645E-01-1.06695E+00-2.70273E+00-6.43714E-02 2.35647E-01-7.02929E-01
 -1      4492 1.71546E-01 1.88202E-01 4.94214E-01 1.84787E-01 1.80699E-02-1.06311E+00
 -1      4493-1.01104E-01-4.50275E-01-1.43265E+00 2.41224E-01 9.22153E-02-1.40724E+00
 -1      4494 2.20790E-01 2.71717E-01 6.03613E-01 1.02531E-01-1.53994E-01-1.57181E+00
 -1      4495-6.37783E-02 4.54590E-03-3.79880E-01 6.09147E-02-2.52159E-01-9.55971E-01
 -1      4496 1.69542E-01 3.95847E-01 1.41316E+00 1.61556E-01-2.82800E-01 8.90081E-01
 -1      4497 2.93552E-01-4.26703E-02-6.13584E-01-6.83007E-02-4.55304E-02 8.56664E-01
 -1      4498 2.77066E-01-5.33222E-02-2.03339E-01-2.63847E-01 3.44751E-02 1.17795E+00
 -1      4499 1.12276E-01 1.69263E-01 4.24753E-01-7.61467E-02 3.20995E-02 1.13225E+00
 -1      4500 2.40496E-01 1.63530E-01 6.45574E-01 1.63320E-01 1.41654E-01 1.87443E+00
 -1      4501 4.28521E-01 1.84234E-01 5.79180E-01-1.79583E-02-1.50854E-01-1.13197E+00
 -1      4502-5.05220E-01-2.26793E-02-2.78819E-01-2.38457E-01 2.20541E-01 8.93063E-01
 -1      4503-4.37807E-02 2.98762E-01 1.64675E-02-1.70195E-01 8.85024E-02 4.93593E-01
 -1      4504-3.17666E+00-5.61418E-01-9.00752E-01 5.13219E-01 3.63687E-01-8.79106E-01
 -1      4505 2.71411E-01-3.71335E-01 1.47942E-02-2.41749E-01-1.59486E-01-3.62255E-01
 -1      4506 1.48129E+00-5.02822E-01-1.10015E-01 4.80256E-01 2.17177E-01 4.25669E-01
 -1      4507 1.07993E+00-2.80565E-01 1.88312E-01 1.99537E-01 1.41662E-01 8.92029E-01
 -1      4508 5.55708E-01 9.36055E-03-7.02063E-01 1.61746E-01 1.62797E-01 7.17818E-01
 -1      4509 4.32589E-02 1.17698E-01-3.44015E-02 9.35760E-02-5.83818E-02 1.37303E+00
 -1      4510-1.16936E-02 7.24213E-02-1.55065E-02 1.36905E-01 3.07293E-02 8.19418E-01
 -1      4511 3.22226E-01 5.01102E-01 9.85829E-01-5.04976E-02 9.73028E-02 1.42533E+00
 -1      4512 0.00000E+00 0.00000E+00 0.00000E+00 0.00000E+00 0.00000E+00 0.00000E+00
 -1      4513-5.19425E-02 1.23304E-01 4.80895E-01 5.21834E-02-2.98023E-01-4.17044E-02
 -1      4514 1.52134E-01-9.42089E-02-3.16511E-01-5.53745E-02-8.05384E-02-7.91098E-01
 -1      4515 1.02856E+00 6.54324E-01 1.38071E+00 2.44461E-01-9.57696E-03-1.49939E+00
 -1      4516-6.35800E-01-6.26015E-02 9.06864E-01-1.35410E-01 1.89553E-01-1.07995E+00
 -1      4517 4.97136E-02-4.11992E-02-2.73160E-01-3.74733E-02 2.79701E-01-2.32587E-02
 -1      4518 2.26256E-01-3.36357E-01 4.81286E-02-6.34934E-02 6.47830E-02 9.61190E-01
 -1      4519 6.11891E-01-7.69958E-01-3.14140E-01-3.53325E-01-9.74680E-02 9.53132E-01
 -1      4520 1.11420E-01-8.45141E-02-3.34536E-01 8.06670E-02 1.17000E-01 2.20710E-01
 -1      4521-1.86185E-01-2.37040E-01-9.46756E-01 2.91950E-01-6.07883E-03 9.90398E-01
 -1      4522-1.39028E-01-1.06343E-01 5.80199E-02 9.54899E-02-1.15935E-01 2.17105E-01
 -1      4523 0.00000E+00 0.00000E+00 0.00000E+00 0.00000E+00 0.00000E+00 0.00000E+00
 -1      4524-7.96959E-01 1.12792E-01 1.53224E-01-1.77476E-01-3.32795E-01-1.68062E-01
 -1      4525-1.54218E-01-3.05387E-01 2.50260E-01 4.43812E-02-1.88143E-01 4.44179E-02
 -1      4526-2.31106E-02-4.86840E-02 1.82255E-01-1.38265E-01-2.04755E-01-3.37239E-01
 -1      4527-9.44325E-02-8.56910E-02-4.36743E-01-1.98165E-01-1.08845E-01-1.28484E+00
 -1      4528-2.13583E-01-3.28838E-01-8.63765E-01-1.16648E-01-1.89554E-01-3.45733E-01
 -1      4529-8.18778E-02-1.74013E-01-4.14875E-01-6.78507E-02 1.33190E-01-6.53310E-01
 -1      4530-6.47144E-02-6.07786E-03-6.78487E-01-1.08446E-01 5.09204E-02-3.88002E-01
 -1      4531 7.45774E-01-4.29470E-01 9.96768E-02-1.69496E-01 1.79462E-01-9.86715E-01
 -1      4532-4.50707E-01-1.06523E-01 3.78284E-01 4.79866E-02 4.00964E-01-9.45775E-01
 -1      4533-2.44383E-01-1.44671E-01-7.17022E-01-4.32981E-02 2.83910E-01 1.75431E-01
 -1      4534 5.17800E-01-3.34578E-02-2.36188E-01-2.94827E-01 1.41681E-01-1.31577E-01
 -1      4535 7.54312E-01-1.93725E-01-3.30175E-01 1.66666E-01 1.17066E-01 2.11023E-01
 -1      4536 5.52741E-02 3.82266E-02-2.98900E-01 2.77440E-02 9.70449E-02-1.11477E-02
 -1      4537 4.67768E-02-2.79905E-02-6.12225E-01 1.37929E-01 1.76741E-01 3.45692E-01
 -1      4538-6.07212E-02 2.59406E-02-1.40356E-02 2.46667E-02-5.71137E-02 6.61230E-01
 -1      4539 2.28332E-01 3.75848E-01 8.03531E-01 1.25007E-01-1.03675E-01 1.30244E-01
 -1      4540-2.01840E-01-3.41654E-02 3.87472E-01 2.10316E-01-1.50046E-01 5.83584E-01
 -1      4541 5.38481E-01 3.04925E-01 1.40548E+00 1.70373E-01-1.09482E-02 2.18245E-01
 -1      4542 1.20443E-01 2.16705E-01 3.80131E-01 9.31516E-02-2.00211E-01 1.27050E-02
 -1      4543-3.27482E-01 4.49908E-02-5.12705E-02-1.52712E-01-2.52177E-01-8.66344E-01
 -1      4544-1.55277E-01 1.30652E-02 9.73415E-02-1.62890E-01-4.43148E-02-7.39380E-01
 -1      4545 1.29871E-01 1.83259E-01-2.45705E-01-3.46440E-01-2.42542E-01-1.25371E+00
 -1      4546-1.60445E-01-1.70490E-01-8.30846E-01-1.80762E-02 2.73274E-01 1.84405E-01
 -1      4547-8.11058E-03 1.16662E-01 4.43084E-01-3.76732E-02 3.14175E-01-7.90389E-01
 -1      4548-3.74323E-01-4.09155E-01-3.35736E-01 1.68971E-01-1.66016E-02 1.53157E+00
 -1      4549 3.44682E-02 1.23631E-01 5.38282E-02 2.32336E-01 1.15560E-01 9.75926E-01
 -1      4550-2.25347E-01-4.49245E-01-7.10273E-01 7.32112E-02-7.69514E-02 8.07412E-01
 -1      4551 0.00000E+00 0.00000E+00 0.00000E+00 0.00000E+00 0.00000E+00 0.00000E+00
 -1      4552 2.73192E-01-2.25761E-01 5.97992E-01-5.03252E-02-2.16696E-01-5.30983E-01
 -1      4553 6.85102E-01 1.63762E-01 8.03025E-01-1.01121E-01-3.55488E-01-1.00793E+00
 -1      4554-1.52425E-01-4.86479E-02-1.17372E+00-2.32723E-01-3.76192E-01-1.19318E+00
 -1      4555-4.48626E-01-7.72871E-02 3.00261E-01-3.12175E-01-2.88179E-04-9.47798E-01
 -1      4556-1.18859E+00-7.08672E-01-5.19231E-01-1.48673E-01 1.92334E-01-1.31835E+00
 -1      4557-4.79099E-02 1.13737E-01-4.83218E-01-1.73882E-01 5.14181E-02-3.26860E-01
 -1      4558-3.92628E-01-2.79582E-02 8.91075E-02 1.97895E-01 6.19693E-02-9.94245E-01
 -1      4559 2.72211E-02 1.52799E-01 1.05453E-01 2.53819E-03 3.68502E-01 4.87586E-01
 -1      4560-3.11130E-01-6.46353E-02-2.57241E-01 8.67135E-02 4.16937E-01 6.95735E-01
 -1      4561 1.63665E-01 1.34255E-03-3.78491E-01-4.29794E-02 1.71892E-01-1.95194E-02
 -1      4562-2.99520E-01-3.91008E-02 6.10253E-01 5.37893E-02 6.08318E-01 1.09065E+00
 -1      4563-1.14515E+00-1.07835E+00-7.49228E-01 3.15628E-01 5.34094E-01 1.66343E+00
 -1      4564-2.04997E-01 6.60567E-02 1.07496E+00 1.24230E-01 1.61114E-01 1.31642E+00
 -1      4565 1.21940E-02-8.28730E-02-2.61750E-01 4.33234E-03 1.33577E-02 6.15286E-01
 -1      4566 1.10734E+00 5.50849E-01 4.03962E-01 4.48328E-01-9.55890E-02 1.33293E+00
 -1      4567 7.66991E-02 4.84578E-02-2.23914E-02 8.59581E-02-1.52095E-01 1.39416E+00
 -1      4568-1.31251E-01-1.62900E-01-2.05497E-02 1.16981E-01-1.69609E-01 3.32362E-01
 -1      4569-3.18858E-01-3.43036E-02 2.75899E-01-6.49815E-02-1.18921E-01 7.12056E-02
 -1      4570 0.00000E+00 0.00000E+00 0.00000E+00 0.00000E+00 0.00000E+00 0.00000E+00
 -1      4571 0.00000E+00 0.00000E+00 0.00000E+00 0.00000E+00 0.00000E+00 0.00000E+00
 -1      4572 0.00000E+00 0.00000E+00 0.00000E+00 0.00000E+00 0.00000E+00 0.00000E+00
 -1      4573-1.50712E-01-6.91347E-02 4.61651E-01 1.01585E-01-2.71655E-01 5.41806E-02
 -1      4574 2.58994E-03 2.04752E-01 3.74007E-01-6.24923E-02-2.76197E-01-1.31087E+00
 -1      4575-2.87853E-01-2.33656E-01-2.54792E-02-9.81614E-02-2.44603E-01-5.28110E-01
 -1      4576-4.67590E-03 1.46024E-01 7.58926E-02-1.62353E-01-3.20141E-02-8.63395E-01
 -1      4577-2.53773E-01 2.86501E-01 3.08261E-01-5.55800E-01-1.93422E-01-4.82257E-01
 -1      4578 4.10133E-01 6.81065E-03-5.15379E-01-8.55675E-02-1.28114E-01-6.11305E-01
 -1      4579-7.23012E-01-3.49594E-01 3.24703E-02-1.19829E-01 1.65175E-01-1.13775E+00
 -1      4580-2.17821E-01 6.80968E-02 4.14822E-02-1.18995E-01 1.42507E-01-9.08522E-01
 -1      4581-1.34687E-01 8.28165E-02 1.46726E-01-3.67688E-02 3.43651E-01-5.05371E-01
 -1      4582 5.23494E-01 2.74027E-01-3.68891E-01 8.33457E-02 1.57326E-01 5.76397E-01
 -1      4583 3.11848E-01 1.84893E-01 1.02403E+00 2.16932E-01 1.83717E-01 3.79528E-01
 -1      4584-1.86231E-01-1.06214E-01 6.72364E-02 8.15288E-02 5.45601E-02 3.86231E-01
 -1      4585 2.17724E-01 6.28298E-02 8.64326E-02 1.71814E-01-3.63763E-02 9.34777E-01
 -1      4586 5.13040E-02-1.43149E-01-2.54908E-01-1.44828E-01-1.62876E-01 6.02351E-01
 -1      4587 2.87329E-01-1.94005E-01 2.11087E-01 3.06455E-02 1.31690E-01 1.04603E+00
 -1      4588-1.38589E-01-2.66680E-01-2.59456E-02 3.82008E-02-6.20495E-02 7.28788E-01
 -1      4589 4.46438E-02 5.39748E-02-1.20206E-02-2.05763E-03-3.75072E-03 2.30583E-02
 -1      4590-5.29705E-02-2.19556E-02-2.12516E-02 8.89554E-02 1.81343E-02-8.41000E-03
 -1      4591-1.31227E-01-1.90886E-01-1.70647E-02-8.02441E-03 2.05255E-02 4.49617E-02
 -1      4592 0.00000E+00 0.00000E+00 0.00000E+00 0.00000E+00 0.00000E+00 0.00000E+00
 -1      4593 0.00000E+00 0.00000E+00 0.00000E+00 0.00000E+00 0.00000E+00 0.00000E+00
 -1      4594-2.38867E+00-1.56583E+00-2.50008E+00 1.34860E-01 2.98936E-01-6.27043E-01
 -1      4595 3.79420E-01 2.45496E-01-1.85981E-01 2.67007E-01-8.52621E-02-4.97591E-01
 -1      4596 5.71355E-01 3.05710E-01-1.93482E-01 3.25706E-01 2.81119E-04-4.67287E-01
 -1      4597-2.98580E-02-4.38001E-02 1.40923E-01-9.30705E-02-4.69618E-02 3.78968E-01
 -1      4598 1.64854E-01 5.28550E-01 2.17918E-01-3.06136E-01 1.09511E+00-3.51723E-01
 -1      4599-4.34604E-01-5.74222E-01-7.95979E-01 4.25102E-01 4.81525E-01-1.02623E+00
 -1      4600 2.84118E-01 5.42264E-01 9.03974E-01 2.00753E-01-1.37591E-02-1.57170E+00
 -1      4601-6.85011E-02-4.67395E-01-5.21503E-01 1.89384E-01 3.49505E-01-3.67054E-01
 -1      4602 6.57011E-01 1.55535E-01 2.46467E-01 2.04500E-01 1.35307E-01-5.96491E-01
 -1      4603-5.24280E-01-1.15273E-01-1.88232E-01 1.75863E-01 2.07801E-02-1.00093E+00
 -1      4604-1.73174E-01 5.42040E-03 1.12224E-02 2.87106E-02-4.58034E-02-4.74418E-01
 -1      4605 3.89102E-02 2.71979E-01 7.09715E-01 1.63657E-01-1.23864E-01-5.92842E-01
 -1      4606 2.84965E-01 4.81981E-02 6.21589E-02 1.79767E-01 4.36023E-02-4.01763E-01
 -1      4607 2.36195E-01 3.19698E-02-1.69722E-01 3.56812E-02-6.97346E-02-9.37600E-01
 -1      4608-2.02642E-01-7.99227E-02-2.90688E-02 8.01380E-02 4.25016E-02-7.22953E-01
 -1      4609 6.57975E-02 9.18886E-02-2.43760E-01 2.82650E-02 9.16958E-03-2.02737E-01
 -1      4610-2.07594E-03 1.07822E-01-4.63662E-01 5.28027E-03-2.01480E-03-3.05068E-01
 -1      4611 4.54602E-01 1.37775E-01-9.93819E-02-1.20149E-02-1.04367E-01-5.58611E-01
 -1      4612-4.85405E-01 2.79981E-01 9.04969E-01 6.46386E-02-7.59656E-01-8.40320E-01
 -1      4613-5.41914E-01-1.68834E-01 2.58895E-01 1.05276E-01-1.59608E-01-1.42852E+00
 -1      4614-3.13713E-01 3.54303E-01 1.33674E+00 1.68713E-01-4.98713E-01-9.01239E-01
 -1      4615-1.21830E-01-1.21510E-01-2.74715E-01-4.24429E-02-1.49430E-01 1.20971E-01
 -1      4616-1.60317E-01-7.42879E-02-3.52337E-01-1.92839E-02-2.33043E-01 1.65688E-01
 -1      4617-1.16784E-01 2.23363E-01 4.51183E-01 5.81017E-02-3.88537E-01-7.92309E-01
 -1      4618-5.24967E-01 2.84236E-01 1.23055E-01-3.36112E-02-5.09637E-01-5.12598E-01
 -1      4619 1.40828E-01 1.98111E-01 1.73618E-01-1.56283E-01-2.98319E-01 5.43459E-01
 -1      4620-1.35071E-02 7.27701E-02-2.42393E-01-1.98351E-01 1.21164E-02 1.08116E+00
 -1      4621 1.75816E-02 1.11442E-02-2.76821E-01 8.01051E-02-2.18169E-01-1.99840E-01
 -1      4622 6.11844E-03-1.39571E-01-4.20096E-01 5.63705E-02-6.69474E-02-1.55148E-01
 -1      4623-1.13281E-01-1.72523E-01-2.27167E-01-9.31844E-02-3.36459E-01 6.75729E-02
 -1      4624-3.48364E-01 8.21009E-02 4.55731E-01-3.24513E-01-5.96492E-01 1.11922E+00
 -1      4625 2.08799E-01 1.39143E-01 4.46074E-01-2.89318E-01-4.36827E-01 1.73233E+00
 -1      4626-5.98179E-01-8.52355E-01-1.03068E+00-7.04360E-01 2.60785E-02 2.49223E+00
 -1      4627-1.78946E-01-1.03943E-01-2.98921E-01-4.61116E-02-1.73460E-02 1.81025E-01
 -1      4628 1.36415E-01 1.65243E-01 1.85633E-01 6.79091E-03-3.34549E-02 8.46717E-02
 -1      4629 1.29582E+00-1.13656E-01 2.00009E-01-1.68837E-01-1.52300E-02-2.10647E-01
 -1      4630-4.10280E-01 9.27080E-04 1.88515E-01-5.53312E-02-4.17187E-01 1.74601E-01
 -1      4631-7.72988E-01-3.17607E-01-1.32386E-01-2.23276E-01-2.71177E-01 4.45641E-01
 -1      4632 4.24887E-01 1.76335E-01 8.32013E-02-1.55522E-01-1.59258E-02 9.55014E-01
 -1      4633 4.90215E-02-9.09817E-02-5.77232E-01-5.25650E-02-4.94149E-02 6.60922E-01
 -1      4634-9.69725E-02 3.80678E-01 7.80364E-01-2.67164E-02-2.62664E-01 6.05138E-01
 -1      4635-4.73210E-01-1.28625E-01-3.41833E-01-1.07789E-02-5.84707E-02 8.01271E-01
 -1      4636 4.64905E-01 2.98662E-01-3.99595E-02-1.70308E-01 1.58984E-01 1.36467E+00
 -1      4637 7.14547E-03-1.03433E-02 6.80186E-01-1.31480E-01-1.10575E-01 5.14453E-01
 -1      4638-2.11030E-01-2.67426E-02 1.57192E-01-1.20362E-01-9.57687E-02 4.25393E-01
 -1      4639 5.47753E-02 1.28098E-01-1.43860E-02-1.36481E-01 5.93488E-02 1.48303E+00
 -1      4640-1.13432E-01-3.22905E-01 2.45438E-01 9.65699E-02-6.53457E-03 3.31923E-01
 -1      4641-1.58387E-01-2.83989E-02 1.42582E-01-5.76997E-02-1.83673E-01 5.15673E-01
 -1      4642-4.66761E-01-5.86788E-03-5.56221E-01-2.66566E-02 1.46712E-01 1.60008E+00
 -1      4643 2.62937E-01-3.63372E-01-1.13963E+00-4.29264E-01 6.92025E-01 1.05466E+00
 -1      4644 2.31768E-01-4.59785E-01-1.85932E+00-3.76855E-02 3.98886E-01 7.32548E-01
 -1      4645-7.12394E-01 1.11803E+00-1.71258E+00-1.98271E-01 4.67415E-01-4.67311E-03
 -1      4646 1.10835E-01 5.88799E-02 1.20184E-01-2.94298E-01 3.61910E-01-2.21996E-01
 -1      4647 3.08854E-01 3.38300E-02 5.23854E-01-3.64937E-01 1.95084E-01-1.90840E-01
 -1      4648 4.05680E-01-2.37296E-01-7.78021E-01-9.17204E-02 1.06416E-01 9.02783E-01
 -1      4649 0.00000E+00 0.00000E+00 0.00000E+00 0.00000E+00 0.00000E+00 0.00000E+00
 -1      4650 0.00000E+00 0.00000E+00 0.00000E+00 0.00000E+00 0.00000E+00 0.00000E+00
 -1      4651-1.50168E-01 1.08296E-01-6.15480E-01 3.47790E-01-1.40254E-01-7.38764E-01
 -1      4652-3.87772E-01 2.02870E-01 1.53391E-01 4.44582E-02-1.90376E-01-7.56539E-02
 -1      4653-9.28784E-02 8.43841E-02 1.02184E-01 4.78007E-02 4.40002E-02-7.08767E-01
 -1      4654 3.36790E-02 2.62997E-02 2.07410E-01 3.26757E-02-2.28175E-02-1.00856E-01
 -1      4655-3.96777E-03 1.09947E-01 9.18434E-02 4.32523E-03 6.01990E-02-7.93250E-02
 -1      4656-8.46638E-01-2.42680E-01-4.18384E-01 2.59861E-01 4.85260E-02-1.36731E+00
 -1      4657 1.44717E-01 1.47209E-01 2.84592E-01 1.75827E-01-2.96766E-02-8.79962E-01
 -1      4658-3.61471E-02-4.82869E-02-2.74458E-01-1.56432E-01-4.83466E-02-1.03179E+00
 -1      4659 5.87234E-01 9.55023E-02 6.06825E-01 1.34843E-01-9.86310E-02-6.58718E-01
 -1      4660-1.34565E-01-1.30852E-01-6.42421E-01 1.46023E-01-7.56403E-02-1.05278E-01
 -1      4661 8.81385E-02 9.26990E-02-8.44629E-02-9.17765E-03 1.68873E-02 7.02216E-01
 -1      4662-1.26891E-01 2.74019E-01 7.86269E-01-1.35992E-01-2.88608E-01 5.55173E-01
 -1      4663-3.94149E-01 7.64960E-02-4.13854E-01 1.05365E-01 1.43890E-01 1.06800E+00
 -1      4664-3.83936E-02-1.13271E-03 4.24538E-01 9.62172E-02 1.23734E-01-2.36709E-01
 -1      4665 4.75892E-02-4.62319E-03-2.57779E-01-9.44845E-03-1.84671E-01-3.48042E-02
 -1      4666 8.69137E-01-1.93463E-01-2.37628E-01 2.91946E-02 9.87306E-02 2.58000E-01
 -1      4667 6.33550E-02 2.83043E-02 5.36113E-01-5.64385E-02 8.05391E-02 5.06419E-01
 -1      4668-4.57995E-01 4.82463E-01 1.46579E-01-2.24779E-01-8.48844E-02 9.43300E-01
 -1      4669-8.44282E-03-3.54049E-02 1.19388E-01-2.13680E-01 3.29465E-01 1.64653E-01
 -1      4670 4.06053E-01 2.00189E-02-9.33999E-01 2.65977E-01 1.27446E-01-3.44743E-01
 -1      4671 4.37896E-02-2.06004E-02 1.29309E-01-5.25867E-02-1.22966E-01 1.78013E-03
 -1      4672-1.25727E-01 3.43453E-01 8.86518E-01 2.93940E-01-9.66480E-02-9.64988E-01
 -1      4673 4.09048E-02 1.65610E-02-4.88600E-01 1.38669E-01 2.65323E-01-1.13140E+00
 -1      4674-1.30987E-03 9.57552E-02-1.80514E-02-2.42165E-03-1.14894E-01-5.65236E-01
 -1      4675-8.24542E-02-4.08541E-01 6.55944E-01 8.13869E-01 1.06184E-01 2.41002E-01
 -1      4676 7.71904E-02 3.50317E-03-1.47257E-01-1.54141E-02-1.79830E-01-7.73525E-03
 -1      4677-6.77926E-02 1.32806E-01-4.16332E-01-1.53230E-01 1.32910E-02 3.21622E-01
 -1      4678-2.30408E-01 1.33971E-01 8.66178E-01-2.61721E-01-1.01700E-01 8.30975E-01
 -1      4679 2.17913E-01-2.05675E-01-9.76508E-01-6.87704E-02-3.76093E-02 9.66187E-01
 -1      4680 3.26454E-01 2.47771E-01-6.73554E-01 2.42424E-02 5.15416E-02 1.29575E+00
 -1      4681 5.96351E-01-3.69541E-01-1.96908E+00-2.35377E-02 3.36534E-01 8.27157E-01
 -1      4682 0.00000E+00 0.00000E+00 0.00000E+00 0.00000E+00 0.00000E+00 0.00000E+00
 -1      4683 5.35917E-01-5.10220E-01-3.92377E-01 4.10688E-01 7.82031E-02-3.78375E-01
 -1      4684-4.19148E-01-4.05547E-01-4.13658E-01 1.02625E-01-1.32895E-01-1.08802E+00
 -1      4685 8.24934E-01-1.38650E-01 4.53312E-01-1.22887E-01 6.87367E-02 1.17492E+00
 -1      4686-5.04224E-02 3.48177E-02 3.48373E-02 8.75770E-02 9.22616E-02 1.31632E+00
 -1      4687-8.11822E-02-2.87457E-01-7.56117E-01 4.22010E-02 2.05969E-01 1.13423E+00
 -1      4688-2.24822E-01 8.99157E-02 5.27008E-01-8.11736E-02-3.26494E-02 6.69447E-01
 -1      4689 1.94682E+00 2.17966E+00 2.48178E+00 6.75073E-01-5.04554E-01-2.27560E+00
 -1      4690-3.22027E-01-2.81235E-01 4.22438E-01-7.63009E-03 4.66103E-02-1.17908E+00
 -1      4691-6.16991E-01 2.18798E-01 8.96141E-02-4.26954E-02 4.09840E-02-5.67946E-01
 -1      4692-4.07200E-01-1.79478E-01 1.74658E-03-1.03473E-01 2.80707E-01-2.05835E+00
 -1      4693 2.47107E-01-3.72765E-02-1.43387E-01 8.21126E-02 6.26466E-02-8.42800E-01
 -1      4694 1.17092E-01-7.03414E-02-8.55518E-01 6.94216E-02-5.50718E-02-1.16378E+00
 -1      4695-2.54544E-01-3.62861E-01-2.01430E+00 1.51955E-01-1.48156E-01-7.08979E-01
 -1      4696-7.99448E-02 1.04651E-01 3.25243E-01-3.06534E-02 7.70860E-02-8.87717E-01
 -1      4697-9.71058E-02 1.65318E-01 5.40711E-01-9.62065E-02 1.37855E-01-6.30817E-01
 -1      4698 5.04879E-01 1.57970E-01-2.44468E-01-1.30282E-01-1.55310E-01-1.39810E+00
 -1      4699 4.21571E-01 2.03662E-01 1.40905E-02 4.69897E-02-2.20703E-02-1.42340E+00
 -1      4700-1.99491E-01-1.07553E-01-5.56723E-02-5.63180E-02 7.58273E-02-1.06655E+00
 -1      4701 1.47397E-01 8.15036E-03-6.14137E-02 1.63214E-01 1.96831E-02-1.42997E+00
 -1      4702 7.36592E-01-1.16363E-01 1.70620E-01-4.05043E-01 1.96560E-01-1.16521E+00
 -1      4703-5.70068E-01-3.96037E-01 1.74405E-01-1.21233E-01-1.23989E-01-1.75065E+00
 -1      4704-2.01163E-01-8.16656E-02-8.28713E-01-2.63777E-01 1.15384E-01-1.81468E+00
 -1      4705 2.36477E-03 1.92051E-01-3.05482E-01-3.95550E-02 1.59357E-01-1.29345E+00
 -1      4706 1.14067E-02 4.12657E-01-1.27339E-01 3.62086E-02 1.22429E-01 1.31688E+00
 -1      4707-3.87422E-01 6.79189E-02-4.47513E-01 7.05219E-02-1.14226E-01 1.52197E+00
 -1      4708 4.62954E-02 5.95684E-02-4.58487E-01-2.30738E-02 2.58470E-01 1.14578E-01
 -1      4709 3.86331E-02 1.35879E-01-4.30052E-01 1.35495E-03 2.72319E-01 6.63847E-02
 -1      4710-2.07456E-01-1.09469E-01-2.50276E-01-1.17263E-01-1.29377E-02 1.85996E+00
 -1      4711 2.22284E-02 1.20689E-01 4.48049E-01 3.47107E-02-5.89125E-02 1.43733E+00
 -1      4712 5.68463E-02 1.39161E-01-4.90027E-03-6.19596E-02 1.86659E-03 8.48964E-01
 -1      4713-8.25260E-02 4.48198E-02-7.57608E-02-1.85762E-02-1.28498E-01 5.48744E-01
 -1      4714-1.62481E-01-1.17462E-01-1.88993E-01 1.03596E-01 1.21210E-01 8.60259E-01
 -1      4715-8.38083E-02-1.41838E-01-3.83340E-01-4.92169E-03-1.57037E-01 7.13011E-01
 -1      4716 1.49887E-01 9.02665E-02-4.59605E-02 2.39655E-02-8.12264E-02 1.06691E+00
 -1      4717 3.81085E-01 2.08382E-01-3.60646E-01-2.51127E-02-1.11316E-01 1.20722E+00
 -1      4718 4.00116E-04-2.96571E-01-1.33047E+00-8.07614E-02-2.46568E-01 7.71010E-01
 -1      4719 8.61224E-02-2.31386E-01-2.10471E-02-1.80529E-01 9.48888E-02 8.30209E-01
 -1      4720 3.51997E-02 3.88109E-01 3.81409E-01 2.76518E-02-8.57627E-02 5.19391E-01
 -1      4721 2.01755E-01 3.45496E-01 7.50482E-01 1.28767E-01-1.29995E-01 9.66942E-01
 -1      4722-4.77605E-02-1.09889E-01-2.21354E-01 4.08781E-04 9.05007E-03 2.41828E-04
 -1      4723 2.68083E-01 1.76719E-01 3.25352E-01-8.88975E-02 4.15657E-01 1.38919E+00
 -1      4724-3.99908E-01-4.20713E-01-1.60827E-01-1.59055E-01 1.75216E-01 1.27268E+00
 -1      4725 6.71242E-02 4.55541E-02-2.41130E-01-8.28932E-02-4.31377E-02 9.78961E-01
 -1      4726 8.98302E-01 7.37310E-01 1.06750E+00-2.78108E-01 4.46740E-01-2.34403E+00
 -1      4727 6.48825E-02-9.82701E-02-1.17942E+00 9.35436E-02-2.81323E-01-6.62675E-01
 -1      4728 5.95030E-02 4.56473E-02 3.89120E-02-1.41960E-02 2.87456E-01-4.56963E-01
 -1      4729-4.32785E-02-1.27005E-01 8.87486E-01-1.64762E-02 7.30945E-02-1.04051E+00
 -1      4730-6.21641E-02-1.05886E-01-1.86757E-01 5.02225E-02-7.74396E-03-1.22342E-01
 -1      4731 9.64600E-01 6.00922E-01 5.15194E-01 4.00034E-01 2.43971E-01 1.79078E+00
 -1      4732 0.00000E+00 0.00000E+00 0.00000E+00 0.00000E+00 0.00000E+00 0.00000E+00
 -1      4733 0.00000E+00 0.00000E+00 0.00000E+00 0.00000E+00 0.00000E+00 0.00000E+00
 -1      4734-3.36344E-02 9.39369E-02 1.23226E+00 4.83349E-02-2.64789E-01-6.16134E-01
 -1      4735-1.33813E-01 1.38323E-02-1.65432E-02 5.14760E-02-2.25897E-02-1.15365E+00
 -1      4736-7.18137E-02-1.04330E-01-4.81124E-01-3.45409E-02 2.63107E-01-1.10943E+00
 -1      4737 3.09293E-02-1.83574E-02 1.57054E-01 7.93196E-02 3.15582E-01-1.06753E-02
 -1      4738 3.26460E-01-4.21768E-02-4.39747E-01-2.21352E-01 4.66391E-01 8.44997E-01
 -1      4739 2.96217E-01 6.93049E-02-4.40709E-01-4.58465E-02-1.50706E-01 8.06656E-01
 -1      4740 2.45789E-02-4.17650E-01-3.05138E-01-1.46043E-02-1.88344E-01-8.27081E-02
 -1      4741-2.59075E-01-4.41356E-01-2.79088E-01-5.34220E-02-2.90525E-01-1.06661E+00
 -1      4742-6.05836E-01-1.84648E-01 1.74401E-01-1.12214E-01 4.39931E-02-7.62570E-01
 -1      4743-1.62760E-01 6.22528E-02 5.41004E-02-1.03552E-01-5.62465E-03-6.25489E-01
 -1      4744 1.80196E-01-6.35771E-02 6.51279E-02 4.87903E-02 1.91091E-01 7.83696E-02
 -1      4745 4.46294E-02 3.62208E-01-2.26913E-01-1.19690E-01 2.11978E-01-3.02471E-02
 -1      4746-9.54002E-02-3.91773E-02 2.64165E-01-1.34353E-01 8.60258E-01 4.87385E-01
 -1      4747 3.29536E-01 6.27676E-01 2.13456E+00 2.67445E-02 1.12886E-01 7.76158E-01
 -1      4748-4.57969E-02-7.69246E-02 8.49762E-02-1.52308E-02-1.20428E-02 7.17457E-01
 -1      4749 9.88226E-02 2.23836E-01 6.14804E-01-8.52810E-02-2.33759E-01 1.54516E-01
 -1      4750-2.97497E-02 7.33114E-02 1.93432E-01-4.64202E-02-3.13576E-02 4.22992E-01
 -1      4751 2.29738E-01 1.80646E-01 8.36139E-01-4.03059E-02-3.02764E-01 6.66485E-01
 -1      4752 2.80193E-01-2.91758E-02-1.25194E-01 2.55809E-02-6.89805E-02-9.25276E-02
 -1      4753 1.05675E-02 6.21370E-03 1.13181E-01 4.11520E-02 4.50608E-02 7.70193E-03
 -1      4754-7.02016E-01-4.84548E-01-5.25994E-01-1.09983E-01-8.70197E-02-4.72396E-01
 -1      4755-2.89071E-01-1.38213E-01-1.43695E-01-2.40298E-02 5.90591E-03-1.23346E+00
 -1      4756-2.02005E-01-9.58770E-02-6.19992E-02 1.48543E-01 1.95441E-01 1.52281E-01
 -1      4757 4.80842E-02 6.89837E-02-1.94459E-01-2.12270E-04 1.00766E-01 8.71038E-01
 -1      4758 9.13306E-02-1.59276E-01 1.27233E-02 3.91389E-02-9.65983E-02 2.40959E-01
 -1      4759-8.79931E-02 1.49570E-01 2.31590E-01-3.97547E-02-1.92594E-01 2.14021E-01
 -1      4760 2.10589E-01-2.55771E-01-1.88143E-01 1.36790E-02-1.65930E-01-1.50772E-01
 -1      4761 0.00000E+00 0.00000E+00 0.00000E+00 0.00000E+00 0.00000E+00 0.00000E+00
 -1      4762 0.00000E+00 0.00000E+00 0.00000E+00 0.00000E+00 0.00000E+00 0.00000E+00
 -1      4763 0.00000E+00 0.00000E+00 0.00000E+00 0.00000E+00 0.00000E+00 0.00000E+00
 -1      4764 3.61037E-01 8.00942E-01 7.58332E-01 1.67554E-01-6.61402E-02-1.58568E+00
 -1      4765-3.41920E-02 4.35261E-02-2.13151E-02 1.62592E-01 1.44918E-01-5.03229E-01
 -1      4766 2.49114E-01 3.90501E-03-5.12397E-02 9.65896E-02 4.58859E-02-1.02385E+00
 -1      4767-4.82843E-01-3.98193E-01-6.85075E-01 1.94005E-01 2.47741E-02-1.46607E+00
 -1      4768 3.61986E-02-5.29788E-02-2.02942E-01 4.84614E-03 3.99711E-02-3.73114E-02
 -1      4769-2.57710E-02 1.35129E-01-2.71611E-02 1.02415E-01-7.11592E-02-1.23614E+00
 -1      4770-2.41745E-02 6.23403E-02-1.14938E-01 2.46243E-02-2.52673E-01 6.89022E-02
 -1      4771-2.65963E-01 9.32095E-04-3.36218E-01 2.84163E-02-2.12537E-01-1.04842E+00
 -1      4772-9.98031E-02-1.03905E-01-4.76743E-01-4.19078E-03-2.68694E-01-5.08081E-01
 -1      4773-5.86929E-02 2.47410E-01 7.24279E-01-6.83332E-02-2.62544E-01 5.10915E-01
 -1      4774 8.16470E-02 3.86416E-02-1.43847E-01-1.28784E-01-1.59795E-01 3.38078E-01
 -1      4775 6.73025E-02-8.40865E-03-1.15500E-01-1.61604E-01 1.67463E-01 9.47726E-01
 -1      4776 3.80309E-02 4.06563E-02-1.30793E-01-7.88362E-02 3.56965E-01 3.00997E-01
 -1      4777 1.10498E-01 4.53244E-02-1.61811E-01-2.74378E-02 3.75148E-01 1.31800E-02
 -1      4778 9.26734E-01 1.63357E-01 2.19800E-01 1.28668E-01 4.93930E-01 1.11408E+00
 -1      4779 8.37468E-01 1.49447E-01 8.49836E-02 1.12703E-01 2.56417E-01 1.15822E+00
 -1      4780 1.80827E-02-6.94825E-02-9.64962E-02-2.85814E-02 2.76825E-01-5.46791E-02
 -1      4781-2.24957E-01-1.44796E-01 2.81761E-01 5.24862E-02 1.48920E-01 1.67224E+00
 -1      4782 0.00000E+00 0.00000E+00 0.00000E+00 0.00000E+00 0.00000E+00 0.00000E+00
 -1      4783-4.29229E-01-6.94755E-02-1.76268E-01 4.37293E-02 7.55083E-02-4.53441E-01
 -1      4784 1.22998E-01 2.52881E-01 5.70819E-01 1.15841E-01-3.51605E-02-6.74476E-01
 -1      4785-4.05249E-02 8.73039E-02 4.71414E-01 2.26442E-01-2.66833E-01-6.46793E-01
 -1      4786 9.85636E-02 1.50154E-01 1.74785E-01-1.14768E-01-5.04728E-02-1.17855E+00
 -1      4787 2.13182E-01 3.40099E-02 5.12755E-02 8.25927E-02-1.56551E-01-9.55409E-01
 -1      4788 1.73157E-01 3.44669E-03-3.32763E-01 3.19977E-02-2.42801E-01 7.82880E-01
 -1      4789 5.01600E-02 1.81221E-01 9.30655E-01 1.20950E-01-2.82576E-01 7.19311E-01
 -1      4790-1.00139E-02-1.04678E-01-4.83613E-01-3.05467E-02-2.52133E-02 3.21562E-01
 -1      4791 1.02336E-01 1.00990E-01 7.75521E-02-2.22963E-02 1.11048E-01 1.30027E+00
 -1      4792-3.52413E-01-3.39215E-01-6.39919E-01-2.21595E-01 2.10830E-01 7.88229E-01
 -1      4793 2.45974E-01 7.62043E-03-4.99271E-01-7.78589E-02 3.20960E-01 8.06147E-01
 -1      4794-1.47416E-01 2.90719E-01 2.78073E-01-1.82932E-01 2.56329E-01 1.68844E-01
 -1      4795 0.00000E+00 0.00000E+00 0.00000E+00 0.00000E+00 0.00000E+00 0.00000E+00
 -1      4796 1.66700E-01 3.55416E-02 7.87265E-01-7.99852E-02 1.15962E-01-8.48248E-01
 -1      4797 1.10448E-01-3.89654E-01-1.58503E+00-7.43642E-02 4.28942E-01-1.05590E+00
 -1      4798 1.25014E-01-9.09143E-02 6.19919E-02 1.48107E-01-3.62460E-02-1.66013E+00
 -1      4799-3.60830E-02 1.13689E-01 4.92486E-01-8.85561E-03-3.22156E-01 8.58136E-01
 -1      4800 1.95542E-02-2.20439E-01-8.02703E-02-1.80044E-01-9.32526E-02 1.17317E+00
 -1      4801-4.74052E-02 1.54379E-01 6.24856E-01-4.24749E-02-3.10446E-01 1.07817E+00
 -1      4802-3.82001E-01-2.62692E-01-3.50883E-01-9.03237E-03 9.11546E-02 1.33839E+00
 -1      4803-1.57472E-01-4.24040E-01-1.13914E+00 2.63303E-03 2.30301E-01 1.00957E+00
 -1      4804 0.00000E+00 0.00000E+00 0.00000E+00 0.00000E+00 0.00000E+00 0.00000E+00
 -1      4805 1.88491E-02 1.95477E-02-1.32825E+00 2.41289E-02 2.75349E-01-1.29903E+00
 -1      4806-1.19902E-01-5.25598E-02 3.01732E-01-5.76368E-02 8.79415E-02-6.25120E-01
 -1      4807-3.57584E-01-2.32520E-01-2.60400E-01 2.82380E-02 6.92772E-03-1.09485E+00
 -1      4808 5.74883E-02 7.18494E-02-1.64537E-01 2.52076E-02-2.41014E-01-1.32801E-01
 -1      4809 8.82918E-02 6.12882E-02 2.79754E-01 4.83993E-02-7.87760E-02 1.25332E+00
 -1      4810 0.00000E+00 0.00000E+00 0.00000E+00 0.00000E+00 0.00000E+00 0.00000E+00
 -1      4811-1.40538E-01-7.46186E-02-1.15565E-01 1.45942E-02 9.87802E-02-5.03404E-01
 -1      4812 2.99465E-01 1.72156E-01 1.21680E-01-3.94102E-02-4.72522E-02-8.46126E-01
 -1      4813-3.26613E-01 1.40600E-01-3.01015E-02 4.14701E-02-1.96175E-01-1.09028E+00
 -1      4814-9.34921E-03 3.73418E-01-2.08095E-01 2.38692E-01-2.86627E-01 2.74844E-01
 -1      4815 2.37960E-01 2.59962E-01 3.17433E-01-1.51148E-01 2.59764E-01 7.68730E-01
 -1      4816-5.90922E-01-6.16547E-01 5.85617E-01 3.20498E-01 7.64533E-02 1.80455E+00
 -1      4817 0.00000E+00 0.00000E+00 0.00000E+00 0.00000E+00 0.00000E+00 0.00000E+00
 -1      4818 0.00000E+00 0.00000E+00 0.00000E+00 0.00000E+00 0.00000E+00 0.00000E+00
 -1      4819 0.00000E+00 0.00000E+00 0.00000E+00 0.00000E+00 0.00000E+00 0.00000E+00
 -1      4820-8.77864E-03 1.20675E-01 3.64421E-01 5.62951E-02-3.45477E-01-1.61996E-01
 -1      4821-3.36893E-01 2.08828E-02 4.56481E-01-9.26120E-02 3.62397E-02-1.73586E+00
 -1      4822 2.56806E-01-7.98703E-02-1.42202E-01 7.95410E-03-1.65817E-01-1.15744E+00
 -1      4823-1.22412E-02 8.79021E-02 7.28656E-02-3.84598E-02 2.89403E-02-1.30300E+00
 -1      4824 2.21157E-01 1.00423E-01 6.05488E-02 2.03650E-01 5.33494E-02-1.18929E+00
 -1      4825-3.41646E-01-1.56335E-01-4.90947E-01 1.50231E-01 1.98289E-01-1.40751E+00
 -1      4826-1.12273E-01-7.13468E-02 2.59943E-01-3.76287E-02 1.76517E-01-1.79832E+00
 -1      4827-3.08426E-01 4.15811E-02-1.77783E-01 4.73028E-02 1.62331E-01-1.49093E-01
 -1      4828-1.83475E-01 6.35486E-02 3.24170E-01-6.71307E-02 1.99686E-01-1.35449E+00
 -1      4829 4.20097E-02 6.03536E-02-5.49373E-01-1.25700E-01 5.27918E-02-1.13691E+00
 -1      4830 7.24409E-02-8.06773E-02 3.36468E-01-2.54102E-01 2.11371E-01 1.61402E+00
 -1      4831 7.21447E-02 6.11924E-01 1.40670E+00-6.90900E-01 2.44023E-01 1.05506E+00
 -1      4832 6.83833E-02 1.85881E-01 1.20439E-01-1.31090E-01 9.45658E-02 9.80140E-01
 -1      4833-1.78491E-01-1.66705E-01-3.81407E-01 7.64820E-02 1.11923E-01 9.49914E-01
 -1      4834-3.67240E-02-2.02597E-01-4.81442E-01 1.12161E-02 4.29114E-02 5.28604E-01
 -1      4835 1.27858E-01 1.47388E-01 3.05796E-01 1.87088E-01 1.75895E-01 1.13691E+00
 -1      4836 4.74153E-01 5.64866E-02-9.88252E-02-8.55910E-02-1.13442E-01 1.55619E+00
 -1      4837 8.96962E-02-4.42435E-02-1.86850E-01-1.48085E-02-5.39286E-02 1.49019E+00
 -1      4838 1.24845E-01 3.94512E-01 7.86990E-01-2.44541E-02-3.55653E-01 5.99122E-01
 -1      4839-1.55250E-01-1.00199E-01 5.60915E-01 1.09196E-02-2.54742E-02 1.21409E+00
 -1      4840 2.02358E-01-1.27371E-01 4.46965E-01-1.62399E-02 2.14546E-01 1.57531E+00
 -1      4841 5.89602E-01 6.55999E-01 4.32413E-01-4.86746E-02-2.43840E-01-1.49182E+00
 -1      4842-6.80146E-03 3.14990E-03-1.12725E-01 7.81725E-03 1.03269E-01-7.46903E-01
 -1      4843-2.53465E-02 1.13896E-02 6.05467E-02-2.61646E-02 1.85939E-01-6.04874E-01
 -1      4844-2.01977E-02 1.58085E-01-5.83642E-03 3.66530E-02 4.04696E-01 5.52741E-01
 -1      4845-2.05489E-02-1.19749E-01-1.95859E-01 8.40896E-02 1.93195E-01 9.06796E-01
 -1      4846 1.89892E-01 2.66637E-01 1.20928E+00-2.40418E-02 1.45355E-01 9.41031E-01
 -1      4847 2.26230E-01-1.48347E-01-6.12941E-01-8.98152E-03-3.93974E-01 6.13491E-01
 -1      4848 0.00000E+00 0.00000E+00 0.00000E+00 0.00000E+00 0.00000E+00 0.00000E+00
 -1      4849 0.00000E+00 0.00000E+00 0.00000E+00 0.00000E+00 0.00000E+00 0.00000E+00
 -1      4850-4.37425E-01 8.82067E-02 3.41000E-01-6.41423E-02-3.51809E-01-9.71326E-01
 -1      4851-3.42629E-01 2.19481E-02 3.38024E-01-6.27842E-02 3.32347E-01-8.23952E-01
 -1      4852-1.10765E-01-7.56747E-02-2.90126E-01 1.49136E-01-1.36175E-02-1.36468E+00
 -1      4853 8.03121E-02 5.93708E-02-2.08460E-01-1.63477E-02 3.12065E-01-3.29246E-02
 -1      4854 1.40303E-01 1.51101E-01 6.30146E-01 1.15641E-01 9.17908E-02 3.13042E-01
 -1      4855 1.26526E+00 8.76408E-01 5.60566E-01 1.35347E-01 3.52889E-01 2.31564E+00
 -1      4856 8.01792E-02 3.17817E-01 7.60111E-01 3.74992E-02-3.84849E-01 5.83755E-03
 -1      4857 9.95520E-02-1.21906E-01 7.81989E-01-5.45688E-02-1.45623E-01-7.33698E-01
 -1      4858 7.68942E-01 4.22601E-01 1.14972E+00 4.54695E-02-2.12410E-01-1.57882E+00
 -1      4859-1.01176E-01-1.06473E-01-1.29039E+00-8.98159E-02-4.10777E-01-9.91078E-01
 -1      4860 1.94015E-01 2.90190E-01-2.61671E-02-8.36387E-02-1.64299E-01-1.07195E+00
 -1      4861-7.56297E-02-1.55777E-01-5.64205E-01-1.11692E-01-2.24044E-01-5.12279E-01
 -1      4862-5.12708E-02-1.06456E-02-3.92951E-01 5.52586E-03 2.25173E-01 7.72898E-02
 -1      4863 7.24133E-02 8.26216E-02-1.17145E-02 6.26910E-02 4.59201E-01 2.75088E-01
 -1      4864-2.22067E-02-1.41514E-01-9.53931E-02-2.45329E-02 1.14052E-01 1.07243E+00
 -1      4865-5.48335E-02-8.64676E-02 1.19174E-01 1.24920E-01-4.97514E-02 5.73756E-01
 -1      4866 5.57719E-01 2.94845E-01 7.81818E-02-4.22950E-02-5.33566E-02 7.05786E-01
 -1      4867 3.08493E-01-1.12114E-01-1.42679E-01-1.00972E-01-6.28241E-01 3.41500E-01
 -1      4868 8.53844E-02 1.16981E-01 4.91383E-01-2.11498E-03-8.23254E-02 4.74603E-03
 -1      4869-6.99927E-02 2.66608E-02-1.64763E-03 3.95338E-02-9.51784E-02 2.61994E-02
 -1      4870 2.42475E-01-4.74155E-02 6.50087E-02 2.99555E-02-5.24075E-02 2.14286E-01
 -1      4871-2.93256E-01-1.70063E-01 2.20168E-01 1.77296E-01-2.09958E-01 1.05643E-02
 -1      4872-2.94764E-01 4.74748E-01 8.93259E-01 5.42794E-02-4.25014E-01-8.39073E-01
 -1      4873-1.58969E-01-1.85024E-01-5.49455E-01 7.40539E-03-2.61021E-01-4.19999E-01
 -1      4874-2.89285E-01-1.15033E-01-9.25836E-02-4.20946E-02-1.62363E-01-2.06020E-01
 -1      4875 1.42959E-01 4.91946E-02 2.73513E-02 4.88218E-02-4.96693E-02-7.92996E-01
 -1      4876-3.62293E-01 3.25970E-02 2.21436E-01-3.77899E-02 5.74373E-01-3.78957E-01
 -1      4877-4.00270E-01-6.41419E-03-7.52935E-01 1.87148E-01-1.35876E-01-9.80445E-01
 -1      4878-4.59728E-01-3.17103E-01-9.42957E-01 1.77967E-01 1.75988E-01-1.09950E+00
 -1      4879-8.30878E-02 3.23641E-02-4.16905E-01-1.45664E-02 2.92890E-01 9.07769E-02
 -1      4880 9.82154E-02 9.45518E-02-1.00448E-01-5.91032E-03 8.28953E-02 8.18979E-02
 -1      4881 1.77036E-01 3.16517E-02-7.20336E-02 9.42340E-02-1.84970E-01 1.26847E-01
 -1      4882-2.55360E-01-3.13183E-01-2.49289E-01-5.38109E-02-2.00995E-01 8.84123E-02
 -1      4883 4.76580E-02 4.98789E-02-5.69440E-04 4.11732E-02-1.85502E-01 3.79366E-03
 -1      4884-2.02796E-01-1.55360E-01-7.78895E-01-1.42748E-01 1.68660E-02-1.01906E+00
 -1      4885 0.00000E+00 0.00000E+00 0.00000E+00 0.00000E+00 0.00000E+00 0.00000E+00
 -1      4886 0.00000E+00 0.00000E+00 0.00000E+00 0.00000E+00 0.00000E+00 0.00000E+00
 -1      4887 7.08209E-02 2.29927E-03 1.42366E-01 1.32300E-01-6.68800E-02-5.30529E-01
 -1      4888-4.09065E-02 8.57745E-02 1.97856E-01-1.04863E-01-1.39903E-01 2.03170E-01
 -1      4889-1.71400E-01 8.98997E-02 2.42836E-01-7.36107E-02 3.86886E-03 2.05766E-01
 -1      4890 2.44434E-01 6.91528E-05 4.42826E-01 2.67394E-01 3.29003E-01-1.08531E+00
 -1      4891 1.14083E-01-1.76801E-03 1.84188E-01 5.98589E-02 2.02265E-02-2.59383E-01
 -1      4892-9.55154E-02 3.13029E-02-3.41291E-01-6.91337E-02-8.25785E-03-4.73167E-02
 -1      4893 6.53994E-02-9.49418E-02-4.92474E-03 1.17535E-01 5.28743E-02-4.84970E-01
 -1      4894 1.35035E-01 9.93172E-02 9.55190E-03 1.20423E-01 7.86527E-02-9.96077E-01
 -1      4895-3.93645E-02 1.38986E-02 2.83897E-01 1.84512E-01-4.65043E-02-1.06304E+00
 -1      4896-3.43162E-01-3.27594E-02 1.17588E-01 5.91416E-03-5.27476E-02-6.33382E-01
 -1      4897-9.28032E-02 2.30505E-02 2.47796E-01-3.54177E-02 3.80895E-03-8.78359E-01
 -1      4898-6.64865E-02-1.79305E-02-8.52672E-02 9.64192E-03 5.96268E-02-9.00018E-02
 -1      4899-8.29557E-01-2.12662E-01-5.70121E-01-1.44764E-01-4.37972E-01-1.03068E+00
 -1      4900 3.61443E-01 3.80949E-01 2.60856E-02 7.59438E-02-2.23712E-01-1.38682E+00
 -1      4901-5.86407E-02 1.23452E-02-1.84173E-01-3.00598E-02-1.76942E-01 4.39485E-02
 -1      4902 1.32462E-01 9.41655E-02-3.17959E-01 6.77977E-03 3.05498E-02-1.21573E+00
 -1      4903-6.13709E-01-1.84504E-01-7.33483E-01 1.83291E-02-3.16362E-01-5.56961E-01
 -1      4904 6.94426E-02-3.54628E-01-2.98599E-01 3.13939E-01 3.17601E-02 9.94523E-01
 -1      4905 5.43728E-02-3.21764E-02-1.10665E-01 4.99838E-02-2.32594E-01-8.88519E-02
 -1      4906 2.15104E-01-2.22726E-01-8.01173E-01 2.33490E-02-3.56662E-01 5.47628E-01
 -1      4907-1.23481E-01 3.11351E-02-2.80964E-02 1.98682E-02-7.19379E-02 1.23393E-01
 -1      4908-5.50166E-01-3.22746E-01-6.59269E-01-7.65569E-02-1.76758E-01 5.30558E-01
 -1      4909-2.52541E-01-1.49082E-01 1.56633E-02 6.12013E-02-5.07870E-02 9.71227E-01
 -1      4910-1.66044E-01-1.93675E-01-1.07891E-01 1.59211E-01 1.12425E-01 3.89794E-01
 -1      4911 1.53912E-01 1.07270E-01 1.33512E-01 7.07934E-02 1.65444E-01 4.31921E-01
 -1      4912 6.68733E-01 1.82625E-01 3.21924E-01 2.24672E-02 2.78980E-01 8.91668E-01
 -1      4913 3.83128E-01 3.22234E-01 4.52309E-01 2.25198E-01 1.86434E-01 1.24449E+00
 -1      4914-1.50578E-01 1.79102E-03-2.28859E-01-6.95073E-02 3.78043E-01-8.29758E-02
 -1      4915-4.74348E-02 9.87707E-02 2.27728E-01-1.03338E-01 1.44684E-01 1.58233E-01
 -1      4916 5.08569E-02-6.05975E-02-6.18294E-02 1.33997E-01 5.58291E-02-1.35047E+00
 -1      4917 6.46845E-01 7.45506E-01 1.41542E+00 1.85171E-01-2.11802E-01-1.01413E+00
 -1      4918 1.02882E-01-5.96831E-02-1.23720E-01-1.65984E-02 8.71100E-02-1.48084E+00
 -1      4919-1.82196E-01-2.68868E-01-8.92987E-01-8.25669E-02-5.28473E-02 6.52578E-01
 -1      4920 7.05513E-02-3.11774E-01-9.72476E-01 8.17818E-02 2.08474E-01 4.99119E-01
 -1      4921 1.64055E-01 4.45308E-02-3.84493E-01-4.36705E-02 2.58694E-01 8.84124E-01
 -1      4922-1.97653E-02-1.13529E-01 7.64538E-03 5.32589E-02-5.15063E-02 7.12178E-01
 -1      4923-1.26882E-02-1.33233E-02-1.85911E-01-5.71785E-02-3.28447E-02 1.28357E+00
 -1      4924 0.00000E+00 0.00000E+00 0.00000E+00 0.00000E+00 0.00000E+00 0.00000E+00
 -1      4925-1.16350E+00-5.97857E-01-1.05798E+00 2.11240E-01 2.14866E-01-1.51945E+00
 -1      4926-1.17091E-01-2.62519E-02-1.07219E-01-9.65563E-03 4.16875E-02-2.11413E-01
 -1      4927 3.89394E-02-3.60567E-01-6.25985E-01 2.36271E-01 3.56485E-01-5.91709E-01
 -1      4928 6.14662E-02 2.89365E-02-2.40239E-01 2.43772E-02 8.33522E-02-1.54778E+00
 -1      4929-9.92938E-02 2.90137E-02 4.07187E-01 2.81337E-02-3.96623E-01 4.39095E-02
 -1      4930-4.62217E-02-1.92855E-01-1.84629E-03 1.21875E-01-1.80306E-01 7.66888E-01
 -1      4931 6.08915E-02 1.07672E-02 4.33809E-02-9.07922E-02-3.12676E-01 1.22887E+00
 -1      4932 9.90504E-02-8.88811E-02-1.20434E-01 2.68643E-02 6.56756E-02 1.14957E+00
 -1      4933-1.06784E-01-6.46877E-02 1.16379E-01 1.41161E-03-1.41516E-01 1.65206E+00
 -1      4934 0.00000E+00 0.00000E+00 0.00000E+00 0.00000E+00 0.00000E+00 0.00000E+00
 -1      4935 0.00000E+00 0.00000E+00 0.00000E+00 0.00000E+00 0.00000E+00 0.00000E+00
 -1      4936-2.21272E-02-2.27839E-01-2.95460E-01 1.18669E-01 1.83206E-01-5.46540E-01
 -1      4937 4.88718E-02 1.56325E-02-3.36252E-01 3.73810E-02-2.22830E-01-1.08845E-01
 -1      4938-9.84329E-02 3.04009E-01 1.23971E+00-4.10811E-01-4.32130E-01 2.04627E+00
 -1      4939 0.00000E+00 0.00000E+00 0.00000E+00 0.00000E+00 0.00000E+00 0.00000E+00
 -1      4940 2.88759E-01 5.91173E-02 1.99577E-02 1.04503E-01-2.07578E-02-1.22675E+00
 -1      4941 2.88692E-01 9.70814E-02-2.40286E-01 1.40697E-01 1.08284E-01-1.02206E+00
 -1      4942 2.85783E-01-1.48316E-02-2.18912E-01 3.62468E-02-1.86502E-01-8.62094E-01
 -1      4943-9.55627E-02 1.18134E-02 8.44324E-02 2.53252E-02 5.59890E-03 8.88539E-01
 -1      4944 0.00000E+00 0.00000E+00 0.00000E+00 0.00000E+00 0.00000E+00 0.00000E+00
 -1      4945 4.81172E-02-1.10603E-01-6.70032E-02-1.70947E-02-3.75713E-03-6.99640E-01
 -1      4946 6.89654E-01 2.03853E-01 3.15706E-02 7.63079E-02-1.63520E-01-1.99182E+00
 -1      4947 8.94346E-02-1.53316E-01-6.91169E-01 2.81053E-01 2.87543E-01 2.33658E-01
 -1      4948-2.51788E-01-5.53414E-02-5.62314E-02-7.02561E-02 1.70172E-01 5.44965E-01
 -1      4949 4.08778E-01 1.15747E-01 1.20580E-01 2.31708E-01 1.62970E-01 1.34011E+00
 -1      4950 9.06634E-02 1.59390E-01-8.64671E-02 1.12093E-03-2.61064E-01-6.18525E-01
 -1      4951 5.84384E-01 2.99061E-01 7.44230E-01 1.24552E-01 7.68958E-02-1.14614E+00
 -1      4952-2.96761E-01-1.18035E-01-2.19441E-01 1.47722E-01-2.99618E-01-7.44779E-01
 -1      4953-3.83343E-01-8.65196E-02-2.32303E-02 8.45862E-02-2.42108E-01-1.15168E+00
 -1      4954 4.82128E-02 2.30580E-02-4.69728E-01 1.73786E-02 1.44576E-01-9.11781E-01
 -1      4955-3.54890E-02-1.49010E-01-2.41359E-01-2.36038E-01 4.55895E-01 1.29220E+00
 -1      4956 9.27218E-02 6.90989E-02 5.57734E-01-3.16325E-02 1.35258E-01 8.24135E-01
 -1      4957-4.45282E-01-1.26825E-01-2.93315E-02-8.27574E-02 6.31870E-03 9.72115E-01
 -1      4958 7.64696E-02 1.47870E-01-4.91878E-02-1.39298E-02 3.61019E-03 1.14015E+00
 -1      4959-9.85490E-02-2.21069E-01-1.51470E-01-1.56904E-01-5.28994E-02 4.23120E-01
 -1      4960-1.98364E-01 6.83179E-02 6.95988E-03-8.82852E-02-2.42385E-03-3.07808E-01
 -1      4961-1.21020E-01 4.18461E-02 9.84312E-03-7.38440E-03-5.30135E-02-1.87051E-01
 -1      4962 6.83933E-03 1.78812E-01 1.00353E-02 2.59760E-02-2.34051E-01-3.82516E-01
 -1      4963 5.77869E-02 1.79205E-01 3.54317E-01-5.81358E-02-1.13572E-01-4.93244E-01
 -1      4964 8.88985E-02 2.85988E-01-3.13106E-01-4.06234E-02 2.22242E-02-1.46701E-01
 -1      4965-7.53250E-02-1.07366E-01-4.94937E-01-2.41879E-02 1.93420E-01 8.45608E-01
 -1      4966 9.33133E-02 1.67018E-01 6.18444E-01-1.84236E-01-7.13012E-02 6.37674E-01
 -1      4967-1.21012E-01-2.14278E-01-5.85997E-02 4.89774E-02-1.95164E-01 2.10295E-01
 -1      4968 0.00000E+00 0.00000E+00 0.00000E+00 0.00000E+00 0.00000E+00 0.00000E+00
 -1      4969 1.57205E-01 5.97961E-03-1.79917E-01-1.59561E-02 9.35925E-02-7.74552E-01
 -1      4970 1.22533E-01-1.70595E-02-2.10586E-02-6.68294E-02 3.48538E-01-5.01942E-03
 -1      4971 2.09179E-01 7.84246E-02-1.33984E-01-6.90993E-02-1.80060E-01 1.13858E+00
 -1      4972 8.27046E-02 1.88674E-01 7.91290E-01 1.99753E-01 2.45281E-02-5.97403E-01
 -1      4973-1.30911E-01-7.98555E-02-1.81867E-01-9.76103E-04 3.97410E-02 1.66672E-02
 -1      4974-2.50899E-01 1.71808E-01 3.16576E-01-1.52919E-01-6.61876E-01-4.89390E-01
 -1      4975-1.92769E-01-1.15409E-02 5.14599E-01-5.33872E-02-1.26589E-01-1.36729E+00
 -1      4976-2.66822E-01-8.64850E-02-3.34283E-01 1.23936E-02-7.35815E-02-4.37654E-01
 -1      4977-1.87959E-01 1.21074E-01-2.69812E-01 3.57623E-02-4.67163E-01-6.81951E-01
 -1      4978 2.19914E-01 1.75311E-01-4.69663E-02 2.46180E-02-2.47994E-01-9.49190E-01
 -1      4979-1.01231E-02-1.19166E-01-4.26691E-01 1.03996E-02 4.02301E-02-7.05072E-01
 -1      4980-4.36914E-01-2.72133E-01-7.13916E-01 5.78224E-02 1.09764E-01-5.75537E-01
 -1      4981-8.28577E-02 5.06038E-02-2.70380E-01 1.01434E-01-1.79287E-01-6.13776E-01
 -1      4982 2.48450E-01 7.88612E-02 1.53294E-01 4.33028E-02 1.92700E-01-2.99073E-01
 -1      4983-5.43794E-03-1.47447E-02 3.84714E-01 4.86488E-02 1.47555E-01-9.88029E-01
 -1      4984 3.06655E-01 1.56563E-01-3.87515E-01-3.36325E-03 2.42493E-01-1.11719E+00
 -1      4985-6.65078E-02-6.03796E-02-6.69042E-01-6.34027E-02 4.67297E-01-6.80731E-01
 -1      4986-1.31694E-01 1.01801E-01-4.25646E-02 1.18322E-03 9.62711E-02 1.18150E+00
 -1      4987 1.67448E-01 1.51024E-01-1.66339E-01-1.02230E-01 2.66543E-01-1.69279E-02
 -1      4988 1.12244E-01-2.60056E-02 1.39909E-01 1.40230E-03 1.89708E-01 1.44484E+00
 -1      4989-2.20294E-02-2.01290E-02 2.06795E-01-1.86003E-01 1.59411E-01 2.35039E-01
 -1      4990-2.47243E-01-2.63226E-01-1.54341E-01-1.94116E-01 2.23087E-01 1.48816E-01
 -1      4991 1.00931E-01-6.86716E-02 6.95341E-01-5.07728E-02 1.94173E-01 5.63455E-01
 -1      4992 9.96367E-02-1.94248E-02-1.47563E-01-5.13677E-02 4.81617E-02 1.11427E+00
 -1      4993-1.38638E-01-1.01331E-02 1.68994E-01 8.31596E-03-2.16075E-01 4.78898E-01
 -1      4994-1.24722E-01-1.57764E-02-8.71941E-02 8.56144E-02-2.49872E-01 3.26661E-01
 -1      4995-3.27322E-01-2.06864E-02-6.48588E-02 1.45812E-01-2.96780E-01 2.79800E-01
 -1      4996 2.00207E-01 4.70634E-02 5.93831E-02-2.83892E-02 1.42073E-01 5.00237E-01
 -1      4997 1.68055E-02-7.04298E-02-7.48883E-02 8.33032E-02 3.91781E-02 6.89851E-01
 -1      4998 2.97880E-01 8.65417E-02-5.29554E-01-1.74872E-01-1.97296E-01 8.00828E-01
 -1      4999 4.12723E-01 1.00045E-01 8.79280E-01-7.06572E-02-3.01230E-01 6.28292E-01
 -1      5000-1.44637E-01 1.09092E-01 8.73967E-01-2.01181E-01-3.63274E-02 1.02504E+00
 -1      5001 0.00000E+00 0.00000E+00 0.00000E+00 0.00000E+00 0.00000E+00 0.00000E+00
 -1      5002 0.00000E+00 0.00000E+00 0.00000E+00 0.00000E+00 0.00000E+00 0.00000E+00
 -1      5003 4.09758E-03-1.93663E-01-1.01318E+00 9.15981E-02 3.43946E-01-1.09866E+00
 -1      5004 2.27056E-01 1.77738E-02 3.46000E-01-7.50135E-02-1.85839E-01 5.72198E-01
 -1      5005-1.84810E-01-1.02139E-01-6.68645E-02-1.12411E-01-2.40045E-02 1.10076E+00
 -1      5006 0.00000E+00 0.00000E+00 0.00000E+00 0.00000E+00 0.00000E+00 0.00000E+00
 -1      5007-2.28101E-02 1.11287E-02 6.42501E-01-8.17225E-02 1.26106E-01-1.22359E+00
 -1      5008-3.62036E-02 2.14092E-02 6.73943E-01-4.46721E-03-6.16745E-02-8.32437E-01
 -1      5009 2.37687E-01-1.51658E-01-4.60019E-01-1.59278E-01 1.30244E-01-2.19201E-01
 -1      5010 5.04012E-02-2.46323E-03 4.35235E-01-1.54003E-01 1.05043E-01-5.17493E-01
 -1      5011 9.27073E-02 2.05813E-01 4.77310E-01 2.13180E-02 8.62059E-02-1.07912E+00
 -1      5012 3.02404E-01 8.49355E-02-1.19834E-01 9.36544E-02-2.18010E-01-3.57638E-01
 -1      5013 8.11361E-02 1.60794E-01 1.68149E-01 2.07948E-01-1.74777E-01-4.96441E-01
 -1      5014-2.37772E-02-4.57079E-03-8.74190E-02 5.02865E-02-9.03011E-02-8.43765E-01
 -1      5015-2.44381E-01-1.82429E-01-7.64780E-01-8.99346E-02-1.29790E-01-1.14692E+00
 -1      5016-2.15461E-02 1.78508E-02-4.38431E-02 7.86079E-02-1.52825E-01-7.03817E-01
 -1      5017 3.68052E-01 6.05001E-03-8.98803E-02 1.18450E-01-2.47071E-01-7.53800E-01
 -1      5018 4.60313E-01 1.89839E-01 1.92677E-01 1.10446E-01-1.44446E-01-1.13143E+00
 -1      5019 9.64130E-02 1.03414E-01 3.34999E-01-2.90453E-02-5.59635E-02-3.67822E-01
 -1      5020-9.95488E-02-3.78547E-01-2.78100E-01 2.95679E-01 1.72384E-01-1.25713E+00
 -1      5021 3.98163E-01 2.68034E-01 2.31532E-01 8.88037E-02-3.23588E-02-1.36759E+00
 -1      5022-1.18793E-01-1.03420E-02-2.23181E-01-5.19581E-02-1.93306E-01-1.12892E-01
 -1      5023 7.38115E-03-1.74108E-01-8.61962E-01 1.68464E-03-2.61258E-01-5.33610E-01
 -1      5024-7.09545E-02-8.20541E-02-2.37773E-01-1.14814E-02-1.43328E-01 1.06418E+00
 -1      5025 1.87697E-01 6.73436E-02-2.30994E-01 5.27743E-02 1.72454E-03 7.99095E-01
 -1      5026-2.18692E-01-7.61828E-02-1.69281E-01-1.44687E-02-2.31861E-01-1.03107E-01
 -1      5027-5.88762E-01 1.83757E-01-8.01963E-02 1.48792E-01-2.77296E-01-2.83900E-02
 -1      5028-5.70904E-02-1.74682E-01-3.50802E-01-3.99156E-02-2.75311E-01 6.65328E-01
 -1      5029 2.14990E-03-1.91111E-01-4.17245E-01 5.09035E-02-1.29909E-01 9.86816E-01
 -1      5030-1.00753E-01-6.39104E-02-2.92151E-01-2.98947E-02-9.38499E-02 3.31088E-01
 -1      5031 2.69859E-01 1.38776E-01 1.77193E-01-8.85547E-02-1.60621E-01 4.00624E-01
 -1      5032-4.38513E-02-3.66239E-04-8.52879E-02 4.45266E-03-2.23454E-01 7.81478E-01
 -1      5033-2.33742E-01-1.72616E-01-3.09316E-01-3.18271E-02 2.67965E-02 3.05216E-01
 -1      5034 7.72209E-02 1.38241E-01 3.30497E-01 7.64703E-04 1.39042E-02 4.68194E-01
 -1      5035-2.27287E-02 1.04556E-02 2.50228E-01-1.26625E-01 1.41042E-01 8.73659E-01
 -1      5036-1.16669E-02-6.61970E-03-1.72468E-01 6.31696E-02-1.04021E-01 2.54338E-01
 -1      5037-5.11883E-03-1.16300E-01-2.76347E-01 3.38054E-02 3.31037E-02 7.41587E-01
 -1      5038 4.87063E-01 3.32963E-01 6.16862E-01-3.05034E-02 1.74983E-01 6.77942E-01
 -1      5039 1.11205E-01 2.06497E-01 7.65341E-01-7.19850E-02 7.69943E-02 8.43213E-01
 -1      5040-8.15872E-02-7.90359E-02 4.14450E-01 2.76195E-02 4.30546E-01 1.29238E+00
 -1      5041 0.00000E+00 0.00000E+00 0.00000E+00 0.00000E+00 0.00000E+00 0.00000E+00
 -1      5042 0.00000E+00 0.00000E+00 0.00000E+00 0.00000E+00 0.00000E+00 0.00000E+00
 -1      5043-2.95759E-01-1.93906E-01 1.50665E-01-7.08266E-02 1.17168E-01-1.58330E+00
 -1      5044 5.91798E-02 1.13620E-01 5.64759E-01 6.86840E-02 1.79252E-01-6.24880E-01
 -1      5045-3.36052E-02-1.05542E-01-8.71347E-02 5.74983E-02 6.83897E-02-8.90613E-01
 -1      5046-1.65451E-01 6.04503E-02 4.48263E-01-1.35804E-02 3.67974E-01-4.65468E-01
 -1      5047-1.12656E-01 4.97334E-02 5.51929E-01-5.96249E-02 1.81305E-01-5.36520E-01
 -1      5048 3.58473E-02-4.29821E-02-3.00997E-01 6.33334E-02-1.89247E-01-5.48882E-01
 -1      5049-3.36936E-01 4.35493E-02 2.31009E-02-3.90303E-02-1.41923E-01-9.56545E-01
 -1      5050 5.44190E-02 3.90759E-01 7.73277E-02 1.57381E-01-2.91177E-01-4.59091E-03
 -1      5051 7.24203E-03 1.39615E-01 2.26638E-01-3.33097E-02 6.20537E-02 3.51737E-01
 -1      5052-9.24023E-02-1.67615E-01-7.07196E-02-1.95354E-01-9.20620E-02 5.99988E-01
 -1      5053 2.78056E-01-6.41919E-02-1.42365E-01 9.39490E-02 9.30504E-02 1.15562E+00
 -1      5054 2.56541E-01-8.88113E-03-9.19314E-02 9.53387E-03 3.89172E-01 1.13683E-01
 -1      5055-1.08324E+00-8.03823E-01-1.12218E+00-7.52604E-02 1.99964E-01-2.10009E+00
 -1      5056-5.86828E-01-3.19958E-01-3.93784E-01 1.36544E-01-1.58708E-01-1.48898E+00
 -1      5057-1.37051E-01 5.55724E-02-2.42849E-01 7.59349E-02-2.42347E-01 1.13755E-01
 -1      5058-1.62348E-02 4.82201E-01 5.66520E-01 5.94561E-02 1.77794E-02 1.59175E+00
 -1      5059-2.23040E-01-9.30034E-02-8.83628E-02 6.87908E-02-6.74811E-02 9.36712E-01
 -1      5060 3.64872E-01 5.95902E-02 2.87308E-02 1.71239E-02 2.07370E-01 6.66658E-01
 -1      5061 0.00000E+00 0.00000E+00 0.00000E+00 0.00000E+00 0.00000E+00 0.00000E+00
 -1      5062 7.21607E-04 1.53044E-02-3.03747E-01-6.45817E-02 1.69855E-01-1.19408E-01
 -1      5063 1.03179E-01-3.34177E-02-2.66083E-01 2.69633E-02 6.61584E-02-7.69085E-01
 -1      5064-3.34399E-01-2.47454E-01-2.12907E-01 2.31074E-01-1.85798E-01-7.36013E-01
 -1      5065 1.95130E-02 1.70927E-02 3.14455E-01 3.52277E-04-6.15289E-02-6.04775E-02
 -1      5066-1.09944E-01-2.43101E-01-1.27036E+00 6.89847E-02-2.87041E-01-4.24485E-01
 -1      5067-4.21336E-01-7.44943E-01-1.37153E+00-4.18234E-02-2.97341E-01 6.18251E-01
 -1      5068 3.45969E-02 8.50464E-02 8.91466E-02 2.79958E-02-4.26395E-02 4.41365E-01
 -1      5069 9.52667E-02 2.49845E-01 2.62859E-01-8.46969E-02 1.92504E-01 7.95664E-01
 -1      5070 1.95077E-01-1.24131E-01-2.84565E-01 6.90878E-02 1.81568E-02 6.77714E-01
 -1      5071 3.61149E-01-1.34166E-01-4.04032E-01 1.49676E-02 3.24004E-01 5.32325E-01
 -1      5072 4.69026E-01 2.68824E-01 1.70549E+00 1.99280E-01 2.22788E-01 1.49928E+00
 -1      5073 1.30463E-01 1.40874E-01 1.26633E-01 3.93458E-02-1.96335E-02-1.15516E+00
 -1      5074 4.92381E-02 1.36518E-01-6.89468E-02 7.45172E-02-2.08636E-01 1.15957E+00
 -1      5075 4.57520E-01 1.26617E-01-2.33474E-01 4.77132E-02-2.47128E-01 7.54721E-01
 -1      5076 3.90925E-01 3.96267E-01 4.93074E-01 4.04378E-02-1.47224E-01 1.56715E+00
 -1      5077-1.04129E-01 5.03744E-02-5.24980E-02-3.54186E-02 3.32606E-01-1.66585E+00
 -1      5078-4.75028E-03-1.71730E-01 5.17528E-01 7.26597E-02-3.20408E-01-1.29653E+00
 -1      5079 1.77897E-02-1.66481E-01-3.66066E-01-5.20126E-02-2.76552E-01-6.91751E-01
 -1      5080 2.57204E-01 2.32864E-01-2.37130E-01-2.23858E-01-3.15724E-01-1.66776E+00
 -1      5081 7.61467E-02 1.95443E-01-4.80733E-02 9.64650E-04 2.82235E-01 8.75396E-01
 -1      5082-1.17692E-02 2.05687E-01 6.01308E-02 3.44011E-02 9.00280E-02 7.81875E-01
 -1      5083-2.07064E-01-2.08522E-02 1.62899E-01 9.48419E-03 2.80585E-02 1.58063E+00
 -1      5084-4.28872E-02-2.19070E-01-3.16134E-01 1.18287E-01 3.16720E-02 1.58726E+00
 -1      5085 2.84134E-01-5.51501E-02 1.41405E-02-1.50225E-01-1.78302E-01 5.28191E-01
 -1      5086-3.57378E-02 3.07583E-02 5.62604E-01 2.09114E-01-2.69922E-01-2.14870E-02
 -1      5087 2.30049E-01 1.65723E-01-7.29406E-02 9.80930E-02-2.54906E-01-7.83661E-01
 -1      5088-3.95813E-01-5.39820E-02 1.00113E-01 1.07447E-01-3.81453E-01-1.05791E+00
 -1      5089 5.19542E-01 1.24080E-01-8.25640E-02 1.02802E-01-1.39099E-01-1.01234E+00
 -1      5090 3.09090E-02-3.02797E-02-1.71123E-01 1.30218E-02-6.01288E-02-6.09963E-01
 -1      5091 1.12381E-01 1.47645E-01 5.81729E-01 3.14659E-02-1.88354E-01-6.44804E-01
 -1      5092-2.06037E-01-2.05666E-01-6.67767E-01-3.53870E-02 6.49065E-02-9.63791E-01
 -1      5093-4.13556E-02 8.88693E-02 1.25832E-01-9.85495E-02-1.58628E-01-9.34036E-02
 -1      5094-3.09336E-01 1.48965E-01 8.01761E-02 1.32082E-01 1.07117E-01-5.86500E-01
 -1      5095-3.49389E-01 8.88147E-02-4.88039E-01-6.07910E-03 5.81834E-02 4.07594E-01
 -1      5096 6.03961E-02 2.57435E-04-1.26370E-01 1.11501E-02 9.95604E-02 1.14814E-01
 -1      5097-8.18525E-02-1.98308E-01-4.67358E-01-2.22047E-01 3.45199E-01 1.13551E+00
 -1      5098-4.92951E-02-3.50639E-01-3.34289E-01-4.47485E-03 2.26396E-01 7.85384E-01
 -1      5099-5.19079E-01-1.19972E-01-4.44768E-01-8.06687E-02 7.88949E-02 1.14027E+00
 -1      5100 6.59807E-02 1.79940E-01 6.02283E-01-6.76232E-03-4.18345E-02 9.27497E-01
 -1      5101-4.24135E-02 1.37092E-01 6.39526E-01-1.29083E-02-1.00160E-01 6.92989E-01
 -1      5102-4.62212E-01-4.58583E-01-7.21719E-01-7.72544E-02-9.01448E-02 2.92374E-01
 -1      5103 9.53397E-01 3.86236E-01 2.25821E-01-3.66518E-01 1.50997E-02 1.05105E+00
 -1      5104 1.30153E-01-5.22208E-02 3.23872E-01 3.34770E-02-1.48832E-01 3.12538E-01
 -1      5105-1.03550E-01-4.90310E-01-2.21229E-01 1.28084E-01-3.35706E-01-7.22679E-02
 -1      5106 7.21911E-02-2.19768E-01-7.64695E-01-5.41769E-02-3.53498E-01-3.24419E-01
 -1      5107-7.48805E-02-1.52769E-02-4.21624E-01 1.27709E-01 2.30812E-01-1.28410E+00
 -1      5108 2.93613E-01 3.24994E-01 3.61310E-02-4.29080E-02 7.82186E-02-1.09444E-01
 -1      5109-3.53866E-01-7.63190E-01-7.04165E-01 3.46799E-02 3.03652E-01 1.43279E+00
 -1      5110 1.56773E-02-6.17860E-02-5.62004E-02 9.64913E-02 4.08693E-02 2.99999E-01
 -1      5111 0.00000E+00 0.00000E+00 0.00000E+00 0.00000E+00 0.00000E+00 0.00000E+00
 -1      5112 8.49598E-02 1.22764E-01 1.22593E-01-6.34343E-03 2.40422E-01-8.00336E-02
 -1      5113-3.88879E-02-3.25296E-02 2.14841E-01-4.15912E-02 1.34677E-02 6.42675E-01
 -1      5114 3.53530E-01-3.29423E-03-3.34388E-01-9.78641E-04-3.14757E-01 1.10175E+00
 -1      5115 1.92578E-01-1.55490E-01 4.86670E-01-8.11336E-02 1.26486E-01 9.82543E-01
 -1      5116 0.00000E+00 0.00000E+00 0.00000E+00 0.00000E+00 0.00000E+00 0.00000E+00
 -1      5117 9.76073E-02-1.88075E-02 5.82561E-01-7.38712E-03-1.02449E-01-8.82807E-01
 -1      5118-1.82621E-01 1.55846E-01-4.19006E-01 1.31027E-01-2.42067E-01-6.72752E-01
 -1      5119-2.54633E-01-2.23739E-01-4.66296E-01 6.02135E-02-1.13156E-01-4.72445E-01
 -1      5120-1.58507E-01-1.84704E-01-3.73616E-01 5.92201E-02-4.57091E-02-4.84109E-01
 -1      5121-5.18165E-02 3.58428E-02 3.49920E-02 2.31902E-02-2.30344E-01-4.13626E-01
 -1      5122 8.27099E-02 3.01821E-02 1.50241E-01 1.17336E-02-1.27524E-01-8.43724E-01
 -1      5123 1.62911E-01 2.52192E-01 2.45648E-01-1.34713E-01 8.16482E-02-5.82619E-01
 -1      5124-1.18418E-01-6.07459E-02-3.64037E-01 1.75365E-02 3.25698E-01-9.27081E-01
 -1      5125 2.42723E-01 3.51515E-01 1.98395E-01-9.43366E-02 1.25434E-01-3.21017E-01
 -1      5126 1.27533E-01-1.60674E-02-1.10806E-01 3.36862E-02 1.12405E-01-9.43118E-01
 -1      5127-1.38754E-01-7.24989E-02-3.56162E-01 3.53646E-02 2.92658E-01 6.19864E-01
 -1      5128 2.17936E-01 1.35037E-01 2.58388E-01-6.37303E-02 1.93338E-01 5.76597E-01
 -1      5129-9.97290E-01-1.75106E-01 5.44522E-02 3.06330E-03 1.14455E-02 4.67817E-01
 -1      5130 2.07531E-01-5.03258E-02 4.20997E-01-1.65568E-01 1.20236E-01 6.58680E-01
 -1      5131 2.81033E-01 4.02350E-02 4.96460E-01-1.15710E-01 4.28111E-02 3.99678E-01
 -1      5132 1.51829E-02-4.98552E-02 3.59454E-01-1.55654E-01 5.32559E-02 3.49184E-01
 -1      5133 1.76351E-01-3.98441E-02 1.79905E-01 6.40770E-02 9.44771E-02 2.50478E-01
 -1      5134 4.20370E-01 2.69638E-01 6.92199E-02 8.17439E-02 4.60178E-02 5.88264E-01
 -1      5135 2.90342E-01-1.10661E-01-3.02162E-01 1.58500E-02-5.28624E-01 7.07176E-01
 -1      5136 9.41797E-02 5.00074E-02 1.57169E-01-1.27368E-01-5.02641E-02 1.27571E+00
 -1      5137-2.66013E-01-1.46190E-01-1.67202E-01-1.37720E-01-1.34208E-01 5.75403E-01
 -1      5138 0.00000E+00 0.00000E+00 0.00000E+00 0.00000E+00 0.00000E+00 0.00000E+00
 -1      5139 0.00000E+00 0.00000E+00 0.00000E+00 0.00000E+00 0.00000E+00 0.00000E+00
 -1      5140 2.50574E-01 2.38793E-01 3.43476E-02 4.60302E-02 8.46195E-02-1.01445E+00
 -1      5141-6.50586E-02-1.01356E-01-2.03934E-01-2.47636E-02 2.18001E-01-5.63420E-01
 -1      5142-4.56428E-02-3.26280E-01-4.95183E-01-1.91614E-01 2.60670E-01 1.20925E+00
 -1      5143-5.42268E-02-4.08798E-02 1.96584E-01 6.44336E-02 4.81869E-04 5.63865E-01
 -1      5144-2.01739E-01-9.44702E-02 2.60245E-01-7.45610E-02-6.67402E-02 9.22224E-01
 -1      5145-9.51364E-02-1.36794E-01-1.69254E-02 3.10584E-02-1.41835E-01 5.92545E-02
 -1      5146 2.81796E-01-9.36663E-02 1.46326E-01-6.39597E-02 9.63935E-02 6.59610E-01
 -1      5147 0.00000E+00 0.00000E+00 0.00000E+00 0.00000E+00 0.00000E+00 0.00000E+00
 -1      5148 0.00000E+00 0.00000E+00 0.00000E+00 0.00000E+00 0.00000E+00 0.00000E+00
 -1      5149 0.00000E+00 0.00000E+00 0.00000E+00 0.00000E+00 0.00000E+00 0.00000E+00
 -1      5150 1.03352E-02-2.57658E-02 1.84325E-01 7.31527E-02-4.18773E-01-9.33977E-01
 -1      5151 4.39549E-02-1.80019E-01 1.93667E-01 3.58248E-02-1.53155E-01 1.57468E-01
 -1      5152 3.76392E-01-1.81597E-02 3.62185E-01 1.72368E-01 3.40984E-01-4.82081E-01
 -1      5153 2.91123E-01 5.42076E-02 3.54015E-01 1.52812E-01 1.48710E-01-7.55096E-01
 -1      5154 3.10527E-01 1.49740E-01 6.15327E-02-2.00974E-02-6.35572E-02-3.33627E-01
 -1      5155 2.13455E-01-8.19778E-03-2.54587E-01 5.92664E-02 1.71191E-02-6.25808E-01
 -1      5156 1.45087E-01-1.29325E-01-3.93922E-01 8.18701E-02 8.15956E-02-8.81135E-01
 -1      5157-4.58506E-01-1.49596E-01-3.70596E-01-1.84526E-02-5.46823E-03-9.56421E-01
 -1      5158 1.46207E-02 2.49055E-02 8.45004E-02 4.03035E-02 6.77080E-02-3.09694E-01
 -1      5159-1.98175E-01-6.24107E-02-4.48212E-01 8.15883E-02-1.45911E-01-7.82473E-01
 -1      5160 1.18424E-01-1.40988E-02-2.45329E-02 4.71380E-02-1.96977E-01-1.65088E-01
 -1      5161-2.85616E-01 1.30509E-01-2.11251E-01-7.62493E-02-1.69002E-01-1.00017E-01
 -1      5162-1.32352E-02-4.20518E-01-1.63246E+00 2.26054E-01-4.98604E-01 1.11016E+00
 -1      5163 6.09689E-02-5.52166E-02 3.28977E-01 1.11463E-01-2.95154E-02 2.27631E-02
 -1      5164-1.73729E-01-8.05650E-02-3.40274E-01-5.50704E-02 6.70761E-03 4.07274E-01
 -1      5165-8.58858E-02 6.29759E-02 2.05489E-01 1.49957E-02-1.18430E-02 6.43727E-01
 -1      5166 1.09846E-01 5.92928E-02 1.85811E-01 2.35805E-02 1.49393E-01 4.91281E-01
 -1      5167-2.25136E-02 4.15977E-02 3.27199E-01-2.20466E-02 1.25755E-01 8.55146E-01
 -1      5168 1.14690E-01-1.98921E-01-5.60155E-01 6.38274E-02-3.52218E-02 5.94965E-01
 -1      5169 7.69931E-02-1.22791E-01-4.14972E-02 9.32962E-02-4.02953E-02 8.20077E-01
 -1      5170-4.59587E-02 1.04901E-01 2.75450E-01 1.53688E-01 4.34074E-01 5.74020E-01
 -1      5171-1.69136E-02-6.20843E-02 2.80162E-01 1.21400E-01 1.05621E-01 1.04838E+00
 -1      5172 6.95936E-01 3.00928E-01 1.05582E+00-1.45473E-01-6.04760E-02 1.09022E+00
 -1      5173 0.00000E+00 0.00000E+00 0.00000E+00 0.00000E+00 0.00000E+00 0.00000E+00
 -1      5174-1.72389E-01 1.01724E-01 1.96952E-01-9.92205E-02 6.75716E-02 9.58158E-02
 -1      5175-3.35312E-02 1.28332E-01-2.37297E-01-3.52194E-02 3.04384E-02-4.32917E-02
 -1      5176 1.71150E-01-1.04940E-01-4.69304E-01-3.85258E-02-7.75215E-02-2.27224E-01
 -1      5177-1.29604E-01-1.41140E-01 4.90252E-01-1.13981E-03 1.39303E-01-5.18353E-01
 -1      5178 3.15377E-01 5.77326E-02-3.13822E-01 1.55237E-02-6.17566E-02-6.73045E-01
 -1      5179 1.35676E-01 2.72615E-01 7.71425E-02-3.82322E-02-4.17742E-02-5.28259E-01
 -1      5180 7.15701E-02 2.18460E-01-3.09073E-01 9.27878E-02 8.20580E-02 1.36547E+00
 -1      5181 2.45922E-02-8.00587E-02 1.74498E-01 4.44927E-02-9.80591E-02 2.32159E-02
 -1      5182-7.18552E-02-1.28485E-01-7.20518E-01-9.43253E-03-2.53054E-01 5.75250E-01
 -1      5183-1.17289E-01 7.53091E-02 2.16990E-01 2.14973E-02 3.32230E-02 3.67776E-01
 -1      5184 8.79565E-02 1.18237E-02-3.49765E-01 5.89549E-02-4.01529E-02 8.41866E-01
 -1      5185 1.57123E-02 1.08517E-01 2.63622E-01 2.06220E-01-4.49617E-02 8.92118E-01
 -1      5186 5.06723E-02 1.35547E-01 7.79238E-01-3.93202E-02 2.38577E-01 4.38739E-01
 -1      5187 6.39844E-03-4.75094E-01-2.00845E-01 2.73791E-02-4.81254E-01 6.40506E-02
 -1      5188 6.07289E-01 4.72335E-01 9.00085E-01-9.18221E-02-4.88837E-02 1.92836E+00
 -1      5189-6.79965E-02-8.37991E-03-1.72535E-01-3.88466E-02-7.05417E-02 1.09507E+00
 -1      5190 3.49599E-01-6.73765E-03 9.13849E-02 7.65261E-02 1.69118E-02 1.13622E+00
 -1      5191 1.66148E-01 1.14905E-01 5.82208E-01 9.34412E-02 2.71871E-01-9.09607E-01
 -1      5192 1.01218E-01-3.04070E-02-2.58459E-01 8.32215E-02-2.54523E-02-6.10592E-01
 -1      5193 1.11276E-02-6.69581E-02 1.32839E-01 1.73050E-01-1.22618E-01-9.05953E-01
 -1      5194-6.78502E-02 1.15838E-01-7.03012E-02-5.84154E-03-1.45095E-02-1.61369E-01
 -1      5195-4.14890E-02 9.53525E-03 2.77059E-01 3.26698E-01-8.20196E-02-1.84570E+00
 -1      5196-1.21569E-01 1.01219E-01-1.19016E+00-3.38236E-02-1.58511E-01-1.02138E+00
 -1      5197 1.12346E-01-1.33727E-01-7.05395E-01-2.66743E-02-2.06962E-01 1.08856E-01
 -1      5198-6.52476E-02-3.46347E-02 1.69544E-02 7.67922E-02-1.03211E-01 1.58755E-01
 -1      5199 3.59725E-01 2.05351E-02-6.08154E-01-4.16473E-02-2.12115E-01 8.47665E-01
 -1      5200 7.05055E-01 4.98870E-01 5.15956E-01-4.75950E-02 1.54430E-01 1.49729E+00
 -1      5201-4.57130E-02 2.40342E-02-1.77569E-01-5.05590E-02-2.03394E-02 5.65974E-01
 -1      5202 1.79286E-01-2.14258E-01-2.99999E-01 6.93319E-03-2.21504E-02 6.15211E-01
 -1      5203-1.63262E-02-1.62204E-01 5.85831E-01-1.23459E-01 1.65030E-01 1.14175E+00
 -1      5204 9.47551E-03 1.40731E-01 2.18344E-01 2.13442E-01-2.32380E-03-1.24046E+00
 -1      5205 2.46223E-02 1.41962E-01 1.20519E-01-1.26615E-01 5.40796E-02 1.15831E+00
 -1      5206 1.08052E-01-9.38781E-02-8.16821E-02-7.74792E-02 1.45715E-01 1.09704E+00
 -1      5207 3.52423E-01-2.36658E-02 2.07564E-01 7.28300E-03-4.93670E-03 8.42103E-01
 -1      5208-1.26692E-01-2.79291E-02 5.57807E-01 2.49359E-02 1.70435E-01-7.29168E-01
 -1      5209 2.35903E-01-1.20167E-01 5.15295E-01-9.22016E-02 8.13306E-02 7.26656E-01
 -1      5210 2.34746E-01-9.77584E-02-5.46096E-01 2.66475E-02 7.15014E-02-7.39978E-01
 -1      5211-5.74891E-01-1.64953E-01 2.88403E-01-1.75963E-01 7.98312E-02-1.23653E+00
 -1      5212-7.22738E-01-1.11230E-01-1.94689E-02 2.40065E-01 2.33918E-02-8.91705E-01
 -1      5213 2.10573E-02 2.78096E-01 4.70004E-01 1.00882E-01 4.81156E-02-6.57227E-01
 -1      5214 5.10880E-01 3.92606E-01 5.50937E-01-1.45922E-02-1.64011E-01 1.32494E+00
 -1      5215-1.28842E+00-1.12188E-01-5.39469E-01-3.83065E-02 2.75629E-01 1.19964E+00
 -1      5216-7.90819E-01-4.43961E-02 9.98973E-02-1.07443E-01 1.06144E-01 9.47147E-01
 -1      5217-1.40489E-01-8.72476E-03-5.40043E-03-1.10351E-01 3.18527E-02 1.12129E+00
 -1      5218-5.24221E-01-3.41952E-01-1.09816E+00-5.37750E-03 2.22485E-01 1.38322E+00
 -1      5219 3.99113E-01 1.11997E-01-1.23763E-01-3.49461E-01 1.09638E-01 1.13230E+00
 -1      5220 1.85940E-01-6.88820E-02-3.16785E-01-1.40135E-01-4.65532E-02 5.49673E-01
 -1      5221 0.00000E+00 0.00000E+00 0.00000E+00 0.00000E+00 0.00000E+00 0.00000E+00
 -1      5222 1.95240E-01-6.28456E-02-1.03643E-01 1.92334E-02-5.97023E-03-5.26784E-01
 -1      5223 9.06361E-01 5.96261E-02 4.05076E-01 9.51735E-02 1.44666E-01-9.45848E-01
 -1      5224 1.47456E-01 6.81321E-01 5.41942E-01-4.57398E-02-1.27851E-01-1.24070E+00
 -1      5225 2.71223E-01 4.46288E-01 4.49398E-01 1.72368E-01 1.78706E-01-1.47169E-01
 -1      5226-1.69460E-01-4.50273E-01-1.99651E+00-1.27859E-01 5.00095E-01-1.11887E+00
 -1      5227-1.75210E+00-6.10784E-02-4.79224E-01-7.95253E-02-4.10319E-02 1.33957E+00
 -1      5228-4.27780E-01-7.61625E-01-1.20083E+00 2.39503E-01 3.34626E-01 1.42312E+00
 -1      5229 3.73996E+00 5.24198E-01-2.79849E-02 1.92004E-01 2.61029E-01 6.32723E-01
 -1      5230-5.29557E-01-3.54009E-01 1.00884E+00-1.72168E-01-5.40423E-02 1.26435E+00
 -1      5231 3.86231E-01-4.72970E-01-1.35340E-02-1.65289E-01 3.54981E-01-1.28493E+00
 -1      5232-4.62101E-01-6.06843E-01-5.47634E-01 4.70611E-02 1.03572E-01-1.55132E+00
 -1      5233 1.23645E-02 5.62399E-01 6.28376E-01-4.12704E-03-1.31313E-01-1.49104E+00
 -1      5234 2.03220E-01-2.65335E-01-1.29089E+00 5.81100E-02 3.27978E-01-8.88355E-01
 -1      5235-8.60393E-01 7.61195E-01 5.48976E-01 1.81612E-01-7.86191E-02 9.77570E-01
 -1      5236 6.06154E-01 7.06716E-01 6.61517E-01-3.53898E-01 4.05712E-02 1.88827E+00
 -1      5237-4.03708E-01-7.11695E-01-1.01189E+00-1.66275E-01 1.44855E-01 1.70804E+00
 -1      5238 0.00000E+00 0.00000E+00 0.00000E+00 0.00000E+00 0.00000E+00 0.00000E+00
 -1      5239-5.06763E-01-4.83803E-01-7.13193E-01 1.66546E-01-1.86158E-02-1.65062E+00
 -1      5240 8.74399E-01 6.16657E-01 7.47374E-01-1.35065E-01-1.78594E-01 1.61524E+00
 -1      5241 8.31798E-03 1.68261E-01 7.00052E-01-1.28888E-01-7.67041E-02 6.43542E-01
 -1      5242 4.33010E-01 2.02945E-01-2.50517E-01 2.33838E-01 6.23611E-02-1.39893E+00
 -1      5243-1.80082E-02 3.09705E-02 1.99490E-01-6.46327E-02-3.77874E-02 6.31493E-01
 -1      5244-1.74348E-01-3.93760E-03-6.23625E-02-1.10601E-01-1.57875E-01 6.94955E-01
 -1      5245 6.46977E-01 8.49801E-02 2.51823E-01-7.87344E-02 1.81998E-01-1.01990E+00
 -1      5246-3.77535E-02 1.01880E-01 5.43627E-01-5.07126E-02 1.42048E-01-6.62628E-01
 -1      5247 3.38063E-01 2.01652E-01-1.78187E-01 5.06145E-02-2.86145E-01 1.07427E+00
 -1      5248 1.95220E-01 1.05593E-01-4.78604E-02-1.13347E-01-8.52586E-02 6.23750E-01
 -1      5249-3.24226E-01-1.06811E-01 5.63796E-02-1.44256E-01 2.92615E-01 5.07123E-01
 -1      5250-3.40882E-02 1.56683E-01 8.58167E-01-2.37472E-01-2.68945E-02-1.31300E+00
 -1      5251 5.68696E-01 2.14347E-01-3.41562E-01 7.76719E-02-2.30279E-01 5.11004E-01
 -1      5252 3.51426E-01 3.87194E-01 6.34535E-01-1.05083E-01 8.57609E-02 1.45695E+00
 -1      5253-2.03791E-01-2.30872E-01-1.03920E-01 1.27151E-01 1.08044E-01 8.47214E-01
 -1      5254-1.17417E-01-5.76475E-01-4.20376E-01-1.27816E-01 1.11544E-01-1.27528E+00
 -1      5255 1.51983E-02-3.92053E-02-2.84450E-01-3.06712E-02 1.05596E-01-3.28154E-01
 -1      5256 9.85855E-01 2.84975E-01 3.61702E-01 2.49701E-02 1.84107E-01-1.11815E+00
 -1      5257 5.51778E-01 6.24618E-01 1.28768E+00-1.66058E-01-1.74718E-02-1.64182E+00
 -1      5258 5.26800E-01 2.46598E-01 1.93377E-01-3.05994E-02-8.97016E-02-1.55939E+00
 -1      5259-7.53723E-01 4.01533E-01 3.27602E-01-1.11542E-01-2.63902E-02 9.01191E-01
 -1      5260-7.90637E-01-4.66952E-01-6.54485E-01 2.56662E-02 8.89475E-03 1.18118E+00
 -1      5261-1.22969E+00-1.01328E+00-1.02614E+00 3.74964E-01 1.42964E-01 1.66758E+00
 -1      5262 9.58995E-01 1.63877E-01 3.55769E-01 5.89450E-02 3.07972E-01 3.49810E-01
 -1      5263-2.75529E-02 9.32657E-02 8.01385E-01-4.12516E-02 5.27659E-01-1.31405E+00
 -1      5264-4.80250E-01-4.02130E-01-7.64135E-01-1.86197E-01-5.19428E-02-1.39712E+00
 -1      5265 3.92954E-01 2.12619E-01 6.32022E-01 4.95360E-02-1.21153E-02 1.25493E+00
 -1      5266-1.86974E+00-1.05933E+00-1.17164E+00 4.47923E-02-4.55998E-02 1.93914E+00
 -1      5267 3.04587E-01 3.34762E-01 1.39934E+00 7.52170E-02 2.16205E-01 8.48010E-01
 -1      5268 7.14749E-01 4.73135E-02 2.92053E-01 1.52231E-01 1.19561E-01 8.31262E-01
 -1      5269-4.93972E-02-4.34241E-01-7.17895E-01-2.60036E-01 4.80773E-02-6.50739E-01
 -1      5270 5.63133E-01 1.08756E-01 3.04333E-01-8.62976E-02 3.34133E-01-1.01968E+00
 -1      5271-3.73822E-01-1.01820E-01 3.92204E-01 8.65830E-02 7.28239E-02-8.48580E-01
 -1      5272-1.27704E-01 1.11521E-01 5.56689E-01-1.48202E-01-3.90527E-02-8.29671E-01
 -1      5273-3.86332E-01 1.76983E-01 3.48123E-01-7.65439E-02-2.83935E-01-5.08439E-01
 -1      5274 7.50407E-01 6.48334E-01 5.20340E-01 1.18899E-01 1.21960E-01-1.59138E+00
 -1      5275 4.66149E-02 8.77711E-02 9.46059E-02-1.70878E-01-2.46371E-01-1.44920E-01
 -1      5276-1.45055E-01-6.58849E-02-1.11450E+00 5.37200E-03-2.19991E-01-8.19024E-01
 -1      5277-3.51220E-01 2.72805E-02 5.01667E-02 3.31564E-01-2.07248E-01 1.02156E+00
 -1      5278 3.16570E-01 1.29064E-01 2.88594E-01 2.60636E-01-2.33912E-01 6.30003E-01
 -1      5279-1.09849E-01-2.12567E-01-6.18134E-01-9.11119E-02 3.55121E-02 1.11231E+00
 -1      5280-6.17514E-01-1.77755E-01 4.75103E-01 2.39985E-01 2.54283E-01 1.34058E+00
 -1      5281-8.57513E-01-5.12023E-01-1.15182E-02-1.23646E-01 3.14719E-01 2.12605E+00
 -1      5282-1.12238E+00-8.32574E-01 3.77959E-01-3.62957E-01 1.07689E-01 1.55314E+00
 -1      5283 1.59153E-01-2.15395E-01-3.86832E-01 1.25777E-01 3.83285E-01 1.43456E-01
 -1      5284 8.30437E-01 2.20693E-02 4.35600E-01 7.20509E-02 2.49336E-01 3.83220E-01
 -1      5285 0.00000E+00 0.00000E+00 0.00000E+00 0.00000E+00 0.00000E+00 0.00000E+00
 -1      5286-9.75247E-02 1.25160E-01 4.72351E-01 5.08214E-01-3.27132E-01-7.65567E-01
 -1      5287-9.45919E-01-1.57565E-01 9.43124E-01 2.23322E-01-3.77610E-01-1.43074E+00
 -1      5288-2.65063E-01-1.77922E-01-8.52043E-01-1.44899E-01 5.64701E-02-1.24207E+00
 -1      5289 1.20493E+00 1.67935E-01 7.17787E-01 1.35299E-01-2.78307E-01-1.12940E+00
 -1      5290 2.57838E-01-2.60671E-01-4.55886E-01 9.76613E-02-1.00623E-01-8.49606E-01
 -1      5291 6.14832E-01 6.46306E-01 9.39310E-01 7.62124E-04-2.41968E-02-1.29562E+00
 -1      5292-5.71891E-01 2.85981E-01 2.32791E-01 3.39438E-01 1.52892E-01-8.41055E-01
 -1      5293-2.59058E-01 3.64132E-02-2.09229E-01 1.97944E-01 2.41041E-01-2.31585E-01
 -1      5294-5.81556E-01-1.29245E-01-6.62215E-01-1.12650E-01 1.50903E-01 1.08705E+00
 -1      5295-3.15885E-01-1.30181E-01 5.46233E-02-6.42721E-02 6.50639E-02 7.74140E-01
 -1      5296 2.37675E-01-3.19745E-01-1.03461E+00-3.39115E-01 9.62765E-02 7.78375E-01
 -1      5297 7.36736E-01-1.80191E-01 3.21842E-01-3.89403E-01-1.75686E-01 7.51308E-01
 -1      5298 2.19093E-01 3.03739E-01 1.84390E+00-4.93039E-02-2.86084E-01 1.23170E+00
 -1      5299 3.57300E-01-1.07891E-01 3.75138E-01 3.34996E-01-3.49213E-01-1.13628E-01
 -1      5300 7.92284E-01-1.40854E-01-1.85603E-01 3.50629E-02-1.61832E-02-7.22418E-01
 -1      5301-6.31442E-02 1.72769E-01 3.61723E-01 3.69214E-02-1.13154E-01-4.21675E-01
 -1      5302-8.81273E-01-5.38846E-02-4.19131E-01 2.78137E-01 1.09625E-01-8.44776E-01
 -1      5303-2.07222E-02-2.92512E-01-1.27708E+00 1.74221E-01 2.95016E-01-1.50730E+00
 -1      5304-2.55084E-01-5.44345E-02-2.88109E-01-3.67200E-02 1.28111E-01 2.13418E-01
 -1      5305-6.64907E-01-4.45283E-03-2.10800E-01-9.64384E-02-1.96526E-03 7.97608E-01
 -1      5306 1.96772E-01-2.59154E-01-1.01288E+00-1.45600E-01 1.20219E-02 8.40709E-01
 -1      5307 3.91907E-01 4.21540E-01 1.01679E+00-5.70270E-02-3.78779E-01 9.75054E-01
 -1      5308-3.30320E-01-1.31098E+00-1.96241E+00 2.13625E-01-4.39826E-02 1.67885E+00
 -1      5309-3.16387E-03-8.55133E-01-1.29973E-01 1.99278E-01-3.13611E-01-1.13685E+00
 -1      5310 3.92932E-01 4.85943E-01-2.61151E-01-2.10720E-02 4.28699E-02 1.27843E+00
 -1      5311 1.46717E+00 1.04971E+00 1.68342E+00-2.55425E-01-2.43238E-03 2.20056E+00
 -1      5312 0.00000E+00 0.00000E+00 0.00000E+00 0.00000E+00 0.00000E+00 0.00000E+00
 -1      5313 4.47344E-01-4.73414E-01-1.29047E-01-7.31165E-02-1.39188E-01-1.28701E+00
 -1      5314-5.92637E-01-5.36557E-01-9.12150E-01 3.34592E-01-9.93303E-02-1.53757E+00
 -1      5315-4.98600E-01 2.71739E-01-1.70384E-01 3.96911E-02-2.09132E-01-1.30330E+00
 -1      5316 1.72871E-01 3.80559E-01 3.15314E-01-2.25754E-01-1.84981E-01 1.27344E+00
 -1      5317-4.18446E-01-4.36045E-01-6.11720E-01-2.81575E-02 7.93074E-02 1.20640E+00
 -1      5318 1.10799E-01 4.52099E-01 1.35534E+00-1.59149E-01-2.00784E-01 5.44191E-01
 -1      5319 0.00000E+00 0.00000E+00 0.00000E+00 0.00000E+00 0.00000E+00 0.00000E+00
 -1      5320-5.92490E-01-5.23653E-01-1.08656E+00 1.17206E-01 4.72101E-01-9.66867E-01
 -1      5321 3.46007E-01-3.16358E-02-1.04681E+00 2.21469E-01 4.30716E-02-1.29444E+00
 -1      5322 1.18861E-01 1.81104E-01 1.29844E-01-2.08398E-04 1.82681E-01 4.88993E-03
 -1      5323 8.44125E-02-3.24612E-01-7.53996E-01-2.24736E-02 3.10250E-01-5.36989E-01
 -1      5324 7.92961E-01 2.25717E-01 6.79694E-02-1.75145E-02-1.03312E-01 4.06954E-01
 -1      5325-3.22979E-02-6.93159E-02-2.82839E-01 8.89884E-02-9.00084E-02 4.05489E-02
 -1      5326 2.91675E-02-1.08677E-01 1.14697E-02 5.47434E-02 3.61972E-02-8.42223E-01
 -1      5327 3.03657E-01 2.68885E-01 4.96050E-01 1.53458E-01 1.61897E-02 2.36902E-01
 -1      5328 1.48842E-02-1.91023E-02-6.99374E-01-1.04894E-01-1.03645E-01 9.01801E-01
 -1      5329-2.18429E-02-4.44713E-02-1.03221E-01 4.03989E-02 2.92015E-02 1.16688E+00
 -1      5330 3.06831E-01 1.40536E-01 4.36433E-01 1.70569E-01 3.53872E-01 1.02664E+00
 -1      5331 2.89416E-01 1.59306E-01-9.59646E-02 3.42619E-02-5.23358E-03-8.89663E-01
 -1      5332-5.33325E-01-1.12739E-01-4.46308E-01-2.57544E-01-3.20991E-01-1.08543E+00
 -1      5333-4.59750E-02 1.83158E-01 2.75452E-02-1.78355E-01-4.83226E-01 1.75538E-01
 -1      5334-5.92722E-01-1.19410E-01-3.68798E-01-1.76930E-02-3.17103E-03 8.91033E-01
 -1      5335-2.56878E-01-2.80972E-01-9.99292E-03-9.48970E-03 3.45533E-02 1.25963E+00
 -1      5336 5.08705E-01 1.60271E-01 4.50247E-01 8.29487E-02-9.87605E-03 1.02202E+00
 -1      5337-4.93683E-01-6.15811E-01-9.79365E-01 1.13061E-01-4.71565E-02 1.44969E+00
 -1      5338 7.47222E-01-5.32776E-01-1.39293E+00 6.50271E-02-6.21382E-01-1.02131E+00
 -1      5339 3.61329E-01 5.23839E-02 4.93297E-02 1.86451E-01-1.24112E-02-9.20570E-01
 -1      5340 1.14394E+00 8.48946E-01 1.27372E+00 1.32050E-01 3.41959E-02-1.39067E+00
 -1      5341 9.60676E-01 1.01593E+00 1.37324E+00-1.00820E-01 9.12775E-02-1.53602E+00
 -1      5342 1.19661E+00 9.90982E-01 1.00868E+00-1.11328E-01 9.22009E-02-1.82662E+00
 -1      5343-2.22682E-01-2.59014E-01-1.07776E+00 3.16595E-02-3.34489E-01 7.28615E-01
 -1      5344-8.74503E-01-6.92135E-01-1.78331E+00-7.36420E-02-2.59152E-01 1.85658E+00
 -1      5345 1.75287E-01 2.35722E-01 1.26257E+00 1.57657E-01 1.35544E-01 1.02963E+00
 -1      5346 0.00000E+00 0.00000E+00 0.00000E+00 0.00000E+00 0.00000E+00 0.00000E+00
 -1      5347-1.57507E-01-1.62407E-01 2.62566E-01-3.51764E-03-6.77375E-02-7.01822E-01
 -1      5348 3.83962E-01 4.31240E-01-7.51322E-02 6.32394E-02-7.01750E-02-1.77340E+00
 -1      5349-5.94160E-01-1.40419E-02-6.17961E-01-1.28559E-01 1.71837E-01 4.73143E-02
 -1      5350 2.76732E-02-1.03364E-01-1.36017E-01 6.36377E-02-2.34924E-01-1.33169E-02
 -1      5351 0.00000E+00 0.00000E+00 0.00000E+00 0.00000E+00 0.00000E+00 0.00000E+00
 -1      5352-1.43467E+00-9.70865E-01-1.11035E+00-1.22117E-01 6.91728E-02-2.14123E+00
 -1      5353 1.30543E+00 4.09404E-01 1.15606E+00 2.58673E-01-1.04595E-02-1.22829E+00
 -1      5354-1.07000E-01 2.22854E-01 4.52761E-01-3.67995E-02 3.77590E-02-9.04812E-01
 -1      5355 2.90908E-01 4.94013E-02-5.42180E-01-1.03040E-01 7.05986E-03-1.31239E+00
 -1      5356 4.42635E-01 1.20620E-01-8.26999E-01 1.33261E-01-2.06778E-01-1.58585E+00
 -1      5357-2.31124E-01 3.14844E-01-4.06115E-01-1.26702E-01-4.44781E-03-1.59194E-02
 -1      5358-8.27851E-02 5.38417E-01-1.93869E-01 5.18561E-02 5.39990E-02 1.09942E+00
 -1      5359-1.07576E+00-2.71631E-01-8.42624E-01-1.26483E-01-1.59927E-01 9.47592E-01
 -1      5360-3.74256E-01-6.13974E-01-1.58283E+00-9.92949E-02-1.45309E-01 1.46506E+00
 -1      5361-2.12306E-01 1.16883E-01 7.75625E-01 1.36948E-02 1.90583E-02 1.49622E+00
 -1      5362-7.45285E-01-5.24035E-01-7.49449E-01 7.35439E-02 9.02100E-02 1.83657E+00
 -1      5363-9.59855E-01-2.24821E-01 3.73818E-01-1.06979E-01 1.38548E-01 1.35449E+00
 -1      5364 4.40496E-01-4.14892E-01 3.27090E-01-3.47397E-02 3.41696E-02 4.81726E-01
 -1      5365 1.39914E-01-3.88412E-01 4.50494E-01 1.38713E-02-1.08798E-01 4.59476E-01
 -1      5366 0.00000E+00 0.00000E+00 0.00000E+00 0.00000E+00 0.00000E+00 0.00000E+00
 -1      5367 0.00000E+00 0.00000E+00 0.00000E+00 0.00000E+00 0.00000E+00 0.00000E+00
 -1      5368-1.24406E-01-2.42990E-01 9.11020E-01-2.49380E-01 4.95269E-01-1.15791E+00
 -1      5369-4.67081E-01-1.62623E-01 1.87331E+00-1.32435E-01-1.47851E-02-1.06098E+00
 -1      5370 6.74893E-01-5.15921E-01-5.36017E-02 2.88224E-01 9.75824E-02-3.57534E-01
 -1      5371 4.88337E-01 1.13274E-02 2.47509E-01-2.30173E-01 1.92673E-01-1.25723E+00
 -1      5372-1.31493E-01 5.64154E-01 2.19304E+00-6.16863E-02-8.62465E-02-1.29373E+00
 -1      5373 3.76174E-01-4.43463E-01-2.63726E-01 6.79914E-02 2.58834E-01-4.50956E-01
 -1      5374-1.49902E-01-1.48372E-01 2.53216E-01-6.64163E-02 2.43270E-02-1.35568E+00
 -1      5375 7.83538E-01 1.06973E-01 7.20329E-01-3.83419E-02 2.20207E-02-1.04451E+00
 -1      5376 6.41670E-01 1.71504E-01 3.75350E-01-3.81946E-02-1.90200E-02-4.63738E-01
 -1      5377 5.77437E-02-1.11821E-01-1.67406E-01-8.75090E-02-2.57779E-02-7.93216E-01
 -1      5378-1.72932E-01 3.78209E-01 3.15785E-01-1.16817E-02 6.78146E-02-6.32965E-01
 -1      5379-1.08744E+00-9.55797E-01-2.53863E+00-7.41969E-02 5.81446E-02-1.59288E+00
 -1      5380 1.43625E-01-1.35638E-01-1.47185E+00 1.07914E-01 2.34492E-01-1.52070E+00
 -1      5381-7.27783E-01-1.05516E-01-6.62562E-01 2.29561E-01 3.73185E-02-1.21894E+00
 -1      5382 6.88443E-01 1.13055E+00 1.60045E+00-1.27185E-02-7.02912E-01-1.41044E+00
 -1      5383 4.82204E-01 3.16786E-01-3.08986E-01-1.28295E-01-4.28060E-01-1.39632E+00
 -1      5384-4.81619E-01 6.55350E-01 6.47822E-02 1.52581E-01-1.57986E-01-4.45561E-01
 -1      5385-2.83781E-01 9.92372E-01 9.52813E-01-1.55025E-01-4.72122E-01-7.15597E-01
 -1      5386-9.23988E-01 3.14759E-01-3.24568E-01-2.81434E-01-1.90680E-01-9.49832E-01
 -1      5387 5.48313E-01 9.55180E-01-5.77305E-01 5.69730E-01-2.05998E-01 7.50969E-01
 -1      5388 9.82061E-01 4.48980E-01-1.25397E+00 1.15921E-02 1.83336E-01 4.58724E-01
 -1      5389-3.62707E-02 2.29244E-01-2.96098E-01-7.72408E-02 3.84594E-01 2.08198E-01
 -1      5390-9.55436E-01-1.22349E-01-8.24154E-01-2.75518E-05-2.93572E-02 4.47143E-01
 -1      5391-5.87256E-01 6.97937E-01 8.94418E-01 2.83836E-01-5.69062E-01 1.34639E+00
 -1      5392-5.40668E-01-3.92113E-02-7.70978E-01-6.13292E-02-1.39009E-01 1.49905E+00
 -1      5393-8.39403E-01 2.54220E-01 2.65232E-01 4.51593E-02-1.67293E-01 5.43121E-01
 -1      5394 2.00106E-01-1.30640E-01-1.01783E+00-1.35912E-01 3.60670E-02 7.20091E-01
 -1      5395-4.27457E-01-3.83815E-02-2.63720E-01-4.38226E-02-9.57596E-03 6.87169E-01
 -1      5396 2.77831E-01-8.01731E-02 5.53579E-02 1.16277E-02-2.47711E-01 1.45322E+00
 -1      5397 2.57272E-01 2.38519E-01 6.02343E-01 9.18300E-02-1.44336E-01 1.24107E+00
 -1      5398-1.56599E-01-4.88614E-01-7.01609E-01 1.13738E-02 2.11723E-01 6.27000E-01
 -1      5399 8.14050E-01 1.72768E-02-2.99481E-01-1.31742E-02 1.54646E-01 1.26765E+00
 -1      5400-2.44521E-02 2.96118E-01 1.02604E+00-1.64259E-01-2.37357E-01 1.11242E+00
 -1      5401 5.82394E-01-4.37457E-01 1.24889E-02-1.19713E-01 9.14732E-02 8.80889E-01
 -1      5402 5.41552E-01 1.60789E-01-8.25988E-02 2.83398E-02 1.66097E-01 3.92545E-01
 -1      5403-2.51746E-02-1.13236E+00-6.88901E-01-9.29095E-03 5.12851E-01 1.20468E+00
 -1      5404 2.32441E-01-2.34477E-01 9.90054E-01 1.24944E-01 3.85987E-01 1.27053E+00
 -1      5405 0.00000E+00 0.00000E+00 0.00000E+00 0.00000E+00 0.00000E+00 0.00000E+00
 -1      5406 0.00000E+00 0.00000E+00 0.00000E+00 0.00000E+00 0.00000E+00 0.00000E+00
 -1      5407 0.00000E+00 0.00000E+00 0.00000E+00 0.00000E+00 0.00000E+00 0.00000E+00
 -1      5408 0.00000E+00 0.00000E+00 0.00000E+00 0.00000E+00 0.00000E+00 0.00000E+00
 -1      5409 9.47269E-01-1.93863E-01 1.62366E-01-8.80401E-02 5.91537E-02-4.02429E-01
 -1      5410-1.63407E-01-6.31463E-02-5.34760E-01 2.29391E-02-1.01801E-01-5.01775E-02
 -1      5411-2.40181E-01 4.25684E-01 1.51581E+00-6.75214E-03-2.54989E-01-1.13931E+00
 -1      5412 6.02309E-01 6.15307E-02-1.46278E-01 1.09352E-01 3.32026E-02-4.76407E-01
 -1      5413 1.98025E-01 3.86130E-01 9.42640E-01-2.97707E-02-2.33659E-01-1.11804E+00
 -1      5414-4.67753E-01-3.58000E-01-3.74200E-01 6.36131E-02 6.56234E-02-1.40296E+00
 -1      5415-1.01645E-01-1.61487E-01-5.26996E-01-2.40549E-01 2.43593E-01-8.45224E-01
 -1      5416 1.02466E-02-4.65246E-01-1.54206E+00 8.46104E-02 1.86447E-01-5.14519E-01
 -1      5417 2.86696E-01-1.93348E-01-2.02109E+00 5.71783E-02 2.93412E-01-9.87574E-01
 -1      5418-8.48676E-01 9.43069E-01 3.52151E-01 2.55235E-01-2.93274E-03-4.44684E-01
 -1      5419-8.40944E-01 1.08956E-01-4.39564E-01 1.02857E-01-2.42986E-01-4.62725E-01
 -1      5420-4.57808E-01 9.08399E-01 6.51291E-01-2.56082E-02-4.65988E-01-1.36358E+00
 -1      5421 1.44126E-01-5.29737E-01-2.10644E+00 6.83111E-02 5.08506E-01-1.09256E+00
 -1      5422-1.59549E+00-2.98916E-01-9.91385E-01 6.59102E-02-2.64420E-01 7.50073E-01
 -1      5423 1.29099E+00 9.93021E-01 2.12870E+00 1.31234E-01-4.26183E-01 1.84898E+00
 -1      5424-5.38018E-01-5.93607E-03-1.41799E-01-6.88157E-03 1.04540E-01 8.88716E-01
 -1      5425-5.58475E-02 2.26293E-01 7.55357E-01-4.00622E-02-4.67163E-02 6.42360E-01
 -1      5426 1.50763E-01 1.26648E-01 7.22629E-01-2.12575E-01-1.08221E-01 8.20903E-01
 -1      5427 1.13547E+00 7.43304E-01 1.33879E+00-1.79339E-01 1.12953E-01 1.22898E+00
 -1      5428 9.55489E-01 6.29431E-01 9.62177E-01-1.79315E-01 1.68415E-01 1.45064E+00
 -1      5429 7.48017E-01-2.13892E-01 8.09048E-01-2.66676E-02 1.27616E-01 9.08563E-01
 -1      5430 5.60977E-01 1.75259E-02-1.24119E-01 9.27722E-02 3.27969E-01 2.00909E-01
 -1      5431-3.05747E-01 4.19905E-01 1.79223E+00-2.98965E-01-3.02111E-01 9.03967E-01
 -1      5432 0.00000E+00 0.00000E+00 0.00000E+00 0.00000E+00 0.00000E+00 0.00000E+00
 -1      5433 5.78170E-01-5.89111E-02 5.76068E-01 9.43709E-04 1.81554E-01-6.53457E-01
 -1      5434 6.17337E-01 2.66805E-02-1.90666E+00 1.89655E-01 4.80217E-01-9.13566E-01
 -1      5435-7.73533E-01 3.02784E-02-6.61033E-01 1.19812E-02-2.64701E-01-3.98886E-01
 -1      5436-1.59134E+00-6.19874E-02-6.46281E-01 1.69042E-01-1.32798E-01 9.44853E-01
 -1      5437 1.17921E-02 4.97223E-01 8.61078E-01-3.88767E-02-2.98231E-01 5.61621E-01
 -1      5438-3.77270E-01-7.10397E-02-2.27960E-01-1.08380E-02-1.18715E-01 3.03003E-01
 -1      5439 7.71316E-01-3.43296E-01 3.59520E-01-5.17729E-02 6.98268E-02 9.02525E-01
 -1      5440 2.99914E-01 4.13494E-01 1.97668E+00 1.87378E-01-2.20104E-01 1.14481E+00
 -1      5441-8.83065E-02 1.84430E-01 1.15355E+00 3.89606E-02-2.44020E-01 1.03417E+00
 -1      5442 0.00000E+00 0.00000E+00 0.00000E+00 0.00000E+00 0.00000E+00 0.00000E+00
 -1      5443 3.11690E-01-3.86892E-01 6.80953E-01-8.42090E-03-1.98001E-01-6.23119E-01
 -1      5444 7.00521E-01 6.15252E-02-4.61219E-02 9.08489E-02-8.93799E-03-1.45370E-01
 -1      5445 4.01983E-01-8.39829E-02-4.59877E-02 3.58143E-02-6.65967E-02-2.76569E-01
 -1      5446 1.72835E-01-8.89771E-03 1.00138E-01 1.42538E-01-3.12876E-02-5.51210E-01
 -1      5447-4.80900E-01-3.86900E-01-8.58272E-01 7.83317E-02 4.32733E-02-2.46137E-01
 -1      5448 1.34742E-01 2.73931E-01 7.18415E-01 2.20563E-01-1.04929E-01-3.12351E-01
 -1      5449-4.55709E-01-1.10447E-01-1.16306E-01 8.83439E-02 3.50107E-02-6.93337E-01
 -1      5450-9.02813E-01-2.50928E-01-1.29665E+00 8.44001E-02 2.77768E-02-1.31609E+00
 -1      5451 6.57297E-01 1.55127E-01 4.22166E-01 1.99597E-01 1.60156E-01 1.67245E-01
 -1      5452-4.17998E-01 1.63711E-01-4.10609E-01 1.17609E-01 8.16284E-02-6.91590E-01
 -1      5453 4.11425E-02 4.31945E-01-4.92765E-01-1.47194E-01 1.96069E-01 1.07134E+00
 -1      5454-6.63559E-01-3.90116E-02-1.71885E-01-1.02136E-01 1.17182E-01-2.71325E-01
 -1      5455-8.06695E-01 2.35531E-01-1.49831E-01-2.53944E-02 3.83413E-02 5.41627E-01
 -1      5456 1.84631E-01 2.36533E-01 2.99668E-01-1.48941E-01-3.94325E-03 1.34568E+00
 -1      5457-1.51000E-01-2.31202E-01-9.02791E-01-2.32641E-01 5.52863E-02 4.70616E-01
 -1      5458 4.73929E-01 2.60752E-01 6.89246E-01-5.95660E-02-1.79332E-01 7.72911E-01
 -1      5459-4.83658E-02-3.70464E-01-1.54709E-01-4.31403E-02 1.98256E-02 5.66574E-01
 -1      5460 1.29017E-01-4.72808E-01-2.13917E-01 1.23894E-01 1.77663E-01 1.18581E+00
 -1      5461 8.33872E-02-6.90981E-02-3.00982E-01-2.33893E-02-1.32562E-01 1.66380E-01
 -1      5462 9.76108E-01-1.37016E-01-1.77459E-01-5.93638E-02 1.68104E-01 1.91922E-01
 -1      5463 4.52051E-01-1.65290E-01-3.26548E-01 9.81098E-03-1.16891E-01 8.53659E-02
 -1      5464 2.75511E-01 4.29863E-01 1.31428E+00-1.00723E-01-1.94336E-01-1.04240E+00
 -1      5465 1.24847E-01-6.14843E-02-2.49009E-01-3.45806E-02 3.76105E-01-3.08257E-01
 -1      5466 2.66045E-02 3.36688E-01 4.36374E-02-1.01856E-01-9.62400E-02-9.29862E-02
 -1      5467-7.37863E-01 1.67279E-01 2.11902E-01 5.36831E-02-2.86611E-03-3.11202E-01
 -1      5468-2.92867E-01 1.48103E-01-4.80594E-02 1.42488E-01-8.91018E-03-1.20085E-02
 -1      5469-3.39479E-01 9.12754E-02-1.01679E-01-1.46957E-01 2.37880E-03 5.45267E-01
 -1      5470-1.79624E-02 1.10083E-01 3.80231E-01-4.90135E-02 2.17649E-03 2.19989E-01
 -1      5471-8.81704E-02-3.15296E-02-8.95362E-02-9.60296E-02 4.34182E-02 1.73888E-01
 -1      5472-5.97343E-01-6.38440E-01-8.89827E-01-1.92349E-01 3.62387E-02 1.04455E+00
 -1      5473 4.08041E-01 7.89539E-03 2.52301E-02-1.11737E-01 4.46192E-02 3.70211E-01
 -1      5474 8.47482E-01-2.27921E-01-1.59344E-01-1.00769E-01-1.44756E-01 3.37269E-01
 -1      5475 4.56354E-01 1.34752E-01-3.18829E-02 1.56583E-01-2.70190E-02-3.17249E-02
 -1      5476 1.88880E-01-4.24009E-02 8.63500E-01-1.55543E-01 1.05576E-01 1.05236E+00
 -1      5477 0.00000E+00 0.00000E+00 0.00000E+00 0.00000E+00 0.00000E+00 0.00000E+00
 -1      5478-9.22058E-02 1.68993E-01 1.11332E-01 3.00692E-02 3.51674E-02-2.24166E-01
 -1      5479 0.00000E+00 0.00000E+00 0.00000E+00 0.00000E+00 0.00000E+00 0.00000E+00
 -1      5480 0.00000E+00 0.00000E+00 0.00000E+00 0.00000E+00 0.00000E+00 0.00000E+00
 -1      5481-2.51273E-01 6.26877E-02 1.76430E+00-2.94022E-01 1.83345E-01-1.20731E+00
 -1      5482 4.43108E-01 2.28311E-02-6.03672E-01-1.60781E-01 2.73677E-01 1.86489E-01
 -1      5483-1.24178E-01-4.41721E-02-2.78082E-01-6.15377E-02 3.90449E-02 1.51166E-01
 -1      5484 4.81503E-01 3.18945E-01 5.39508E-01 7.24796E-02-4.80360E-02-6.17329E-01
 -1      5485 1.74218E-01-1.11755E-01-1.58235E-01-4.20072E-02 2.65423E-02-1.45710E-01
 -1      5486 2.59118E-02 1.37971E-01-1.18134E-01-1.84255E-01-6.61510E-02-3.48257E-01
 -1      5487-1.38775E-01-1.48208E-01-5.37310E-01-1.41081E-01-1.76368E-01-4.94043E-01
 -1      5488-8.47562E-02 1.70500E-01 1.82701E-01-1.92331E-01-1.11802E-01-2.49565E-01
 -1      5489-7.07152E-02-6.17162E-02-9.24367E-01 3.32716E-02-1.98812E-01-9.21950E-01
 -1      5490-5.86544E-01 9.89519E-02 3.23540E-02-1.87750E-01-1.50327E-01 1.27309E-01
 -1      5491 2.22973E-01 6.84093E-02 1.52830E-01-9.27375E-02-2.44710E-01-8.26055E-03
 -1      5492-6.52969E-01 7.36321E-02-5.17366E-01 9.95727E-02-1.69910E-01-1.09940E+00
 -1      5493-6.20107E-01 4.39559E-02-1.90394E-01-1.28821E-01-2.58728E-01 9.20286E-01
 -1      5494-1.76565E+00-3.43903E-02 3.00285E-02-1.38842E-01-2.44640E-02 8.09785E-01
 -1      5495-2.80748E-01 9.42366E-02 2.76835E-01 4.22999E-02-1.44909E-01 3.30763E-01
 -1      5496-3.31040E-01-1.92000E-01-3.91551E-01 1.08801E-01-1.98558E-01 5.18773E-01
 -1      5497-1.03723E-01 1.34166E-01 2.55831E-01 6.76631E-02-8.36353E-03 4.43310E-01
 -1      5498-3.43771E-01-1.54966E-01-3.70779E-01 1.24657E-01-4.62102E-02 1.38517E-01
 -1      5499 9.10454E-02-2.91704E-01-5.38798E-01 2.20348E-01 1.77930E-01 4.69785E-01
 -1      5500 3.97651E-01-9.22580E-02-5.57227E-01 8.20570E-02 1.75618E-01 3.76596E-01
 -1      5501 5.44439E-01 2.41836E-01 6.98754E-01 3.25497E-01 2.47838E-01 5.42947E-01
 -1      5502 6.67350E-01-2.55657E-01-2.73853E-01 1.31651E-01 2.64834E-01-7.75393E-02
 -1      5503-1.28817E-01-8.76767E-02-5.53870E-01 1.91834E-01 3.32939E-01-8.95583E-02
 -1      5504 0.00000E+00 0.00000E+00 0.00000E+00 0.00000E+00 0.00000E+00 0.00000E+00
 -1      5505 5.38921E-01 2.02703E-01 2.20070E-01 1.53198E-02-3.86657E-02-8.41303E-01
 -1      5506-2.18023E-01 1.77061E-01 2.64678E-01-1.17375E-01-1.84969E-01-2.91652E-01
 -1      5507 1.71268E-02-1.43021E-01-1.16464E+00-8.52751E-03-3.54088E-01-4.94966E-01
 -1      5508-2.45056E-01-1.90767E-01-6.65061E-01 5.91855E-02-2.44200E-02 6.80646E-01
 -1      5509-2.72245E-01-3.28192E-01-9.58397E-01 3.20986E-02-8.87945E-02 4.95949E-01
 -1      5510-8.59487E-01-5.87416E-01-3.53600E-01 7.47619E-02 1.92283E-01 1.16795E+00
 -1      5511 5.32581E-01-8.28994E-02 1.69054E-01 2.14210E-01 1.66353E-01 3.97749E-01
 -1      5512 1.12728E+00-2.10339E-01-3.17969E-01-1.72098E-01 1.50272E-01 4.47598E-01
 -1      5513-5.40559E-02-7.64522E-02 7.17621E-01 7.09209E-02 3.84276E-01 1.72472E+00
 -1      5514 1.10109E+00-3.01980E-02 1.82612E-01 2.20063E-02 1.86661E-01 2.62125E-01
 -1      5515 4.20318E-02-8.56214E-01-1.03278E-01-1.72533E-02 1.41299E-01 1.29269E+00
 -1      5516 0.00000E+00 0.00000E+00 0.00000E+00 0.00000E+00 0.00000E+00 0.00000E+00
 -1      5517 8.99995E-01-2.72985E-02 1.16567E-01-1.56606E-01 3.23992E-02-5.99954E-01
 -1      5518 1.25441E+00-8.07669E-01-1.99144E+00 2.64251E-01-1.69007E-01-9.46110E-01
 -1      5519 7.94029E-01 2.30160E-01 3.41498E-01-1.70899E-01 5.06293E-02-8.68735E-01
 -1      5520-8.54689E-02-2.14726E-01-4.87420E-01-3.00358E-01 9.25825E-02-6.83059E-01
 -1      5521-9.56959E-01-4.84737E-01-6.48997E-01 2.15955E-01-1.05340E-01-1.18256E+00
 -1      5522-6.93319E-01 2.85820E-02-3.24158E-01-1.61180E-01-2.12216E-01-6.85276E-01
 -1      5523-9.69739E-01 7.51289E-02-4.66687E-01-1.13954E-01-1.23915E-01-5.00903E-01
 -1      5524-1.51781E+00-8.67323E-02-6.69292E-01 2.29072E-01-2.08334E-01 5.64262E-01
 -1      5525 3.05978E-01-4.10987E-01 2.09274E+00-7.47126E-01-1.55320E-01 1.60983E+00
 -1      5526-1.17584E+00-3.31894E-01-9.28027E-01 5.10462E-02-1.74209E-01 1.26626E+00
 -1      5527 9.93080E-01 1.51625E-01 8.17794E-01 4.27936E-02-2.64844E-03 7.59945E-01
 -1      5528 0.00000E+00 0.00000E+00 0.00000E+00 0.00000E+00 0.00000E+00 0.00000E+00
 -1      5529-7.25824E-02 2.44117E-01 2.01763E+00-3.09397E-01 2.56104E-01-1.46023E+00
 -1      5530-2.26160E-01-3.25053E-01-8.10242E-01-2.44417E-01-1.37971E-01-1.07777E+00
 -1      5531-6.35924E-02 2.21117E-01 7.07779E-01 1.01912E-01 3.65519E-02 6.68659E-01
 -1      5532 3.39083E-01 2.19860E-01 7.44181E-01 6.11156E-02 6.48859E-02 1.10063E+00
 -1      5533 3.18896E-01-8.94584E-01-7.58914E-01-2.28843E-01-2.14590E-01 1.13407E+00
 -1      5534 3.08147E-01 2.05675E-01 1.63442E+00 2.21491E-01 3.19432E-01 1.31164E+00
 -1      5535 0.00000E+00 0.00000E+00 0.00000E+00 0.00000E+00 0.00000E+00 0.00000E+00
 -1      5536 6.15858E-01-3.75032E-01-1.82194E-01 6.42496E-02 4.43092E-02-9.43684E-01
 -1      5537 4.66127E-01-1.16821E-02-3.06368E-01-1.45494E-01 1.10901E-01-3.74611E-01
 -1      5538-3.49917E-01 1.71142E-01 1.39121E+00 2.18680E-02 4.54523E-01-1.44527E+00
 -1      5539-2.58097E-01 2.40822E-01 9.55602E-01 2.20297E-01-9.03838E-02-6.80233E-01
 -1      5540-1.76284E-01 8.17017E-03-1.01718E-01-6.85350E-02-4.28232E-02-9.22927E-01
 -1      5541 1.59594E-01 3.76916E-01 1.12402E+00 2.81153E-01 2.35863E-01-1.47855E+00
 -1      5542-1.31557E-01-5.64194E-01-1.34227E+00 6.04695E-02 9.44054E-02-1.38470E+00
 -1      5543 4.68284E-01-7.63034E-02-6.86914E-01 5.62519E-03-1.72571E-01-1.12413E+00
 -1      5544-6.57957E-01 1.23361E-01-1.41583E-01-5.15706E-02-3.85380E-01-8.18440E-01
 -1      5545-4.35787E-01 5.10502E-01 8.18707E-01 1.85535E-01 1.22935E-01-1.21275E+00
 -1      5546 2.30068E-01-2.41936E-01-1.36809E+00 2.32191E-01-1.67243E-01-1.10108E+00
 -1      5547-4.45061E-01 1.02394E-01-3.79298E-01-9.54127E-02-1.67193E-01-2.79482E-01
 -1      5548-2.25260E-01 7.11038E-01 2.52174E-01 1.20422E-01-2.31959E-02-1.17109E+00
 -1      5549 3.36727E-01 1.41189E-01-9.68524E-01 7.49489E-02-2.33543E-01 9.09093E-01
 -1      5550-5.69785E-01 7.02531E-01 3.23738E-01-1.66719E-01-2.00063E-02 5.97978E-01
 -1      5551-1.66138E+00 2.63397E-01-1.44791E-01 3.21058E-01 5.76590E-02 5.11238E-01
 -1      5552 1.37647E-01-1.40743E-01-1.24819E+00-5.32074E-03-2.96572E-01 8.37500E-01
 -1      5553 3.16472E-01 3.56124E-01 1.02955E+00-1.37053E-01 2.02144E-01 1.00375E+00
 -1      5554 5.58384E-02-4.09911E-01-9.10068E-01-1.77733E-01-2.03485E-01 8.17288E-01
 -1      5555-3.13520E-01-5.64588E-01-6.73411E-01-5.01988E-01-3.43856E-01 2.02243E+00
 -1      5556 0.00000E+00 0.00000E+00 0.00000E+00 0.00000E+00 0.00000E+00 0.00000E+00
 -1      5557 0.00000E+00 0.00000E+00 0.00000E+00 0.00000E+00 0.00000E+00 0.00000E+00
 -1      5558 1.35723E+00 3.56533E-01 9.35897E-01 1.25623E-01 1.06186E-01-1.40650E+00
 -1      5559-2.83951E-01 3.63753E-02 1.24137E-01 1.80285E-01-2.44753E-01-8.21104E-01
 -1      5560-7.53732E-01-7.15168E-01-1.39536E+00 1.33114E-01-2.17712E-01-7.78043E-01
 -1      5561-7.60358E-03-5.14886E-02 1.74666E-01-1.51797E-01-1.33021E-01-9.01135E-01
 -1      5562 4.93352E-01 6.70697E-01 1.93465E+00-1.50612E-02 1.01433E-01-1.06404E+00
 -1      5563 1.87864E-01 5.87310E-02-8.55034E-01 2.85328E-01 7.17821E-02-1.22573E+00
 -1      5564-7.38640E-01 3.57823E-01-1.14365E-01 3.53250E-01-1.85856E-01-8.91074E-01
 -1      5565-1.58595E+00-1.90582E-01-7.93496E-01-2.54398E-01-3.62162E-02 1.18951E+00
 -1      5566-2.38078E+00 5.23522E-02 6.24779E-01-2.50164E-01 1.75402E-01 1.72112E+00
 -1      5567 1.32000E-01-2.90240E-02-3.71390E-01-2.46397E-02 7.01916E-02 1.27260E+00
 -1      5568-1.26681E-01 1.14983E-01 4.95698E-01-2.19590E-01 3.23660E-01 1.66003E+00
 -1      5569-2.15402E-01 6.93102E-02 1.76443E-01-3.43687E-02 7.77214E-02 8.98828E-01
 -1      5570-2.06513E-01 3.75955E-02 8.30124E-01 2.58341E-01 2.77186E-01 8.40083E-01
 -1      5571-2.85804E-01-4.56524E-01-8.66443E-01-2.31063E-03-2.02091E-01 1.08615E+00
 -1      5572 3.60394E-01-8.05719E-02-9.95271E-02 9.87188E-02 5.34119E-02 1.00410E+00
 -1      5573-9.04150E-01-4.09068E-01-1.46151E-01-9.69847E-02-1.37129E-01 1.34149E+00
 -1      5574 6.43714E-01-1.77013E-01-1.45554E-01 1.02256E-01 1.44357E-01 6.75898E-01
 -1      5575-7.10802E-01-2.75906E-01 8.10901E-01-6.07335E-01-2.32444E-01 2.03776E+00
 -1      5576 8.27070E-01-2.74430E-02 1.67874E+00-1.30753E-01-1.16526E-01 1.47512E+00
 -1      5577 0.00000E+00 0.00000E+00 0.00000E+00 0.00000E+00 0.00000E+00 0.00000E+00
 -1      5578 0.00000E+00 0.00000E+00 0.00000E+00 0.00000E+00 0.00000E+00 0.00000E+00
 -1      5579 1.55142E+00-5.79430E-01 5.65500E-02-2.99674E-01 2.86662E-03-7.86958E-01
 -1      5580-6.20179E-02-5.69148E-02 2.52104E+00 2.32220E-01-5.83857E-01-1.07521E+00
 -1      5581 1.75412E+00-5.71880E-01-1.02753E+00-5.19723E-01 1.61403E-01-1.41021E+00
 -1      5582 7.35026E-01-3.28379E-01-3.03186E-01 1.15340E-01 1.37243E-01-4.32638E-01
 -1      5583-7.16305E-01-6.87495E-01-1.96539E+00-1.92146E-01 3.60467E-01-1.88429E+00
 -1      5584-2.06400E-01-6.93049E-02 1.61685E-01-7.38241E-02 8.25327E-02-1.21847E+00
 -1      5585 6.43236E-01 5.56885E-01 9.09016E-01-2.05081E-01-4.52091E-02-9.69742E-01
 -1      5586-1.31810E-02 1.81104E-02-3.44430E-01 8.57754E-02 1.75932E-01-1.24961E+00
 -1      5587 2.69812E-01 5.86276E-01 6.44661E-01-9.47479E-02-9.19120E-02-4.80682E-01
 -1      5588 5.57475E-01 9.80724E-01 1.42663E+00-6.09575E-02-1.81637E-01-1.16784E+00
 -1      5589-6.74048E-01-1.60190E-01-3.14565E-01-1.74486E-01-1.06339E-01-8.21076E-01
 -1      5590-1.46515E-01-2.77216E-01-1.28714E+00 2.41861E-01 1.97474E-01-1.41598E+00
 -1      5591 7.28706E-01 1.23697E+00 2.75144E+00-3.92225E-01 2.69933E-01-1.38881E+00
 -1      5592-3.91892E-01 6.08156E-01 1.92994E+00-6.27810E-01 2.85096E-01-1.10445E+00
 -1      5593-1.76016E+00 1.29362E-03-2.45439E-01-2.57330E-01-2.98045E-01-8.49541E-01
 -1      5594-3.68378E-01 1.63911E-01-1.27405E+00-6.55228E-01-4.38087E-01-1.08276E+00
 -1      5595-2.13850E-01 2.78875E-01-1.04070E+00 2.10787E-01-1.40743E-01 1.29060E+00
 -1      5596-3.20323E-01-1.03395E-01-1.58393E+00 1.17003E-01 2.31326E-01 9.70052E-01
 -1      5597-1.06267E+00 4.76307E-01 2.52280E-01 2.60485E-01-1.62002E-01 8.45420E-01
 -1      5598-1.41208E+00 2.28739E-01-1.86987E-01-1.97947E-01 2.09706E-01 3.11657E-01
 -1      5599-7.71088E-01 2.32933E-01-3.93838E-01-1.56482E-01 1.77936E-01 2.89252E-01
 -1      5600-4.40169E-01 3.89150E-01 5.43223E-01-2.32634E-01-1.29381E-01 1.62143E+00
 -1      5601 1.52879E-01-1.87461E-01-1.27471E+00-4.64528E-01 3.53062E-01 1.39074E+00
 -1      5602-1.15244E+00 3.94945E-01 3.14442E-01-5.86708E-02-6.97311E-02 2.99418E-01
 -1      5603 6.97451E-01 5.01563E-01 3.21559E-01 1.21225E-01-2.97270E-01 9.80212E-01
 -1      5604 1.09031E+00 1.36247E+00 2.05983E+00-6.51857E-02-2.63593E-01 1.54908E+00
 -1      5605-2.93514E-01 1.59644E-01 1.20598E-01-1.37842E-02 7.82194E-02 5.70470E-01
 -1      5606 6.61942E-01-1.28148E-02-1.46589E-01 1.42600E-01-1.13691E-01 1.29511E+00
 -1      5607-3.73658E-01-5.80547E-02-7.22289E-03-9.91255E-02-5.48207E-03 5.05891E-01
 -1      5608 2.52043E-02 4.64197E-02 3.02380E-01 7.56628E-04-1.91797E-01 1.25633E+00
 -1      5609-3.23316E-01-3.85263E-01-9.16979E-01 7.93878E-02 1.40256E-01 1.03754E+00
 -1      5610 4.05078E-01-7.06804E-02 4.75497E-02-2.69618E-01-1.19891E-01 8.75529E-01
 -1      5611-7.44631E-01-1.19234E+00-1.81585E+00 9.71682E-02 1.79186E-01 1.32274E+00
 -1      5612 5.13461E-01-2.27471E-02-1.27497E-01 2.78689E-01 1.14451E-01 8.83345E-01
 -1      5613 6.57047E-03 2.68916E-01 1.21354E+00-1.87816E-01-1.67421E-01 1.54235E+00
 -1      5614 9.85648E-01-3.55185E-01-7.04292E-02 4.35925E-01-1.10721E-01 1.31099E+00
 -1      5615 4.71498E-01-4.44041E-01-2.43946E-01 3.60718E-01 2.14507E-01 7.95363E-01
 -1      5616 2.41457E-01 4.08517E-01 1.80102E+00 6.01447E-01 4.36986E-01 1.27041E+00
 -1      5617 0.00000E+00 0.00000E+00 0.00000E+00 0.00000E+00 0.00000E+00 0.00000E+00
 -1      5618 0.00000E+00 0.00000E+00 0.00000E+00 0.00000E+00 0.00000E+00 0.00000E+00
 -1      5619 0.00000E+00 0.00000E+00 0.00000E+00 0.00000E+00 0.00000E+00 0.00000E+00
 -1      5620 0.00000E+00 0.00000E+00 0.00000E+00 0.00000E+00 0.00000E+00 0.00000E+00
 -1      5621 1.31997E+00-2.60104E-01 6.65732E-01 1.92995E-01-2.83640E-01-3.97332E-01
 -1      5622 1.98612E+00 7.34138E-02 8.41697E-01 4.54104E-02-1.51499E-01-9.89715E-01
 -1      5623-1.80605E-01-2.89629E-02 1.31536E-01 3.28305E-01-2.21777E-01 3.46234E-03
 -1      5624-2.56714E-01 3.48599E-01 1.24044E+00 1.57530E-01-3.27232E-01-1.05602E+00
 -1      5625 7.56678E-01 5.77375E-02 2.20439E-01 2.25878E-01-2.66268E-02-5.16143E-01
 -1      5626 6.03610E-01 4.22699E-02-3.83285E-01 2.11462E-01-1.84168E-01-4.30274E-01
 -1      5627-2.56166E-01-1.91071E-01-3.75162E-01-1.80660E-02 1.07095E-01-7.09248E-01
 -1      5628-1.59345E-01-2.62375E-01-9.72696E-01 1.12473E-01 1.84972E-01-1.49345E+00
 -1      5629 7.53765E-02-3.91365E-02 2.42334E-02 4.14724E-02 2.42293E-01-4.94408E-02
 -1      5630-1.17710E+00-2.68494E-01-5.47121E-01 4.44019E-01 3.01425E-01-4.07152E-01
 -1      5631-1.14006E+00 2.55462E-01-4.22523E-01 2.20495E-01 1.63855E-01-5.13245E-01
 -1      5632-8.13097E-01-8.73975E-02-4.22399E-01-1.26468E-01 4.31748E-02 7.08977E-01
 -1      5633 3.21018E-01 2.12402E-01 3.32674E-01-1.18518E-01 1.27405E-01 1.79638E+00
 -1      5634 2.97976E-01 3.67608E-01 9.15614E-01-8.33720E-02-7.75689E-02 8.09448E-01
 -1      5635-1.16204E-02-3.89119E-01-4.44702E-01-2.27117E-01-1.48271E-01 2.27273E-01
 -1      5636 1.53788E+00 3.16095E-01 9.71147E-01-2.50284E-01-7.89600E-02 1.09177E+00
 -1      5637 2.68652E-01-3.87490E-01 1.19052E-02-5.62860E-02-7.60389E-02 2.74656E-01
 -1      5638 3.69534E-02-2.36953E-01-1.22251E-01-2.23534E-02-1.34065E-01 1.74747E-01
 -1      5639 9.58274E-01-2.85653E-01 2.23536E-01-1.77010E-01-9.19914E-02 5.00641E-01
 -1      5640-2.02801E-01-3.19216E-01 1.52263E-01 1.07294E-01 2.06372E-01 1.28819E+00
 -1      5641-8.32293E-02 5.86729E-01 2.68785E+00 2.45410E-02-3.66571E-01 7.39023E-01
 -1      5642 8.99411E-01 3.87072E-01 8.31074E-01-1.44407E-02-8.24773E-02-9.94903E-01
 -1      5643-2.12671E-01-3.71892E-01-9.64380E-01-7.49329E-02 1.01517E-01-1.30812E+00
 -1      5644 7.84659E-03 3.13874E-01 4.98290E-01 8.91040E-02 1.47702E-01-4.07577E-01
 -1      5645-2.63522E-01-4.21568E-01-1.79689E+00 2.85397E-01 1.73795E-01-8.42200E-01
 -1      5646-7.22371E-01 3.36725E-01 1.04987E-01 1.24373E-01 1.67688E-01 1.92793E-01
 -1      5647-8.78398E-01 6.63827E-02-7.85295E-02-8.01873E-02 1.85922E-01 2.52878E-02
 -1      5648 3.88337E-01 1.68419E-01 3.63480E-01-1.41729E-01 2.77519E-02 1.46321E+00
 -1      5649 5.21885E-01 6.47307E-01 1.27406E+00-1.38222E-01-2.73668E-01 1.00971E+00
 -1      5650 0.00000E+00 0.00000E+00 0.00000E+00 0.00000E+00 0.00000E+00 0.00000E+00
 -1      5651-4.20304E-02-1.34901E-01 1.11791E+00 9.66455E-02-2.61925E-01-1.13157E+00
 -1      5652 1.82401E+00-1.57541E-01 5.40744E-01 1.71880E-01-3.02207E-01-6.78273E-01
 -1      5653 9.20058E-01-4.80780E-01-2.64021E-01 3.02670E-01-2.27585E-01-1.39338E-01
 -1      5654 6.16077E-01 9.19463E-02-3.89291E-01 1.81959E-01-7.12017E-02-7.53795E-02
 -1      5655 1.15025E-01-1.57523E-01-3.62358E-01 9.67301E-02-2.82876E-02-1.94035E-01
 -1      5656-3.55856E-01 2.55776E-02 1.83827E-02-9.68542E-02-2.38750E-01-9.12929E-02
 -1      5657-4.07191E-01-1.37671E-01-4.21416E-01 1.21344E-01-2.39780E-03-5.10725E-01
 -1      5658-7.41805E-01 3.25589E-01 3.04259E-01 1.77752E-01 3.76540E-02-2.27212E-01
 -1      5659-7.26683E-01-1.31331E-01-5.91699E-01-1.04901E-02 1.15027E-01-8.95308E-01
 -1      5660-7.82829E-01 2.85134E-02-1.36438E-01 9.99029E-02 2.05223E-02-6.17211E-01
 -1      5661-5.44227E-02-6.27141E-02-8.37991E-01-1.45511E-02 3.25392E-01 8.61598E-01
 -1      5662 6.18201E-01 3.34784E-01 5.12265E-01-2.90062E-01 1.66509E-01 1.63503E+00
 -1      5663-7.32881E-01-1.32409E-01 1.14440E-01-1.53054E-01 5.95884E-02 1.72588E-01
 -1      5664 3.40699E-02-2.44981E-01-8.43895E-01-1.67731E-01-7.05223E-03 5.86126E-01
 -1      5665 5.08161E-01 2.02459E-01 4.22256E-01-1.02319E-01-5.13417E-02 6.38742E-01
 -1      5666 9.94839E-01-2.61317E-01-2.78051E-02-1.95394E-01-4.50040E-02 2.99890E-01
 -1      5667 2.94786E-01 4.76336E-01 1.05441E+00-2.59801E-02-4.21767E-01 6.07367E-01
 -1      5668 4.48280E-01-3.92921E-02-2.23145E-01 4.59608E-02-1.87213E-01-9.24829E-02
 -1      5669 4.46397E-01 2.35684E-02 1.00381E+00 7.34770E-02 4.00979E-02 1.02313E+00
 -1      5670-1.10272E+00-1.95572E-01 2.18668E-01 3.34243E-01-1.15773E-01-1.33385E+00
 -1      5671 3.06922E-01 7.31602E-02-1.14482E-02 2.40327E-01-1.07330E-01-5.31773E-01
 -1      5672-1.13224E-01-1.00330E-01-4.35775E-01 6.50313E-02 1.35844E-01-6.71899E-01
 -1      5673 3.09714E-01-2.48773E-01-9.71404E-01 5.68965E-02 1.64605E-01-8.82495E-01
 -1      5674-4.81777E-01-4.53654E-02-5.28760E-01 1.58650E-01 4.65674E-02 7.55679E-01
 -1      5675-6.02833E-01 2.09672E-01 1.94035E-01-2.25409E-01 1.69226E-01-2.01935E-01
 -1      5676-4.67222E-01-7.65995E-02 4.88557E-02-1.57889E-01 9.04672E-02 1.34528E-01
 -1      5677-2.45895E-01 7.98502E-02 1.40061E+00-5.30105E-02-1.89994E-01 7.28326E-01
 -1      5678 2.36977E-01 2.29523E-01 2.96509E-01 1.34259E-01 9.58522E-02-3.34124E-01
 -1      5679-2.35487E-01 3.39346E-02 5.55523E-02 5.06659E-02-2.35650E-02-3.17008E-01
 -1      5680 1.97248E-01 2.83289E-01 3.04830E-01-1.43163E-01 1.89291E-01 5.29709E-01
 -1      5681 2.76258E-02 2.99674E-01 4.32778E-01-1.51973E-01 1.56177E-02 4.40272E-01
 -1      5682-2.06731E-03-1.56830E-02 1.04959E-01-3.01864E-01-7.93180E-02 3.28598E-01
 -1      5683 2.63374E-01-1.81741E-01-3.55801E-01-1.73991E-01-2.71190E-02 2.64990E-01
 -1      5684 0.00000E+00 0.00000E+00 0.00000E+00 0.00000E+00 0.00000E+00 0.00000E+00
 -1      5685 0.00000E+00 0.00000E+00 0.00000E+00 0.00000E+00 0.00000E+00 0.00000E+00
 -1      5686-8.19212E-01-4.37205E-01 1.03917E+00-2.91475E-01-1.18504E-02-6.15082E-01
 -1      5687 4.83216E-01-1.73520E-01-7.02050E-02 2.02175E-01 3.86071E-02 1.05572E-01
 -1      5688 9.00967E-01 4.49827E-01 1.38428E+00-9.17908E-02 1.79975E-01-1.24426E+00
 -1      5689 4.56727E-01 1.81202E-01-3.44770E-01 4.25127E-02 6.97684E-02 9.39400E-03
 -1      5690 4.40975E-02 1.95317E-02-1.69210E-01-1.75324E-02-1.66594E-02-3.59056E-01
 -1      5691 6.23047E-02-3.26417E-01-5.35547E-01-1.26062E-01-2.36956E-03-9.62956E-02
 -1      5692 1.54427E-01 1.42038E-01 3.22631E-01-1.14477E-01-3.11233E-02-2.98024E-01
 -1      5693-2.01386E-01-2.71512E-01-8.47306E-01-2.34570E-01-7.10807E-02-1.41889E-01
 -1      5694-1.70862E-01-1.19872E-02-2.05465E-02-9.00089E-02-5.32967E-02 8.82600E-03
 -1      5695-9.59394E-02 2.16620E-01-1.83083E-02-7.35829E-02-9.15716E-03-9.51973E-01
 -1      5696-1.31403E-01 2.86665E-01 3.95618E-01-5.05247E-02-1.48124E-01-1.85885E-01
 -1      5697-1.09029E-01-6.73689E-02-3.57280E-01-2.32882E-02-4.62195E-02 1.26938E-01
 -1      5698-3.04449E-01-3.01225E-01-1.65862E+00-1.40567E-01-4.24080E-01 9.18237E-01
 -1      5699-3.56448E-01 3.44039E-01 1.15258E-01-1.04645E-01-1.81553E-01-9.39766E-02
 -1      5700 1.80139E-01 3.31214E-02-5.86280E-03 7.28008E-02-2.56427E-01-1.37676E-01
 -1      5701-1.26471E-01 1.24484E-01 3.00539E-01-2.41135E-02-4.57360E-02 1.41933E-01
 -1      5702-1.42755E-01-3.93757E-01-1.19712E+00 3.35441E-02-1.31286E-01 9.50817E-01
 -1      5703-2.69356E-02 2.22008E-01 5.17068E-01 9.97697E-02 6.26692E-02 2.15437E-01
 -1      5704-3.29160E-01-1.75806E-01-3.34963E-01 7.16244E-02 4.21136E-02 3.09196E-01
 -1      5705-1.31968E-01-8.71066E-02 3.14805E-01 2.91460E-02 1.15963E-01 2.56196E-01
 -1      5706 4.29561E-01 1.22561E-01 7.12297E-01 5.20476E-02 8.12509E-02 9.45323E-01
 -1      5707 5.74806E-01-5.53637E-02 1.19614E-01 1.01236E-02-5.32804E-02 3.63881E-01
 -1      5708 5.31669E-02 1.51529E-01-3.02443E-01 1.28373E-01-3.40101E-02 4.27500E-01
 -1      5709 7.39028E-01 9.47047E-02 3.69337E-01 2.14910E-01-1.99077E-02-1.15729E-01
 -1      5710 0.00000E+00 0.00000E+00 0.00000E+00 0.00000E+00 0.00000E+00 0.00000E+00
 -1      5711 7.74394E-01 1.91723E-01 4.00340E-01 1.15514E-01 1.24853E-02-6.63969E-01
 -1      5712-1.47384E-01 2.11173E-01 7.95269E-01-9.78892E-02 6.15922E-02-5.60398E-01
 -1      5713-9.11787E-01 7.78776E-02-1.53909E-01-2.03251E-01 5.12807E-03-4.16751E-01
 -1      5714-1.22644E+00-1.47337E-01-7.54994E-01-1.00155E-01 2.90639E-02-6.98198E-02
 -1      5715-8.35343E-01-4.66501E-01-1.34196E+00-2.85374E-01-1.23233E-01-8.17013E-01
 -1      5716 1.31926E-02-1.14321E-01-1.05777E+00-3.76822E-02-1.51570E-01-8.78173E-01
 -1      5717 1.51697E-01 2.94821E-01 1.16189E-01 1.18701E-01-1.87427E-01 1.70558E+00
 -1      5718 7.57389E-03 1.05604E-01 3.81386E-01 1.80207E-01 1.10830E-02 3.41633E-01
 -1      5719 5.45428E-01-2.25038E-01 3.44859E-01 1.44992E-01-4.90637E-02 2.57024E-01
 -1      5720 6.05733E-01 3.30263E-01 8.51688E-01 1.11369E-01 2.62538E-01 9.88187E-01
 -1      5721 8.00219E-01-4.99486E-01-1.72530E-01 1.78359E-01-2.79031E-01-1.16238E-01
 -1      5722 2.29811E-03-5.81441E-02-5.50157E-01-1.25321E-01 2.17364E-02-1.41507E-01
 -1      5723 1.97242E-02 2.49960E-01 9.46747E-01 4.83615E-02-1.55341E-01-1.23940E-01
 -1      5724-8.67210E-01-9.40213E-03-4.75451E-01 1.89396E-04-2.82117E-02-9.59535E-01
 -1      5725-7.16716E-01 5.93747E-01 1.19881E-01 4.05206E-02 1.25833E-01-9.39500E-01
 -1      5726-1.22378E+00 1.91978E-01-3.89819E-01-3.61082E-02 3.33383E-02 3.45979E-01
 -1      5727-7.83250E-01-7.24390E-02-6.91443E-01-1.01732E-01 3.61512E-02 9.72713E-01
 -1      5728 6.59008E-03 3.62635E-01 7.93900E-01-1.95759E-01 1.57147E-01 1.31118E+00
 -1      5729 1.18618E+00 2.84371E-02 5.06818E-01-7.72549E-02-1.66937E-01 8.22997E-01
 -1      5730-4.05132E-01-1.02545E+00-1.06663E+00-2.18731E-02-8.81877E-02 1.34163E+00
 -1      5731 0.00000E+00 0.00000E+00 0.00000E+00 0.00000E+00 0.00000E+00 0.00000E+00
 -1      5732 7.76709E-01-3.45028E-01-2.71907E-01-1.41136E-01-3.10220E-01-2.91819E-01
 -1      5733 2.91012E-01-8.07912E-02-7.48046E-01-1.80484E-02 5.72226E-03-9.16061E-01
 -1      5734 1.32358E-02 2.91856E-01 4.16417E-01-4.45221E-02-3.43171E-02-1.93643E-01
 -1      5735-2.19470E-01 1.22616E-01 5.79323E-01 7.59703E-02 3.37781E-02 6.06203E-01
 -1      5736 9.93025E-01 2.87486E-01 5.92958E-01 1.05282E-01 1.86404E-02 1.39550E-01
 -1      5737-7.61729E-02-8.59631E-02 7.01773E-01-9.62909E-02 5.14811E-01 4.21967E-01
 -1      5738 0.00000E+00 0.00000E+00 0.00000E+00 0.00000E+00 0.00000E+00 0.00000E+00
 -1      5739 0.00000E+00 0.00000E+00 0.00000E+00 0.00000E+00 0.00000E+00 0.00000E+00
 -1      5740 3.06607E+00-1.29487E-01-1.09936E-01-1.27635E-01-6.37855E-02-3.88470E-01
 -1      5741-2.47122E-01 4.66438E-01 1.75141E+00 4.36421E-03 1.83615E-01-1.71448E+00
 -1      5742 2.64420E-01-2.54663E-01-3.67615E-01-4.78682E-02-4.35648E-03-4.69883E-01
 -1      5743 8.15946E-02 1.31465E-01 8.66642E-01-5.63971E-02-1.33849E-02-1.46470E+00
 -1      5744 1.98020E-01-9.61277E-02-4.11769E-01 4.87323E-02 2.30173E-02-7.95795E-01
 -1      5745-1.13267E-01 1.95179E-01 2.53472E-02 1.42894E-01-3.52048E-02-4.68901E-01
 -1      5746 1.57353E-01 1.09532E+00 2.13583E+00-2.18636E-01 1.68378E-01-1.15954E+00
 -1      5747-9.18041E-01 4.51489E-01 7.40572E-01 4.42287E-01 5.23555E-01-1.15948E+00
 -1      5748-3.62349E-01-1.06110E+00-3.03752E+00 2.39961E-01-4.06884E-01-1.20636E+00
 -1      5749-4.24963E-01 6.33720E-01-1.30520E-01-1.51608E-01 2.50792E-02-2.94822E-01
 -1      5750-7.71534E-01 4.31537E-02-1.20027E+00 2.11733E-01 6.90783E-02-9.73414E-01
 -1      5751-1.14858E+00 6.88923E-01 7.56617E-01-2.36083E-01 4.65459E-01 8.10233E-01
 -1      5752-1.09768E-01-5.07911E-01-1.54423E+00 9.29084E-02-2.80881E-01 1.17735E+00
 -1      5753-1.07823E+00-1.79477E-01-1.06891E+00-1.26500E-01 5.89878E-02 1.10029E+00
 -1      5754-2.92769E-01 2.49439E-01 1.54983E-01 6.13727E-02 4.50064E-02 7.45857E-01
 -1      5755-1.08193E-01 1.34993E-01 8.02767E-01-1.71309E-01 1.53419E-01 1.17759E+00
 -1      5756-1.83177E-02 7.72705E-02 9.37358E-01 5.98711E-03 1.55019E-01 6.86802E-01
 -1      5757 1.75453E-01-1.64386E-01-3.09572E-01-3.68966E-02-6.02480E-02 6.48836E-01
 -1      5758 1.39901E+00 2.77903E-02 6.23750E-01-6.60506E-02-1.02732E-01 9.10327E-01
 -1      5759-8.58634E-01-1.08600E+00-1.29931E+00-2.24492E-01-2.34428E-01 1.56351E+00
 -1      5760-1.55304E-02 4.26464E-01 1.47793E+00 1.30688E-02 1.29958E-01 1.30052E+00
 -1      5761 1.31698E+00 5.40726E-02 5.65695E-01 2.09116E-01-1.22799E-01 5.20918E-01
 -1      5762 0.00000E+00 0.00000E+00 0.00000E+00 0.00000E+00 0.00000E+00 0.00000E+00
 -1      5763-3.09022E-01-3.47133E-01-1.72219E-01-3.33990E-02-4.22204E-01-8.86093E-01
 -1      5764 7.42590E-01-3.76434E-01-1.92437E-01 1.66636E-01-3.73071E-01-2.04403E-02
 -1      5765 6.30785E-01-8.59810E-02-4.42330E-02 5.09445E-02-5.24466E-02-1.14532E+00
 -1      5766 4.56554E-01-2.17901E-01-3.69356E-01 1.52174E-01-8.77689E-03-7.84117E-01
 -1      5767-1.27559E-01-1.08380E-02 7.72707E-02 1.67729E-01-1.41244E-01-1.22424E+00
 -1      5768-8.42408E-01-7.00758E-01-1.46114E+00 2.36442E-01-2.66968E-01-8.27090E-01
 -1      5769 2.87011E-01 4.90882E-01 6.16643E-01-9.87923E-02 7.63339E-02-1.10094E+00
 -1      5770-2.22901E-01 1.59440E-01-6.05595E-01 5.25058E-01 4.90036E-01-1.57409E+00
 -1      5771-1.29092E+00 8.26188E-02-4.35998E-01-5.69224E-02-2.80234E-02 3.50007E-01
 -1      5772-1.51720E-01 6.21370E-01 1.34063E+00-1.80631E-01 2.53823E-01 1.33778E+00
 -1      5773 2.84097E-01 2.08133E-02-2.64814E-01 1.81341E-02 1.74968E-01 1.42236E+00
 -1      5774-1.67460E-01 2.21578E-01 7.59475E-01-5.21468E-02 2.95726E-01 1.04553E+00
 -1      5775-2.19538E-01 2.46744E-01 2.63473E-01-6.64100E-02-2.84039E-02 6.77357E-01
 -1      5776 1.85369E-01 8.68870E-02 3.40221E-01-1.71721E-01-1.38540E-01 1.27890E+00
 -1      5777 4.26984E-01-4.63323E-01 2.43640E-01 8.73499E-02-7.70267E-02 3.14079E-01
 -1      5778 2.26415E-01-1.29433E-01 1.52462E+00-4.27965E-01 1.30533E-01 1.19743E+00
 -1      5779 1.23704E+00 8.85304E-02 1.01010E+00 1.45942E-02 1.34393E-01-8.45028E-01
 -1      5780-1.19885E+00-1.73229E-01-5.17403E-01-6.48207E-02-5.14835E-02 6.77641E-01
 -1      5781 0.00000E+00 0.00000E+00 0.00000E+00 0.00000E+00 0.00000E+00 0.00000E+00
 -1      5782 0.00000E+00 0.00000E+00 0.00000E+00 0.00000E+00 0.00000E+00 0.00000E+00
 -1      5783 3.82199E+00 1.53242E-01 3.37356E-01-2.49371E-01-5.18801E-02-1.92095E-01
 -1      5784 2.00321E+00-3.60170E-02 3.77504E-01 1.31831E-01-3.66053E-02-5.26237E-01
 -1      5785 1.75657E+00-3.60639E-01-1.55482E+00-2.23874E-01 1.96663E-01-1.12843E+00
 -1      5786 4.52086E-02-7.84991E-01-1.43215E+00-1.53677E-01 1.43199E-01-7.17088E-01
 -1      5787-3.57335E-01-1.08838E+00-2.06564E+00 5.53871E-03 1.29005E-01-1.21944E+00
 -1      5788 2.97269E-01 1.48018E-01 1.27812E+00-8.82640E-02-2.22290E-01-7.83686E-01
 -1      5789-2.26021E-01 1.03282E-01 5.60357E-01-5.82794E-02-5.17890E-02-3.21658E-01
 -1      5790-3.71185E-01 1.38993E-02-6.30453E-01-1.00166E-02 1.54853E-01-1.12439E+00
 -1      5791-7.14766E-01-1.22957E-01-1.67999E-01-1.68532E-02-6.24741E-02-4.10832E-01
 -1      5792-1.32270E+00 3.30662E-01 3.11885E-01 1.33593E-01-1.47065E-02-6.55832E-01
 -1      5793-1.84614E+00 2.39400E-01-1.55022E-03 1.89481E-01-1.85511E-01-3.92797E-01
 -1      5794-1.31804E+00 6.41502E-01 2.63849E-01 4.59757E-01-7.88374E-02-1.68674E-01
 -1      5795-1.98349E+00-1.78679E-01-9.46031E-01 3.69677E-02-1.65886E-01 9.60985E-01
 -1      5796-2.12144E-02 5.27308E-01 1.54185E+00 8.72770E-02-2.41200E-01 7.82695E-01
 -1      5797 2.75586E-01 8.48351E-01 1.81222E+00 1.93115E-02-2.61277E-01 1.20889E+00
 -1      5798-2.25459E-02-1.39394E-01-6.94097E-01 9.94778E-02 1.14106E-01 7.06042E-01
 -1      5799 9.38899E-02-1.34613E-01-3.82789E-01-2.06478E-03-1.29741E-02 4.72250E-01
 -1      5800 7.78489E-01 3.24989E-01 7.09704E-01-1.41951E-02 1.26860E-01 6.93838E-01
 -1      5801 1.77540E+00-2.50369E-01-3.38444E-01-1.45236E-01 1.00446E-01 5.27176E-01
 -1      5802 5.36956E-01-2.61427E-01-2.80887E-01 3.17549E-01 3.81181E-01 1.04447E+00
 -1      5803 2.42638E+00 9.87273E-02-1.88380E-01-1.63884E-01 1.68023E-01 4.79866E-01
 -1      5804 7.52902E-01-7.29160E-01-1.01473E+00-5.91040E-02 7.23352E-01 1.59358E-01
 -1      5805 0.00000E+00 0.00000E+00 0.00000E+00 0.00000E+00 0.00000E+00 0.00000E+00
 -1      5806 8.78527E-01 3.29929E-01 9.52286E-01-5.96989E-02 8.50134E-02-9.85409E-01
 -1      5807 7.07376E-01-9.34147E-02-8.56872E-01 4.50027E-02 1.88261E-01-8.75757E-01
 -1      5808-4.63325E-01-3.09240E-01-1.24980E+00 4.45355E-02 1.89682E-01-1.78232E+00
 -1      5809-8.93947E-01-6.69304E-02-4.55888E-01 8.93953E-02 1.30893E-02-3.55523E-01
 -1      5810-1.99656E+00 2.12272E-01 5.49618E-01 1.14667E-01-2.37206E-01 2.85995E-01
 -1      5811-6.42983E-01-8.83756E-01-2.29145E+00-4.52307E-01 5.43040E-01 1.50656E+00
 -1      5812 6.76918E-01 2.04620E+00 3.22761E+00-1.69505E-01-3.35383E-01 1.53426E+00
 -1      5813-9.41324E-01-5.03185E-01-1.37953E+00-5.53049E-03 1.95546E-01 1.17581E+00
 -1      5814 8.06733E-01 7.20210E-01 1.54450E+00 1.51151E-01-1.26204E-01 1.13095E+00
 -1      5815 7.51350E-01 8.83236E-02 6.01462E-01-8.63672E-03-2.41273E-02-5.17995E-01
 -1      5816 4.57939E-01-3.29452E-01-4.61860E-01-2.05347E-02-4.27655E-02-3.65034E-01
 -1      5817 1.43860E-01-2.01705E-01 7.48201E-02 5.11601E-02-7.22848E-02-3.32969E-01
 -1      5818-7.67370E-01-3.89590E-01 1.31933E-01-1.45993E-02-2.60478E-01-2.05105E-01
 -1      5819 5.66345E-01-3.70171E-02-1.39399E-01 1.75059E-02-1.42538E-01-4.67644E-01
 -1      5820-1.02107E+00-8.30079E-02-1.01571E-02 1.47066E-02-2.95796E-02-5.45409E-01
 -1      5821-4.25209E-01 2.88854E-01 2.25430E-01-6.15157E-02 2.78065E-02 3.30355E-02
 -1      5822 6.01697E-02 2.89459E-01 1.04624E-01-1.12002E-01 8.89811E-02-2.28186E-01
 -1      5823-3.64847E+00-2.03149E-01-3.30083E-01-1.35778E-03 2.19299E-03-5.90967E-01
 -1      5824-1.33308E+00 5.91244E-01 2.42877E-01 9.41490E-03 1.67113E-01-4.24533E-01
 -1      5825-9.44903E-02 7.42668E-01 4.80303E-01-4.51862E-01-1.04429E-01 6.48721E-02
 -1      5826-4.88771E+00-9.28886E-01-3.29170E+00 6.15981E-01 1.69186E+00-2.07236E+00
 -1      5827-1.26966E+00 1.83933E+00 1.98640E-01-8.30909E-01 1.08339E+00 1.46059E-01
 -1      5828-4.32384E+00 8.46747E-01-2.93551E-01 6.29976E-02 4.23982E-01-6.06834E-01
 -1      5829-2.18843E-01 3.95729E-01-1.05192E-01 1.29525E-02 2.82609E-02 6.52947E-01
 -1      5830 7.66633E-01 3.70290E-01-1.01572E-01-2.06901E-02 2.39491E-01 3.04537E-01
 -1      5831-8.18567E-01 7.11349E-03-2.45485E-02-1.07218E-01 4.04503E-02 6.43362E-01
 -1      5832 3.79880E+00-7.77917E-02-8.48296E-02-9.37866E-02 1.01266E-01 4.32765E-01
 -1      5833 1.05706E+00-1.00720E+00-3.34638E-02-3.08344E-01 9.44286E-02 1.27695E-01
 -1      5834 7.98604E-01-5.85185E-01 7.89494E-01 1.85937E-01-7.99804E-03 6.73586E-01
 -1      5835 2.98567E+00-7.23135E-01 5.33942E-02 2.90751E-01-5.16019E-01 6.57325E-01
 -1      5836 3.00799E+00-2.52310E-01-1.47582E-01-3.75337E-02-4.34340E-01 7.66692E-01
 -1      5837 7.39238E-01-8.69370E-01-1.20599E+00 9.95403E-01-6.91804E-01-5.28233E-01
 -1      5838 0.00000E+00 0.00000E+00 0.00000E+00 0.00000E+00 0.00000E+00 0.00000E+00
 -1      5839 7.31880E-01 2.93860E-01 8.17238E-01-6.39596E-03-1.07454E-01-7.74644E-01
 -1      5840 6.82651E-01-4.06153E-01-4.20420E-01 4.13403E-01-9.27891E-01-8.02696E-01
 -1      5841 2.55461E+00-5.58681E-01-6.54263E-02 3.66389E-01 5.42290E-03-1.13536E+00
 -1      5842 1.47215E+00-8.97537E-02 3.40554E-01 2.52615E-01-5.17058E-02-8.62659E-01
 -1      5843-4.56370E-01-1.88299E-01-9.29337E-01 7.85400E-02 1.79767E-01-9.73991E-01
 -1      5844-1.44648E+00 5.97300E-01-1.60902E-01-1.28734E-01-5.24993E-02 4.65020E-01
 -1      5845-5.94245E-01-1.53797E-01-9.27500E-01-1.59560E-01 3.46436E-01 8.01005E-01
 -1      5846-1.39900E-01-5.76020E-01-3.40749E-01-2.40666E-02-5.29997E-02 3.84245E-01
 -1      5847 3.13831E-01-3.79321E-01-2.01357E-01-8.59996E-03-7.72533E-02 6.50290E-01
 -1      5848 5.77772E-01-8.88431E-02-1.54322E-01 9.97650E-02-8.66249E-02 4.90494E-01
 -1      5849 7.77400E-01-1.26087E+00-1.06813E+00 1.16282E-01 2.48285E-01 2.19485E-01
 -1      5850-9.67553E-01-2.50677E-01-1.09219E+00 2.95321E-01 2.52779E-01-4.16352E-01
 -1      5851-3.75859E+00 3.42264E-01-7.67043E-01 1.07710E-01 1.31701E+00-8.72012E-01
 -1      5852 3.05774E-02-6.90464E-02 7.06567E-01-1.78214E-01-6.08518E-02 5.79053E-01
 -1      5853 2.89360E+00-9.78436E-02 2.20592E-02-1.64248E-01-1.57877E-01 3.78359E-01
 -1      5854 9.67010E-01 4.16883E-02 5.74105E-01-2.21602E-01-2.58990E-01 6.77260E-01
 -1      5855-9.14006E-02-1.68509E-01-9.61961E-03-3.18539E-02 1.09905E-02 5.24168E-02
 -1      5856 9.26794E-04-1.88296E-02 8.32349E-02 2.19172E-02 8.32041E-02 1.06752E-01
 -1      5857 9.41548E-03-1.83978E-01 1.22360E-02-1.68344E-02-2.56657E-02 3.20915E-03
 -1      5858-1.77870E-02-1.00502E-01 1.81910E-01 1.04193E-01-1.38317E-01-1.16269E-01
 -1      5859 3.69525E-03-4.18320E-01-6.97976E-02 3.08333E-02-8.22205E-02-7.41030E-02
 -1      5860-7.50836E-02-3.14232E-01 3.39155E-02 1.27739E-02-2.65231E-03-8.65370E-02
 -1      5861 1.68043E-01-1.11828E-03 1.91831E-01-4.53591E-02 1.98117E-02 3.24304E-02
 -1      5862-9.57635E-02-1.81933E-01 5.19732E-02-2.23423E-01 9.86406E-02 5.03597E-02
 -1      5863-2.19565E-01-2.30995E-01-5.93907E-02 6.90739E-02-2.02921E-02 3.21537E-02
 -1      5864-3.15113E-02-4.49007E-02-2.80204E-02-1.86604E-02-2.33737E-02 4.69704E-03
 -1      5865 8.00475E-03-4.93149E-02 2.60832E-02-1.03346E-02-2.77161E-02 1.32779E-02
 -1      5866-5.61735E-02-7.34863E-02 3.48608E-02-3.49602E-02-2.54270E-02 7.10204E-03
 -1      5867-1.62051E-01-1.51668E-02-1.43518E-01 6.10003E-02-1.50511E-01 1.32731E-02
 -1      5868 6.14756E-02 3.31195E-02-1.12977E-01-3.50335E-02 8.39896E-03 8.57901E-03
 -1      5869 5.59824E-02-8.87601E-02-1.45681E-01-3.92664E-04 4.44361E-02 8.04264E-02
 -1      5870-3.48914E-02-2.06368E-01-1.56999E-02 1.58482E-02 2.77968E-02 4.68925E-02
 -1      5871 2.98413E-02 9.17275E-02 6.09106E-02-7.77250E-02-6.48743E-02-2.98243E-04
 -1      5872-5.20879E-02-1.31253E-01 6.12026E-02 2.32508E-02 9.76702E-02 1.43659E-02
 -1      5873 3.45936E-02 1.93573E-02 6.91194E-02 4.71402E-02-1.05379E-02 6.39435E-03
 -1      5874 7.01773E-02-6.91907E-03 1.88266E-02 3.12505E-02 4.91878E-03-6.15510E-03
 -1      5875 6.13776E-02-8.03413E-02 1.02368E-02 7.64712E-02-4.85090E-03-2.77477E-02
 -1      5876 1.01663E+00 2.75318E-01 1.37669E+00 1.71634E-02 1.98211E-01-1.07763E+00
 -1      5877 2.37983E-01-1.00618E+00 1.17841E+00-3.35638E-01 7.22144E-01 1.01402E+00
 -1      5878-1.39328E-01-1.21954E+00 9.92187E-01-4.69476E-01 1.22361E+00-8.00951E-01
 -1      5879 1.43447E+00-1.02747E+00-3.40018E-01 2.53574E-02 8.54351E-01 9.03372E-02
 -1      5880 4.14733E-01-4.95308E-01 1.21522E-02 3.49452E-01 7.02134E-02 3.99322E-01
 -1      5881 2.50003E+00 8.03544E-01 9.97551E-01-1.09232E-01 7.83175E-01-7.72487E-01
 -1      5882 1.19373E+00 1.76595E-01 9.85234E-02-2.77118E-02 4.13152E-01-2.73726E-01
 -1      5883 4.60346E-01 6.79558E-01 1.55855E+00 5.84982E-02 1.15893E-01-5.06493E-01
 -1      5884-1.42650E-01 2.56385E-01 6.13273E-01 8.24545E-02 5.95344E-02-7.84319E-01
 -1      5885-5.44204E-01 9.71149E-02-1.01619E-01-4.83853E-02-1.52596E-01-3.79537E-01
 -1      5886-9.67633E-01-5.00234E-02-2.07562E-01-5.33847E-02-5.00986E-02-5.88979E-01
 -1      5887-2.74578E-01 1.59209E-01-2.04014E-01 5.21651E-02-1.43390E-01-2.28249E-01
 -1      5888-2.87545E-01-3.74661E-01-8.03929E-01-8.88858E-02-1.87928E-01-7.94707E-01
 -1      5889-6.23039E-01 2.68483E-01 8.43618E-01-1.63125E-02-1.67177E-01-5.12034E-01
 -1      5890-1.84809E-01 5.06211E-01 4.12756E-01 1.98039E-01-5.46150E-01 1.67715E-02
 -1      5891-2.45396E+00 1.09221E-01 8.86943E-02-1.21404E-01-7.36338E-02-5.50706E-01
 -1      5892-8.53793E-02 7.28820E-01 6.88504E-01 2.11573E-01-4.48504E-01 3.68672E-01
 -1      5893-1.03986E-01 1.23112E+00 2.18205E-01-4.62595E-01-6.37260E-01-3.86767E-01
 -1      5894-9.01634E-01 9.28509E-01-2.16261E-01-1.27072E-02-2.04931E-01 3.06518E-01
 -1      5895-1.32313E+00 5.39415E-01 5.24725E-01-3.46364E-01-5.94116E-01 3.59479E-01
 -1      5896-4.78542E-01 1.91142E-01 5.78378E-01 1.34540E-01-1.52291E-01 1.35589E+00
 -1      5897 2.82881E-01-5.30523E-02 5.11217E-01 6.57017E-02 1.51335E-01 4.35293E-01
 -1      5898 1.93890E-01-6.01082E-02-1.41437E-01 1.33786E-01-3.77422E-04 3.41669E-01
 -1      5899 3.54157E-01-1.59721E-01 2.87247E-01 1.21113E-01 2.68411E-01 6.08028E-01
 -1      5900 3.95664E-01-2.78591E-01-2.36963E-01-6.05709E-02 7.99062E-01 2.34916E-01
 -1      5901 1.09309E+00-4.55582E-01-4.94678E-01 6.97741E-01 4.93056E-01 1.13686E+00
 -1      5902 6.10094E-01-2.77034E-01-4.85656E-01-7.72694E-02 7.65746E-01-2.21912E-01
 -1      5903 6.09762E-01-2.26413E-01 8.28603E-01 1.14861E-01 2.00355E-01 1.12774E+00
 -1      5904 0.00000E+00 0.00000E+00 0.00000E+00 0.00000E+00 0.00000E+00 0.00000E+00
 -1      5905 6.89212E-01-2.09389E-01-9.02978E-01 1.97591E-01 3.68572E-02-4.01570E-01
 -1      5906 1.12966E-01-3.75564E-01-2.37616E-01-3.12047E-02-2.61574E-02-4.23524E-01
 -1      5907 6.03631E-01 1.00770E+00 2.68431E+00-1.71335E-01 1.02822E-01-1.35245E+00
 -1      5908-4.39455E-01 3.18400E-01 3.52730E-01 4.06957E-02 2.65432E-02-3.24803E-01
 -1      5909-1.77630E+00 4.13057E-01 4.01798E-01 5.01624E-01 5.90832E-02-2.73488E-01
 -1      5910-3.67067E+00-2.16962E-01-4.24514E-01 2.43608E-02-4.85217E-03 1.93262E-01
 -1      5911-1.97303E+00 1.88439E-01 7.24939E-01-2.83296E-01 1.03031E-01 3.57737E-01
 -1      5912-1.74110E+00-8.02663E-01-1.23012E+00 1.67931E-01-2.71572E-01 5.46661E-01
 -1      5913 3.09157E-01-1.96975E-01-7.48872E-01-8.13797E-02-3.05805E-01 1.02711E+00
 -1      5914-3.01915E-02 4.51155E-02 8.51173E-01 1.54997E-01 1.77339E-01 9.49701E-01
 -1      5915-3.98733E-02-5.22072E-01-5.43700E-01 2.17129E-02-1.13253E-01 3.58478E-01
 -1      5916 3.00367E+00 1.02971E-01 2.52599E-01-5.45267E-02 2.66016E-01-4.06462E-01
 -1      5917 1.16964E+00 4.82873E-01 1.45745E+00-1.55558E-01 1.47875E-01-1.10206E+00
 -1      5918 9.54307E-01 5.15647E-01 4.32250E-01-1.43945E-04-2.02892E-02-4.25861E-01
 -1      5919 1.65894E-02 2.77713E-01-2.59127E-01 3.58588E-02-1.14524E-01-8.70297E-02
 -1      5920-3.14112E-01 1.09484E+00 7.61418E-01 3.23609E-01-3.10031E-01 3.18972E-01
 -1      5921-2.31781E+00 9.64000E-01-1.99410E-01 1.77062E-01-2.26043E-01 4.46491E-02
 -1      5922 4.51851E-02 1.37808E+00-1.80665E-01 7.02318E-02-5.56188E-01-5.67467E-02
 -1      5923-4.93277E-01 1.49808E+00 5.95532E-01-1.22460E-01-7.08963E-01-1.26622E+00
 -1      5924-1.84969E+00 8.35202E-02 2.61073E-02 8.72750E-02 8.79854E-03 5.32489E-01
 -1      5925-2.59637E+00 2.50830E-01-1.77174E-01-1.91293E-01-2.14725E-01 5.11552E-01
 -1      5926-2.12843E+00 1.99008E-01 5.37979E-01-1.19610E-01-1.10597E-01 4.34519E-01
 -1      5927 1.49830E+00 1.47489E+00-2.57407E-01-3.85330E-01 6.06318E-02-2.17844E-01
 -1      5928-4.82573E-01 3.75133E-01 1.31103E+00-1.21611E-01 2.03796E-01 1.08311E+00
 -1      5929-7.72619E-01-4.44204E-01-1.04064E+00-4.52602E-02 1.56937E-02 9.65935E-01
 -1      5930 1.52685E+00-5.19585E-01-3.34611E-01-3.85559E-02 2.43228E-01 3.64534E-01
 -1      5931 1.21716E+00-7.73115E-02 4.88782E-01 1.36404E-01 1.64113E-01 6.70608E-01
 -1      5932 4.50976E+00 1.13238E+00 2.40627E+00-7.29344E-01-1.93012E-01 2.41455E+00
 -1      5933 1.03232E+00-4.31455E-01-2.91781E-01-1.55052E-01-1.52831E-01-3.98792E-01
 -1      5934-3.30442E-01-3.66185E-01-1.04772E+00-3.44254E-02-1.20360E-01-1.01501E+00
 -1      5935-3.46570E+00-8.38468E-02-8.17805E-01 2.21090E-01 3.43463E-02-5.15178E-01
 -1      5936-9.56795E-01-4.34978E-01-5.05791E-01-2.97182E-02 2.16587E-02 5.11132E-01
 -1      5937 2.25341E+00 2.78589E-01 5.70213E-01-3.13984E-01 5.15742E-02 4.56202E-01
 -1      5938 0.00000E+00 0.00000E+00 0.00000E+00 0.00000E+00 0.00000E+00 0.00000E+00
 -1      5939 4.80944E+00 5.13943E-01 9.40188E-01 7.86252E-01-1.10657E-01-9.96899E-01
 -1      5940 1.52788E+00-4.17606E-01-3.68264E-01-4.71644E-01-1.07526E-01-5.50111E-01
 -1      5941 1.64423E+00-4.84710E-02 3.50259E-01-5.54619E-01 1.57947E-01-8.16182E-01
 -1      5942 1.40565E+00 5.09547E-01 1.16874E+00-1.67232E-01 1.47274E-01-1.00577E+00
 -1      5943-4.70179E-02-1.45367E-01-7.88187E-01 3.98288E-02-2.05102E-01-1.18732E+00
 -1      5944-1.38615E+00 8.06703E-01 4.38491E-01-8.25452E-02-2.18361E-02-6.63744E-02
 -1      5945-1.99048E+00-9.81792E-02-8.99518E-02 3.48490E-02 2.89176E-02-3.67037E-01
 -1      5946-2.31543E+00 1.04529E-01 4.45905E-01-8.85499E-02 9.11559E-02 7.45747E-02
 -1      5947-1.86931E+00 1.15172E-02-1.53150E-01-6.37874E-02 4.02980E-02 3.76954E-01
 -1      5948-9.17947E-01 2.14131E-01-6.21250E-01 2.09737E-01-2.34209E-01 2.94001E-01
 -1      5949-1.37203E+00-4.09040E-01-1.06476E+00 1.48630E-01-2.03289E-01 1.23782E+00
 -1      5950-7.36130E-01-1.60829E-01-3.73734E-01 2.08921E-02 7.05068E-02 2.90652E-01
 -1      5951 1.05963E+00 5.20846E-01 3.74840E-01 1.24124E-02-2.63310E-02 3.56402E-01
 -1      5952 1.55805E+00 8.68665E-03 2.89674E-01-1.69621E-02-5.73012E-02 3.85729E-01
 -1      5953 1.41552E+00-9.60360E-01-4.02768E-01 2.16836E-01 1.56164E-03 2.82301E-01
 -1      5954 0.00000E+00 0.00000E+00 0.00000E+00 0.00000E+00 0.00000E+00 0.00000E+00
 -1      5955 0.00000E+00 0.00000E+00 0.00000E+00 0.00000E+00 0.00000E+00 0.00000E+00
 -1      5956-2.71323E+00 3.73444E-01-8.36657E-02 2.80299E-01-2.48301E-01-2.01822E-01
 -1      5957 2.76450E+00-2.93376E-01-9.51087E-02-3.60563E-01 1.44666E-01 5.34917E-01
 -1      5958 2.49999E+00 3.34565E-01 8.76563E-01-4.28120E-01-1.45506E-01 8.86712E-01
 -1      5959 0.00000E+00 0.00000E+00 0.00000E+00 0.00000E+00 0.00000E+00 0.00000E+00
 -1      5960 0.00000E+00 0.00000E+00 0.00000E+00 0.00000E+00 0.00000E+00 0.00000E+00
 -1      5961 4.94114E+00 7.91239E-01 1.05270E+00-1.08270E+00 5.39792E-01-2.29969E-01
 -1      5962 2.07212E+00-2.40558E-01-1.49312E-01-1.11383E-01 7.59005E-03-5.60276E-01
 -1      5963 3.98295E+00-5.55191E-02 3.08838E-01 2.13152E-01 7.30117E-02-5.10751E-01
 -1      5964 1.46930E-01-1.84709E-01-7.42701E-01-3.76945E-01 3.68821E-01-1.16857E+00
 -1      5965 6.07595E-02-4.49507E-01-1.38307E+00-1.68647E-01 1.48692E-01-9.06813E-01
 -1      5966 1.21824E+00 8.42322E-01 1.34933E+00-1.28160E-01-1.74064E-01-1.34057E+00
 -1      5967-7.77935E-01-1.65766E-01-6.00410E-02-4.77590E-02 2.72508E-02-4.37204E-01
 -1      5968-1.31616E+00 3.25657E-01-5.13513E-02 1.67834E-01-1.63951E-02-5.28481E-01
 -1      5969-1.28526E+00-3.11004E-01-1.12860E+00 2.58288E-01 2.46246E-01-1.07892E+00
 -1      5970-2.52071E+00 1.23606E-01-3.72246E-01 3.04940E-01 6.88360E-02-4.58390E-01
 -1      5971-2.77990E+00 4.75720E-01-1.17331E-01-2.37902E-01-3.05297E-02 2.04720E-01
 -1      5972-2.12256E-01 6.71323E-01 9.57312E-01 2.56129E-01-2.28813E-01 4.59082E-01
 -1      5973-4.05143E-01 6.04788E-01 1.22046E+00 1.02688E-01-2.48220E-01 5.02123E-01
 -1      5974-2.02677E-01 2.15421E-01 7.72036E-01-1.14748E-01 1.90099E-02 4.62707E-01
 -1      5975-6.28904E-01-8.17632E-01-1.48840E+00-3.92313E-02 1.78039E-01 9.45895E-01
 -1      5976 1.99335E+00 4.18840E-01 1.19598E+00 1.23546E-01 2.93035E-02-7.06759E-01
 -1      5977 1.99418E+00 4.64681E-01 5.87512E-01-2.77350E-01-2.32841E-02-6.13625E-01
 -1      5978 1.44054E+00 6.57338E-01 7.70591E-01 1.03738E-02 7.90203E-02-2.14764E-01
 -1      5979-6.49572E-01-1.94453E-01-3.94651E-01 4.35732E-02 2.84014E-02-4.03531E-01
 -1      5980-2.46530E+00 2.40123E-01 7.58006E-01-3.57948E-01 2.66318E-02 1.94122E-01
 -1      5981-3.17350E-02-4.62882E-01-1.54411E+00-2.37003E-01 4.43820E-01 1.10725E+00
 -1      5982-1.36622E+00 6.75780E-01 1.90737E+00 1.94355E-01-3.37368E-01 1.51986E+00
 -1      5983-1.33627E+00-3.57674E-01-9.31723E-01-2.08417E-01 8.60187E-02 9.19938E-01
 -1      5984-6.28550E-01-3.29892E-01-1.11549E+00-8.60859E-02 2.04506E-01 9.23648E-01
 -1      5985-1.22411E-01 3.65180E-01 1.20578E+00-3.23215E-02-9.86850E-02 1.07198E+00
 -1      5986 1.91114E+00-5.45068E-02 1.74213E-01-1.83368E-01 1.18243E-01 4.67851E-01
 -1      5987 0.00000E+00 0.00000E+00 0.00000E+00 0.00000E+00 0.00000E+00 0.00000E+00
 -1      5988 2.11443E+00 1.30914E+00 1.75716E+00 4.04446E-02-4.35864E-01-6.63261E-01
 -1      5989 0.00000E+00 0.00000E+00 0.00000E+00 0.00000E+00 0.00000E+00 0.00000E+00
 -1      5990 1.41816E+00 8.46563E-02-4.90119E-01-6.35556E-02 1.75918E-01-6.71761E-01
 -1      5991 1.28346E+00 5.49209E-01 1.36979E+00 8.98838E-02-2.34246E-01-1.15693E+00
 -1      5992 3.55153E-01-2.06148E-01-2.39729E-02 1.02140E-01-2.18438E-01-3.53365E-01
 -1      5993-4.16966E-03-3.73251E-01 3.23286E-02 1.09494E-01-2.08186E-01-1.86149E-01
 -1      5994 6.49079E-01-9.87547E-03 1.56882E-02 2.63440E-02-1.42533E-01-2.84292E-01
 -1      5995 2.03204E-01 1.51905E-01 3.61402E-01-2.66404E-02 1.05541E-03-4.96506E-01
 -1      5996-4.78837E+00 3.86065E-02-4.17354E-01-3.88962E-02 3.62544E-01-4.38207E-01
 -1      5997-1.60774E+00 1.50402E+00 3.98293E-01 2.44303E-01 1.49946E-01-3.09134E-01
 -1      5998-3.06658E+00-2.27924E-02-1.33916E-01-4.84112E-01 6.86797E-01 1.37309E-01
 -1      5999-5.15433E+00 1.06952E+00-5.20370E-01 1.02309E-01-3.06372E-01-5.76085E-01
 -1      6000 2.96664E+00 4.28679E+00 8.19508E-01-1.03115E+00 2.62771E-01 1.96172E+00
 -1      6001-6.76672E+00-1.62644E-01-3.92725E-01 8.35361E-02 9.16863E-02-1.02364E-01
 -1      6002-3.85947E+00 7.98182E-01-4.62408E-01-6.51185E-01 9.02504E-01 7.58622E-01
 -1      6003-1.81450E+00 3.29293E-01 7.56845E-01 3.57728E-01-1.34914E-01 3.11709E-01
 -1      6004-1.89146E-01-5.11856E-02-7.86677E-01-2.18151E-01 7.75188E-02 9.27139E-01
 -1      6005 1.87317E-01 3.74795E-01 1.45260E-01-2.68124E-02 1.21195E-01 2.00298E-01
 -1      6006 6.32823E-02 2.07341E-01 5.77943E-02 1.67992E-03 1.11885E-01 1.57557E-01
 -1      6007-8.61724E-01 3.28843E-02-1.21726E-01-4.11016E-02 8.29966E-02 4.51670E-01
 -1      6008 1.04360E-01-1.02125E-01-3.47425E-01-7.35346E-03 6.85254E-02 4.07506E-01
 -1      6009 2.90693E+00 3.40284E-01 6.21550E-01 1.51015E-01 1.08584E-01-4.08325E-01
 -1      6010-1.10278E+00-2.78471E-01-6.09459E-01-1.70701E-01 1.33761E-01 7.67188E-01
 -1      6011-1.21161E+00 4.83096E-02-5.30286E-01-2.44027E-01 3.97946E-01 3.94153E-01
 -1      6012-3.06920E+00 2.21942E-01-4.39871E-02-1.09759E-01-2.16745E-01 4.81102E-01
 -1      6013-6.92798E-01 5.64142E-01-1.25350E-01-1.00209E-01-1.37140E-02 3.11686E-01
 -1      6014 6.31961E-01-2.70345E-01-2.51945E-01-1.38339E-02-7.18228E-02 5.78057E-01
 -1      6015 2.03735E+00 1.44096E-01 1.72443E-01-3.94195E-01 7.82727E-02 3.88405E-01
 -1      6016 0.00000E+00 0.00000E+00 0.00000E+00 0.00000E+00 0.00000E+00 0.00000E+00
 -1      6017-2.49350E+00-3.15980E+00-2.29537E+00-7.12979E-01-3.35810E-01-2.62672E-01
 -1      6018 1.08451E+00 8.29538E-01 8.19982E-01 1.41691E-01 4.82304E-02 1.09121E-01
 -1      6019 0.00000E+00 0.00000E+00 0.00000E+00 0.00000E+00 0.00000E+00 0.00000E+00
 -1      6020 8.63209E-01-6.07060E-02-3.51121E-01 1.62484E-01-8.46324E-02-5.51579E-01
 -1      6021 2.62587E-01 1.70493E-01 2.13579E-01 1.11809E-01-3.45734E-02-1.90002E-01
 -1      6022 1.07593E+00 9.89849E-01 6.39564E-01-4.30015E-01 1.52669E+00 2.89526E-01
 -1      6023 1.05280E-01-5.36979E-02-2.49462E-01-7.10195E-04-1.16626E-01 1.17342E-01
 -1      6024 7.28254E-01-1.82240E-01-1.19735E+00 6.54002E-01-1.22885E+00-4.67810E-02
 -1      6025 3.19734E+00-4.15627E-01 6.25589E-01 7.34766E-01-9.92626E-01-3.90033E-01
 -1      6026 4.47291E+00-4.24533E-01 2.50264E-01-8.93396E-02-6.26586E-01 1.12009E+00
 -1      6027 0.00000E+00 0.00000E+00 0.00000E+00 0.00000E+00 0.00000E+00 0.00000E+00
 -1      6028 0.00000E+00 0.00000E+00 0.00000E+00 0.00000E+00 0.00000E+00 0.00000E+00
 -1      6029 0.00000E+00 0.00000E+00 0.00000E+00 0.00000E+00 0.00000E+00 0.00000E+00
 -1      6030 0.00000E+00 0.00000E+00 0.00000E+00 0.00000E+00 0.00000E+00 0.00000E+00
 -1      6031-2.43190E-02-5.87582E-01-2.68573E-01 3.17958E-01-3.97029E-01 3.66161E-02
 -1      6032-5.57539E-02-5.28969E-02-2.04083E-01 1.90204E-01-7.06991E-02 9.20451E-02
 -1      6033-1.01529E-01 1.50658E-01-9.78604E-02 8.22490E-02-1.20087E-02 8.67770E-02
 -1      6034-1.67078E-01 1.75584E-01-2.99832E-01 5.47540E-02-1.79265E-01 5.30097E-02
 -1      6035-2.58414E-01 9.32813E-02-3.71904E-01 3.62867E-02-1.86906E-01 6.84458E-02
 -1      6036 1.48255E-03 2.68970E-01-7.64863E-02 4.48729E-02-5.15099E-03 6.47068E-02
 -1      6037 2.87392E-03 2.83444E-01-4.86371E-02 3.02615E-02-1.18835E-02 5.06008E-02
 -1      6038 2.38133E-01-1.14780E-01 1.96324E-02-4.92414E-02 1.87739E-03-3.52538E-02
 -1      6039-7.24633E-03-2.35979E-01-1.01108E-01-2.74724E-02 3.87869E-02-3.07833E-02
 -1      6040 1.89289E-01-1.48546E-01-4.44296E-02 1.33318E-01-6.51034E-02-6.62597E-02
 -1      6041-1.16995E-02-1.18781E-01-1.38096E-02-7.61304E-02 3.21682E-03 5.21977E-02
 -1      6042 1.09616E-02-1.86143E-01-6.88517E-02-1.79292E-02 1.02120E-01 4.31886E-02
 -1      6043 4.21851E-03-1.70945E-01-3.20575E-02-7.92150E-03 9.32000E-02 3.33867E-02
 -1      6044-6.06462E-02-7.64956E-02 1.13034E-02 3.67012E-03-3.12941E-02 6.78700E-02
 -1      6045-5.84367E-02 3.15140E-02 3.21737E-01-2.82008E-02-1.77479E-01 8.61867E-02
 -1      6046-8.95313E-02 3.16457E-02 2.00868E-01-1.48864E-02-2.36913E-04 3.25220E-02
 -1      6047 3.48481E-01-1.63341E-01 2.21851E-01 2.07373E-03-2.53420E-01-6.34392E-01
 -1      6048 4.87821E-01 1.97731E-01 4.22890E-01-1.48659E-01 8.77057E-04-7.95134E-01
 -1      6049 1.12850E+00 4.71722E-01 6.01847E-01-6.87820E-02-5.14113E-02-2.71374E-01
 -1      6050-6.69527E-03 1.69076E-01 1.64913E-01-3.64789E-02-1.34433E-01-5.74948E-01
 -1      6051-3.14832E-01 9.63883E-02 1.73447E-01-3.90123E-02-1.25425E-01-7.00950E-01
 -1      6052 1.84473E-01 1.17191E-01-8.29498E-02 1.75610E-01-7.02293E-02-2.51283E-01
 -1      6053-1.05461E+00 2.61784E-01 8.53871E-02 1.95671E-02-2.59267E-02 9.54491E-01
 -1      6054-3.58081E-02 1.40920E-01 6.73478E-02-1.44446E-01-1.14340E-01 2.94812E-01
 -1      6055-2.57797E-01 4.58658E-02-8.35547E-02-3.84565E-02-1.88571E-01 3.88198E-01
 -1      6056 1.80327E-01 2.86480E-01 2.10612E-01-7.71939E-02-1.06516E-01 2.61338E-01
 -1      6057 1.06959E-01-1.11466E-01-6.24226E-01 1.83589E-01 4.94186E-02 5.87835E-02
 -1      6058 0.00000E+00 0.00000E+00 0.00000E+00 0.00000E+00 0.00000E+00 0.00000E+00
 -1      6059 2.82733E+00 5.77794E-03 1.83489E-01 4.18664E-01-1.23293E-01-3.26067E-02
 -1      6060 1.76085E+00-2.40561E-01-5.91770E-01 5.69801E-02-8.89604E-02-3.14626E-01
 -1      6061 2.68439E+00 5.08191E-01 6.17643E-01-1.04753E-01 3.28191E-02-2.41177E-01
 -1      6062 1.51703E-01-1.90396E-01-5.92621E-01 2.16444E-01-1.56821E-01-8.43684E-01
 -1      6063 7.20773E-02 8.68753E-02 3.93053E-01 3.11155E-02 6.58968E-02-2.69746E-01
 -1      6064-1.29129E-02 1.81495E-01-3.46926E-02-2.86316E-02-5.97646E-02-3.99051E-01
 -1      6065-2.28115E+00 1.10994E-01-3.38816E-01 6.11078E-02 7.30936E-02 3.22217E-01
 -1      6066-2.68337E+00-6.58308E-01-9.74874E-01 3.82268E-02-8.36819E-02 6.52730E-01
 -1      6067-1.56603E+00 3.03959E-01 8.90801E-01-8.60650E-02 1.72159E-01 5.08154E-01
 -1      6068-2.08343E-01 2.17624E-01-2.15281E-01 2.74586E-01-2.69046E-01 9.66566E-01
 -1      6069-2.15900E+00-2.90323E-01-4.34175E-01-3.83344E-02 5.77230E-02 4.28370E-01
 -1      6070-5.67629E-01 1.36597E-01 4.20413E-01 6.49425E-02 8.82640E-02 6.55176E-01
 -1      6071-8.66143E-01-2.90379E-01-4.30653E-01-2.05384E-02 1.28467E-01 4.09316E-01
 -1      6072 1.96175E-02 1.83465E-01 1.20686E+00-1.19929E-02 2.68105E-01 2.99131E-01
 -1      6073 7.74464E-01-2.60143E-01-5.38262E-01 5.16178E-02-4.93129E-02 2.81813E-01
 -1      6074 2.95037E+00 3.84525E-01 1.06278E+00-1.06478E-01-2.12640E-02 6.55490E-01
 -1      6075 1.80532E+00 6.39947E-03 1.24382E-01 2.96283E-01-8.71000E-02 2.97011E-01
 -1      6076 5.40855E-01-1.10466E+00-2.09595E+00-3.47398E-02-5.81104E-01-7.42362E-01
 -1      6077 1.26809E+00-6.55342E-02 4.54779E-01-6.38394E-02-3.97409E-02-7.88257E-01
 -1      6078 2.44396E+00-2.63470E-01-1.96095E-03 1.59868E-02 3.28926E-01-5.17388E-01
 -1      6079-7.58084E-02-9.14716E-01-4.44177E-01 3.04394E-01 3.27607E-01-2.12343E-01
 -1      6080-2.69736E-01-9.07217E-01-5.39411E-01 4.46034E-01 3.87898E-01-1.34605E-01
 -1      6081 3.25683E-01-5.36739E-01-9.55334E-01 8.45055E-02-2.44881E-01-8.88939E-01
 -1      6082 3.98318E-01-2.85448E-01-3.66439E-01-8.26253E-02-5.31600E-02-2.20356E-01
 -1      6083-6.51135E-02 2.09957E-01 3.24404E-02 7.43300E-02 4.02410E-02-6.61047E-01
 -1      6084-5.38098E-01 7.62185E-01 2.20930E+00-1.57326E-01 6.57782E-01 9.17568E-01
 -1      6085-1.61183E+00 1.79979E-01 2.28442E-01 1.20054E-02-4.97269E-03 4.50373E-01
 -1      6086-1.38269E+00 3.71524E-01-4.06067E-01 1.24620E-01-3.01871E-01 7.65233E-01
 -1      6087-3.93547E-01 1.15637E+00 6.20265E-01 4.51878E-02-2.27861E-01 3.74238E-01
 -1      6088 7.25328E-01 1.45374E+00 7.31093E-01-7.40478E-02-3.72937E-01 1.05498E-01
 -1      6089-1.39104E+00-1.87261E-01-3.97476E-02-1.22118E-02 5.77881E-02 6.16947E-01
 -1      6090 1.06520E-02-1.96535E-01-4.03243E-01-1.97089E-02-1.14734E-01 4.23332E-01
 -1      6091 7.25168E-01-4.69137E-03 1.84161E-01-3.23304E-02 1.48298E-01 4.39779E-01
 -1      6092-2.52573E-01-3.71641E-01 1.11997E-01-2.60223E-02 2.48195E-01 8.38021E-02
 -1      6093 6.90433E-01-2.35128E-01-1.29903E-03 7.01106E-02 9.58547E-02 5.72164E-01
 -1      6094 8.93462E-01 4.77037E-01 1.39301E+00 1.12527E-01 2.10907E-02 1.02875E+00
 -1      6095-2.73243E-01-1.43540E+00-2.28346E+00-9.20880E-02-4.97454E-01 1.02235E+00
 -1      6096 1.71035E+00-3.49917E-01-8.88096E-01-2.29177E-01-1.29725E-02 3.16700E-01
 -1      6097 2.60835E+00-1.05654E-01 2.03419E-01-1.57145E-01 1.44546E-01 7.47974E-01
 -1      6098 9.09328E-01 1.63728E-01 8.58731E-01 8.33462E-02 1.59405E-02-8.85300E-01
 -1      6099-8.14263E-02-7.98021E-02-8.56366E-01 8.50986E-02-1.37136E-01-9.83673E-01
 -1      6100-2.50962E+00-5.16906E-01-5.46326E-01-7.87907E-02-6.63888E-02-7.45933E-01
 -1      6101-8.70221E-01 4.96576E-01 1.84946E-02-1.17604E-01 8.74317E-02-4.57167E-01
 -1      6102-9.64839E-01-1.57507E-01-8.53273E-01-1.06391E-01 6.05009E-02 1.04303E+00
 -1      6103-7.35948E-01-2.37916E-01-7.64618E-01-1.34038E-01-9.58924E-02 7.50971E-01
 -1      6104 1.00494E+00-2.17680E-01-7.21782E-01-7.12659E-02-4.08958E-02 3.14503E-01
 -1      6105 2.16547E+00 3.30607E-01 4.70892E-01-3.45092E-01 1.45615E-01-1.06783E-02
 -1      6106 5.68962E+00 4.03416E-01 8.32689E-01-6.18605E-01 7.50045E-03 2.98183E-02
 -1      6107 0.00000E+00 0.00000E+00 0.00000E+00 0.00000E+00 0.00000E+00 0.00000E+00
 -1      6108 1.38210E+00-3.55655E-01-1.98901E-01-2.88101E-01-3.33703E-01-3.14412E-01
 -1      6109 1.92875E+00 8.10136E-02 2.03856E-01-7.60821E-02-1.22971E-01-3.41351E-01
 -1      6110 1.02066E+00 1.16443E-01 8.63563E-01 2.58250E-02-2.92997E-02-8.54969E-01
 -1      6111 5.77343E-01 1.99193E-01 7.60329E-01 4.57666E-02 9.22577E-02-4.65051E-01
 -1      6112-8.74144E-02-5.34955E-03-5.94061E-01 9.00558E-02-1.13076E-01-1.15922E+00
 -1      6113-1.52047E+00 1.38723E-01 4.08689E-01-1.35301E-01 1.49182E-01-5.36710E-01
 -1      6114-3.81515E+00-3.19256E-01-5.45401E-01 3.19383E-01 3.20755E-02 2.31265E-01
 -1      6115-1.58025E+00-2.79188E-01-9.55180E-01-2.66207E-01-5.50529E-02 4.72561E-01
 -1      6116-1.10728E+00 3.57332E-01 2.51801E-02 1.14596E-01 2.78266E-01 6.81203E-01
 -1      6117-7.87518E-01 1.03707E-01-1.84190E-01-1.18625E-01 9.33380E-02 4.19960E-01
 -1      6118 6.72338E-01 2.31248E-01 1.09556E+00-6.23450E-02 7.93811E-02 1.24956E+00
 -1      6119 6.32731E-01 8.99210E-02 3.33774E-01-2.46567E-01-1.12277E-01 1.03104E+00
 -1      6120 1.67631E+00 9.12853E-02-3.33033E-02-6.32805E-02-1.81578E-01 4.73851E-01
 -1      6121 0.00000E+00 0.00000E+00 0.00000E+00 0.00000E+00 0.00000E+00 0.00000E+00
 -1      6122 0.00000E+00 0.00000E+00 0.00000E+00 0.00000E+00 0.00000E+00 0.00000E+00
 -1      6123 0.00000E+00 0.00000E+00 0.00000E+00 0.00000E+00 0.00000E+00 0.00000E+00
 -1      6124 2.31218E+00-9.21682E-02-1.00231E+00-2.09196E-01 6.00656E-01-7.97163E-01
 -1      6125 2.57670E+00-2.63201E-01-3.56716E-01 2.35958E-01 1.11455E-01-4.96227E-01
 -1      6126 1.48154E+00-2.83176E-01-1.17775E+00-2.57950E-01 1.57901E-01-6.79645E-01
 -1      6127 3.53809E+00 5.16576E-01 7.35364E-01-9.57531E-02 1.49544E-01-4.16015E-01
 -1      6128 1.92503E+00 1.04247E-01-1.43761E-01-7.60683E-02 3.17052E-02-2.36669E-01
 -1      6129 1.38983E+00-1.18969E-01 2.07207E-01-5.91427E-02 1.31512E-01-3.44064E-01
 -1      6130 1.02786E+00 1.63510E-02-6.04423E-02-1.42204E-01 1.44509E-02-1.81385E-01
 -1      6131 6.40004E-01 9.45975E-02 2.16188E-01-3.95826E-02 5.77575E-02-2.57186E-01
 -1      6132 1.69728E-01-3.25115E-02-1.46948E-01-1.40692E-01-6.37524E-02-2.87605E-01
 -1      6133-1.35424E+00-7.04494E-02 2.25713E-01-1.75532E-01-1.31734E-01-3.09167E-02
 -1      6134-1.04803E+00 9.11782E-03-6.53733E-01-1.79929E-02-1.20977E-02-7.14834E-01
 -1      6135-9.56943E-01 5.23326E-01 1.53837E+00-1.22503E-01-3.70413E-01-8.80085E-01
 -1      6136-1.06094E+00 3.85276E-01 1.15601E+00-2.41906E-01-3.83244E-01-6.47811E-01
 -1      6137-2.30777E+00-2.42210E-01-6.40012E-01-2.17421E-01 1.11507E-03-4.22069E-01
 -1      6138-5.22870E-01 4.81398E-01 9.19836E-02-9.26883E-02-1.56793E-01-2.17627E-01
 -1      6139-1.09418E+00 3.64242E-01 2.33222E-03-1.46387E-01-1.42581E-01-1.00507E-01
 -1      6140-1.35203E+00 3.52792E-01 8.73288E-01-7.54540E-02-3.52843E-01 1.70855E-01
 -1      6141-1.05985E+00 6.66746E-01 5.32650E-01-3.24977E-01-3.12354E-01-8.11562E-02
 -1      6142-1.88348E+00 2.08126E-01-1.98503E-01-2.29507E-02-4.94904E-02 4.82375E-01
 -1      6143-1.55229E+00 1.17699E-01 3.94804E-01 5.95997E-01-5.80121E-01 6.46579E-01
 -1      6144-2.01223E+00-3.94972E-03-1.69961E-02 5.49351E-01-2.72855E-01 6.17348E-02
 -1      6145-1.74137E+00-2.84275E-02 1.18073E-01 1.11190E-01-4.33497E-02 2.03102E-01
 -1      6146-1.38507E+00-4.12966E-02-1.85552E-02-9.03001E-03-5.19324E-02 2.20576E-01
 -1      6147-9.26952E-01 7.55071E-03-9.33954E-02 1.13381E-01-3.84833E-02 1.85167E-01
 -1      6148-3.90894E-01 9.54490E-02-2.12808E-03 5.27985E-02-3.15779E-02 1.72002E-01
 -1      6149-4.94909E-01 1.55494E-01 2.63876E-01-1.69860E-02 1.15865E-02 4.68304E-01
 -1      6150 4.34782E-02 1.12958E-01 4.86844E-01 1.51601E-01-1.55223E-02 2.85072E-01
 -1      6151 4.98707E-01 2.28749E-01 1.33092E+00 2.36173E-01-2.23703E-01 8.02698E-01
 -1      6152 8.45044E-01 4.24431E-01 8.25524E-01 5.67977E-02-9.10204E-02 2.82968E-01
 -1      6153 8.22892E-01 5.00623E-02-1.73347E-01 8.79539E-02 1.47095E-01 3.32447E-01
 -1      6154 1.18843E+00-3.08389E-02-1.91139E-01 1.11269E-01 6.30357E-02-6.54593E-03
 -1      6155 1.47802E+00-1.67533E-01 1.83152E-01-1.28053E-01 1.26115E-01 7.24236E-01
 -1      6156 9.24639E-01-4.35397E-01-1.22925E+00 3.25035E-01 4.78079E-01 5.59776E-01
 -1      6157-1.89180E-01-1.46605E+00-3.07156E+00 2.30684E-01 4.62592E-01 8.80872E-01
 -1      6158 1.38990E+00-1.99216E-01-4.01515E-01-1.25788E-01 3.73384E-01 4.52259E-01
 -1      6159 1.67273E+00-2.60216E-02-4.65832E-02-1.94549E-01 3.50722E-01 4.99146E-01
 -1      6160 1.63236E+00-9.05166E-01-6.34362E-01 3.50269E-01 4.45019E-01 7.26775E-02
 -1      6161 0.00000E+00 0.00000E+00 0.00000E+00 0.00000E+00 0.00000E+00 0.00000E+00
 -1      6162 1.68437E+00-1.53979E-01 1.21204E+00-2.55435E-01-1.82876E-01-9.99976E-01
 -1      6163 2.40344E+00 1.89704E-01-3.68224E-01 1.36674E-01 1.26733E-01-2.94353E-01
 -1      6164 2.18040E+00 3.96472E-01 5.01524E-01 9.23930E-02-5.39588E-02-2.31455E-01
 -1      6165 1.36667E-01-1.39998E-01-5.03846E-01-5.21945E-02-3.04066E-03-4.39669E-01
 -1      6166-2.37177E+00-4.46403E-01-8.10042E-01 4.65172E-02-7.43650E-03-5.95212E-01
 -1      6167-1.34343E+00-4.91111E-02 1.00719E-01-1.21673E-01-1.11104E-01-3.88976E-01
 -1      6168-1.14491E+00 2.53262E-02-2.71697E-01 2.51400E-01-1.18278E-01-3.91993E-01
 -1      6169-1.46117E+00 5.74966E-01 9.03022E-01-1.47318E-01-4.09070E-01 3.99595E-02
 -1      6170-4.16068E+00-4.95788E-01-1.58491E+00-5.77005E-02 4.90306E-02-3.16407E-01
 -1      6171-2.77949E+00 6.91328E-02-5.86794E-01 1.18286E-01 3.09185E-02 1.26384E-01
 -1      6172-3.94868E+00-4.05388E-01-7.89709E-01 8.10240E-02 7.09948E-02 4.15949E-01
 -1      6173 1.87523E-01 6.42241E-02 2.05669E-01 5.40427E-02 2.88645E-02 1.59136E-01
 -1      6174 2.50130E+00 4.47876E-01 1.00301E+00 1.47259E-02-7.12820E-02 3.46373E-01
 -1      6175 1.39222E+00-9.99560E-01-1.48104E+00 1.11787E-01 4.75840E-01 1.09368E-01
 -1      6176 2.71473E+00-1.30881E-01-4.66039E-02 5.40007E-02 1.99340E-01 7.65761E-01
 -1      6177 0.00000E+00 0.00000E+00 0.00000E+00 0.00000E+00 0.00000E+00 0.00000E+00
 -1      6178 0.00000E+00 0.00000E+00 0.00000E+00 0.00000E+00 0.00000E+00 0.00000E+00
 -1      6179 2.05219E-01-3.90396E-01 1.00705E-01-2.69757E-01-5.00607E-02-2.80531E-01
 -1      6180 0.00000E+00 0.00000E+00 0.00000E+00 0.00000E+00 0.00000E+00 0.00000E+00
 -1      6181 2.56135E+00-1.59416E-01 9.14116E-01-6.04951E-01 1.19617E-01-6.93717E-01
 -1      6182 2.50728E+00-5.68428E-01 7.90478E-01-1.58540E+00 2.37467E-01-6.68402E-01
 -1      6183 4.37935E+00 1.80776E-01 1.52981E+00-7.18650E-01-3.05566E-01-1.41299E+00
 -1      6184 5.72471E+00-5.69329E-01 2.03156E-01 5.72917E-02 5.42973E-03-7.92208E-01
 -1      6185 7.05017E+00 4.50041E-02-1.06203E-01-4.68703E-01 2.04507E-01-6.73205E-01
 -1      6186 2.67013E+00-6.35376E-01-1.63526E-01-1.49087E-01 1.09432E-02-4.53699E-01
 -1      6187 3.63589E+00-1.75375E-01 3.07251E-01-1.94816E-01 1.00844E-01-1.01863E+00
 -1      6188 4.65847E+00 2.34585E-01-9.79683E-02 1.75331E-01-1.82644E-01-8.19090E-01
 -1      6189 6.36695E+00-6.18564E-02-5.00860E-01-2.87173E-02 4.61623E-01-4.42354E-01
 -1      6190 9.92313E-01-5.53876E-02-6.91142E-02 5.25893E-02-9.19209E-02-5.04292E-01
 -1      6191 1.87886E+00 8.22898E-03-1.60688E-01 1.38221E-01-4.23478E-03-6.23210E-01
 -1      6192 2.76367E+00 3.34396E-01-2.97906E-02-2.08087E-01 2.76362E-01-7.06291E-01
 -1      6193-6.60288E-01-4.56950E-01-9.13410E-01-1.14294E-01 5.20978E-02-1.91119E-01
 -1      6194-1.50136E+00-1.66931E-02 4.42536E-01-2.37165E-02-6.33921E-02-7.44822E-01
 -1      6195-2.18216E+00-3.66003E-01 1.55017E-01 2.14383E-02-2.47730E-02-6.23101E-01
 -1      6196-9.46605E-01 9.65784E-02-3.67556E-01 7.48920E-02 7.13416E-02-8.29261E-01
 -1      6197-1.17599E+00 7.39405E-02 4.98942E-01-9.76479E-02-1.50962E-02-7.05970E-02
 -1      6198-3.67213E+00-7.82295E-01-1.37879E+00 9.98166E-02-6.00548E-02-3.92194E-01
 -1      6199-4.16282E+00 8.46206E-02-3.38344E-01 2.60384E-01 5.28238E-01-9.85548E-01
 -1      6200-4.86623E+00 4.47019E-01-5.65304E-01 9.56244E-02 3.71851E-01-5.66006E-01
 -1      6201-6.27687E+00-2.47797E-01-5.73110E-01 6.56452E-01-1.64046E-01-1.04719E+00
 -1      6202-5.77788E+00 3.16437E-01-2.43810E-01-6.91745E-01 1.18199E-01 7.26971E-01
 -1      6203-9.35477E+00-5.15995E-01-8.04334E-01-4.34422E-02-4.83574E-01 1.85626E-01
 -1      6204-1.57443E+00-2.52445E-01-4.16961E-02 4.18887E-02-1.50790E-01 5.05209E-01
 -1      6205-3.05300E+00-2.08374E-01 2.90126E-01 7.87966E-02-2.34554E-01 1.46399E-01
 -1      6206-2.45940E+00 9.19028E-01-2.14624E-01 7.36327E-01 4.54317E-02-1.14937E-01
 -1      6207-4.83731E+00 8.22973E-03-2.14441E+00 3.97835E-01 5.70490E-01-1.11406E-02
 -1      6208-4.43752E+00 3.26686E-01-4.91075E-02 3.36434E-01 1.19924E-01 4.18116E-01
 -1      6209-1.72644E+00 5.73776E-01 2.44950E-01-1.71522E-01-3.57903E-02 2.81944E-01
 -1      6210-1.05363E+00 6.74626E-01-4.37572E-01-6.96666E-02 1.77639E-01 1.82403E-01
 -1      6211-2.44596E+00 3.46610E-01-5.24677E-01-3.84534E-01-3.65032E-02 3.56733E-01
 -1      6212-2.57253E+00-3.08057E-01-2.35414E-01-5.82830E-02-5.79742E-02 1.70088E-01
 -1      6213 3.37381E-01 3.22425E-01-4.52118E-02 3.81691E-03-1.14869E-01 3.53705E-01
 -1      6214 6.53076E-01 5.70911E-01 8.60701E-02 6.07078E-02 1.58184E-02 3.27770E-01
 -1      6215-1.40890E+00-1.54713E-01-8.32810E-01 2.75485E-02 3.45199E-02 8.69962E-01
 -1      6216-1.35106E+00-4.43534E-02-1.21802E-02-3.20550E-02-8.56701E-02 7.00136E-01
 -1      6217-2.09276E+00-1.88465E-01-5.43864E-02 2.83452E-01-3.24672E-01 5.60716E-01
 -1      6218-1.50959E+00 1.53666E-01 1.15544E-01 8.38006E-02-9.83835E-02 8.28631E-01
 -1      6219 9.42563E-01-1.20188E-01 4.62952E-03 1.61607E-02 3.82302E-02 6.27530E-01
 -1      6220 1.21212E+00 6.18306E-02-1.07292E-01 2.57577E-01-2.40183E-01 4.33193E-01
 -1      6221 1.65682E+00 8.29175E-03 1.66824E-01 9.61990E-02-2.54005E-01 7.14102E-01
 -1      6222 1.37002E+00-1.29717E-01-6.41382E-01 1.85134E-01 1.21475E-01 2.37858E-01
 -1      6223 2.55560E+00 8.34219E-01 1.82033E+00 3.07173E-01-3.67201E-02 8.92716E-01
 -1      6224 6.49047E+00 6.76905E-01 1.25189E+00-1.96129E-01-5.17194E-02 1.25700E+00
 -1      6225 1.38980E-01 8.13282E-02 2.26568E-01-6.10730E-02 7.04443E-02 2.30299E-01
 -1      6226 0.00000E+00 0.00000E+00 0.00000E+00 0.00000E+00 0.00000E+00 0.00000E+00
 -1      6227 0.00000E+00 0.00000E+00 0.00000E+00 0.00000E+00 0.00000E+00 0.00000E+00
 -1      6228 0.00000E+00 0.00000E+00 0.00000E+00 0.00000E+00 0.00000E+00 0.00000E+00
 -1      6229 0.00000E+00 0.00000E+00 0.00000E+00 0.00000E+00 0.00000E+00 0.00000E+00
 -1      6230 0.00000E+00 0.00000E+00 0.00000E+00 0.00000E+00 0.00000E+00 0.00000E+00
 -1      6231 0.00000E+00 0.00000E+00 0.00000E+00 0.00000E+00 0.00000E+00 0.00000E+00
 -1      6232 0.00000E+00 0.00000E+00 0.00000E+00 0.00000E+00 0.00000E+00 0.00000E+00
 -1      6233 0.00000E+00 0.00000E+00 0.00000E+00 0.00000E+00 0.00000E+00 0.00000E+00
 -1      6234 7.53753E-01 2.08940E-01 3.46865E-01 4.44630E-02-9.07430E-02-6.95339E-02
 -1      6235 2.22562E+00-5.24155E-01-6.73508E-01-1.35146E-01-3.61067E-03-2.68799E-01
 -1      6236 3.18775E+00 4.75515E-01 5.97429E-01 2.45428E-01 4.16389E-02-3.84296E-01
 -1      6237 4.83361E+00-1.60576E-02 9.48338E-01 2.05681E-01-6.78025E-01-4.41254E-01
 -1      6238 1.93124E+00-1.99231E-01-5.36315E-01-9.51427E-02 9.55358E-02-2.63335E-01
 -1      6239 1.41494E+00-3.58569E-01-1.90674E-01 1.84354E-01 1.20089E-01-1.93677E-01
 -1      6240 4.37310E-01-3.35556E-01 4.82629E-01 2.72600E-02 3.16284E-02-6.38977E-01
 -1      6241-7.04742E-01-7.58649E-01-1.91930E-01 9.87888E-03-3.20534E-02-3.30809E-01
 -1      6242 6.81082E-01 9.22648E-02-3.30187E-01 9.71222E-03 9.66542E-02-1.42678E-01
 -1      6243-4.13479E+00-2.67830E-01-3.94921E-01 2.64702E-01-9.68926E-03-1.01307E+00
 -1      6244-3.16647E+00 2.43907E-01-9.00630E-02 1.56368E-02 9.48050E-02-6.24989E-01
 -1      6245-2.43615E+00 6.93672E-01-5.43175E-02-5.78145E-01 6.29219E-01-5.79366E-01
 -1      6246-1.11820E+00 5.44943E-01-1.25816E-01 1.90730E-01-7.34937E-02-1.31959E-01
 -1      6247-1.76308E+00 4.78498E-01 5.07174E-01-2.94008E-01-1.67967E-01 2.01966E-02
 -1      6248-6.59401E+00 2.64178E-01-8.50700E-01 9.82768E-02 2.18483E-01-9.99257E-01
 -1      6249-8.27253E+00 7.69823E-01-4.96871E-01-7.41277E-02-7.34738E-01-4.00528E-01
 -1      6250-2.76920E+00-2.51790E-01-3.66053E-01-4.42974E-01-1.05820E-02 3.37314E-01
 -1      6251-2.21863E+00 3.05609E-01 6.95395E-01 1.81268E-01-2.01226E-02 5.67205E-02
 -1      6252-5.99810E+00 4.90189E-01 4.12661E-01 2.13325E-01-1.84920E-01 1.03093E+00
 -1      6253-1.18336E+00 5.03865E-01 7.19361E-01 1.26270E-01-2.78481E-02 3.75570E-01
 -1      6254-2.88110E+00-3.34557E-01-2.15611E-01 1.10371E-01 2.75981E-01 6.42016E-01
 -1      6255-3.64147E+00 2.23071E-01-5.07930E-01-3.15038E-01-1.31538E-01 6.73474E-01
 -1      6256-2.16100E+00 7.03035E-02-1.23891E+00-4.97646E-01 3.66737E-01 6.77169E-01
 -1      6257 1.73917E-01 3.90881E-01 8.20197E-01 1.98838E-02 2.92805E-02 1.89864E-01
 -1      6258 2.88130E+00 4.62974E-01 1.76337E-01 1.07655E-01 1.57747E-01 6.49607E-01
 -1      6259 1.58570E+00-1.09207E-01-1.32088E-01 4.61688E-02 3.72574E-02 5.82346E-01
 -1      6260 9.40835E-01 8.21177E-02 3.85534E-01-4.19983E-02 1.49693E-01 2.36169E-01
 -1      6261 1.42501E+00-2.46268E-01 5.27242E-01 4.81533E-01-4.07448E-01 1.30831E-01
 -1      6262 1.58980E+00 8.08326E-03-2.19243E-01-2.47516E-02 3.55975E-02 2.15615E-01
 -1      6263 4.29137E+00-5.54083E-01-3.00154E-01 2.59244E-01 2.01334E-01-2.38697E-02
 -1      6264 8.17096E-01-4.22261E-01-3.20660E-01 1.58475E-02-3.72547E-01 9.46122E-01
 -1      6265 4.97212E+00 1.03851E-01-2.08185E-01 1.83178E-01 3.64072E-01 1.17556E+00
 -1      6266 0.00000E+00 0.00000E+00 0.00000E+00 0.00000E+00 0.00000E+00 0.00000E+00
 -1      6267 6.92255E-01-1.99016E-01 1.70504E-01-1.60705E-01-1.71739E-01-2.85775E-01
 -1      6268 3.07026E+00-1.19117E+00-1.51606E+00 8.68473E-01-5.18316E-01-9.42879E-01
 -1      6269 5.48533E-01-3.60249E-01-2.58928E-01 5.97324E-02 2.59104E-02-5.27009E-01
 -1      6270-8.27720E-01 1.49922E-01 5.08497E-01-1.39650E-01 8.78369E-02-1.57852E-01
 -1      6271-2.97076E+00 5.50249E-02-2.63905E-03 2.33634E-01 1.84911E-01-9.15502E-01
 -1      6272-2.27888E+00 1.01708E-01 3.84373E-01-3.28959E-01-9.05347E-02-1.46010E-01
 -1      6273-3.62995E+00 5.88576E-01 1.27345E+00-9.56356E-01 9.40143E-01-8.75616E-02
 -1      6274 4.35039E-02 4.43127E-01-1.06571E-01-2.89034E-01 3.66179E-01 4.94335E-01
 -1      6275-2.55265E+00-2.04359E-01-4.19578E-01-1.76206E-01-1.26663E-01 4.49885E-01
 -1      6276-4.09405E+00 5.64777E-01-1.15246E+00 5.62522E-01 2.71342E-01 6.97562E-02
 -1      6277 1.52879E-01 2.24034E-02 4.09585E-02-2.20333E-03-5.15201E-02 5.87846E-02
 -1      6278 0.00000E+00 0.00000E+00 0.00000E+00 0.00000E+00 0.00000E+00 0.00000E+00
 -1      6279 4.02877E+00-4.35257E-01-3.04658E-02-3.71857E-02-6.69257E-01 1.37912E-03
 -1      6280 3.61993E+00 1.84650E-02-4.09400E-02 1.34798E-01-2.53238E-01-8.30173E-01
 -1      6281 6.71286E-01-1.33020E-01-5.33752E-02 8.97157E-03-2.88049E-02-5.68322E-01
 -1      6282-1.42323E+00-1.25152E-01-2.61993E-03 2.55457E-02-2.86548E-02-4.67140E-01
 -1      6283-9.01464E-02 2.58862E-01 2.36537E-01-1.97433E-03 1.14665E-02-3.22061E-01
 -1      6284-1.06819E+00 8.04701E-01 3.93756E-01-3.02333E-01 2.18898E-01 5.27725E-02
 -1      6285-4.33393E+00-3.60354E-01 5.30719E-01-1.72603E+00 3.92648E-01-2.01617E+00
 -1      6286-4.74120E+00 3.19097E-01 1.03333E+00 3.68360E-01 2.76101E-02 2.54090E-01
 -1      6287-1.11347E+00 4.01007E-02 9.48660E-02-3.02325E-01 5.64933E-01-2.30645E-03
 -1      6288-5.44345E-01 1.06071E-01-2.16469E-01-1.33333E-02 9.37960E-02 6.14572E-01
 -1      6289 5.33119E-02-3.02721E-01-2.49885E-01-1.77713E-02-2.09469E-01 1.58498E-01
 -1      6290 0.00000E+00 0.00000E+00 0.00000E+00 0.00000E+00 0.00000E+00 0.00000E+00
 -1      6291 0.00000E+00 0.00000E+00 0.00000E+00 0.00000E+00 0.00000E+00 0.00000E+00
 -1      6292 0.00000E+00 0.00000E+00 0.00000E+00 0.00000E+00 0.00000E+00 0.00000E+00
 -1      6293 1.09626E-01-1.27974E-01 1.92763E-02 3.38382E-02-4.02006E-02-2.50645E-02
 -1      6294 1.13453E-01-4.80001E-02 3.29539E-03 4.64211E-02-7.42782E-02-7.92694E-02
 -1      6295 3.50693E-01-4.69122E-02 2.08671E-03 1.44483E-01-1.44957E-01-1.81028E-01
 -1      6296 5.92075E-02-2.82465E-02-4.95725E-01-8.52926E-02 9.90326E-02 1.06479E-01
 -1      6297 3.09775E-01 7.80676E-02-3.54644E-01 6.21112E-02-1.89663E-01 7.81550E-02
 -1      6298 1.12191E-01 2.14049E-01-8.14338E-02 1.13696E-01-2.32299E-01 2.02479E-01
 -1      6299 1.55713E-01 2.99162E-01-2.16116E-03 7.57005E-02 1.25650E-01-7.99568E-02
 -1      6300 2.48527E-01 4.41591E-01 1.83866E-01 1.22024E-01 5.39280E-02-1.94281E-01
 -1      6301 2.96935E-01-1.94807E-01-2.56784E-01 1.12237E-01-1.30031E-01 2.08698E-02
 -1      6302-9.76024E-02-1.00858E-01-1.44605E-01 1.09945E-01-1.96264E-01 8.05049E-03
 -1      6303 3.70492E-01 6.07779E-02-2.24102E-02-7.91167E-03 3.33793E-02 1.17152E-03
 -1      6304 1.00063E-01 5.18846E-02-7.28475E-02 8.26249E-02-4.84610E-02 4.05738E-02
 -1      6305 6.08259E-01 2.88272E-01 3.23157E-01 1.33695E-01 1.59829E-02 1.72737E-01
 -1      6306-9.70904E-02-7.16950E-02-1.84735E-01 6.83308E-02-2.32913E-02 2.89023E-02
 -1      6307-4.16508E-01-1.70031E-01-2.35592E-01 1.21882E-01-5.87868E-02 4.59158E-02
 -1      6308-8.66493E-01-3.70234E-01-6.08878E-01 5.64410E-02-6.75016E-03-1.46939E-01
 -1      6309-2.76401E-01-1.24535E-01-6.64244E-03 1.04329E-01 2.10468E-02-1.95812E-01
 -1      6310-1.28245E-01-8.23874E-02 4.24833E-02 1.39742E-02 1.29962E-02-5.54535E-03
 -1      6311-6.16568E-02-2.22924E-01-1.67108E-01 8.52576E-02 9.72743E-02-8.50418E-02
 -1      6312-2.08620E-01 8.10287E-02 2.12605E-01 2.28038E-01 9.79055E-02-6.30459E-02
 -1      6313-4.14851E-02-3.11781E-01-6.42277E-02 2.42940E-01 1.80802E-01-1.12445E-02
 -1      6314 5.58401E-02 9.33592E-02 8.52541E-02 9.15383E-02 1.56312E-01 8.04768E-02
 -1      6315 9.02334E-02 5.22248E-01 5.82518E-01 1.51402E-01 5.29858E-02-2.15397E-02
 -1      6316-5.46828E-01-1.18889E-01 1.68639E-01-2.05189E-01 1.28355E-01 2.25684E-01
 -1      6317-4.46739E-01 2.70116E-02 2.85102E-02 2.36879E-02 1.43422E-01-2.72055E-01
 -1      6318 3.02418E-02-5.02143E-02 2.96738E-03-9.74030E-02 1.92352E-01-2.23875E-01
 -1      6319-1.14299E-01 2.43164E-02 4.45819E-02 8.90180E-02-1.27101E-02 3.29812E-02
 -1      6320 4.78771E-02 1.22951E-01 9.10314E-02 5.40792E-02 2.71192E-02 4.76408E-02
 -1      6321-2.84124E-01-1.64736E-02 2.13643E-01-1.51959E-01 2.33187E-02 5.53004E-02
 -1      6322-4.93598E-03-7.38777E-02 2.25542E-02-3.64440E-02 4.79937E-03-8.00983E-03
 -1      6323-1.25971E-02-3.17895E-02 7.57065E-03 9.41990E-03 4.66547E-02-7.19226E-02
 -1      6324-9.48110E-02 1.36294E-02-3.55819E-03 3.94552E-02-9.41470E-02-5.91575E-02
 -1      6325-1.13370E-01-1.17457E-01-8.65623E-02 7.71772E-02-4.01843E-02-6.85005E-02
 -1      6326 2.94007E-01 7.95429E-02-1.83027E-01 1.99632E-02-4.24332E-03 9.31453E-02
 -1      6327-1.34026E-02 4.93533E-02-4.21228E-02-2.63050E-02-2.85274E-02 1.25238E-02
 -1      6328-5.73431E-02 5.09704E-02 1.13909E-01 6.10029E-02-1.32963E-01 2.42472E-02
 -1      6329-5.44929E-02-1.37328E-01-8.29985E-02 1.16629E-01-4.30313E-02-3.09669E-02
 -1      6330 3.26486E-01-5.28176E-01-5.72902E-01-1.25038E-01-8.35434E-02 2.04867E-01
 -1      6331-1.63205E-01-1.39464E-01-4.78572E-02-7.85626E-02-1.90705E-02 1.33928E-01
 -1      6332 3.73098E-01 6.55718E-01 3.12323E-01-1.35815E-01-2.79250E-01 2.12253E-01
 -1      6333 1.80227E+00 2.31523E-01-8.36486E-01 9.86227E-01-3.77092E-01-2.00532E-02
 -1      6334 1.34310E-01-4.13639E-01-4.55299E-02 1.52107E-01 3.13772E-02 6.26766E-02
 -1      6335 4.00991E-01-4.05551E-01-2.79729E-01 2.35107E-01 8.52086E-03 9.10197E-02
 -1      6336 0.00000E+00 0.00000E+00 0.00000E+00 0.00000E+00 0.00000E+00 0.00000E+00
 -1      6337 0.00000E+00 0.00000E+00 0.00000E+00 0.00000E+00 0.00000E+00 0.00000E+00
 -1      6338 8.19220E-02 3.18104E-01-1.43426E-01-1.12351E-01-6.15233E-02 7.05384E-02
 -1      6339 1.38893E-01 4.11926E-01 3.17352E-01 8.45921E-02-1.13557E-01-1.61769E-01
 -1      6340-3.56641E-03 2.25094E-01-3.09699E-02-3.46542E-02-4.54969E-02 3.01884E-02
 -1      6341 8.68250E-02 1.39989E-01 4.28188E-01 1.89648E-01-1.81821E-01-3.69375E-01
 -1      6342-1.71668E-02-1.61211E-01-1.10278E-01-7.96060E-02 1.10354E-01-4.68198E-03
 -1      6343-5.98445E-02-2.78379E-02-1.23862E-01 8.14681E-02-2.94933E-02-1.90431E-01
 -1      6344-1.15770E-01-6.55277E-02-1.30221E-01-4.32066E-02-1.34024E-02-1.69228E-01
 -1      6345 9.31543E-03-8.20308E-03-4.66559E-02 8.68397E-02 4.95065E-02 2.42732E-03
 -1      6346-3.53723E-02-1.10774E-01 7.74617E-02-4.68747E-02 2.24555E-02 6.97507E-02
 -1      6347-1.89443E-02-1.24493E-01 1.16611E-01 3.65030E-02-2.14136E-02-1.80212E-02
 -1      6348 1.39282E-02-4.33508E-02 1.32599E-01-2.07589E-02 1.99660E-03 3.68262E-02
 -1      6349-2.27750E-01-1.79674E-01-3.99843E-02 6.70543E-02 5.78493E-02-1.01773E-01
 -1      6350-1.16769E-01-1.02072E-01 1.00657E-02-3.53696E-02-3.65553E-02-1.72483E-01
 -1      6351-7.66022E-02-5.90284E-02 1.42430E-01-7.53648E-03 1.72533E-01 4.52540E-02
 -1      6352-8.94252E-02 1.22707E-01 1.44290E-01-1.04025E-01 1.87876E-02-3.09992E-02
 -1      6353-9.24711E-02 6.11255E-01 7.07744E-01-1.53011E-01-3.79125E-02 1.75908E-01
 -1      6354-5.47532E-02-6.49942E-01-2.48316E-01-1.22966E-01 2.48190E-02 2.02289E-01
 -1      6355 2.39958E-03 1.20802E-01 6.73085E-03-3.96956E-02-1.49751E-01 1.37719E-01
 -1      6356-1.94960E-01 7.31880E-02 2.18838E-01-1.84401E-01-1.30508E-02 2.58302E-01
 -1      6357 1.33282E-02 1.57896E-01-5.50176E-03 2.89501E-02 1.20166E-01 4.72384E-02
 -1      6358-3.67642E-02-1.06529E-01-4.23365E-02-1.02940E-01 1.41863E-01 6.65854E-02
 -1      6359 2.35197E-02-3.16130E-01-1.14363E-01-1.22664E-02 6.26296E-02 5.22207E-02
 -1      6360-1.04820E-01 1.86987E-01 2.90316E-02-7.15540E-02 1.20363E-01 3.67912E-02
 -1      6361-5.53454E-02 2.42543E-02 1.43910E-01 1.00496E-01-8.20578E-02 1.26313E-02
 -1      6362-2.26790E-02 6.45090E-03-2.58807E-02 6.15515E-02 2.47744E-02-4.69476E-03
 -1      6363-4.93818E-02 6.29193E-03 9.40797E-02 6.56506E-02 2.91623E-02 9.45316E-02
 -1      6364-1.81989E-02-3.19547E-02-2.16676E-02 1.85228E-02 1.15427E-02-7.03800E-03
 -1      6365-3.38043E-02 1.81005E-03 1.97984E-01-1.65961E-03 3.06874E-02 8.74619E-02
 -1      6366 4.01655E-02-6.05652E-02 4.05596E-02 3.43565E-02 4.15602E-03-2.03491E-02
 -1      6367 8.06962E-02 8.06203E-03-1.61096E-02-5.18830E-02-2.49372E-03 3.98064E-03
 -1      6368 3.19896E-02 6.10490E-02 8.74034E-02 5.58882E-02-1.17856E-01-5.11657E-03
 -1      6369-2.71315E-02 6.50015E-02 1.54506E-01 1.12302E-01-8.60123E-02-2.29101E-02
 -1      6370-1.38935E-01 6.60970E-01 1.34654E-01-8.97653E-02-1.30474E-01 3.85986E-02
 -1      6371-6.54952E-02 4.97175E-01 1.61189E-01 1.47944E-01-1.76064E-02-1.35051E-01
 -1      6372 2.98754E+00 1.82942E-01-3.08931E-02-6.31424E-02-4.58865E-02 1.88356E-01
 -1      6373-7.43685E-02 4.28976E-01 2.00524E-01 1.07249E-01 2.80868E-02-7.41036E-02
 -1      6374 9.40481E-02 1.39203E-01-5.23386E-04 3.08744E-01 9.38389E-02-1.62376E-01
 -1      6375 0.00000E+00 0.00000E+00 0.00000E+00 0.00000E+00 0.00000E+00 0.00000E+00
 -1      6376 0.00000E+00 0.00000E+00 0.00000E+00 0.00000E+00 0.00000E+00 0.00000E+00
 -1      6377 8.74070E-02-1.15798E-01-1.14509E-02 8.57217E-02-8.37106E-02-7.26220E-02
 -1      6378-4.82435E-02 1.96362E-01 1.87690E-02 3.01168E-02-5.81648E-02 3.45037E-02
 -1      6379 9.74274E-02 2.88952E-01-4.20019E-02-3.86714E-02-2.94466E-02-2.09850E-03
 -1      6380 2.63756E-01 3.34384E-01 6.65730E-03-8.50473E-03-7.12216E-02 2.84509E-02
 -1      6381-7.77145E-02 2.14462E-02-4.56082E-03-3.68791E-02-5.83133E-02 4.68919E-02
 -1      6382-1.81769E-02-2.77917E-02-2.51626E-02 2.96155E-02-4.17026E-02 2.73513E-02
 -1      6383-1.80214E-01 1.98836E-02 9.45263E-02-8.58036E-02-1.16666E-01 5.04341E-03
 -1      6384-3.28711E-01-4.29576E-02 1.42945E-01-1.20858E-01 8.92380E-02-2.04870E-01
 -1      6385 3.18337E-01-1.12176E-01-6.82392E-02 1.26010E-01 3.09459E-02-2.31247E-01
 -1      6386 3.81730E-02-3.51114E-01-3.60728E-01 1.41896E-01 1.43457E-01-2.15420E-02
 -1      6387-1.66664E-01 1.84734E-01 1.60230E-01-7.23922E-02 4.13048E-02-3.68271E-01
 -1      6388-2.15830E-02-1.17633E-01 7.41257E-02-5.21822E-02 5.68248E-02-1.37459E-02
 -1      6389-1.50315E-02-3.15092E-02 2.40256E-02 1.68773E-02-2.03442E-02 8.75736E-04
 -1      6390 3.91989E-02 1.45517E-01 6.96801E-02 4.96228E-02-1.02206E-01-4.44082E-02
 -1      6391-3.29168E-02-1.47485E-02-2.52338E-02 7.20265E-02-2.70553E-03-1.42454E-02
 -1      6392 2.17481E-01-1.39862E-02-3.41724E-02 1.64545E-01 1.25761E-02-2.09290E-02
 -1      6393 3.09113E-02 7.39988E-02 6.61882E-03-2.88070E-02 2.40210E-02-2.95568E-03
 -1      6394 3.66821E-02 1.48265E-01 1.84999E-02-2.58608E-02-1.20299E-02 1.04484E-02
 -1      6395 1.98265E-02-2.01773E-01-8.81516E-02-2.12903E-01 2.45557E-02 2.02238E-02
 -1      6396 1.14117E-02-6.11746E-01-3.51387E-01 2.08300E-01 1.84581E-01-2.67008E-02
 -1      6397 0.00000E+00 0.00000E+00 0.00000E+00 0.00000E+00 0.00000E+00 0.00000E+00
 -1      6398 0.00000E+00 0.00000E+00 0.00000E+00 0.00000E+00 0.00000E+00 0.00000E+00
 -1      6399 5.64039E-01 2.08161E-02 1.35855E-01-2.05982E-02 3.30064E-02-2.59191E-01
 -1      6400 3.97689E-01 3.65203E-01 1.48374E-01-1.15526E-01-6.42312E-02-1.42435E-01
 -1      6401 6.23705E-02 2.09775E-01 1.25946E-02-1.86082E-01-8.10867E-02 1.78073E-02
 -1      6402-1.04386E-01 4.55234E-02-1.43000E-01-2.26333E-01-1.19882E-01 5.66709E-02
 -1      6403 6.21810E-02 5.13188E-03 1.38761E-01-2.25581E-02-1.34855E-01-2.58558E-02
 -1      6404-4.82806E-02-1.66380E-01-1.82766E-02-1.14749E-02-9.56437E-03 1.63159E-02
 -1      6405 1.93650E-02-2.41373E-02 2.23548E-02-3.42409E-02 1.57353E-02 4.56283E-02
 -1      6406-7.56316E-02 1.32160E-01-1.38454E-01-1.36616E-01-2.37426E-01 8.54863E-02
 -1      6407-3.95879E-01 3.41676E-01 1.26168E-01-2.67189E-01-9.43416E-02 2.66813E-01
 -1      6408-1.80858E-01-1.47029E-01-1.55832E-01-1.53050E-02 1.87312E-02-2.39180E-01
 -1      6409-8.59003E-02 7.46252E-02 1.23453E-01 1.03156E-02-5.50160E-02-2.29394E-02
 -1      6410-1.97621E-01-3.63723E-02 1.01710E-01 2.77213E-02 4.33162E-02 1.78244E-01
 -1      6411-5.86498E-02-1.91194E-01-5.39705E-02 6.68874E-02-1.41336E-03-2.60708E-02
 -1      6412 3.83668E-02 7.35023E-02 8.10175E-02 1.29606E-01 5.77183E-02 9.66292E-02
 -1      6413 1.44171E-01-5.91585E-03-2.05364E-02 1.05429E-01 2.44682E-03-1.69238E-03
 -1      6414 3.30924E-02-2.69917E-01-3.22900E-01 7.05333E-02 7.93792E-02-6.72295E-02
 -1      6415 9.01858E-02-2.42037E-01-5.54131E-02 1.38758E-01 2.16653E-01-9.01185E-02
 -1      6416 4.46059E-01-3.60060E-01-3.31278E-01 3.40128E-01 2.70345E-01-1.35065E-01
 -1      6417 0.00000E+00 0.00000E+00 0.00000E+00 0.00000E+00 0.00000E+00 0.00000E+00
 -1      6418 2.50231E-01 4.91147E-02 2.21872E-01-4.34789E-02 1.25133E-01-2.51689E-01
 -1      6419-3.81767E-02 2.12617E-01-5.43827E-01-1.64548E-01 2.26801E-01 2.17828E-01
 -1      6420 1.60893E-02 4.98393E-01 8.21275E-02-6.16278E-02-1.49478E-01 9.62231E-02
 -1      6421 1.36247E-01 2.43343E-01 3.69153E-03 7.87869E-02 1.26755E-01-7.48388E-02
 -1      6422 4.76655E-01-2.54795E-01-2.39017E-01-1.05483E-02-2.25394E-02 4.81944E-02
 -1      6423-7.40257E-01-5.74103E-02 4.16434E-03-2.04677E-01-9.52369E-02-3.82991E-02
 -1      6424-1.55036E-01-3.64753E-01-2.02405E-02-6.19985E-02-9.41733E-02 2.26703E-01
 -1      6425-1.02560E+00-2.77409E-01 1.57226E-01-5.05328E-02-1.73311E-01 5.21772E-01
 -1      6426 4.39031E-02 1.73597E-01 2.74219E-01 1.67388E-01-2.55111E-01-1.06865E-01
 -1      6427-3.34133E+00-4.99554E-01-4.62945E-01 8.22271E-04 1.47264E-01-1.06926E-01
 -1      6428 4.76006E-02 6.37274E-02 8.69564E-02 2.91040E-02-7.77733E-02-6.82514E-02
 -1      6429-1.02636E+00-2.01141E-01 8.95848E-02 1.22882E-01 1.09913E-02-3.82662E-02
 -1      6430 1.71614E-01 1.61693E-01 8.49925E-02 8.57532E-02 3.83855E-02 4.88482E-02
 -1      6431 2.15234E-01 2.59866E-01 1.10237E-01-7.37449E-02 4.37295E-02 4.86925E-02
 -1      6432-3.18348E-02-3.25252E-01 5.03592E-02 1.39375E-01 1.38885E-01-1.79178E-02
 -1      6433 2.92797E-02-3.96678E-01 1.93613E-01 8.34051E-02 5.59581E-02 4.30525E-02
 -1      6434 0.00000E+00 0.00000E+00 0.00000E+00 0.00000E+00 0.00000E+00 0.00000E+00
 -1      6435 0.00000E+00 0.00000E+00 0.00000E+00 0.00000E+00 0.00000E+00 0.00000E+00
 -1      6436 0.00000E+00 0.00000E+00 0.00000E+00 0.00000E+00 0.00000E+00 0.00000E+00
 -1      6437 0.00000E+00 0.00000E+00 0.00000E+00 0.00000E+00 0.00000E+00 0.00000E+00
 -1      6438 3.32612E-01-1.18826E-01-1.35996E-02 3.92178E-02 1.37179E-01-1.31862E-01
 -1      6439-2.89799E+00-6.15587E-01-7.97639E-02-2.17511E-01-2.20734E-01-8.82430E-01
 -1      6440 1.55627E+00 2.23689E+00 8.63647E-01 7.91593E-02-8.77393E-01-1.95833E-01
 -1      6441-3.08486E+00-2.39848E-03-1.87199E-01-1.55761E-01 1.34137E-01-2.29939E-01
 -1      6442-2.00598E+00 1.76096E-01 1.40542E-01-2.58464E-02 3.49546E-02-8.25502E-02
 -1      6443-2.40586E+00-2.48237E-01-1.90452E-01-8.18720E-01-9.31852E-01-9.67826E-01
 -1      6444-7.24812E-01 1.14594E+00-4.83896E-01-1.67786E-01-9.09535E-01-3.18000E-01
 -1      6445-7.12196E+00-3.42255E-01-1.20148E+00-8.45275E-02-5.11308E-01 4.99136E-01
 -1      6446 5.95728E+00-3.23900E-02 4.34131E-01 2.17276E-01 4.33062E-01 9.94581E-01
 -1      6447-1.92346E-01-1.75589E+00-4.23998E-01-1.97253E-02 4.65773E-01 1.25278E+00
 -1      6448 1.30035E+00-8.61361E-01-1.42782E+00-5.05266E-01 1.16226E+00 2.81587E-01
 -1      6449 3.10949E+00-1.93350E-01 1.57013E-01 1.91075E-01-2.35749E-02 2.67901E-01
 -1      6450-7.09439E-02-7.51794E-02 2.04854E-01-1.38522E-01-4.36766E-03 1.44318E-01
 -1      6451 3.39917E-01 2.84323E-01 6.99872E-01-6.27187E-02 9.25905E-02 2.00495E-01
 -1      6452 0.00000E+00 0.00000E+00 0.00000E+00 0.00000E+00 0.00000E+00 0.00000E+00
 -1      6453 0.00000E+00 0.00000E+00 0.00000E+00 0.00000E+00 0.00000E+00 0.00000E+00
 -1      6454 1.96103E+00-6.89050E-03 5.98084E-01 2.10618E-01 2.89525E-01-6.62744E-01
 -1      6455 5.68334E+00-2.07361E-01-2.95926E-01-2.18186E-01-3.09586E-02-6.17781E-01
 -1      6456 4.76913E+00 3.09442E-02 7.73076E-02 1.38545E-01 4.09768E-01-1.46623E+00
 -1      6457 3.02435E+00-1.36870E-01-1.53125E-01-9.37328E-02 2.39538E-01-6.83428E-01
 -1      6458 5.60626E-02-4.35848E-01 1.63678E-01 1.19779E-01-2.26134E-02-2.10182E-01
 -1      6459-9.67153E-02-2.50671E-01 2.27410E-02 1.73138E-02 2.62209E-01-3.12620E-01
 -1      6460 3.07353E-01-9.67899E-04 2.69065E-01 8.69072E-03 2.28893E-01-2.59629E-01
 -1      6461 1.01372E+00-4.23024E-03 1.49226E-02-4.52377E-05 8.97496E-02-5.23260E-01
 -1      6462-7.06597E-01 1.07919E+00 5.59371E-01 1.87688E-01-2.21059E-01 4.67986E-01
 -1      6463-1.59087E+00 2.67424E-01 6.92859E-01 1.55117E-01 6.89646E-02-2.58261E-01
 -1      6464-6.85508E+00-3.36723E-01 5.86222E-01 8.07250E-02 5.04019E-01-5.96953E-01
 -1      6465-6.60797E-01 4.62387E-01-2.88436E-01 2.54182E-01-9.02418E-01 6.42647E-01
 -1      6466-5.83510E+00 2.30778E-01 3.38439E-02-1.72856E-01-2.94279E-01-9.13521E-01
 -1      6467-5.57581E+00 1.58455E+00 1.04440E+00-3.09230E-02-1.85225E-01 7.88537E-01
 -1      6468-2.43785E-02 2.07816E+00 1.46599E+00-9.49310E-01-7.22845E-01-1.74490E+00
 -1      6469-2.11736E+00 6.44512E-01 5.57401E-01-6.37377E-01-7.74718E-01-1.97597E-01
 -1      6470-7.36849E+00-1.25932E+00-6.12321E-01 4.02854E-01 1.89567E-01 4.77907E-01
 -1      6471-5.75227E+00 6.78688E-01 4.92377E-01-7.72645E-02 6.37785E-01 7.20192E-01
 -1      6472-1.90764E-02 2.14965E-01 3.17971E-01 1.61356E-01-2.69938E-01 5.58514E-02
 -1      6473-3.10659E+00-7.17458E-02 4.43082E-01-1.30067E-01-1.26074E-01 5.56191E-01
 -1      6474-6.96700E-01 1.29395E-02-3.79337E-01-7.70186E-02-7.21937E-02 5.60328E-01
 -1      6475 2.02558E-01 1.73984E-01 1.63006E-02-4.70717E-02-2.46351E-01 3.77354E-01
 -1      6476 1.19528E-02-2.50454E-02-1.61108E-01-2.13841E-02-1.84659E-01 3.04780E-01
 -1      6477-5.83892E-01-4.74057E-02-8.29008E-03 6.80524E-02-7.47016E-02 5.52876E-01
 -1      6478 9.14621E-01-7.93816E-02-9.28484E-02-1.29631E-02 1.81343E-01 5.91209E-01
 -1      6479 1.02989E+00-2.33964E-01-1.25022E-01 1.11149E-01 1.12966E-01 7.02996E-01
 -1      6480 9.23627E-01-1.39576E-01-2.37727E-02-1.11039E-02 1.97038E-01 6.10155E-01
 -1      6481 4.88745E-01-2.47000E-01 4.95686E-02 4.86509E-02 2.77116E-01 6.03364E-01
 -1      6482 2.42355E+00-6.83807E-01-2.90304E-01 7.75558E-03 3.51450E-01 9.05028E-03
 -1      6483 7.01898E+00-2.71841E-01-2.01908E-01 2.30090E-02-4.26711E-01 7.10414E-01
 -1      6484 3.21092E+00-1.21280E+00-1.53331E+00-3.15311E-01 2.68463E-01-2.97969E-01
 -1      6485 1.83831E+00 8.81362E-01 1.74567E+00-3.10363E-01 2.41505E-01 1.97889E+00
 -1      6486 7.45557E-01-2.11127E-01 3.16360E-01 1.37868E-01-7.28150E-02-1.87898E-01
 -1      6487 3.01797E+00 2.59020E-01 2.94667E-01-5.58601E-01-7.67390E-04-2.83626E-01
 -1      6488 3.27396E+00-1.26193E-01-4.79626E-02-2.83330E-01-8.95011E-02-4.63822E-01
 -1      6489 7.02042E+00 4.31364E-01 3.59653E-01-7.43975E-02 5.42527E-03-7.78840E-01
 -1      6490 2.51579E+00-2.13062E-04-4.72546E-01 4.11875E-01-9.81192E-02-3.52430E-02
 -1      6491 1.60354E+00 1.88908E-01 4.07889E-01-3.08820E-01-3.98406E-02-3.01963E-01
 -1      6492 3.71732E-01-3.27237E-01-2.54112E-01-1.62953E-01 1.16993E-02-3.24495E-01
 -1      6493 4.86885E+00 2.39549E-01-2.28017E-01 1.98047E-01-1.30757E-01-2.54604E-01
 -1      6494 1.94521E+00 3.96291E-01 4.08106E-01 1.58552E-01-7.48278E-02-2.72760E-01
 -1      6495 1.72930E+00-4.60626E-02-1.88012E-01 1.87029E-02-1.13315E-01-6.87488E-01
 -1      6496 2.46570E+00-4.50937E-02-2.68893E-01 1.08917E-01-2.87589E-01-5.96351E-01
 -1      6497-8.12686E-02 1.06505E-01 4.98718E-01 1.67699E-02 2.49323E-02-3.16884E-01
 -1      6498-3.41173E-01-1.68032E-01-2.33339E-01-7.43935E-02-3.79841E-02-2.12897E-01
 -1      6499-6.91203E-01-1.84896E-01-4.89057E-01-1.50577E-01-4.75548E-02-1.66303E-01
 -1      6500-1.95988E+00-5.20915E-01-6.71695E-01-6.20286E-02 2.80637E-02-6.44691E-01
 -1      6501-1.43617E+00 6.56227E-01 6.29900E-01-2.70870E-01-3.40617E-02-3.36855E-01
 -1      6502-1.08754E+00-1.03983E-01-2.20803E-01-3.68483E-01-1.21302E-01-2.13717E-01
 -1      6503-3.10160E+00-1.72948E-01-5.69916E-01 1.87971E-01 1.12064E-01-2.09098E-01
 -1      6504-7.03132E+00 3.30862E-02 6.58558E-01 3.64205E-01 3.41570E-01-4.72643E-01
 -1      6505-6.57133E+00 1.00754E-01-9.12602E-01 1.67540E-02 1.05237E-01 1.36204E-01
 -1      6506-2.77431E+00-6.07769E-02-1.58641E-01 4.47431E-01 3.37422E-02 3.40830E-01
 -1      6507-2.04478E+00 4.92144E-01-9.45788E-02 2.41619E-01 7.23719E-03 1.46243E-01
 -1      6508-1.43639E+00 4.09655E-03-3.34890E-01 1.81819E-01-2.49049E-02 3.86495E-01
 -1      6509-1.47221E+00-6.56705E-02 5.51606E-02-6.46889E-02 1.14466E-01 6.89221E-01
 -1      6510-2.13513E+00-3.47296E-01 8.47858E-03-1.47645E-01 2.72764E-01 6.46939E-01
 -1      6511-3.68045E-01 1.76767E-01 6.72469E-01-9.51481E-03 1.24240E-02 3.93612E-01
 -1      6512 3.42601E-01-9.23198E-02-4.62296E-01-7.04428E-02-6.92060E-02 1.97639E-01
 -1      6513 7.26046E-01 3.12149E-01 5.30136E-01 1.51972E-01 1.09850E-01 1.72157E-01
 -1      6514 1.99892E+00 1.94928E-01-5.60629E-02 5.54154E-02-1.09319E-01 6.62431E-01
 -1      6515 2.19278E+00 2.03331E-01-1.63741E-01 3.06847E-02-8.56343E-03 5.87212E-01
 -1      6516 1.05786E+00-1.65530E-01-2.05491E-01 3.71841E-02 1.07429E-01 7.21561E-02
 -1      6517 1.14174E+00-2.57641E-01-8.57881E-01-2.41658E-01 6.06103E-02 1.47904E-01
 -1      6518 2.02344E+00 2.80332E-01 5.52873E-01-4.75979E-03 7.97998E-02 4.53978E-01
 -1      6519 2.03799E+00-4.54423E-01-4.38382E-01 7.62003E-02-2.67452E-03 3.90990E-01
 -1      6520 1.66844E+00 2.97229E-01 6.59186E-01 4.71880E-01 6.90444E-03 3.79687E-01
 -1      6521 1.95244E+00 2.50597E-01 7.32952E-01-2.30921E-01 2.66906E-02 8.26776E-01
 -1      6522 2.23336E+00-5.51984E-01-1.30312E+00-2.76026E-01-1.50735E-01 1.57466E-01
 -1      6523 4.10449E+00 9.09309E-01 2.45914E+00-7.73420E-01 3.36505E-01 2.70148E+00
 -1      6524 0.00000E+00 0.00000E+00 0.00000E+00 0.00000E+00 0.00000E+00 0.00000E+00
 -1      6525 0.00000E+00 0.00000E+00 0.00000E+00 0.00000E+00 0.00000E+00 0.00000E+00
 -1      6526 0.00000E+00 0.00000E+00 0.00000E+00 0.00000E+00 0.00000E+00 0.00000E+00
 -1      6527 0.00000E+00 0.00000E+00 0.00000E+00 0.00000E+00 0.00000E+00 0.00000E+00
 -1      6528 4.25764E+00-9.17382E-02 1.31602E+00 6.83551E-01 1.61038E-01-1.73562E+00
 -1      6529 4.78482E+00-1.79444E-01 2.59524E-01-5.50279E-01 1.81828E-01-2.46583E-01
 -1      6530 5.54139E+00 5.07814E-01 1.23502E+00-2.78393E-01 2.90178E-01-6.00275E-01
 -1      6531 5.64759E+00 1.67445E+00 2.09497E+00-1.28934E-04 4.44128E-03-5.81422E-01
 -1      6532 4.17869E+00-1.77829E-01 1.90592E-02-1.83358E-01 7.87246E-02-5.61553E-01
 -1      6533 1.16148E+00 4.67971E-02 3.03468E-01 1.12138E-02 2.36320E-02-5.87261E-01
 -1      6534-6.58085E-01 1.05230E-01-1.32782E-01 2.12693E-02 8.15089E-02-6.80092E-01
 -1      6535-1.03496E+00-4.58046E-01-2.18641E-01 2.62157E-02 2.95077E-02-3.01222E-01
 -1      6536-2.69669E+00 3.35584E-01-1.07302E-01-1.34046E-01 1.02258E-01 1.62711E-01
 -1      6537-1.99817E+00-4.15949E-01-1.22300E-01-2.96743E-02 5.97255E-02-2.04323E-01
 -1      6538-3.37141E+00 6.94604E-01-3.41946E-01 2.22915E-01-8.89103E-02-5.87103E-02
 -1      6539-3.72807E+00 7.18868E-01-1.07408E+00 6.42704E-02-2.03960E-03-7.90686E-01
 -1      6540-6.45412E+00 1.90405E-01 7.84063E-01 2.49140E-01 1.26059E-01 6.38481E-01
 -1      6541-3.59887E+00 1.01858E+00 4.54287E-02 6.19332E-02-2.32518E-01-4.99490E-01
 -1      6542-4.42674E+00 1.13590E-01-2.23882E-01-9.20385E-02-2.01766E-01 6.00437E-01
 -1      6543-4.72513E+00-4.82131E-01-6.79582E-01-2.62786E-01 1.69233E-01 3.04915E-01
 -1      6544-3.39833E+00 3.57848E-01-3.82143E-01 5.07674E-03 1.63842E-01 8.08627E-01
 -1      6545-1.18452E+00-1.98896E-01-3.31717E-01 2.89919E-02-6.48610E-02 6.41086E-01
 -1      6546 1.25248E+00-1.22224E-01-8.36924E-02 1.11394E-01 1.04728E-01 7.51620E-01
 -1      6547 1.55686E+00 3.26518E-01 1.40597E-02-1.13850E-01-1.17356E-01 2.80970E-01
 -1      6548 4.76728E+00 2.65702E-01 1.04788E-01 1.06867E-01-3.91254E-02 8.67351E-01
 -1      6549 2.19205E+00-5.63066E-01-3.59247E-01-1.37553E-01-1.85865E-01 3.13189E-01
 -1      6550 1.56124E+00 4.79090E-01 9.67026E-01 2.56564E-01-2.56304E-02 8.60303E-01
 -1      6551 2.00998E+00 1.03859E-01-9.74177E-01-2.40259E-01-2.90957E-01 1.67618E-02
 -1      6552 6.63195E+00 6.15692E-01 6.16727E-01 1.83792E-01 2.72683E-01 8.13504E-01
 -1      6553 4.75088E+00-1.24627E+00-3.46848E-01-1.11872E-01-3.24561E-01 3.57654E-01
 -1      6554 2.86181E+00 3.16057E-01 3.22797E-01 6.62241E-01 3.26416E-03 2.53590E-01
 -1      6555 1.35943E-01-6.75244E-01 3.85763E-01-5.23003E-01 1.16579E-01 2.08963E-01
 -1      6556 0.00000E+00 0.00000E+00 0.00000E+00 0.00000E+00 0.00000E+00 0.00000E+00
 -1      6557 0.00000E+00 0.00000E+00 0.00000E+00 0.00000E+00 0.00000E+00 0.00000E+00
 -1      6558 0.00000E+00 0.00000E+00 0.00000E+00 0.00000E+00 0.00000E+00 0.00000E+00
 -1      6559 4.70974E+00-4.30994E-01-1.91527E-01 2.51783E-02-1.48596E-01-2.66233E-01
 -1      6560 1.79514E+00 1.96282E-01 2.32517E-02-3.40313E-03 2.15886E-02-7.30082E-01
 -1      6561-9.39094E-02-1.34463E-01-1.90715E-01 1.93259E-03 5.75091E-02-2.13666E-01
 -1      6562-9.26400E-01-5.18775E-01-5.02848E-01 7.23554E-02-1.94106E-02-3.06758E-01
 -1      6563-1.59209E+00-5.73389E-02 1.07323E-01-1.93081E-02 1.11581E-01-8.16435E-01
 -1      6564-2.27010E+00-2.80361E-01 2.70538E-01 1.06375E-01 2.91401E-03-5.73475E-01
 -1      6565-2.30788E-01 3.30793E-01-2.17978E-02 3.51375E-01 1.25921E-02-6.01063E-02
 -1      6566 2.20973E-01 3.89803E-01 1.59906E-01 8.92953E-02 2.92639E-02-6.09575E-01
 -1      6567-1.42836E-01 1.27992E+00 1.56656E+00 2.84004E-01 2.41920E-01-2.35605E-01
 -1      6568-7.15298E+00-2.54259E-01-1.26599E-01 2.73689E-01 1.96403E-01-1.03738E-01
 -1      6569-6.58763E+00-1.57691E-01 1.23882E-01-1.45995E-01 4.29895E-01 2.51270E-01
 -1      6570-3.95466E+00-3.95419E-01 1.68335E-01 1.39995E-01-5.03079E-02 8.26690E-01
 -1      6571-4.74706E+00-1.28331E+00-8.78163E-01-7.52341E-02-7.62074E-02 9.42880E-01
 -1      6572-1.37261E+00-1.89802E-01-2.49197E-01-6.58350E-02-1.57913E-02 8.03726E-01
 -1      6573 2.02858E-01 1.51872E-01 3.69895E-01 2.18709E-02-6.84985E-02 2.45788E-01
 -1      6574 1.00694E+00 3.27497E-01 4.33129E-01 3.28812E-02-1.47109E-02 3.95460E-01
 -1      6575 1.96913E+00 2.55868E-01 1.21221E-01-4.28030E-03 1.68849E-02 6.66457E-01
 -1      6576 6.14830E-01-4.13811E-01-8.84522E-02 2.02140E-01 4.16779E-02 6.55048E-01
 -1      6577-9.97855E-02-5.49281E-01-1.91906E-01 1.47100E-01-1.00835E-01 5.46428E-01
 -1      6578 3.90947E+00-3.80337E-01-6.96896E-01 2.09819E-01-1.29550E-01 9.30538E-01
 -1      6579 5.66573E-01-2.70927E-01 9.08271E-02 1.40056E-01-1.18993E-01 3.49795E-01
 -1      6580 0.00000E+00 0.00000E+00 0.00000E+00 0.00000E+00 0.00000E+00 0.00000E+00
 -1      6581 3.09910E+00 5.46173E-02-4.61935E-01-1.81086E-01 1.20119E-01-1.65816E-01
 -1      6582 3.20539E+00 5.41468E-01-3.98591E-02-1.61372E-01-1.50619E-02-1.64808E-01
 -1      6583 2.88301E+00 9.37422E-02 2.97172E-02 3.56916E-01-1.53067E-01-1.22730E-01
 -1      6584 1.11374E+00 2.35103E-02-9.86109E-02-8.02680E-02-2.30730E-02-3.19691E-01
 -1      6585-5.18762E-02-4.99792E-02-2.10531E-02-4.35424E-02 4.40018E-02-1.23327E-01
 -1      6586-1.14553E+00-7.33886E-01-5.61203E-01-9.01517E-02-6.48988E-02-4.64110E-01
 -1      6587-9.21011E-01 6.18223E-02 3.93696E-01-3.33369E-02 1.10570E-02-4.38779E-02
 -1      6588-1.31286E+00-7.17206E-02-3.58412E-01-6.01308E-02-1.40794E-01-4.79684E-01
 -1      6589-1.87001E+00 3.89049E-02 1.11251E+00-8.92658E-02 6.20995E-02 1.31908E-02
 -1      6590-2.40392E+00 1.80413E-01 4.68152E-01-5.51835E-02 1.72038E-02-7.00709E-02
 -1      6591-2.40198E+00-6.28558E-01-8.84254E-02 2.47401E-02 5.83645E-02 1.65846E-01
 -1      6592-2.71696E+00-1.43943E-01-6.17551E-02-6.25131E-01 1.23797E-01 3.20751E-01
 -1      6593-1.10043E+00-1.39561E-01 6.28505E-01-2.00888E-01 6.64680E-02 8.01394E-02
 -1      6594-5.84160E-01-5.48948E-02 2.58177E-01 4.88936E-02 1.32337E-01 5.12878E-01
 -1      6595 5.17032E-01 1.86445E-01-1.60999E-01-1.54061E-01-6.96705E-03 2.94263E-01
 -1      6596 2.48821E+00 3.51628E-01 5.72998E-01-1.14704E-01-4.48794E-02 5.58348E-01
 -1      6597 2.68954E+00 2.74801E-01 2.24901E-01-5.30045E-01-2.27141E-01 9.69081E-01
 -1      6598 0.00000E+00 0.00000E+00 0.00000E+00 0.00000E+00 0.00000E+00 0.00000E+00
 -1      6599 1.89930E+00-2.30393E-01-4.53657E-01 9.89836E-03-3.70298E-02-5.77812E-02
 -1      6600 1.81415E+00 7.15553E-01 7.17673E-01-1.20977E-01-6.30028E-02-5.61838E-01
 -1      6601 9.87796E-01 2.77257E-02-3.31517E-01-1.19353E-01 1.63969E-02-2.28972E-01
 -1      6602 7.81024E-01 8.04101E-02 3.35598E-01-2.20870E-02-9.04227E-02-3.31782E-01
 -1      6603-1.15696E-01-2.52470E-01-5.83369E-01-2.36841E-01 6.53414E-02-3.97270E-01
 -1      6604-4.98579E-01-2.71191E-01-3.86631E-01-3.07111E-02-5.67125E-02-5.52925E-01
 -1      6605-2.15209E+00-3.04163E-02 2.69954E-01-4.66062E-02-5.62136E-03 4.69459E-02
 -1      6606-1.74363E+00 1.31715E-01 3.67556E-01-8.00927E-03-9.34947E-02 1.86179E-01
 -1      6607-1.42727E+00-3.81246E-01-6.63300E-01-6.64386E-02-2.43276E-03 6.85121E-01
 -1      6608-8.44538E-01 9.45928E-03 2.84963E-01 3.67491E-03 3.90015E-02 1.96772E-01
 -1      6609-2.20151E+00-4.78274E-01-4.44016E-01-1.03632E-01 2.41307E-02 5.58632E-01
 -1      6610-7.72775E-02 2.64798E-01 9.06396E-02-1.27727E-02 1.45954E-01 4.02016E-01
 -1      6611 3.46771E-01 3.59144E-01 9.72525E-01 9.86028E-02-3.50034E-02 5.19088E-01
 -1      6612 2.30806E-01-2.31423E-02-1.85900E-01 1.46391E-02-4.56894E-02 9.01236E-02
 -1      6613 5.62764E-01 2.39431E-01 5.58365E-01 2.36412E-02 1.42356E-02 5.25558E-01
 -1      6614 1.02945E+00-9.27955E-02-4.58607E-01 2.45272E-02-7.42954E-03 5.95040E-02
 -1      6615 2.14071E+00 6.10776E-01-7.28579E-01 2.43628E-01-2.02659E-01 2.84790E-01
 -1      6616 1.55906E+00-7.41118E-01-1.46746E+00-3.27788E-01-2.53205E-01 4.81609E-01
 -1      6617 2.79164E+00 2.16294E-02-4.06106E-01 1.54098E-02-8.45267E-02 5.19050E-02
 -1      6618 0.00000E+00 0.00000E+00 0.00000E+00 0.00000E+00 0.00000E+00 0.00000E+00
 -1      6619 2.08810E+00 1.51843E-01-8.83092E-01 2.67928E-02-1.18029E-01-5.87042E-01
 -1      6620 2.03234E+00-8.75891E-02-5.92957E-02 5.53010E-04-8.24394E-02-2.73914E-01
 -1      6621 1.63180E+00 8.71146E-01 1.11283E+00 2.54139E-01-3.88300E-01-1.17881E+00
 -1      6622 5.10507E-01-2.78922E-01-1.11611E-01 3.00197E-02 5.82050E-02-4.95798E-01
 -1      6623 5.59965E-01 1.14596E-01-3.31493E-02-1.75027E-01 7.85663E-02-3.92848E-01
 -1      6624-1.48471E+00 3.23656E-01 2.87122E+00-8.87925E-01-1.09099E-02-1.35306E-01
 -1      6625-3.43684E+00 7.79053E-02 4.31629E-02 4.25305E-02-1.04844E-02 3.99184E-01
 -1      6626-2.04667E+00-3.32137E-01-1.55039E-01 9.81778E-02-1.01637E-01 2.95628E-01
 -1      6627-1.10484E+00 5.17159E-03-1.83481E-01 1.50961E-01 4.48690E-02 2.38228E-02
 -1      6628-4.02225E-01 1.68805E-01 2.76011E-01 3.71945E-02 5.29746E-02 7.55290E-01
 -1      6629-2.15359E-02 1.75186E-01 4.83065E-01-1.76524E-03-4.02824E-03 2.36873E-01
 -1      6630 2.64560E-01 9.66208E-02 6.89644E-02 6.08078E-02-2.39481E-03 6.67668E-01
 -1      6631-2.79946E-01 1.13179E-01 7.96048E-01 4.15023E-02-2.65149E-01 6.38105E-01
 -1      6632 1.95087E+00-1.29629E-01-1.61708E+00 6.56236E-01 2.01101E-01 2.62379E-01
 -1      6633 3.51505E+00 8.76412E-01 4.38611E-01-2.30956E-01-1.50132E-02 2.11712E-01
 -1      6634 5.20518E+00 1.11042E+00 9.50439E-01-1.72234E-01-9.91327E-02-1.58034E-01
 -1      6635 3.16628E+00 4.91600E-01-4.63765E-02-1.28255E-01 5.23092E-02-2.79405E-01
 -1      6636 3.54642E+00-1.14316E-02 4.35044E-01-2.48639E-01 1.44089E-01-5.29306E-01
 -1      6637 2.45715E+00 5.67461E-01 2.16828E-01-7.06063E-02-2.11988E-02-4.31803E-01
 -1      6638 1.17001E+00 2.73109E-01 2.00045E-01-2.59326E-02-5.77302E-03-2.71020E-01
 -1      6639-7.71633E-01-6.46956E-01-9.60847E-01-7.87901E-02 9.05669E-02-2.58226E-01
 -1      6640-2.25201E+00-4.53772E-01-9.60192E-01-1.79650E-01-3.08064E-02-2.96743E-01
 -1      6641-1.57078E+00-3.65373E-01-9.11098E-01 4.03284E-01-9.90067E-03-6.52712E-01
 -1      6642-2.94308E+00-4.49781E-01-7.60135E-01-2.69423E-01-1.11331E-01-2.36524E-01
 -1      6643-1.81891E+00 5.32524E-01-1.03548E-01 7.38790E-02-6.41522E-02 1.46124E-02
 -1      6644-1.45928E+00 1.19763E-01-1.34797E-01 4.39330E-01 1.46941E-01-6.16757E-01
 -1      6645-2.35647E+00 3.03023E-01 2.99408E-01-4.72648E-01-1.16003E-01 1.54978E-02
 -1      6646-2.60157E+00-4.66392E-01-7.39423E-02-6.53729E-02-2.07844E-02 5.36250E-02
 -1      6647-3.52069E+00-1.81549E-01-5.39473E-01 1.85163E-01-2.23038E-02 3.73823E-01
 -1      6648-1.98116E+00-4.72033E-01-7.12811E-01 7.24386E-02-1.25282E-01 3.28520E-01
 -1      6649-5.38580E-01-1.35854E-01 1.99902E-01 6.86584E-02-4.38480E-02 4.56678E-01
 -1      6650 6.95580E-01 4.83893E-01 9.18582E-01 6.74825E-02-1.88630E-02 2.92758E-01
 -1      6651 5.62638E-01-5.95475E-01-1.49406E+00 2.51386E-01 2.36281E-01 4.39552E-01
 -1      6652 1.83603E+00 5.01269E-01 9.19244E-01 1.99958E-01-2.10895E-02 3.30384E-01
 -1      6653 3.58652E+00 4.57766E-01 7.01442E-01 2.92951E-01 3.36160E-02 2.08673E-01
 -1      6654 1.91360E+00-5.89383E-01-3.89490E-01-1.61147E-01 2.19433E-01 1.75144E-03
 -1      6655 3.53685E+00 6.13198E-01 5.30703E-01 7.03903E-01 2.27622E-01 5.67146E-01
 -1      6656 0.00000E+00 0.00000E+00 0.00000E+00 0.00000E+00 0.00000E+00 0.00000E+00
 -1      6657 0.00000E+00 0.00000E+00 0.00000E+00 0.00000E+00 0.00000E+00 0.00000E+00
 -1      6658 0.00000E+00 0.00000E+00 0.00000E+00 0.00000E+00 0.00000E+00 0.00000E+00
 -1      6659 0.00000E+00 0.00000E+00 0.00000E+00 0.00000E+00 0.00000E+00 0.00000E+00
 -1      6660 5.00810E+00 1.47464E+00 1.36876E+00-1.14175E+00 7.53341E-01-2.70620E-01
 -1      6661 3.67702E+00 8.26356E-01 1.65674E+00-8.81913E-02-1.36159E-01-8.81676E-01
 -1      6662 2.45511E+00-1.55636E+00-3.27755E-01 2.39549E-02-6.58065E-01 1.94781E-01
 -1      6663 6.79119E+00 4.47168E-01 7.80501E-01 2.01125E-01-1.87855E-01-4.38179E-01
 -1      6664 3.18248E+00-1.14788E+00-6.63771E-01 5.76212E-01-7.17131E-01-3.25152E-01
 -1      6665 4.80738E+00-3.77577E-01 3.55672E-01 5.88946E-01-5.20981E-01-2.02743E-01
 -1      6666 1.01798E+00-5.75278E-01-5.49754E-01 1.60744E-01-3.60822E-01-7.59036E-03
 -1      6667 1.37651E+00 1.45072E-01-1.79037E-01-5.00389E-01-1.29259E-01 1.82598E-01
 -1      6668 2.90668E+00-4.52160E-01-2.15623E-01 1.30343E-01-1.97330E-01-7.90972E-01
 -1      6669 3.35719E+00-1.03698E+00-7.29069E-01 5.72183E-01 3.28065E-01-1.34312E+00
 -1      6670 5.65621E+00 4.02793E-02 2.93026E-02-4.39941E-02 4.17060E-01-1.26188E+00
 -1      6671 5.15085E+00 2.40690E-01-2.12940E-02 3.38947E-02 4.35596E-01-6.88067E-01
 -1      6672 3.11236E-01-3.67543E-01-3.88070E-01 3.36787E-02 1.26844E-03-1.30468E-01
 -1      6673 6.37292E-01-3.58448E-01 1.35982E-01-9.98276E-02 9.11013E-02-4.83465E-01
 -1      6674-1.50612E-01-3.49850E-01-6.01358E-02-7.20717E-02-1.67225E-01-1.94115E-01
 -1      6675 1.33307E+00 3.58830E-02 8.17238E-02-2.31916E-02-3.76129E-02-4.99541E-01
 -1      6676-2.22812E+00-4.38042E-01 4.09394E-01-3.68753E-01-3.64588E-01-4.77129E-01
 -1      6677-5.36113E-01 2.99257E-01 2.13151E-01-5.86701E-02-8.28541E-02-5.49906E-01
 -1      6678-1.51800E+00-4.88290E-02 4.68728E-01-2.15162E-01-2.48983E-01-7.55100E-01
 -1      6679-3.97598E-01 5.86245E-02 1.20330E-02-3.64124E-02 1.93703E-03-7.00892E-01
 -1      6680-3.21034E+00-5.02590E-01-1.07368E+00 8.24685E-02-1.47591E-01-3.19303E-01
 -1      6681-4.31987E+00 8.71035E-02-1.67877E-01-2.01433E-01-2.89678E-01-6.60685E-01
 -1      6682-2.74146E+00 2.04211E-01-3.81977E-01 1.38596E-02-9.71086E-03-6.74184E-01
 -1      6683-1.35121E+00 1.40625E-01-1.18420E+00-1.62332E-02 1.02759E-01-4.87514E-01
 -1      6684-6.74974E-01-4.94208E-02-1.16262E+00 1.07639E-01 4.06700E-01 1.56054E-01
 -1      6685-2.00893E+00 3.66251E-01-1.66112E-01 5.32312E-02-3.74208E-02-1.49338E-01
 -1      6686-6.48220E+00 4.32394E-01 9.13395E-01-4.06292E-02-6.24432E-01-2.71849E-01
 -1      6687-2.99627E+00 1.34352E-01-3.31324E-01-2.27401E-01-1.85804E-02-2.36311E-01
 -1      6688-6.91471E+00-1.55202E-01-9.14288E-01 1.05934E-01-5.71291E-02-4.53286E-01
 -1      6689-8.80971E+00-5.86533E-01-8.32184E-01 2.40689E-01 3.01103E-01 2.01672E-02
 -1      6690-6.43382E+00 1.84068E-01 2.48260E-01-1.38236E-01-3.92985E-02 6.47232E-02
 -1      6691-3.56772E+00-4.76558E-02-8.02133E-01 8.47222E-02-2.17806E-01 2.15144E-01
 -1      6692-1.69144E+00 2.08620E+00-2.84260E-01-1.25676E-01-3.55422E-01 8.31949E-02
 -1      6693-1.21346E+00 1.03561E+00-1.32632E+00-3.85280E-01 2.42808E-01 1.04590E+00
 -1      6694-3.95606E+00 4.44399E-01-7.97559E-01-5.38796E-01-1.81643E-02 1.09076E+00
 -1      6695-2.74380E+00 2.07700E-01-1.18024E+00-5.23500E-01 4.10010E-01 1.86855E+00
 -1      6696-6.38453E+00 2.78236E-02 1.60311E-01-4.73963E-01 1.08765E-01 1.18389E+00
 -1      6697-1.09814E+00 2.26281E+00 2.38537E+00-4.17686E-01 4.60059E-01 1.44059E+00
 -1      6698-7.28676E+00-3.10005E-01 6.36554E-03 7.72295E-02-1.71916E-01 3.62796E-01
 -1      6699-1.14406E+00 6.11690E-01 9.64572E-02 4.07605E-02 1.20798E-01-3.56372E-02
 -1      6700-2.84831E+00 2.75669E-01 4.18256E-01 6.99837E-02-2.02914E-01 6.39977E-01
 -1      6701-2.22971E+00 1.85225E-01-8.52290E-01-1.62138E-01 8.73775E-02 3.18762E-01
 -1      6702-2.63714E-01 3.10616E-01 3.76936E-01-7.24579E-02 3.36124E-02 2.79911E-01
 -1      6703 2.42605E+00 4.44751E-01 9.34109E-03 1.81472E-02 5.54077E-03 6.31721E-01
 -1      6704 8.83476E-01-2.59035E-01 2.08280E-02-1.23321E-01 4.47973E-02 5.01647E-01
 -1      6705 1.48123E+00-2.97108E-02-2.00145E-02-3.24059E-02 4.51580E-02 7.04934E-01
 -1      6706 8.51744E-01-3.75016E-02 2.42028E-01-1.38851E-01 1.48554E-01 7.60458E-01
 -1      6707 3.29165E+00 6.40838E-01 1.23975E+00-6.20492E-02 5.29385E-02 4.03784E-01
 -1      6708 2.47211E-01-6.62812E-01 6.84617E-02-1.65494E-01-5.38346E-01 3.14838E-01
 -1      6709 4.15582E-01-1.85700E-01 6.93106E-01 5.89379E-02-5.68682E-01 9.76240E-02
 -1      6710 2.83507E+00-1.97888E-01 4.84008E-01-6.02206E-02 1.34349E-01 5.09047E-01
 -1      6711 4.53506E+00 1.14818E+00 2.14906E+00 3.42294E-01 1.02551E-01 5.43962E-01
 -1      6712 2.59958E+00-5.06705E-02-7.32351E-01 3.43507E-01 2.65788E-02 2.11524E-02
 -1      6713 1.13279E+00 6.89332E-01 8.29201E-01 8.50106E-02 4.49546E-02 1.64771E-01
 -1      6714 0.00000E+00 0.00000E+00 0.00000E+00 0.00000E+00 0.00000E+00 0.00000E+00
 -1      6715 3.07103E+00-5.80161E-01-1.17282E+00-5.47651E-01 1.12721E-01-4.53123E-01
 -1      6716 6.20764E+00-2.51191E-01-7.25285E-02 2.65119E-01 2.00510E-01-7.16233E-01
 -1      6717 2.28021E+00-2.52640E-01-6.34722E-01-2.27076E-01 1.13351E-01-3.32766E-01
 -1      6718 2.25333E+00-5.49017E-02-8.07293E-02 1.26315E-01 3.89121E-02-1.62136E-01
 -1      6719 2.19433E+00 1.22974E-01 1.78147E-01-1.73675E-01 4.95947E-02-3.25782E-01
 -1      6720 6.97790E-01 4.79272E-02 3.25689E-01 7.69870E-02-1.93010E-02-2.09127E-01
 -1      6721 1.82376E+00-4.21366E-02 9.34698E-02-7.43775E-02 1.07180E-01-5.01388E-01
 -1      6722 3.90052E-01-8.50365E-02-4.73092E-01-3.11632E-02 4.13796E-02-8.71668E-02
 -1      6723 3.61732E-01 3.33154E-01 2.27356E-01 1.41541E-02 1.65558E-01-5.94027E-01
 -1      6724-8.62068E-01 1.26921E-02-5.94735E-02-1.67796E-01 2.16122E-01-6.30311E-01
 -1      6725-1.14790E+00-1.28711E-01-9.20400E-01 2.46220E-01-4.19563E-02-6.61473E-01
 -1      6726-1.53125E+00 5.66650E-01 1.05564E+00-5.91100E-01-3.15260E-04 6.28868E-02
 -1      6727-3.68920E+00 8.95021E-01 5.74844E-01-2.64655E-01 1.74842E-01 4.10635E-02
 -1      6728-1.67235E+00 6.17661E-01 2.11293E-01 3.83481E-01 7.98087E-02-6.13461E-02
 -1      6729-2.66934E+00 1.35584E-01 4.26480E-01 4.84232E-01-1.21739E-01-1.77365E-01
 -1      6730-2.78605E+00-2.59044E-01-3.65959E-01-4.23753E-01-1.01788E-01 1.52749E-01
 -1      6731-1.65646E+00 8.54342E-02 8.50131E-02-2.04759E-01-2.75533E-02 1.67634E-01
 -1      6732 1.33618E-01 2.92317E-01-8.38744E-03-1.55160E-01-2.80160E-01 4.12493E-01
 -1      6733-3.34084E-01 4.40101E-02 4.66204E-01-1.19161E-02-2.96044E-02 1.89685E-01
 -1      6734 9.03279E-01 3.60728E-01 4.68359E-01-1.04608E-01-1.79506E-02 1.05155E-01
 -1      6735 2.71493E-01-3.31598E-01-2.05677E-01-1.04720E-02 9.45603E-02 6.39623E-01
 -1      6736 3.50747E+00-1.73283E-01-7.83771E-02-1.19354E-01-1.17578E-01 5.95909E-01
 -1      6737 1.97390E+00-2.74369E-01-8.94509E-01 5.11426E-01 9.46952E-02 9.56654E-02
 -1      6738 5.18391E+00-3.42987E-01 1.72039E+00 3.75768E-01-4.69919E-01-4.95749E-01
 -1      6739 2.14411E+00-1.34152E-01 1.11195E-02-4.21446E-01-7.64182E-02 2.63961E-01
 -1      6740 5.38072E+00 1.46143E+00 1.04051E+00 6.95404E-01 6.33293E-01-2.79945E-03
 -1      6741 6.85117E+00 1.06380E+00 6.48282E-01 7.09955E-01 9.68481E-01-3.81251E-01
 -1      6742 0.00000E+00 0.00000E+00 0.00000E+00 0.00000E+00 0.00000E+00 0.00000E+00
 -1      6743 3.44026E+00 3.50771E-01 3.80150E-01 3.31535E-01 6.68993E-03-6.09325E-01
 -1      6744 1.57313E+00-2.13898E+00-1.65665E+00 8.68326E-01-6.38007E-01-1.06243E+00
 -1      6745 7.51388E+00 3.25852E-01 1.04522E-01 1.38127E-01 6.24481E-01-6.01254E-01
 -1      6746 2.74542E+00 5.67349E-01 6.80881E-01 1.49976E-01-2.20409E-01-2.36304E-01
 -1      6747 1.10068E+00-1.10555E-01-5.39356E-01-8.05586E-02 1.23965E-01-2.21721E-01
 -1      6748-7.85883E-01-1.30305E-01-8.13247E-02-3.09292E-01 2.94243E-01-4.20599E-01
 -1      6749-1.26017E+00-4.02353E-03 3.92791E-01-2.45777E-01-9.40330E-02-1.84719E-02
 -1      6750-2.86992E+00-2.45145E-01-2.24178E-01 9.34368E-02 1.16785E-01-3.94256E-01
 -1      6751-9.81784E-01 2.42728E-01 6.75093E-01 3.02785E-02-8.47160E-02 4.64317E-02
 -1      6752-1.78866E-01 4.89246E-02-2.05670E-01 8.99216E-03-1.45143E-02 3.74759E-01
 -1      6753 1.90278E-01-3.70626E-01-1.39342E-01 4.65489E-02 3.02661E-02 6.21943E-01
 -1      6754 4.20900E-01 2.12307E-01 4.43095E-01-4.83258E-02-6.22175E-02 2.12266E-01
 -1      6755 1.20218E+00-1.76805E-01-6.25502E-01 2.61746E-01 1.09668E-01 7.18139E-02
 -1      6756 1.15197E+00-1.23748E-01 2.47003E-01 8.49639E-02-2.70029E-01 5.78226E-02
 -1      6757 0.00000E+00 0.00000E+00 0.00000E+00 0.00000E+00 0.00000E+00 0.00000E+00
 -1      6758 0.00000E+00 0.00000E+00 0.00000E+00 0.00000E+00 0.00000E+00 0.00000E+00
 -1      6759 6.84487E+00 7.19835E-01 8.40599E-01 1.12201E-01-6.43804E-01 1.33763E-01
 -1      6760 2.83763E+00-3.70677E-02-1.77743E-01 5.71555E-01-5.38090E-01-8.16178E-01
 -1      6761 5.66331E-01 4.71282E-03 3.89624E-02 5.73359E-02-1.97793E-01-2.85350E-01
 -1      6762-6.97289E-01-1.08567E-01-2.73608E-01-6.74101E-02 1.28323E-01-4.84373E-01
 -1      6763-6.25851E-01 1.61178E-01-3.28114E-01 2.14979E-01 6.04560E-01-1.46327E-01
 -1      6764-3.61412E+00 7.74061E-01 2.46465E-01-3.46808E-01 1.57042E-01 1.58331E-01
 -1      6765-2.03640E+00 7.81984E-01 7.35973E-01-1.98522E-01 4.17837E-01 1.11873E+00
 -1      6766-1.61632E+00 1.81198E-01 1.14248E-01-2.48033E-03 4.77444E-01 2.07335E-01
 -1      6767-3.64149E-01 1.33095E-01 2.78764E-01-3.63241E-02 1.32578E-01 2.84558E-01
 -1      6768-5.93286E-01 5.91618E-02 7.12858E-02-8.47537E-02 1.61093E-01 3.02347E-01
 -1      6769-1.68204E+00-2.58550E-01-1.63938E-01-1.11915E-03-1.01505E-01 5.21645E-01
 -1      6770 1.54347E+00 6.54815E-02 3.36494E-01-4.64028E-02-4.42109E-02 8.27553E-01
 -1      6771 6.18643E-01-1.61984E-01 2.01758E-01-1.21027E-01-6.56539E-01 1.60037E-01
 -1      6772 0.00000E+00 0.00000E+00 0.00000E+00 0.00000E+00 0.00000E+00 0.00000E+00
 -1      6773-3.48787E-01-8.99773E-01-2.75429E-01 4.86612E-01-4.31312E-01-2.01827E-01
 -1      6774-5.17600E-02-5.63365E-01-1.95688E-01 4.44050E-01-2.67683E-01-1.25681E-01
 -1      6775 2.17777E+00 2.32416E-01-1.43957E-01 5.92107E-01-6.66288E-02-1.31754E-01
 -1      6776 2.19146E-01 6.98289E-02-3.73169E-01 9.16810E-02-1.81219E-01 5.25089E-02
 -1      6777 1.98115E-01-1.29184E-01-4.92388E-02 1.71427E-01-1.07069E-01-7.87832E-02
 -1      6778 2.78211E-01-9.29235E-02-5.79897E-02 1.30129E-01-5.61089E-02-3.35921E-02
 -1      6779-2.13458E-02-1.94513E-02 7.19540E-03 1.49685E-02-1.16144E-02 3.37257E-02
 -1      6780 5.87579E-02 1.56706E-01-1.07350E-02-8.01314E-03-5.76895E-02 6.65371E-02
 -1      6781 8.66038E-03-7.20516E-02 2.79922E-02-4.61107E-02 5.90927E-02 6.58138E-02
 -1      6782-5.41296E-01 1.08359E-01 2.39739E-01 1.81009E-02 7.44660E-02-2.83234E-01
 -1      6783 5.56566E-02-2.67317E-01 5.39771E-02-4.72962E-02 3.47034E-02-9.37657E-02
 -1      6784-2.79915E-01-5.71909E-01-2.43735E-01-3.09242E-02 1.32882E-01-2.16523E-01
 -1      6785-5.40261E-02-1.32206E-01-4.63402E-02 5.18924E-02 2.44347E-01-5.51109E-02
 -1      6786-5.67755E-02 5.72987E-01 4.90937E-01 3.46847E-02 5.65781E-02 2.30069E-02
 -1      6787-1.86038E-01 1.28447E-01 4.14946E-01-2.56336E-02 8.50064E-02 3.52131E-03
 -1      6788 1.30172E-01 3.78784E-01 3.59980E-01-1.47408E-01-5.13530E-02 2.86212E-02
 -1      6789-2.03522E-01 6.83852E-02 3.41193E-01-8.63612E-02 5.99920E-02-3.72118E-02
 -1      6790 2.79743E-01 3.03968E-01 2.41773E-01 8.61418E-02-9.56281E-03-9.10803E-02
 -1      6791 9.91631E-02-4.54878E-02 1.02325E-01 2.54961E-02 6.57397E-02-3.64887E-02
 -1      6792 4.89772E-02-2.10224E-02 1.57993E-01-6.97845E-02 1.31240E-01 5.39310E-03
 -1      6793 6.20665E-02-1.21967E-01-1.52471E-02-1.03938E-01 1.37557E-01-1.51617E-02
 -1      6794-1.85054E-01 1.63958E-01 2.59386E-01-1.22264E-01 4.78998E-02 1.08389E-01
 -1      6795-9.21897E-02 5.88159E-02 8.47127E-02-5.85839E-02 1.78071E-02 1.00407E-01
 -1      6796-7.66801E-02 1.16127E-01 8.09784E-02-6.62531E-02-2.20884E-02 1.30132E-01
 -1      6797 3.35657E-02 4.15492E-02-1.58985E-02-8.38146E-02-1.26106E-02 1.14954E-02
 -1      6798-5.07415E-06 8.26020E-02 2.83103E-04-1.24687E-01 4.15908E-03 1.71289E-02
 -1      6799 6.93763E-02 1.90327E-01 2.54066E-03-1.07623E-01-6.75603E-02-6.55851E-03
 -1      6800-6.54369E-02 1.61628E-03-8.54313E-02-1.18658E-01-5.90788E-02-4.58673E-02
 -1      6801 3.72654E-01 2.39991E-01-4.70976E-01-4.02563E-02 7.46297E-02-2.55006E-02
 -1      6802 2.96837E-02 4.66673E-01-6.62859E-02 2.84501E-03-1.98297E-02-3.32352E-02
 -1      6803 3.01796E-02 3.54195E-01-1.90087E-01 1.09959E-02 2.37025E-02-1.16485E-01
 -1      6804-1.40551E-01-9.42410E-01-2.65178E-01-6.65829E-02-2.59213E-01-8.72232E-02
 -1      6805 5.48861E-01-7.46141E-01-6.61184E-01 6.61353E-02-3.03469E-01 8.44003E-02
 -1      6806 0.00000E+00 0.00000E+00 0.00000E+00 0.00000E+00 0.00000E+00 0.00000E+00
 -1      6807 0.00000E+00 0.00000E+00 0.00000E+00 0.00000E+00 0.00000E+00 0.00000E+00
 -1      6808 4.37697E-02-2.88970E-01-1.36441E-02 4.14318E-01-2.97887E-01-1.14471E-01
 -1      6809 2.21659E-01-5.56001E-02 2.37935E-01 3.30742E-01-4.63369E-01-2.62686E-01
 -1      6810 7.59960E-04-2.01776E-01-3.60600E-01-1.18954E-01-5.63478E-02-1.13034E-01
 -1      6811 1.04696E-01 2.02867E-01 8.18872E-02-8.47735E-02 2.38697E-02-1.23945E-01
 -1      6812 1.07840E-01-3.51318E-04 3.59506E-03 1.13200E-01-1.31270E-01 1.15360E-03
 -1      6813-3.08479E-02-1.16742E-01-9.82930E-02 2.43943E-02-6.31029E-02-9.82683E-03
 -1      6814-7.35671E-02-9.32870E-02-2.61867E-02-4.58016E-02-3.28435E-02 3.17402E-02
 -1      6815-1.67481E-03-3.48431E-02 1.63169E-02-5.58329E-02-6.81328E-02 3.65521E-02
 -1      6816-3.35097E-02-4.54989E-02-1.42828E-01-5.71046E-02-1.30649E-02-8.59495E-02
 -1      6817 1.53474E-01 6.45268E-02-1.97447E-02-8.18184E-02 6.18637E-03-5.54053E-03
 -1      6818 2.80023E-02 5.14055E-02-6.90323E-02 1.33353E-01 2.45382E-02-2.93061E-02
 -1      6819-4.92771E-03-1.36497E-01 6.97040E-02 4.21380E-02-3.29836E-02 1.43690E-02
 -1      6820-7.83826E-02-8.52792E-02-1.50647E-02-5.42507E-02-6.93624E-02-3.53190E-02
 -1      6821-2.89990E-01-3.12890E-01-5.61417E-02 1.12143E-01-2.56607E-02 1.04665E-01
 -1      6822-9.30991E-02 2.25384E-02 1.43171E-01 3.70791E-02 1.96650E-01-4.34781E-02
 -1      6823-2.24279E-01 8.10403E-02 2.58398E-01-3.38601E-02-7.64868E-02 4.17935E-02
 -1      6824-4.93155E-01 3.21061E-01 4.57085E-01 1.77700E-01 1.80067E-02-8.97748E-02
 -1      6825 5.21897E-02-6.04857E-01-2.41400E-02-2.81807E-02 1.55481E-02 3.54428E-02
 -1      6826-5.64286E-01-8.53244E-04 6.71881E-03-8.00075E-02 2.46532E-01 1.75077E-01
 -1      6827-6.76259E-02-1.40935E-01-1.46778E-01-3.33540E-03 1.28460E-01 3.05563E-03
 -1      6828 7.93526E-03-2.49543E-01 3.34874E-02 6.33175E-02 1.27224E-02 7.63537E-02
 -1      6829-2.45279E-01 7.83454E-03 7.72710E-02 1.91737E-02 1.36549E-01 1.14915E-01
 -1      6830 8.84979E-02 1.76008E-01 1.98381E-01 3.73586E-03 2.59312E-02-4.76193E-04
 -1      6831-2.86081E-02-2.08056E-01 3.77342E-03 2.79644E-02 3.50599E-02-2.12415E-02
 -1      6832-4.98261E-02-1.76106E-01-1.12754E-02-1.81125E-02 1.02749E-01-6.16254E-02
 -1      6833-7.94738E-02-4.44219E-01-6.00765E-02 1.08775E-01 2.17648E-02 6.96874E-02
 -1      6834-1.26448E-01-4.56714E-01-2.65571E-02 7.18110E-02-4.54976E-02 3.04575E-02
 -1      6835-2.40774E-02-3.02944E-01 6.29342E-02 1.08900E-01-2.11151E-02 1.28874E-01
 -1      6836-9.31951E-04-7.23901E-02-3.47497E-03-5.21703E-02-5.99306E-02-3.29407E-02
 -1      6837 1.26471E-01 5.06070E-02 4.35469E-02-2.94451E-02-1.48613E-01-6.98435E-02
 -1      6838 4.81085E-02-2.41286E-02 1.17695E-01-6.15184E-02-5.62748E-02-7.19013E-02
 -1      6839-5.54017E-02 1.70457E-01 4.74187E-02 3.64549E-02-6.46671E-02 2.20904E-02
 -1      6840-6.52329E-02 7.49219E-02-4.14449E-02 2.37345E-02-3.92907E-02 3.92735E-02
 -1      6841-5.53352E-02-2.05639E-01-1.06656E-01 4.06813E-02-3.78575E-02-2.57405E-02
 -1      6842 4.30399E-02 8.83679E-02 1.11473E-01-1.47924E-02-2.40939E-02 4.87410E-02
 -1      6843 4.13853E-02 5.06677E-02 1.88194E-03-8.29539E-02 5.43325E-03 3.86054E-03
 -1      6844 3.01578E-01 2.12661E-01 2.15133E-01-2.81905E-01-4.94231E-02-7.61063E-03
 -1      6845-4.32774E-02-8.59367E-02-1.16984E-02-1.46230E-01-3.44295E-03-1.60652E-02
 -1      6846-1.41215E-01-1.47178E-01-1.10988E-01-1.45730E-01-3.68560E-02-3.08333E-02
 -1      6847-4.89743E-02-5.62497E-02 1.44661E-02-1.13348E-01-1.65008E-02 9.40563E-03
 -1      6848 1.99235E-01 2.02100E-01-8.85354E-02-1.49035E-01-4.90350E-02 9.44750E-03
 -1      6849-6.68152E-02 1.80069E-02-1.06760E-01-1.89871E-02-8.60755E-03 6.49181E-04
 -1      6850-2.18343E-02 4.10204E-02-3.70675E-02-7.34780E-03 2.57439E-02 1.08617E-02
 -1      6851 5.61642E-02 1.50727E-01-7.48956E-03-4.04298E-02 2.04199E-02 2.43477E-02
 -1      6852 2.93126E-01 5.33275E-02 1.49349E-02-1.86570E-02-1.51538E-01-6.03969E-02
 -1      6853 1.72443E-02 8.08154E-02-7.20642E-02-3.51316E-02-3.36116E-02-8.96020E-02
 -1      6854 2.08662E-02 2.54043E-01-3.60967E-02-5.73161E-02-4.91263E-02-1.01818E-02
 -1      6855 1.23988E-01 1.47054E-01-5.12569E-02-8.20580E-02-7.55564E-02-2.83353E-02
 -1      6856-5.50135E-02 4.50921E-01-8.56994E-02 4.07020E-02-9.29111E-03 9.72828E-03
 -1      6857-1.22194E-01 1.05185E-02-1.33225E-01-3.72590E-02-1.37062E-01-1.53497E-01
 -1      6858 5.69920E-02 3.20630E-01 6.94601E-02 6.11288E-02-7.20487E-02-6.17855E-02
 -1      6859 6.38560E-02-7.93650E-02-2.04211E-01-1.53206E-02-8.75941E-02-1.76538E-01
 -1      6860 1.46269E-01-4.25055E-01 1.99523E-03 1.45186E-02-1.73450E-01-1.20733E-02
 -1      6861 2.31561E-01-4.31224E-01 3.38322E-02 3.60410E-02-1.47103E-01-3.19953E-02
 -1      6862 0.00000E+00 0.00000E+00 0.00000E+00 0.00000E+00 0.00000E+00 0.00000E+00
 -1      6863 0.00000E+00 0.00000E+00 0.00000E+00 0.00000E+00 0.00000E+00 0.00000E+00
 -1      6864-1.83164E-01-2.61370E-01-2.77674E-01 1.31301E-01-1.73171E-01 6.88586E-03
 -1      6865-5.83922E-02 1.84744E-01-1.88439E-01 2.83307E-02-4.06929E-03 6.84194E-02
 -1      6866-3.14153E-02-4.10905E-02-6.62811E-02-1.10489E-01 6.92201E-03 1.32250E-02
 -1      6867-8.36475E-02-1.00584E-02-2.93219E-02 1.49900E-02-3.46522E-02 2.54920E-02
 -1      6868-4.35393E-05-3.19719E-02-1.77470E-02 3.22139E-03-2.48921E-02 1.08746E-02
 -1      6869-7.83177E-02 1.44199E-02-3.05841E-02-1.07704E-02-5.96659E-03 1.62122E-02
 -1      6870-1.34653E-01-1.14464E-01-6.19468E-03-1.07234E-01-2.17213E-02 7.63095E-02
 -1      6871-9.97334E-02-3.44552E-01 1.15099E-02-8.17353E-02-2.61010E-02 8.54961E-02
 -1      6872 5.31903E-02-1.03111E-02 1.24427E-01-4.58267E-03-5.32950E-02-8.04336E-02
 -1      6873 4.74774E-02-5.19075E-02 7.91351E-02 2.80840E-02-8.59874E-02-7.73764E-02
 -1      6874 4.31533E-02 1.01493E-01 1.02862E-01-1.70595E-02-3.98234E-02 6.58590E-03
 -1      6875 1.54111E-02 2.28935E-02-1.48085E-02-5.79416E-02 2.36426E-02-1.01072E-02
 -1      6876 4.90871E-03 1.78380E-02 9.47434E-03-5.12387E-02 2.61199E-03-5.58030E-03
 -1      6877-2.29442E-01-1.36205E-01-3.17013E-02-6.25302E-02 3.69113E-02-1.61996E-02
 -1      6878-2.33781E-02 1.03204E-01-6.25508E-02-9.14999E-02-1.33091E-02-3.66236E-02
 -1      6879 1.21930E-02 1.53361E-01-4.73181E-02-2.14481E-02 6.75776E-02-4.93417E-02
 -1      6880 8.68503E-02 1.27624E-02-1.28617E-01 1.10793E-02 1.41986E-01-1.55454E-02
 -1      6881 2.82730E-01 3.05378E-01-6.96589E-02 8.38095E-02 2.79036E-02-3.44149E-02
 -1      6882 0.00000E+00 0.00000E+00 0.00000E+00 0.00000E+00 0.00000E+00 0.00000E+00
 -1      6883 8.17243E-01-1.91965E-01-2.02228E-01 3.98985E-01-2.30000E-01-1.84903E-01
 -1      6884 1.60490E-01-8.05672E-02 3.48275E-02-1.34710E-01 1.19076E-01-2.77958E-01
 -1      6885 1.79559E-01 6.46622E-02-1.73929E-01-1.43960E-01-4.17783E-02-1.13519E-01
 -1      6886 9.33172E-03 1.48136E-01-1.92107E-02-6.72753E-02-4.44261E-02 1.75974E-02
 -1      6887-5.99691E-02 1.56366E-01-2.02074E-02-7.45443E-02-1.55700E-02 2.93105E-02
 -1      6888-2.44878E-02-4.21832E-01-1.84892E-02 1.09615E-02-4.73847E-02-5.17559E-02
 -1      6889-1.31844E-01-3.66251E-01-3.34066E-03 7.71551E-02-7.08082E-02 1.24916E-01
 -1      6890-2.61989E-01-1.71831E-01 1.43042E-01 3.99686E-02 4.97077E-02 1.28771E-01
 -1      6891-3.00244E-01-2.33550E-01-3.12930E-02-1.80011E-01 2.66285E-02-7.96781E-02
 -1      6892-4.18524E-02-9.87660E-02-1.41080E-01-2.85414E-02-1.88342E-01-6.23132E-02
 -1      6893 3.43351E-02-2.10804E-01-1.19688E-01-2.25923E-03-1.70363E-01-7.99437E-02
 -1      6894-1.05169E-01-3.52827E-01-3.26919E-02-4.77491E-02-8.25903E-02-8.35483E-02
 -1      6895 1.70784E-02-2.18975E-01-6.29483E-02-2.59683E-02 1.31532E-01 1.13585E-02
 -1      6896-1.46138E-02-2.04920E-01-8.20479E-02 4.01637E-02 3.26335E-02 1.34068E-01
 -1      6897-5.33906E-01-2.46266E-01-2.63966E-01 2.21717E-01-3.87754E-02 1.80041E-01
 -1      6898-4.15219E-02-3.16626E-02 1.23017E-02 2.81948E-02 3.18180E-02-2.08007E-02
 -1      6899 7.11283E-02 1.88525E-02 1.06377E-01 2.47880E-02 4.12362E-02-2.92619E-04
 -1      6900 1.27892E-01 6.38777E-02 1.85128E-01 2.49321E-02-3.47718E-03 7.63973E-02
 -1      6901 4.77509E-02 7.86190E-02 3.51392E-02-5.62491E-03 3.46535E-02 3.61020E-03
 -1      6902-1.17166E-01 6.50878E-02-8.22513E-02-1.52481E-01 1.04899E-01-6.95973E-02
 -1      6903 1.87884E-01-1.11824E-01-3.09786E-01-1.09899E-01 4.97264E-02-8.22494E-02
 -1      6904 3.29688E-01-2.33911E-01-5.40271E-02 2.06199E-01-1.07253E-01 7.33080E-02
 -1      6905 0.00000E+00 0.00000E+00 0.00000E+00 0.00000E+00 0.00000E+00 0.00000E+00
 -1      6906 3.72131E-01-1.18578E-01 2.15421E-02 3.72945E-01-2.32489E-01-2.26172E-01
 -1      6907 2.60276E-02 1.73767E-01 1.44812E-01-9.16109E-02 8.83934E-02-1.22592E-01
 -1      6908 1.12891E-01 2.98424E-01-1.35214E-01 6.77789E-02 9.76371E-02 5.94421E-02
 -1      6909-6.21193E-02 1.44348E-01 1.31472E-01-2.27123E-01-9.80348E-02 4.59818E-02
 -1      6910-3.98522E-01-2.96380E-01-3.54973E-01-1.20359E-01-8.13135E-02-1.41642E-01
 -1      6911-8.52725E-01-1.09242E-01 6.12177E-02-4.15843E-01-1.42232E-01-2.92014E-01
 -1      6912-2.15271E-01-4.95614E-01-2.07102E-01-1.77849E-01-1.45028E-01-1.25628E-01
 -1      6913-4.45905E-01 3.55575E-01 3.92597E-01-1.31045E-01 3.69754E-02-6.38658E-03
 -1      6914-3.50387E-01-7.89115E-01-1.79319E-01 1.63495E-01-1.54203E-01 2.01513E-01
 -1      6915-7.82537E-01-1.73236E-01 1.22054E-01 2.86113E-01-6.90787E-02 3.94279E-01
 -1      6916-5.88364E-01 1.22692E-01 2.86522E-01-1.29494E-01 9.48301E-02-1.62410E-02
 -1      6917-6.55386E-01 7.62998E-02 1.07631E-01 9.23345E-02 4.46344E-02 1.86172E-01
 -1      6918-4.98557E-03-2.94081E-01-3.69259E-01 5.40199E-02 2.63455E-02 8.69130E-02
 -1      6919 7.60003E-01-1.08602E-01-1.24958E-01 1.94639E-02 3.82724E-02 2.61490E-02
 -1      6920 1.29145E-01 1.07602E-01 1.06201E-01 7.04840E-02 5.23227E-02-1.72805E-02
 -1      6921 2.41917E-01 4.57968E-01 2.48103E-01 1.75065E-01 1.86020E-01 1.55752E-01
 -1      6922 7.21929E-01-4.34654E-01-5.27223E-01 6.16412E-01 1.53887E-01 3.56247E-01
 -1      6923 0.00000E+00 0.00000E+00 0.00000E+00 0.00000E+00 0.00000E+00 0.00000E+00
 -1      6924 0.00000E+00 0.00000E+00 0.00000E+00 0.00000E+00 0.00000E+00 0.00000E+00
 -1      6925 3.85530E+00 1.77131E+00 2.87649E+00 6.42297E-02-3.15526E-01-1.07909E+00
 -1      6926 5.40616E+00 1.68917E+00 1.70028E+00 3.53440E-01-4.67850E-01-5.31541E-01
 -1      6927 2.88495E+00 4.65186E-01-2.90030E-04 1.04691E+00 3.67636E-01 2.02832E-01
 -1      6928 3.18486E+00-8.12489E-01 4.54562E-01-3.82583E-01 2.97166E-01-1.02591E+00
 -1      6929 2.49451E+00-6.54694E-01-3.88422E-01 3.52148E-02 3.54115E-01-1.09274E+00
 -1      6930 6.63262E+00-1.08105E-01 1.13132E+00-3.47219E-01-1.24136E-01-1.18574E+00
 -1      6931 1.24559E+00 2.33917E-01-4.80297E-01-1.24523E-01 5.35425E-01-6.62518E-01
 -1      6932-2.23533E+00 3.38381E-01 5.53889E-01-4.18751E-01-8.88142E-01-1.11712E+00
 -1      6933-3.82413E-01 1.37235E+00-1.20845E+00-1.52167E-02-4.82212E-01-2.81650E+00
 -1      6934-2.25578E+00 1.09957E+00-7.87680E-02 2.22432E-01-7.14206E-01-4.72308E-01
 -1      6935-8.66286E-01-3.29021E-01-8.75616E-02 1.55181E-01-9.66679E-02 2.63829E-01
 -1      6936-1.90288E+00 3.37096E-01 1.69334E+00-1.01563E+00-1.09889E+00-6.99029E-01
 -1      6937-4.29981E+00 5.91420E-01-6.91511E-01 5.76160E-01-4.00067E-01 1.20565E-01
 -1      6938-8.47724E+00-1.49571E+00-1.84173E+00 4.61602E-01-6.14350E-01 4.56196E-01
 -1      6939-2.30896E-01 7.53633E-01 1.28026E+00-6.80581E-01-1.00634E+00-9.14896E-01
 -1      6940-9.72477E-01 1.20347E+00 5.02456E-01-6.84004E-02-9.93875E-01 5.09757E-01
 -1      6941-2.00208E+00 4.78976E-01 4.72278E-01 9.17225E-02-8.07885E-01 7.27250E-01
 -1      6942-6.55825E+00-6.24579E-01-1.29488E+00-6.60394E-02-1.55226E-01 1.18033E+00
 -1      6943-1.99903E+00 4.07087E-01 1.68100E-01 2.65159E-01-2.32238E-01 5.28024E-01
 -1      6944 4.11827E-01-3.43781E-01-2.19657E+00 6.39973E-01 1.49144E+00-4.07115E-03
 -1      6945-4.26378E-01-1.42366E+00-1.88953E+00 3.91359E-01 1.29280E+00 9.70377E-01
 -1      6946 1.87275E+00-1.47781E+00-6.76598E-01 1.84956E-01 1.25762E+00-1.80864E-01
 -1      6947 3.71452E+00-1.48009E-01-4.85553E-02 2.31018E-01 1.76395E-01 2.97363E-01
 -1      6948 8.52621E-01 9.66321E-02 4.31147E-04-4.34113E-02 1.30059E-01-1.52883E-01
 -1      6949 0.00000E+00 0.00000E+00 0.00000E+00 0.00000E+00 0.00000E+00 0.00000E+00
 -1      6950 0.00000E+00 0.00000E+00 0.00000E+00 0.00000E+00 0.00000E+00 0.00000E+00
 -1      6951 5.05690E+00 2.95673E-01 4.73176E-01 1.09962E-01 7.07547E-01 1.52607E-01
 -1      6952 2.97384E+00 3.40461E-01 1.54857E-01 2.15924E-01 1.52157E-01 3.36865E-01
 -1      6953 2.57962E-01-4.00973E-01 2.98877E-01 7.36008E-02-7.66379E-02-6.79008E-03
 -1      6954 7.08625E-01-1.89010E-01-4.03474E-02-9.49639E-02 2.07957E-01-4.24427E-01
 -1      6955 8.63454E-01 9.17969E-02 3.31372E-01 9.17404E-02 1.85162E-01-3.48132E-01
 -1      6956 1.35957E+00 1.60955E-01 3.65338E-02-2.00961E-01 2.21462E-01-5.68837E-01
 -1      6957 2.18762E+00 2.20158E-01-1.92481E-02-7.81212E-02 1.33303E-01-3.98061E-01
 -1      6958-6.04322E-01-1.28396E-02-1.28811E-02 2.30171E-02-4.15887E-02-1.87799E-01
 -1      6959-1.20027E+00 5.73666E-01 4.62818E-01-3.80899E-01-4.87572E-01-5.69485E-01
 -1      6960-2.02774E+00 3.88123E-01 2.87575E-01-7.42284E-01-3.63447E-01-1.19242E+00
 -1      6961-2.84180E+00 4.66760E-02-4.21149E-01-5.50784E-02-2.40508E-01-4.17841E-01
 -1      6962-1.39951E+00 4.82047E-01 2.65914E-01 1.22378E-01-2.89358E-01-1.45511E-01
 -1      6963-6.92321E+00-1.18475E-01 2.07034E-01-8.64969E-02 8.49857E-02-5.96828E-01
 -1      6964-6.36601E+00 2.48802E-01 3.22054E-01-1.48001E-01-1.06915E-01-1.01108E+00
 -1      6965-6.03763E+00 3.51680E-02 1.72799E-01-6.87121E-01-4.70015E-01-9.05119E-01
 -1      6966-4.88739E+00 1.23826E+00 7.73096E-01-1.27982E-02-1.07372E-01 2.19618E-01
 -1      6967-1.60554E+00-2.52328E-01-6.15744E-01 2.99515E-01-2.57731E-01 1.16513E-01
 -1      6968-4.70444E+00-4.97333E-01-1.77050E-01-4.90960E-02 1.64413E-01 6.21729E-01
 -1      6969-8.70206E-01 5.94824E-02-3.06860E-01-7.06802E-02-6.27707E-02 5.41405E-01
 -1      6970-7.17692E-01-3.42978E-03 6.24733E-02 1.34107E-02 1.67408E-02 4.88620E-01
 -1      6971 7.19743E-02-3.57897E-01-1.78630E-01-1.32856E-03 2.03734E-01 3.33408E-01
 -1      6972-1.06655E-02-2.25061E-01-5.64491E-02-3.38118E-01 1.44356E-01 3.23041E-01
 -1      6973 5.68970E-01 1.05076E-01 3.64849E-01 1.38009E-01-3.93879E-02 2.45765E-01
 -1      6974 1.13149E+00 5.02176E-03-2.04920E-01 4.51355E-01 5.80869E-01 6.70998E-01
 -1      6975 4.12089E+00 1.27294E-01 3.19667E-01 6.23230E-02 9.54213E-02 1.00337E+00
 -1      6976 1.51588E+00-5.99349E-01-1.43669E-01 3.75764E-01 3.21945E-01 1.30262E+00
 -1      6977 2.22991E-02-4.71368E-01 2.80062E-01 3.65987E-01 4.50184E-01 2.79103E-01
 -1      6978 2.49136E+00-7.26184E-01-9.43833E-03 6.12527E-02 2.61764E-01 5.51607E-01
 -1      6979 7.31540E+00 7.66954E-01-6.32039E-02 1.74552E-01-5.49203E-02 5.08861E-01
 -1      6980-3.32819E-02 1.80398E-01-1.29713E-01 8.77677E-03 9.33446E-02-7.42872E-02
 -1      6981 3.55345E+00 6.61844E-01 1.18811E+00 1.88415E-01 7.85407E-02 9.55951E-01
 -1      6982 1.73513E-01 7.23871E-02-3.89642E-02 3.89829E-02-1.72371E-02-4.58333E-02
 -1      6983 0.00000E+00 0.00000E+00 0.00000E+00 0.00000E+00 0.00000E+00 0.00000E+00
 -1      6984 0.00000E+00 0.00000E+00 0.00000E+00 0.00000E+00 0.00000E+00 0.00000E+00
 -1      6985 3.02292E+00-1.50282E+00-1.00382E+00-4.28683E-01 6.77847E-01 5.55400E-01
 -1      6986 5.95487E+00-4.77110E-02-7.42891E-03-1.00517E-02-1.55590E-01-5.91595E-01
 -1      6987 1.70706E+00 5.84037E-02-8.16155E-02 3.93196E-02-1.39959E-01-2.99549E-01
 -1      6988 1.06377E+00 2.53588E-01 5.02844E-01-1.42045E-02-1.28521E-02-1.52780E-01
 -1      6989 1.64570E+00-7.65411E-02-5.59729E-02-9.25427E-02 7.39905E-02-5.70319E-01
 -1      6990 2.62956E+00 3.04362E-01-1.88590E-02-7.76133E-03-6.19090E-02-3.88712E-01
 -1      6991-9.37161E-01-3.94968E-01-5.38802E-01-1.41796E-02-5.96608E-02-3.33751E-01
 -1      6992-1.41682E+00 1.15962E-02 3.88341E-01 8.79514E-02 3.49518E-02-6.97965E-01
 -1      6993-1.96982E+00-5.08309E-02 6.51763E-01 1.58306E-01-1.56327E-02-3.86525E-01
 -1      6994-5.99837E-01-2.43329E-01-6.39851E-01-1.96026E-02 1.23357E-02-1.37421E-01
 -1      6995-1.07877E+00 1.88980E-02 4.60425E-01 1.26663E-01 3.22619E-02-1.92012E-01
 -1      6996-1.63517E+00 1.46725E-01 2.14395E-01-1.88839E-01-2.76137E-02-3.56110E-01
 -1      6997-1.97118E+00 2.26578E-01 7.84956E-01 2.26312E-01 5.19736E-02-1.56399E-01
 -1      6998-2.99085E+00 5.91230E-02-2.71495E-01-1.48120E-01-8.78493E-02-1.24669E-01
 -1      6999-1.96281E+00 5.10263E-01 7.45660E-01 1.25193E-01 1.48674E-01 2.58559E-01
 -1      7000-3.36257E+00-2.94911E-01-6.04502E-01-1.64077E-02 1.38312E-02-5.47969E-01
 -1      7001-3.73080E+00 2.12023E+00 6.46429E-01 1.65710E-01-1.58963E-01 4.95222E-01
 -1      7002-5.98000E+00 5.71716E-01-1.78272E+00 7.21364E-01-7.62745E-02 6.92189E-01
 -1      7003-4.38850E+00-6.96212E-01-1.02861E+00 4.38965E-02 7.02000E-02 1.33358E-01
 -1      7004-2.18995E+00 2.58921E-01-1.17195E-01 2.85266E-01 1.45019E-01 3.09086E-01
 -1      7005-6.76795E+00-8.82658E-01-7.00905E-01 2.21278E-01 1.19679E-01 5.93385E-01
 -1      7006-6.34266E-01 9.56696E-02-2.57551E-01 8.45696E-02-1.80624E-02 1.65966E-01
 -1      7007-1.82493E+00-4.10602E-01-1.49395E-01 1.51066E-04 5.18630E-02 7.26113E-01
 -1      7008 7.53061E-01 3.41420E-01 6.22660E-01 7.13960E-02 5.41287E-02 2.01005E-01
 -1      7009 1.73101E+00 8.20401E-02-1.42064E-01-4.94607E-02-1.62305E-01 6.52044E-01
 -1      7010 2.04911E+00 1.74413E-01-2.58804E-01-1.52532E-01-1.06798E-01 5.28701E-01
 -1      7011 1.21371E+00-6.16904E-01-7.41450E-01 3.09675E-02-2.18931E-01 3.04596E-01
 -1      7012 1.90915E+00 2.84611E-01 7.44772E-01 2.73304E-02-7.10780E-02 5.25134E-01
 -1      7013 1.40341E+00 2.74571E-01 9.12256E-01-1.16017E-01 2.53627E-01 8.25080E-01
 -1      7014 2.52687E+00-5.88653E-01-9.73250E-01-7.92178E-02-1.57994E-01 2.83968E-01
 -1      7015 0.00000E+00 0.00000E+00 0.00000E+00 0.00000E+00 0.00000E+00 0.00000E+00
 -1      7016 0.00000E+00 0.00000E+00 0.00000E+00 0.00000E+00 0.00000E+00 0.00000E+00
 -1      7017 0.00000E+00 0.00000E+00 0.00000E+00 0.00000E+00 0.00000E+00 0.00000E+00
 -1      7018 0.00000E+00 0.00000E+00 0.00000E+00 0.00000E+00 0.00000E+00 0.00000E+00
 -1      7019 0.00000E+00 0.00000E+00 0.00000E+00 0.00000E+00 0.00000E+00 0.00000E+00
 -1      7020 4.72927E+00 2.15594E+00 2.00558E+00-1.13190E-01-3.65557E-01-1.95632E-01
 -1      7021 6.01611E+00 6.96192E-01 1.37044E+00 3.29854E-01-6.85063E-01-2.24069E-01
 -1      7022 7.14998E+00 5.27038E-01 1.02206E+00 1.02196E+00-3.29643E-01-3.73008E-01
 -1      7023 1.81450E+00-3.70504E-01-9.53630E-02-8.48780E-02-8.75268E-02-2.07349E-01
 -1      7024 5.43352E+00-5.73634E-01 2.16171E+00-9.29705E-01 4.86754E-02-1.90660E+00
 -1      7025 3.55905E+00 7.73295E-01 8.63786E-01-5.63492E-03 4.04980E-02-3.75774E-01
 -1      7026 2.12240E+00-7.99291E-01-3.98966E-01 7.04022E-02-8.06689E-02-1.74912E-01
 -1      7027 9.45364E-01-9.61224E-01 1.60969E-02 3.79301E-01 4.37226E-01-8.14696E-02
 -1      7028 3.54055E+00-3.45009E-01 2.51420E-01 6.11587E-02-1.63195E-01-7.19896E-01
 -1      7029 1.62404E+00 1.19116E-01 4.73173E-01-8.44727E-02 7.11223E-02-4.77734E-01
 -1      7030-4.37022E-01 8.89135E-02 1.29770E-01 1.85794E-01 1.22003E-01-7.19208E-01
 -1      7031-2.94262E-01 1.71583E-01 1.47061E-01-1.61787E-02-1.15360E-01-5.72322E-01
 -1      7032-1.07278E+00-2.47235E-01 1.06755E-02 2.44567E-02 1.20236E-01-3.26405E-01
 -1      7033-2.32529E+00-4.56299E-01-8.15737E-01 3.24525E-02 1.07013E-02-3.48160E-01
 -1      7034-2.64173E+00 7.26902E-01-1.62471E-02-1.02538E-01 1.12789E-01-9.16260E-01
 -1      7035-1.33535E+00-9.06388E-03 2.99906E-01 1.21785E-01 1.60325E-01-3.31726E-01
 -1      7036-3.01046E+00 1.22499E+00-1.90517E-01 3.28643E-01-2.36623E-01-1.35479E+00
 -1      7037-6.22467E+00 7.76370E-01-2.41770E-01-4.65551E-02 2.54451E-01-5.61883E-01
 -1      7038-1.40586E+00 7.34633E-01 2.57591E-01-4.08438E-01 1.52707E-01-3.01321E-01
 -1      7039-1.60302E+00 8.83142E-01 1.42054E+00 3.50356E-01 4.68127E-01-1.48852E-01
 -1      7040-4.93814E+00 9.17213E-01-7.56566E-02-2.07457E-02-8.06751E-04-8.63017E-01
 -1      7041-5.82385E+00 8.30887E-01 1.50686E-01 1.63870E-01-1.93886E-02 7.27807E-01
 -1      7042-5.34783E+00-2.06973E-01-1.18325E+00 4.69893E-01-3.22002E-01 1.43201E+00
 -1      7043-3.20520E+00 1.89913E-01 1.23759E-01-1.29920E-01-3.14099E-02 4.69960E-01
 -1      7044-3.05250E+00 1.33602E-01-5.64508E-01-1.19366E-01 8.52555E-02 6.40432E-01
 -1      7045-8.87685E-01-1.02447E-01-4.50073E-02-5.57038E-02 2.64304E-02 2.75013E-01
 -1      7046-1.65707E+00-1.84030E-01-4.62431E-01 5.48057E-02-1.67039E-01 7.75167E-01
 -1      7047 1.04365E+00-1.92862E-01 3.58983E-03-1.38377E-02-3.99959E-02 6.95776E-01
 -1      7048 3.15163E+00-9.00117E-02 5.13042E-01 2.54653E-02 7.24556E-02 9.31449E-01
 -1      7049 1.08450E+00-1.24587E+00-2.74222E-01-8.06654E-02-9.90205E-02 2.45827E-01
 -1      7050 4.51280E+00-4.73767E-01-1.54841E-01 2.32215E-02 6.27704E-01 6.26431E-01
 -1      7051 4.89581E+00-1.95821E+00-6.64084E-01-4.55255E-01 6.17147E-02-1.33986E-01
 -1      7052 1.34301E+00-5.49148E-01-2.51903E-01 1.80888E-01-1.82493E-01 7.99244E-02
 -1      7053 2.05481E+00 8.95099E-02-3.93053E-01 3.12981E-02-2.63405E-01 2.49530E-01
 -1      7054 1.67851E+00-9.82053E-01-2.08558E+00-8.27558E-02-6.66861E-01 1.24157E-01
 -1      7055 5.92218E-01 2.32753E-01 3.49746E-01-5.92067E-03 2.85577E-02-1.14884E-01
 -1      7056 0.00000E+00 0.00000E+00 0.00000E+00 0.00000E+00 0.00000E+00 0.00000E+00
 -1      7057 0.00000E+00 0.00000E+00 0.00000E+00 0.00000E+00 0.00000E+00 0.00000E+00
 -1      7058 1.81586E+00-2.23065E-01-1.57604E-01 3.11393E-01-1.64484E-01 9.42900E-02
 -1      7059 1.51049E+00-2.21160E-01-2.02886E-01-9.58556E-02-3.58288E-01-3.99320E-01
 -1      7060 3.76705E+00 4.16378E-02-5.67467E-01 7.46335E-03-1.10185E-01 6.08838E-02
 -1      7061 6.93023E-01-2.18239E-01 3.37427E-01-5.08703E-02-3.23414E-01-4.41040E-01
 -1      7062 2.18369E+00 1.66447E-01 1.09532E-01-1.36754E-01 5.73128E-02-5.21350E-01
 -1      7063-9.16972E-01 1.42027E-01 4.52342E-01 1.04166E-01 2.33181E-02-7.30946E-01
 -1      7064-4.15446E-01-1.66285E-01-1.89614E-01 8.53477E-02 9.39029E-02-5.27934E-01
 -1      7065-4.60518E+00 1.75910E-02-4.14141E-02 9.05541E-02 1.15540E-01-7.01283E-01
 -1      7066-2.12783E+00 2.05838E-01-2.97627E-01 1.50482E-01 2.76094E-01 6.47563E-01
 -1      7067-1.46982E+00-1.30084E-01-5.81692E-01 7.01361E-02-4.29447E-02 8.05100E-01
 -1      7068-1.29575E+00-2.64178E-01 2.76618E-02-3.02369E-02-1.41569E-01 6.61489E-01
 -1      7069 7.23265E-01 1.59983E-01 2.36191E-01 7.60130E-03-1.73605E-02 6.15551E-01
 -1      7070 1.67950E+00-2.55223E-02-2.33557E-01-1.69607E-01-1.95707E-01 7.61199E-01
 -1      7071 4.64832E+00-1.33780E-01 2.66884E-01-3.67384E-01-9.81119E-02 1.10207E+00
 -1      7072 1.95222E+00-2.98339E-01-1.36705E+00 4.40157E-01-6.12592E-01-4.01898E-01
 -1      7073 1.76346E+00-4.45131E-02-5.27838E-01 1.65115E-01-1.99859E-01-2.04237E-01
 -1      7074 2.11325E+00-1.68139E-01-1.30468E-01-1.64168E-01-3.20693E-01-4.67180E-01
 -1      7075-1.04099E+00 9.11937E-02 9.76675E-01 6.64620E-02 1.96486E-01-2.99513E-01
 -1      7076-1.74551E+00 1.58373E-01 8.55427E-01 4.74918E-01 5.13435E-01-4.31577E-01
 -1      7077-1.72988E+00 4.33687E-01 1.35900E-01-3.39221E-01 8.87890E-02-2.30785E-01
 -1      7078-1.17260E+00 7.13323E-01 8.06420E-01-5.02194E-01 5.64717E-01 7.42024E-01
 -1      7079-1.59108E+00-1.62392E-01 8.89519E-02-1.02674E-01 2.66718E-01 1.69620E-01
 -1      7080-6.64439E-01-7.20293E-02 1.48784E-01-6.38078E-02-6.90406E-03 5.69424E-01
 -1      7081-3.13472E-01-2.01642E-01-4.58710E-01-1.35464E-01-2.10543E-01 4.12231E-01
 -1      7082 5.48347E-01-2.52990E-01-8.76978E-01-1.84712E-02-1.86949E-01 3.32389E-01
 -1      7083 1.59107E+00-3.14406E-01-1.05317E+00-1.69708E-01-4.03977E-01 2.78251E-01
 -1      7084 1.97500E+00-4.84849E-01-3.11875E-01 2.54701E-01-1.28912E-01 3.07282E-01
 -1      7085 2.89569E+00 6.01442E-01 8.67827E-01 2.88112E-01-1.46905E-01 4.86795E-01
 -1      7086 0.00000E+00 0.00000E+00 0.00000E+00 0.00000E+00 0.00000E+00 0.00000E+00
 -1      7087 1.36121E+00-2.64954E-01-9.73671E-01-1.16880E-01-4.08993E-01 1.49850E-01
 -1      7088 2.15340E+00 2.59864E-01 2.93654E-01 1.37853E-02-6.44370E-03-3.02990E-01
 -1      7089 5.33498E-01-1.67949E-01-5.90385E-02 8.03095E-03-8.01366E-02-3.06000E-01
 -1      7090-8.34006E-02-2.35643E-01-6.57661E-01 2.36347E-01-1.81789E-01-4.76028E-01
 -1      7091-3.31146E-01 8.65506E-02-6.53581E-02 1.35728E-01-2.05735E-02-8.39384E-02
 -1      7092-1.54554E+00 9.51654E-02 5.66388E-02 8.72921E-02 8.95029E-02-2.72917E-01
 -1      7093-1.24733E+00-8.78884E-02-4.84575E-01 1.26844E-01-1.04283E-01-5.67373E-01
 -1      7094-1.61933E+00 8.76160E-02-1.64978E-01-3.40211E-02 7.42631E-02-3.88141E-01
 -1      7095-1.68809E+00 2.98149E-01 1.03976E+00-8.80851E-02 6.57403E-01 1.24695E-01
 -1      7096-2.32011E+00 4.78067E-01 5.19823E-01 2.50160E-01 2.03566E-01 3.14559E-01
 -1      7097-2.07669E+00 2.47648E-01 2.85542E-01-1.31067E-01 9.95882E-02-8.79568E-02
 -1      7098-1.33460E+00 2.12642E-01 3.75901E-02 8.56167E-02 2.74930E-01 3.99490E-01
 -1      7099-1.30310E+00 1.63688E-01 1.30747E+00-1.10371E-01 5.23655E-01-4.66039E-02
 -1      7100-1.91988E+00-1.17028E-01 1.64004E-01-1.28550E-01 8.63533E-02 7.15194E-02
 -1      7101-1.64227E+00-1.44330E-01-4.69036E-02-1.18093E-01 2.17762E-02 2.33083E-01
 -1      7102-5.55497E-01-1.02128E-01-1.82684E-01-1.15510E-01-1.46178E-02 2.53008E-01
 -1      7103-4.35757E-01 1.05540E-01 6.96400E-02-8.53345E-02 3.40104E-02 3.60274E-01
 -1      7104-1.68060E-01-1.65812E-02 3.56360E-01-1.05196E-01 3.38398E-02 4.86640E-01
 -1      7105 5.38814E-01-1.95460E-02 1.97180E-01-2.83361E-02-3.17836E-02 1.27848E-01
 -1      7106 1.65310E+00-2.28177E-02 1.59781E-01-3.54759E-02-5.02628E-02 3.56165E-01
 -1      7107 1.51689E+00 1.80919E-01 6.53243E-01-1.19928E-01 3.37743E-03 6.60419E-01
 -1      7108 1.90081E+00 7.25303E-02 1.50161E-01 8.20145E-02-2.13806E-01 6.43589E-01
 -1      7109 1.68952E+00-7.61287E-01-7.78868E-01-3.57106E-01-4.89486E-01 4.40579E-01
 -1      7110 0.00000E+00 0.00000E+00 0.00000E+00 0.00000E+00 0.00000E+00 0.00000E+00
 -1      7111 2.82995E+00-4.66074E-01-7.68519E-01-2.48960E-03 1.49846E-01 5.90594E-02
 -1      7112 1.81137E+00-7.09289E-02-2.21232E-01-7.38326E-02-5.28801E-02 1.17695E-01
 -1      7113 8.18251E-01-2.02884E-02-2.32930E-01-1.43027E-01-7.22291E-03-1.42330E-01
 -1      7114-2.17929E-01-5.31658E-02 2.37947E-01-1.25065E-01-5.69677E-03-7.71106E-03
 -1      7115-3.94220E-01-3.60602E-02 6.55695E-03-3.28713E-02 2.56668E-02-1.01493E-02
 -1      7116-1.31588E+00-2.56043E-01-8.70373E-01-6.12579E-02 1.51118E-01-1.03451E+00
 -1      7117-5.74260E-01 8.26575E-02 4.07152E-01-7.02655E-02 4.34319E-02 8.86739E-03
 -1      7118-9.64506E-01-4.83090E-02 1.97613E-01-3.66414E-02 3.69139E-02 8.93283E-02
 -1      7119 3.02815E-01-6.01614E-02-1.09511E-01 7.65899E-02 8.29539E-03-7.24456E-02
 -1      7120 8.76900E-01-5.09048E-02-4.44349E-02-1.61579E-02 1.44162E-01 1.46267E-01
 -1      7121 2.00527E+00 1.20374E-02 3.50942E-01 2.55803E-01-5.43661E-02-1.87445E-01
 -1      7122 2.04580E+00-2.57810E-02-3.47289E-01-9.38202E-02 2.83898E-01 1.96082E-01
 -1      7123 2.80837E+00-3.55749E-01-5.23744E-01 3.22170E-01 2.34726E-01 4.11429E-01
 -1      7124 0.00000E+00 0.00000E+00 0.00000E+00 0.00000E+00 0.00000E+00 0.00000E+00
 -1      7125 0.00000E+00 0.00000E+00 0.00000E+00 0.00000E+00 0.00000E+00 0.00000E+00
 -1      7126 0.00000E+00 0.00000E+00 0.00000E+00 0.00000E+00 0.00000E+00 0.00000E+00
 -1      7127 0.00000E+00 0.00000E+00 0.00000E+00 0.00000E+00 0.00000E+00 0.00000E+00
 -1      7128 7.62434E+00 3.12273E-01 1.01393E+00 1.16693E-01 4.05406E-01-8.64678E-01
 -1      7129 2.65715E+00-1.46091E+00 1.46752E-01-4.51488E-01 5.05702E-01-2.27509E-01
 -1      7130 6.59181E+00 8.73210E-01 1.34776E+00-3.21855E-01-6.25005E-01-1.51548E+00
 -1      7131 2.87870E+00 3.86545E-01-2.31826E-01 5.21259E-02-3.45244E-01-7.13510E-01
 -1      7132 2.95743E-01-1.11709E-01-5.47668E-01-2.92735E-02 1.25271E-01-1.37966E-01
 -1      7133 8.22617E-01 4.47902E-02-1.87787E-01-4.94639E-02 8.93422E-02-1.55621E-01
 -1      7134 1.58341E+00-4.46805E-03 4.77268E-01-5.03980E-02 1.34632E-02-8.43647E-01
 -1      7135 1.11294E+00 4.27770E-02-2.41095E-01-9.80016E-03 1.55093E-01-1.47523E-01
 -1      7136 6.49090E-01-1.52849E-01 2.31140E-01 2.06623E-02 2.60908E-02-6.62121E-01
 -1      7137 5.82955E-01-3.33532E-02 1.23844E-01-5.27577E-02-1.76648E-01-6.07453E-01
 -1      7138-9.67655E-01-2.28829E-02-1.35605E-01 2.35923E-01-5.21950E-02-9.81327E-01
 -1      7139-2.16635E+00-2.39891E-01-1.64841E-01 1.32240E-01 7.28305E-02-1.02078E+00
 -1      7140-4.06614E+00 3.74093E-02-1.34631E-01 2.96141E-01 3.15646E-01-9.17010E-01
 -1      7141-6.73781E+00-6.49704E-02 3.82817E-01 4.26675E-02-3.97560E-01-9.47579E-01
 -1      7142-6.67996E+00-3.68224E-01-2.84917E-01 7.53130E-02-1.39971E-01-7.48356E-01
 -1      7143-2.74871E+00-5.02589E-01-1.91958E-01 1.36904E-01-1.61009E-01-7.31405E-02
 -1      7144-9.96987E+00-1.73020E-01-1.46394E+00-2.41754E-01-3.69456E-01 2.76918E-01
 -1      7145-1.10329E+01-8.51957E-01-7.11555E-01-3.55859E-01-2.79851E-01 7.37487E-01
 -1      7146-6.02920E+00-1.26773E-01-1.55338E+00-2.14997E-01 8.61558E-02 1.41206E+00
 -1      7147-7.46115E+00-6.10762E-01-4.73729E-01 3.53251E-01-2.27312E-01 5.43883E-01
 -1      7148-3.94589E+00-1.88894E-01 3.60863E-01-7.82671E-03-2.24812E-01 5.50033E-01
 -1      7149-6.92062E-01 3.64434E-03 3.39518E-01-2.46132E-02-2.34287E-02 5.16426E-01
 -1      7150-8.48902E-01-1.06452E-01-1.80398E-01-1.68607E-02 6.08744E-02 2.48205E-01
 -1      7151-9.12952E-01-1.55508E-02-6.09628E-02-1.41335E-01 1.69101E-01 7.85436E-01
 -1      7152 2.08517E+00 2.88525E-01 2.53672E-01 1.99325E-02-5.58461E-02 6.90910E-01
 -1      7153 3.82452E+00 4.19188E-01 7.94997E-01 8.28563E-02-1.08362E-01 6.10303E-01
 -1      7154 2.41416E+00-2.98476E-01-3.91275E-01-1.55453E-01 8.65346E-02 6.68526E-01
 -1      7155 8.83392E+00 1.12810E+00 1.79451E+00-2.04346E-01-3.11817E-02 1.11894E+00
 -1      7156 3.08335E+00 3.65639E-01 1.09536E-01-5.80903E-02 1.52921E-01-1.13792E-02
 -1      7157 5.08533E+00 1.59728E+00 8.21107E-01 5.53579E-01 1.19610E-01-9.09787E-01
 -1      7158 2.43053E+00 4.47385E-01 1.22156E+00-3.23485E-01 7.23536E-02-3.61891E-01
 -1      7159 6.68845E+00 3.75643E-01 1.17551E+00-6.89892E-02-2.83626E-01-6.80155E-01
 -1      7160 1.93015E+00 1.85616E-01 5.48259E-01 1.94355E-01 3.59995E-02-3.50598E-01
 -1      7161 2.64577E+00-1.17667E-01-8.00855E-03 8.22231E-02 1.21828E-01-6.37983E-01
 -1      7162 1.95941E+00 1.64645E-01-5.96440E-02 2.15239E-02 9.70083E-02-8.14714E-01
 -1      7163 9.61713E-02 9.78605E-02 9.46338E-02-5.69345E-02 2.55438E-02-1.20596E-01
 -1      7164-8.80347E+00-8.21313E-01-6.16835E-01-1.45175E-01 3.12132E-01-2.90891E-01
 -1      7165-3.72561E+00-4.94669E-02-1.08457E+00-2.70733E-01-1.11219E-01 6.05648E-01
 -1      7166-4.33627E+00-4.10247E-01 2.27087E-01-2.30597E-01-2.15360E-01-2.15851E-02
 -1      7167-2.88472E-01 8.08633E-02 6.89902E-01 2.81545E-03 5.06181E-02 2.14249E-01
 -1      7168 1.01286E+00 9.46102E-02 1.55227E-01 6.76297E-02 3.70115E-02 9.28416E-02
 -1      7169 4.91956E+00-9.61716E-01-6.90898E-02-2.69091E-01-2.75128E-02-6.95315E-01
 -1      7170 1.32036E+00-1.48570E-01-5.77836E-01-1.51214E-01 9.26664E-02 3.07648E-02
 -1      7171-1.07627E+00 1.86653E-01 5.48573E-01 9.72781E-02-1.25012E-01 2.14702E-01
 -1      7172-4.99276E-01-8.12915E-02-4.27013E-01-7.79338E-02 5.47810E-02 1.60268E-01
 -1      7173 8.48792E-01 2.05453E-01 3.80384E-01 1.31399E-03 1.38615E-02 1.18572E-01
 -1      7174 1.71742E+00-2.41549E-01-2.94508E-02-1.81230E-01 9.94250E-02 2.65157E-01
 -1      7175 1.59089E+00-4.24494E-01-8.61703E-01 2.85961E-01 1.44042E-01-1.71803E-02
 -1      7176 3.87024E+00 3.83530E-01 8.03303E-01-2.23845E-03-5.76280E-02 1.57077E-01
 -1      7177 2.91751E+00-1.74421E-01-4.32485E-01 3.51014E-01 1.99342E-01-1.81356E-01
 -1      7178 0.00000E+00 0.00000E+00 0.00000E+00 0.00000E+00 0.00000E+00 0.00000E+00
 -1      7179 6.25944E+00 1.70889E+00 1.84686E+00-9.58965E-01-2.16406E-01-1.81938E+00
 -1      7180 4.34336E+00 1.13853E+00 7.29331E-01 2.00107E-01-4.27275E-01-5.76224E-01
 -1      7181 2.56778E+00-3.29884E-01-2.46317E-01 2.63145E-01 2.33470E-01-3.15936E-01
 -1      7182 7.36906E+00 2.26295E-01-8.15374E-01 1.81153E-01 3.12461E-01-7.01691E-01
 -1      7183 1.36744E+00-1.62086E-01 1.93457E-01-1.63306E-02-9.42670E-02-8.28426E-01
 -1      7184 1.36733E+00 4.63051E-03-1.72199E-01 1.88691E-02 1.19887E-02-5.62089E-01
 -1      7185-1.09320E+00 4.48129E-02 4.28448E-01 6.27553E-03-1.14496E-01-5.45002E-01
 -1      7186-1.43556E+00-3.54302E-01-4.40109E-01-2.49197E-02 7.59810E-03 7.38407E-02
 -1      7187-3.93886E+00-2.30619E-01-5.05863E-01 9.93567E-02-1.38407E-01-8.17946E-01
 -1      7188-1.45479E+00 1.99730E-01-2.71887E-01 7.83928E-02-1.17840E-01-2.41166E-01
 -1      7189-7.07705E+00-2.53378E-01 7.68658E-02-2.26955E-01-3.37614E-01-7.49249E-01
 -1      7190-3.88926E+00 5.42358E-01-7.13296E-02-1.17273E+00 9.38326E-01-1.26455E+00
 -1      7191-7.16745E+00 4.13204E-01 5.89940E-01-8.75439E-01-2.32802E-01 7.35083E-01
 -1      7192-2.15582E+00 5.16418E-01 5.15755E-01-3.62400E-01-8.01118E-02 4.56740E-03
 -1      7193-3.66761E+00-2.13235E-01-3.77162E-01-1.65689E-01 8.28198E-02 6.72928E-01
 -1      7194-5.03643E+00-1.59703E-01-2.55493E-02-6.55000E-02-2.05703E-01 6.83433E-01
 -1      7195 2.52025E-01 2.50186E-01 6.85916E-01 2.52287E-01-1.06538E-01 4.93983E-01
 -1      7196 2.22038E+00-8.25115E-02-1.29764E-01 7.37830E-02 1.22846E-01 2.66245E-01
 -1      7197 9.53187E-01 2.10948E-02-3.25568E-01 1.57502E-01 1.94143E-02 6.48153E-02
 -1      7198 4.15172E+00-3.97608E-02 5.60476E-01-5.24454E-02 1.63147E-01 7.10701E-01
 -1      7199 1.37646E+00-3.37099E-01 2.95330E-01 2.69823E-01-1.59377E-01 6.95364E-01
 -1      7200 5.12339E+00-1.21823E+00-1.34688E+00-3.63896E-01 5.46041E-02 9.79198E-02
 -1      7201 8.17496E+00 1.54386E+00 1.00045E+00 6.99993E-01 2.06142E-01 2.22684E-01
 -1      7202 0.00000E+00 0.00000E+00 0.00000E+00 0.00000E+00 0.00000E+00 0.00000E+00
 -1      7203 4.77275E-02 2.19100E-01 6.90881E-02 1.55930E-01-2.46238E-01-2.13522E-01
 -1      7204 2.39854E+00 2.76870E-01 3.01587E-01 3.65514E-01-7.83700E-04-5.85542E-02
 -1      7205 2.83799E+00 3.35650E-01 2.37846E-01 1.61844E-01 6.43676E-02-6.07773E-04
 -1      7206 6.82721E-02 3.55474E-01-1.09068E-02 1.99396E-01-7.44130E-03-7.23217E-02
 -1      7207 2.97922E+00 1.47789E-01 2.06473E-01 7.80278E-02-3.71837E-02-2.03624E-01
 -1      7208 3.13742E+00-6.14802E-01-1.73503E-01-4.06800E-01 4.41627E-02-6.55595E-01
 -1      7209 1.23995E-01 1.37994E-01-1.63521E-01 3.58977E-02-6.41297E-02 3.98759E-02
 -1      7210-4.09509E-01 1.18825E-01-1.53700E-01-1.12219E-01 1.33324E-01-4.62570E-01
 -1      7211-4.06350E+00 3.09293E-01 3.81809E-01-3.42063E-01 4.12680E-03-8.47116E-01
 -1      7212-6.64560E-01-6.18410E-01-5.48318E-01 5.24797E-01 2.67926E-01 3.49832E-02
 -1      7213-1.06311E+00 5.07886E-01 7.66280E-01-3.57709E-01 7.17166E-02 5.96354E-02
 -1      7214-8.29978E+00-1.09218E+00-4.17834E-01 6.82586E-02 8.77480E-01-8.00214E-01
 -1      7215-3.08942E-02-3.10572E-01-2.24182E-02-8.26543E-02 1.97492E-01 1.97461E-01
 -1      7216-2.59708E+00-3.10143E-01-1.46062E-01 8.50818E-03-2.28349E-01-1.65596E-02
 -1      7217-4.72853E+00 7.03616E-01 7.24636E-01-2.06819E-01 2.06989E-02 4.41629E-01
 -1      7218-2.25121E+00-2.12194E-01-5.11323E-01-3.49578E-02 8.83234E-02-1.35697E-01
 -1      7219-4.64502E-01-1.12029E-01-2.22435E-01-1.57188E-01 1.06295E-01 1.01293E-01
 -1      7220-1.01526E+00 6.14993E-02 6.98190E-02 3.46041E-02 1.40393E-01-1.46801E-01
 -1      7221-1.20453E+00 2.25221E-01 5.25912E-02 4.12336E-02-1.04467E-01 3.20043E-01
 -1      7222-1.17593E+00 5.29194E-02 2.71011E-01-3.77627E-02-1.40263E-01 6.14578E-01
 -1      7223 1.71086E+00 9.00774E-02-1.15144E-01 6.77128E-02 4.38532E-02 6.32081E-01
 -1      7224 3.49392E-01-1.63989E-01-1.48221E-01-6.73685E-03 3.36882E-02-4.54651E-02
 -1      7225 1.55753E+00 1.78385E-01 3.72439E-01 2.77264E-02 3.63528E-02 1.11038E-01
 -1      7226-5.45968E-02 1.74595E-01 9.72774E-03 3.41521E-02-1.10659E-01 8.85731E-02
 -1      7227 2.11851E+00-1.03735E+00-1.68735E+00-4.16187E-01 2.53681E-02 4.14565E-01
 -1      7228 2.30166E-01-4.46894E-01-4.90660E-01 4.38550E-02-5.71945E-02-2.68922E-02
 -1      7229 6.63805E+00 1.05932E+00 1.31890E+00-1.49033E-01 1.88173E-02 6.69481E-01
 -1      7230 2.82684E+00 1.00268E-01-5.06696E-01 1.00776E+00-5.69797E-01-5.32529E-01
 -1      7231 7.67462E-01-3.45552E-01-2.44180E-01 6.48984E-01 2.81536E-01-1.93932E-01
 -1      7232 1.31584E+00-3.41907E-01-4.98913E-01 1.44743E-02 2.51532E-02 2.43514E-01
 -1      7233 2.72054E-01-5.24121E-01-3.92111E-01 4.65068E-02-4.14685E-02 2.11244E-01
 -1      7234 0.00000E+00 0.00000E+00 0.00000E+00 0.00000E+00 0.00000E+00 0.00000E+00
 -1      7235 0.00000E+00 0.00000E+00 0.00000E+00 0.00000E+00 0.00000E+00 0.00000E+00
 -1      7236 0.00000E+00 0.00000E+00 0.00000E+00 0.00000E+00 0.00000E+00 0.00000E+00
 -1      7237 8.59478E-01 2.37391E-01 1.37874E-01 2.42277E-01 5.13270E-02-4.35552E-02
 -1      7238 1.54631E+00 6.94411E-02 4.01052E-02 1.35939E-01-5.25812E-02 5.78728E-02
 -1      7239 9.27140E-01 8.44898E-02-1.42933E-01 2.83442E-01-1.14335E-01 5.66772E-02
 -1      7240 5.88241E-01-2.78880E-02 1.47847E-01-2.96863E-02 3.42639E-02-6.96527E-02
 -1      7241 4.24692E-02 2.42156E-02-4.65804E-03 3.07615E-02-1.47299E-02 3.80527E-02
 -1      7242-1.27717E-01 6.06775E-02 1.69677E-01-6.80543E-02-3.35417E-02 1.05401E-01
 -1      7243-3.02011E+00 1.38774E-01-1.26012E-01 2.23060E-01 2.67446E-02-2.34195E-01
 -1      7244-3.45450E-01 3.41804E-01 1.85601E-01 1.14702E-01-4.92033E-02 1.75893E-01
 -1      7245 2.42420E-02-2.28353E-01-2.31119E-01 4.19705E-02-5.37897E-02-1.35844E-02
 -1      7246-1.14396E-01-8.27822E-03 7.18336E-02-6.32426E-02-4.35759E-02-4.84893E-03
 -1      7247 7.65453E-02-2.64968E-01 2.30384E-02 1.06975E-01-1.41276E-01-5.60142E-02
 -1      7248-1.25499E-01 2.41697E-01 2.31957E-01 7.07839E-02-8.48560E-03 3.29696E-02
 -1      7249-2.83195E-02-8.76789E-02-2.75677E-02 6.65044E-02-9.30275E-03-3.33788E-02
 -1      7250 2.30425E-02 1.10089E-01 1.14950E-02 6.51643E-02-6.90740E-02-4.14289E-02
 -1      7251-7.93125E-02-5.99132E-01-5.80316E-01 1.08845E-02 9.52105E-02-2.70467E-02
 -1      7252 3.29139E-01-6.97045E-02-1.72323E-01 5.60912E-02-1.05622E-01-9.78337E-02
 -1      7253 2.03750E-01 1.71437E-01-2.11048E-01-1.62964E-02 5.04365E-02-3.15008E-02
 -1      7254-8.62242E-02 4.36278E-02-9.26805E-02-4.86737E-02-9.57058E-02 1.76884E-02
 -1      7255-5.46241E-02-9.75302E-02-3.47513E-02-1.07753E-01 7.45199E-03 1.18036E-02
 -1      7256-4.06184E-02-6.59211E-02 2.08062E-03-8.15878E-02 5.87171E-02-7.17580E-02
 -1      7257-3.26067E-01-6.97945E-02 8.34239E-02-4.01475E-02-3.48173E-02 7.84236E-02
 -1      7258-1.55417E-02 3.58278E-02 2.99437E-01-1.03594E-02 1.42525E-01-2.60727E-02
 -1      7259-4.05680E-01-1.30015E-01 7.01723E-02 1.35242E-01 1.53794E-01-4.59760E-02
 -1      7260-1.25408E+00 4.47130E-02 1.63585E-01 2.81005E-01-1.46217E-02 5.73838E-02
 -1      7261-4.97222E-01 3.95210E-02 1.09686E-01 6.88886E-02 9.23127E-02-1.15309E-01
 -1      7262 8.69237E-02 5.71066E-02 5.57428E-02 1.08641E-01 2.60564E-02-3.41500E-02
 -1      7263 1.97309E-01 9.82482E-02-1.41081E-01-1.38323E-02-1.58641E-02-4.94651E-02
 -1      7264 4.87303E-01 2.24262E-01 2.99630E-03-1.89410E-01-5.06784E-02 1.44663E-02
 -1      7265 0.00000E+00 0.00000E+00 0.00000E+00 0.00000E+00 0.00000E+00 0.00000E+00
 -1      7266 1.34631E+00-4.16911E-02-4.75819E-01 1.61324E-01-7.53015E-02-1.21210E-01
 -1      7267-1.64710E-02 1.91035E-01-1.05823E-01-1.70147E-01 8.79526E-03-3.63645E-02
 -1      7268 5.97420E-01-6.97841E-03 3.64312E-02-1.47057E-01 3.20923E-02 6.94640E-02
 -1      7269 1.59269E-01-1.96542E-01-1.14742E-01-7.06566E-02 3.97062E-02-9.55080E-03
 -1      7270-1.51929E-01 1.55542E-02 2.04698E-02-2.74584E-02-7.02928E-02 6.62125E-03
 -1      7271-3.06020E-02-7.26373E-02 1.06523E-01-4.49854E-02-2.67200E-02-9.51096E-02
 -1      7272-2.63695E-01-9.67417E-03 4.85389E-02-2.58003E-01-2.21430E-02 5.98065E-02
 -1      7273-6.58526E-01 5.88076E-01 5.62229E-01-2.74714E-01 2.57426E-01 4.22161E-02
 -1      7274-7.27391E-01 1.68036E-01 2.92018E-01-4.07558E-02 1.07248E-01-4.07171E-02
 -1      7275-1.54938E-02-1.95270E-02 2.64430E-02 1.48607E-01 3.55323E-02-1.16714E-01
 -1      7276 2.58519E-01 7.41050E-02 1.86504E-01 2.03412E-01 7.62188E-02 1.53315E-01
 -1      7277-2.77583E-03 8.63141E-02 4.58296E-02 7.08004E-02-3.76319E-02-2.67905E-02
 -1      7278 5.93816E-01 2.05529E-01 6.71680E-02 2.36478E-01-1.71487E-02 5.55971E-02
 -1      7279 3.49629E-01 9.07860E-02-5.64056E-02 3.00626E-01 1.59897E-01-5.38680E-02
 -1      7280 3.55326E-01-3.87235E-01-3.10707E-02 1.34699E-01 8.52080E-02 5.29249E-02
 -1      7281 0.00000E+00 0.00000E+00 0.00000E+00 0.00000E+00 0.00000E+00 0.00000E+00
 -1      7282 1.49856E+00 2.16508E-01-2.72428E-01-2.72840E-01-8.23912E-03 9.12477E-02
 -1      7283 3.94219E-02 2.84531E-01-3.58988E-02 1.63250E-02 2.41400E-01-1.17277E-01
 -1      7284 1.43111E-01 2.21312E-01 2.44985E-01-1.27302E-01-1.54784E-01-3.12899E-02
 -1      7285-7.82494E-01-1.36888E-01-2.26287E-01-2.05180E-01 2.88459E-02 6.72956E-02
 -1      7286 1.06071E-02 1.60833E-01 8.25679E-02-9.57558E-02-1.65145E-01-3.45617E-02
 -1      7287-2.90178E-01-2.92454E-03-9.47511E-02-1.12138E-02 2.37127E-02-3.55274E-02
 -1      7288-8.41854E-02 2.39340E-02 1.28766E-01-2.89302E-02-4.40240E-02-2.12098E-03
 -1      7289 1.61380E-02 1.03234E-02 1.63207E-01 3.48080E-03-5.02318E-02 4.36716E-02
 -1      7290 1.88261E-02-2.83047E-02 8.48387E-02-3.45487E-03-4.03874E-02 1.56463E-02
 -1      7291-8.64859E-02-1.25546E-01-1.29943E-01 1.38343E-01 2.52506E-02-6.09001E-02
 -1      7292 6.39804E-02-1.63931E-01-2.77362E-01 1.56756E-02 3.33320E-02-4.57184E-02
 -1      7293 5.96720E-01 5.17636E-02-2.19285E-01 3.79377E-02 8.80336E-02-3.16988E-02
 -1      7294 2.89684E-01-2.35360E-01 4.63049E-02 4.95930E-02 2.60634E-01-8.95854E-02
 -1      7295 8.22771E-01-3.56943E-01-6.14661E-01 4.19456E-01 1.45017E-01 9.99587E-02
 -1      7296 0.00000E+00 0.00000E+00 0.00000E+00 0.00000E+00 0.00000E+00 0.00000E+00
 -1      7297 1.43577E+00-8.45244E-02-3.30534E-01 1.09435E-01-8.97451E-03-1.67656E-01
 -1      7298 1.92061E+00 1.33782E-02-2.29575E-01 1.97917E-01 1.99091E-01-1.28981E-01
 -1      7299 1.88210E-01 3.76897E-01 9.95283E-02-2.04408E-01 2.08617E-02-1.74734E-01
 -1      7300 9.98800E-01 2.37001E-01 5.55553E-01-9.37379E-02 2.21188E-02-2.04073E-01
 -1      7301-9.52241E-02-3.21540E-01-7.65223E-02-1.31286E-01 1.22275E-01 4.49659E-02
 -1      7302-8.46737E-01-4.30603E-02-2.46180E-01 2.06927E-02-5.54682E-02-4.18130E-01
 -1      7303-1.27544E+00-3.01275E-01-3.14513E-01-1.92880E-01-9.52007E-02-2.81489E-02
 -1      7304 3.09583E-02 2.15811E-01 2.85907E-01-1.25297E-01 5.35492E-02 7.67439E-02
 -1      7305-3.47808E+00-2.47733E-01-6.86767E-01 8.88385E-02 9.44978E-02 4.89994E-02
 -1      7306-1.60927E+00 1.04711E-01 5.70214E-01-7.16279E-02 1.16207E-01 1.70006E-01
 -1      7307-3.49560E-02-9.97418E-02 9.61506E-03 2.37031E-01-1.64335E-01-5.75172E-02
 -1      7308-2.05821E+00 4.93670E-02 5.54057E-02 9.11787E-02 5.38422E-02 1.21741E-01
 -1      7309-8.99520E-01 7.87941E-01 3.26802E-01-1.91268E-01-3.48862E-01 3.78242E-02
 -1      7310-1.60287E+00-4.78365E-01-4.75099E-01 1.50190E-02 3.33289E-03 5.43270E-02
 -1      7311-7.51177E-01 3.89119E-02 5.40485E-02-2.00736E-02-7.73944E-03 1.73055E-01
 -1      7312-1.09199E+00-4.47109E-01-4.24354E-01 1.38248E-01 5.47104E-02 7.20410E-02
 -1      7313 3.60297E-01-1.28879E-01-2.10562E-01 2.29067E-02 7.13573E-02-1.24422E-02
 -1      7314 8.18297E-01 1.67887E-01 4.28156E-01 1.46694E-01 1.35134E-02 1.50859E-01
 -1      7315 5.01871E-01 2.96739E-02-6.44466E-02 1.92774E-01-3.42331E-02-9.72091E-02
 -1      7316 2.66659E+00-9.68370E-02 3.36764E-02 2.46111E-01 1.77452E-01 1.61123E-01
 -1      7317 1.36412E+00 2.04344E-02 1.68197E-02 4.47941E-01 1.18527E-01 1.04846E-01
 -1      7318 1.52498E-01-2.71608E-01-6.36258E-01 4.08604E-01 1.34554E-01 2.36446E-04
 -1      7319 0.00000E+00 0.00000E+00 0.00000E+00 0.00000E+00 0.00000E+00 0.00000E+00
 -1      7320 8.89747E+00 1.73149E+00 2.38837E+00 8.63113E-01-7.63453E-02-1.80532E+00
 -1      7321 2.15749E+00-3.42934E-01-1.09188E+00 6.15126E-01-4.12845E-02-2.20235E-01
 -1      7322 7.28876E+00 3.52806E-01 1.85908E-01 1.11758E-01 8.39135E-02-8.49583E-01
 -1      7323 3.53744E+00 4.51566E-01 2.59044E-01 3.76535E-01-1.56287E-01-8.90014E-02
 -1      7324 2.82161E+00 5.29876E-01 7.82639E-02-2.88781E-01 1.63854E-01-5.56739E-01
 -1      7325 3.52293E+00-1.98940E-01-6.92539E-01-1.97204E-01-1.85904E-01-1.02159E-01
 -1      7326 5.29634E-01-5.25029E-01-3.21911E-01 1.29282E-01 1.08621E-01-3.86327E-01
 -1      7327 1.59492E+00 2.50149E-01 4.50142E-01-2.46525E-03 1.82805E-01-4.87116E-01
 -1      7328 2.08460E+00 1.79127E-01-1.92369E-02-3.42001E-02-5.55397E-02-7.32146E-01
 -1      7329-2.04546E+00-3.22768E-01 9.43298E-02 8.33291E-03 8.36792E-02-6.59875E-01
 -1      7330-4.19976E+00-3.21702E-01-1.26237E-01-1.41470E-01 3.71271E-01-6.15675E-01
 -1      7331-2.61814E+00-3.24432E-01-1.18995E-01-1.98716E-01-2.26608E-01-3.56396E-01
 -1      7332-2.04459E+00 3.58376E-02-4.58430E-02-3.00375E-01-4.86612E-02-3.29049E-01
 -1      7333-4.58390E+00-4.82595E-01-1.40534E+00 6.22229E-02-2.79816E-01 2.51929E-01
 -1      7334-2.63214E+00-1.09441E-01-2.41283E-01-6.04985E-01 9.79488E-02-1.78851E-01
 -1      7335-1.95190E+00-3.06042E-02 1.28855E-01-5.11008E-01 2.20423E-01 1.16839E-01
 -1      7336-8.57684E+00 6.90114E-01 3.20455E-01 5.73408E-01 2.10689E-01-2.87520E-01
 -1      7337-3.45821E+00-2.73796E-01-1.62714E-01-4.94363E-02 1.83629E-02 1.85371E-01
 -1      7338-2.30503E+00 3.97474E-01 8.75366E-01-5.90349E-01 1.19298E-01 8.86874E-02
 -1      7339-5.59097E+00 8.64057E-01 5.41630E-02 9.49091E-02-6.83351E-02-4.67788E-01
 -1      7340-7.18980E+00-1.72179E-01-6.07878E-02-1.89848E-02 7.27353E-01 3.12723E-01
 -1      7341-4.05521E+00-5.45777E-01-1.00858E-01-5.61984E-02-5.64853E-03 8.67516E-01
 -1      7342-5.45924E-01 1.74247E-01 1.50927E-01 9.82572E-03 3.82189E-02 4.14687E-01
 -1      7343-1.41015E+00-5.04346E-01-8.94850E-01-2.35167E-02-1.31368E-01 5.64741E-01
 -1      7344 1.13118E+00 9.91490E-03 1.76344E-02 1.02091E-02 2.56714E-01 6.71481E-01
 -1      7345 4.84133E+00 2.95629E-01-1.52269E-01 1.92053E-01-4.56650E-01 8.55099E-01
 -1      7346 2.78967E+00 3.74012E-01 2.37688E-01 3.07804E-01 3.32215E-01 8.01847E-01
 -1      7347 6.76690E+00 4.41552E-01 4.38419E-01-5.37324E-02 6.41565E-02 4.50264E-02
 -1      7348 2.05543E+00 2.37178E-01-1.90587E-01 6.09460E-01 1.86806E-02-1.18517E-01
 -1      7349 2.75561E+00-1.10341E-01-4.74842E-01-2.63739E-01-1.47392E-01 2.45814E-01
 -1      7350 2.72294E+00 5.08241E-01 7.51935E-01 1.30611E-01 1.56837E-01-4.88828E-01
 -1      7351-4.04152E+00-3.70908E-02 2.25572E-02 4.91133E-03 3.11724E-01-6.39995E-01
 -1      7352-1.11087E+00 1.31323E-01 5.04577E-01-9.98143E-02 1.31598E-02-6.28283E-02
 -1      7353-7.82970E-01-1.12316E-01 9.33649E-03 2.57738E-02 3.11231E-02 2.01593E-01
 -1      7354-1.69027E-02 2.46314E-01 5.87567E-01 3.05546E-02 3.60644E-02 5.20165E-02
 -1      7355 1.64964E+00-8.53398E-02 9.55693E-02 4.17333E-01-1.36475E-02 2.18438E-01
 -1      7356 0.00000E+00 0.00000E+00 0.00000E+00 0.00000E+00 0.00000E+00 0.00000E+00
 -1      7357 2.49457E+00 3.36690E-01-7.49138E-02 1.90616E-01-8.33983E-02-1.60543E-01
 -1      7358 1.33501E+00 1.22861E-01 2.80803E-02 2.33700E-02 2.74359E-02-1.36900E-01
 -1      7359 2.38480E-01-1.80421E-01-5.42093E-01-4.45801E-02-3.74990E-02 2.80415E-02
 -1      7360-1.71738E+00-3.58329E-01-1.51354E-01-3.91409E-02 5.40914E-02 1.25580E-01
 -1      7361 4.03481E-02-2.41583E-01-8.41732E-02 4.42718E-02-2.66355E-02-8.19223E-03
 -1      7362 8.50580E+00 1.22649E+00 1.42134E+00 1.40744E+00-1.72997E-01-1.31447E+00
 -1      7363 7.29799E+00 3.94937E-01 2.45817E-01-6.07465E-01-2.68872E-01-1.08318E+00
 -1      7364 1.72596E+00 6.15181E-01 2.83494E-01-7.09238E-02-1.13354E-01-5.32138E-01
 -1      7365 2.90626E+00-6.38226E-01-4.91440E-01-1.29885E-01-1.20304E-01-9.18845E-01
 -1      7366 4.49150E+00 1.79929E-01 4.76092E-01-3.93470E-01-7.20258E-03-6.84835E-01
 -1      7367 9.14602E-01 2.66977E-01 2.13096E-01-7.45627E-02-2.26909E-02-1.54473E-01
 -1      7368 1.29920E+00-2.88015E-01-4.93747E-01 1.61859E-02-9.72800E-02-6.18135E-01
 -1      7369-6.72214E-01 2.12059E-02-1.83706E-01-4.06761E-02-2.09697E-02-4.64255E-01
 -1      7370-2.79671E-01 1.96763E-01 5.10822E-02-1.53609E-01 3.48317E-02-5.31269E-01
 -1      7371-2.89969E+00-2.28651E-01-4.14675E-01 2.92991E-02 4.48045E-02-4.08440E-01
 -1      7372-4.38960E+00-4.69575E-01-7.93376E-01-2.61205E-01-1.07459E-01-8.45058E-01
 -1      7373-7.61900E+00-2.87054E-01 2.13109E-01 3.67898E-01 2.69668E-01-2.15466E-01
 -1      7374-6.53439E+00-6.17861E-01-1.18272E+00 1.14406E-02-3.09980E-01-5.21013E-01
 -1      7375-3.30970E+00-5.50085E-01-2.41308E-01-1.82368E-02 2.27414E-01-9.56544E-02
 -1      7376-8.15326E+00 1.82243E-02-2.12503E+00 1.97554E-01 5.20131E-01-3.58990E-01
 -1      7377-8.38620E+00-4.44836E-01-1.20138E+00 6.44417E-01 3.47793E-01 1.00409E+00
 -1      7378-4.14709E+00-5.19795E-02 3.23031E-01 1.18761E-01 1.74557E-01 1.14887E+00
 -1      7379-4.63483E+00-3.21584E-01-9.21024E-01 1.66305E-01-1.47918E-01 7.04938E-01
 -1      7380-1.53046E-01 2.34332E-01-1.50922E-02 1.24165E-01 2.32651E-01 6.37006E-01
 -1      7381 5.28970E+00 1.12127E-01-3.78015E-02-3.04065E-01-4.64257E-01 6.14381E-01
 -1      7382 4.30035E+00 4.26551E-01 7.98422E-01 4.49568E-02 8.00172E-03 8.63694E-01
 -1      7383 9.38555E-01 3.73229E-01 6.45887E-01-7.93261E-02-1.57373E-02-1.97230E-01
 -1      7384 0.00000E+00 0.00000E+00 0.00000E+00 0.00000E+00 0.00000E+00 0.00000E+00
 -1      7385 2.92204E+00 5.21061E-01-8.33977E-02-3.25416E-01 1.50222E-01-4.83668E-01
 -1      7386 2.39570E+00 1.00449E+00 7.01403E-01-1.54502E-01 2.61762E-01-8.96987E-01
 -1      7387-3.78495E+00-6.41285E-02-5.90703E-02 7.53919E-02 2.96549E-01-6.77034E-01
 -1      7388-2.67543E+00 6.07398E-01 1.45547E-01-8.23812E-01 3.81267E-01-1.00624E+00
 -1      7389-2.53614E+00 3.28816E-01 3.16523E-01-1.07044E-01 1.29742E-02-4.39619E-01
 -1      7390-2.23396E+00-5.67308E-01-1.64874E-02-1.34962E-01-1.95860E-02-1.06461E-01
 -1      7391-1.02619E+01-2.26792E-01-7.20553E-01 6.54770E-01 1.79508E-01 2.52733E-01
 -1      7392-1.42560E+00-7.10020E-01-2.82092E-01-3.22865E-02 1.35475E-02 1.63816E-01
 -1      7393-1.83060E+00-8.61478E-01-1.11628E+00 1.19855E-01-2.04806E-01 1.03666E+00
 -1      7394 2.18320E+00 1.66826E-01-2.30057E-01-6.79148E-02-7.58873E-02 6.55338E-01
 -1      7395 1.35794E+00 1.59432E-01-8.55547E-03-3.69718E-01 8.43891E-03-8.27782E-02
 -1      7396 3.47415E+00 2.45500E-01 5.59947E-01 3.36049E-01-2.61329E-01 7.66509E-01
 -1      7397 2.13691E+00-2.02543E-01-1.58514E-01 8.09361E-02-1.16308E-01 1.66430E-01
 -1      7398 6.76500E+00 3.99076E-01-1.27689E-01-1.41409E-01-3.62065E-02 5.80544E-01
 -1      7399 1.07117E+01 1.31256E+00 1.45535E+00 7.32859E-02-8.17810E-02 6.05150E-01
 -1      7400 2.95817E+00 5.26014E-01-7.89130E-02 5.17292E-02-1.07979E-01 1.20163E-01
 -1      7401 6.65820E+00 9.55684E-01 1.84689E+00-1.50676E+00-3.30398E-02 1.70579E+00
 -1      7402 1.79881E+00 4.21300E-01-4.26133E-02 4.42780E-02-9.93531E-02 4.75379E-02
 -1      7403 0.00000E+00 0.00000E+00 0.00000E+00 0.00000E+00 0.00000E+00 0.00000E+00
 -1      7404-1.86140E+00-6.46291E-01-1.93897E-01 3.07319E-02-1.23171E-01-1.16028E-01
 -1      7405-2.62837E+00-7.42457E-01-1.75148E-01 1.45031E-02-1.49140E-01-1.08729E-01
 -1      7406-1.30799E+00 1.25353E-01 6.82964E-02-2.79406E-02 2.15119E-02 8.99768E-02
 -1      7407 3.16773E-02 5.77658E-02 1.99832E-01 2.66697E-02 4.84274E-02 5.54919E-02
 -1      7408 9.03953E-01 3.12240E-01 8.27767E-02 5.49508E-03-1.19722E-02 1.12427E-01
 -1      7409 2.22018E+00 5.34604E-01 2.93853E-02 8.07235E-03 1.02681E-01 7.21434E-02
 -1      7410 2.13886E+00 1.64226E-01 1.88763E-01 7.35795E-01 9.79351E-02 2.59173E-01
 -1      7411 0.00000E+00 0.00000E+00 0.00000E+00 0.00000E+00 0.00000E+00 0.00000E+00
 -1      7412 5.48991E+00 1.42656E+00 3.51385E-01-2.25695E+00 1.09600E+00 8.42262E-01
 -1      7413 7.92999E+00 2.30378E-01 1.46071E-01 1.62227E-01-1.03320E-01-5.46849E-01
 -1      7414 7.68559E+00 2.08134E-01 3.38627E-01-2.27369E-01 3.16862E-01-2.38695E-01
 -1      7415 3.51593E+00 9.66207E-02 4.39221E-01 3.33414E-01-1.97055E-01-9.54374E-02
 -1      7416 8.37671E+00 1.63874E+00 1.68561E+00-3.63097E-01 2.09176E-01-8.91849E-01
 -1      7417 1.16088E-01-5.71213E-02-1.88926E-01-2.16456E-02 3.29537E-03-1.29634E-01
 -1      7418-1.40218E+00-5.31150E-01-1.38541E-01-2.07205E-01-2.27088E-01-8.12661E-01
 -1      7419-6.18669E-01-9.70780E-02 5.21689E-02 1.41168E-01 5.18181E-02-8.85219E-01
 -1      7420-1.67664E+00-1.44042E-01-1.15802E-01 9.37636E-02 2.04168E-01-7.13007E-01
 -1      7421-3.08924E+00-1.53084E-01-3.79386E-01 4.58952E-02 1.42186E-02-4.38908E-01
 -1      7422-4.20025E+00 1.35713E-01 3.41506E-03-1.49014E-01-2.46472E-01-4.87024E-01
 -1      7423-9.07710E+00-6.97660E-01-6.73285E-01 7.83279E-02-4.70012E-01-9.58081E-01
 -1      7424-6.94321E+00-3.03876E-01-2.65573E-01 9.29843E-02-1.64661E-01-8.46160E-01
 -1      7425-9.94952E+00-1.48690E+00-9.86982E-01-3.57171E-03 4.75523E-01-2.26307E-01
 -1      7426-6.93002E+00 3.69503E-02 2.64235E-02-6.09228E-02-1.88609E-01-1.42164E-01
 -1      7427-3.49826E+00-3.55559E-01-2.65899E-01 5.60973E-02 2.34502E-02 6.84734E-01
 -1      7428-7.47857E-01 9.37260E-02 3.71722E-01 9.10275E-02-5.37531E-02 3.78862E-01
 -1      7429-1.45299E+00-7.00315E-02 1.32779E-01 6.68056E-02 2.27902E-02 4.68062E-01
 -1      7430-1.24339E+00-1.14185E-01-4.11140E-01-2.13040E-02-1.32070E-01 5.75985E-01
 -1      7431-1.19919E+00-1.66594E-01 4.17736E-02 5.19077E-02-8.80873E-02 5.37104E-01
 -1      7432-4.65632E-01-1.00602E-01 2.95563E-01-1.33061E-02 2.46318E-01 6.20791E-01
 -1      7433 1.46924E+00 7.71744E-02 2.10354E-01-1.08486E-01 1.16148E-02 8.17997E-01
 -1      7434 5.50314E+00-1.72986E-01-3.95723E-01 6.92910E-03 2.61811E-01 6.19769E-01
 -1      7435 5.95505E+00-4.21150E-01-4.19520E-01 2.33552E-01 3.15536E-01 5.20978E-01
 -1      7436 3.38332E+00 2.68411E-01 4.56446E-01-2.60478E-02-1.94512E-01 4.66738E-01
 -1      7437 3.35722E+00 9.03624E-02 3.91102E-01-4.75179E-02 2.54833E-02 7.15522E-01
 -1      7438 8.87399E+00 8.77427E-01 4.81944E-01 8.79615E-02 9.73826E-02 1.04212E+00
 -1      7439 8.97418E+00 7.06424E-01 2.21389E+00 1.76477E-01-1.04719E-01 5.49071E-01
 -1      7440 8.65475E+00 1.39515E-02 1.31645E+00-6.22388E-01-7.38495E-03 1.30273E+00
 -1      7441 4.55426E+00 1.42498E-02 1.65091E-01-2.61089E-01 6.64202E-01 5.55238E-01
 -1      7442 7.05615E+00 8.62085E-01-9.81943E-02 1.28473E+00 7.02892E-01-7.59399E-02
 -1      7443 4.85636E+00 1.07992E+00 8.36627E-01 8.75849E-02 1.64474E-01-1.27876E+00
 -1      7444 0.00000E+00 0.00000E+00 0.00000E+00 0.00000E+00 0.00000E+00 0.00000E+00
 -1      7445 0.00000E+00 0.00000E+00 0.00000E+00 0.00000E+00 0.00000E+00 0.00000E+00
 -1      7446 0.00000E+00 0.00000E+00 0.00000E+00 0.00000E+00 0.00000E+00 0.00000E+00
 -1      7447-1.62441E+00-1.70342E+00-2.49637E+00-9.75427E-01 2.20735E-01 7.92946E-01
 -1      7448 2.18029E+00 6.87426E-02 1.85773E-01 3.34091E-01-6.46129E-02-1.94238E-01
 -1      7449 2.68272E+00 3.06731E-02 2.48514E-01-3.78831E-01 2.78873E-01-7.50058E-01
 -1      7450 1.74640E+00 1.06571E-01 3.99896E-01-6.61871E-02-6.00657E-03-6.11411E-01
 -1      7451-4.25572E-01-2.18560E-01-2.03936E-01 1.20959E-02-7.72949E-03-5.13944E-02
 -1      7452-7.69278E+00-6.82863E-02-3.30818E-01 5.74219E-01-2.53921E-02-1.56887E-01
 -1      7453-1.75343E+00-9.30877E-02-2.66002E-01-2.42776E-01 5.31613E-02 3.08913E-01
 -1      7454-3.21820E+00 4.66234E-02-2.38575E-01-9.18660E-03-1.63531E-01 5.96412E-01
 -1      7455-5.17527E+00-3.17277E-01-7.26309E-01 1.38484E-01-2.78264E-01 3.00440E-01
 -1      7456-9.01519E-02 2.84587E-01 5.77135E-01-8.59865E-03-2.34941E-02 1.60412E-01
 -1      7457-8.59390E-02-4.87872E-02-8.63236E-02-1.76510E-02 4.24509E-02 9.72611E-02
 -1      7458 1.78747E+00 3.54738E-01 7.95839E-01-1.04828E-01 1.86376E-01 1.06514E+00
 -1      7459 4.20123E+00 1.74508E+00 1.82357E+00 3.05473E-01-1.91825E-01-1.17281E+00
 -1      7460-5.74418E+00 2.27509E-02 1.12912E-01-2.15329E-01-7.26759E-02-2.35885E-01
 -1      7461-4.43213E-01-2.59027E-02-2.18393E-01-9.56598E-02 6.75229E-02 1.41226E-01
 -1      7462-1.82403E+00-3.42124E-01 3.39827E-02-3.14891E-02-1.88947E-01 4.21398E-01
 -1      7463 1.07972E+00 2.67654E-01 1.78446E-01 1.91167E-02-9.87194E-03 1.85530E-01
 -1      7464 5.88973E+00-3.22304E-01 2.23763E-01-1.37298E-01 2.21685E-01 1.21172E-01
 -1      7465 0.00000E+00 0.00000E+00 0.00000E+00 0.00000E+00 0.00000E+00 0.00000E+00
 -1      7466 3.20085E+00-7.00105E-01-6.05772E-01 4.63718E-01-1.13927E-01-8.82242E-02
 -1      7467 7.89027E+00 5.44074E-01 3.84085E-01 3.06114E-01-7.26290E-02-1.21357E+00
 -1      7468 9.96231E-01 2.15564E-01-1.70611E-02 2.46668E-02-1.29422E-01-4.92409E-01
 -1      7469-1.29908E+00 5.44774E-02 2.49610E-01-1.85265E-01-1.72296E-01-5.29431E-01
 -1      7470-4.01734E+00 2.22651E-01 1.15693E-01-7.09042E-02-2.97208E-01-4.24670E-01
 -1      7471-3.30116E+00-3.52607E-01-6.96333E-01-2.38589E-01-1.81960E-01-1.30176E-01
 -1      7472-8.44692E+00-3.95844E-01-5.77648E-01-3.50766E-01-6.62082E-01-5.68736E-01
 -1      7473-7.30093E+00 3.06709E-01-6.64495E-01-2.56384E-01-4.55294E-02-6.38811E-01
 -1      7474-6.48535E+00 3.98283E-01 3.70721E-01-2.72523E-01 3.74659E-02 8.30994E-02
 -1      7475-3.04040E+00-3.73853E-01-1.17289E-01 1.13492E-01-1.72759E-01-6.37315E-02
 -1      7476-1.98988E+00 3.26347E-01 2.78409E-01-2.50326E-01 9.07491E-03 1.53399E-01
 -1      7477-5.33753E+00-1.73669E-01-1.36042E+00-4.76689E-01 1.12224E-01 1.05171E+00
 -1      7478-3.66956E+00-2.49442E-01 9.04464E-02 8.64692E-02 2.43857E-01 7.42044E-01
 -1      7479-1.32592E+00-1.72396E-01-1.65706E-01-6.95556E-02-1.30260E-01 6.36478E-01
 -1      7480 5.92041E+00 1.18995E-01-7.73929E-02 8.64417E-02 4.52923E-01 4.02358E-01
 -1      7481 7.66295E+00-1.89239E-01-2.71725E-01 6.84808E-01 5.12956E-01 5.32441E-01
 -1      7482 0.00000E+00 0.00000E+00 0.00000E+00 0.00000E+00 0.00000E+00 0.00000E+00
 -1      7483 0.00000E+00 0.00000E+00 0.00000E+00 0.00000E+00 0.00000E+00 0.00000E+00
 -1      7484 5.42466E+00 4.24100E+00 4.68465E+00-7.37396E-01 1.69526E-01-9.71330E-01
 -1      7485 8.17411E-01 5.81712E-01 8.83549E-01 7.41808E-01-6.80531E-01-3.00098E-01
 -1      7486 3.48895E-01 2.17920E-01-1.23040E-01 3.75018E-02-1.10152E-01-6.30352E-02
 -1      7487 2.43244E+00 2.66337E-01 2.06022E-02-7.92120E-02 1.48064E-01-7.22570E-02
 -1      7488 2.38734E+00 1.78628E-01-3.14528E-01 7.33601E-01-7.44735E-01-4.55816E-01
 -1      7489 5.82959E-01 7.94612E-02-1.77095E-01-1.20495E-01 2.71373E-02-3.22845E-01
 -1      7490 4.36467E-02-4.20841E-02-3.31322E-02 9.69020E-02 4.30624E-02 6.85934E-02
 -1      7491-6.09476E-02-1.66997E-01-4.25996E-02-2.19647E-02 1.36837E-01 6.28613E-02
 -1      7492-4.49223E-01-5.44545E-02 2.54319E-01-1.00262E-01-5.75574E-02 1.09430E-01
 -1      7493-2.72845E+00 4.93703E-02 8.06501E-02 1.76854E-01 1.49273E-01-4.61281E-01
 -1      7494-4.80343E+00-7.45091E-02-5.54444E-01-1.52255E-03 6.25206E-01-9.44295E-01
 -1      7495-4.11550E+00-2.10910E-01 1.24483E-01-3.08262E-01 7.33263E-01-9.50444E-02
 -1      7496-1.72552E+00 5.21164E-02 2.15330E-02 2.18447E-01 2.10924E-01 1.60724E-01
 -1      7497-1.75555E+00 4.84967E-01 5.82209E-01-1.22453E-01 6.27931E-02 2.52591E-01
 -1      7498-5.00861E+00 9.49026E-02-9.59956E-01-7.64414E-01 9.22363E-01 3.53015E-01
 -1      7499-1.56055E+00-4.06023E-01 2.34575E-01 4.70226E-01-1.62063E-01-5.35673E-03
 -1      7500-1.37112E+00 1.94322E-02-1.34648E-01-4.80168E-01-1.40283E-01 2.22817E-02
 -1      7501-5.57721E+00-6.40124E-02 6.67853E-01 1.03351E-01 2.24341E-01 2.06190E-01
 -1      7502-1.88023E+00-3.02266E-02 2.20512E-01-1.43216E-01-3.02870E-02 2.01353E-01
 -1      7503-2.54036E+00 3.98221E-01 1.06718E-01 4.55479E-02 3.62537E-02 5.60478E-01
 -1      7504-1.45118E+00-3.88591E-01-2.90965E-01-1.82438E-01-3.13226E-02-1.27725E-01
 -1      7505-5.67978E-01 2.75991E-02 4.00192E-01 9.73246E-02 6.99988E-02 4.20779E-03
 -1      7506-1.02897E+00-1.83684E-01-7.69014E-02-1.08946E-01 1.17221E-01 4.65737E-01
 -1      7507 2.07909E+00 9.16484E-02 7.69303E-02-2.10621E-02-4.43180E-02 6.52173E-01
 -1      7508 1.49944E+00 1.92466E-01 4.20067E-01 3.16860E-01-4.13029E-02 8.29337E-01
 -1      7509 5.87235E-02-3.19305E-02-1.36601E-01-1.49679E-01-8.99870E-02-2.45447E-02
 -1      7510 2.05901E-01 5.21334E-02-1.75855E-02-2.28718E-01-6.35956E-02 5.05982E-02
 -1      7511 3.66263E-01-7.15974E-02-3.52891E-01-2.53836E-02 2.16812E-02-6.14606E-02
 -1      7512 5.37232E-01 3.47150E-01-4.56249E-03-2.41073E-01 6.96086E-03-2.65326E-02
 -1      7513 1.04895E+00-4.67687E-01-7.08582E-01-2.69570E-01-3.99359E-01 5.26460E-01
 -1      7514 1.27138E+00-2.03206E-01-3.82093E-01-3.20646E-01-1.84069E-02 1.63699E-01
 -1      7515 3.02912E+00-4.85744E-01-1.52784E+00-1.71506E-01-5.46701E-01 1.74749E+00
 -1      7516 5.08407E+00 9.05687E-01 8.21237E-01 8.77706E-01-1.30063E+00-5.96241E-01
 -1      7517 1.01741E+00-4.24185E-02-4.60888E-01 2.15068E-01 1.12173E-01-2.94841E-01
 -1      7518 1.80767E+00-2.25398E-01-8.23605E-01 4.59348E-01-8.24333E-02 7.65406E-02
 -1      7519 3.54336E+00 2.36750E+00 2.11159E+00 2.98765E-01-2.68003E-02-5.68622E-01
 -1      7520 0.00000E+00 0.00000E+00 0.00000E+00 0.00000E+00 0.00000E+00 0.00000E+00
 -1      7521 5.66350E-01-5.21944E-02-4.14893E-01 1.06344E-01 4.44279E-03-7.90477E-02
 -1      7522 1.48983E+00 5.67768E-02-4.12792E-01 1.68303E-01 2.69169E-02 1.24995E-01
 -1      7523 1.89994E-01 1.26680E-01 2.10133E-01 8.71677E-02 3.33070E-02 2.15697E-02
 -1      7524-2.32938E-01 1.39873E-02 7.92034E-02-2.72936E-02-8.37361E-03 8.65462E-02
 -1      7525-2.81887E+00-6.70270E-01-4.68385E-01-6.25574E-02 5.02374E-01-3.39148E-01
 -1      7526-2.65922E+00-1.58219E-01-3.13020E-01 8.90710E-02 3.64386E-02 8.11735E-02
 -1      7527-3.02447E-01-2.89664E-02 5.01454E-03-7.87299E-02 1.72978E-02 6.67582E-02
 -1      7528-1.53489E+00 1.40494E-02 1.00744E-01 1.00624E-01-6.05420E-02-4.05692E-02
 -1      7529-1.22839E+00-1.40694E-01 2.91780E-01-2.48664E-01-1.97376E-02-1.30614E-01
 -1      7530 6.67745E-03-4.53030E-02-5.59418E-02-1.02796E-01 7.66467E-03 2.15102E-02
 -1      7531 1.93423E+00 5.42611E-01 6.35042E-01-1.75438E-02-6.61385E-01 3.24972E-01
 -1      7532 2.31177E-01-4.76089E-01-2.68324E-01 3.60100E-01-3.73458E-01-2.67775E-01
 -1      7533 1.42097E-01-1.66000E-01-2.84119E-01 2.27270E-01-1.49715E-01-3.37832E-02
 -1      7534 6.31666E-02 1.10426E-01-2.96218E-01 1.87679E-02-2.44837E-02 2.72685E-02
 -1      7535 1.64841E-01 1.19169E-01-1.87621E-01 1.50976E-01-1.18184E-01-1.77592E-01
 -1      7536-1.39257E-03-5.78563E-02 5.56525E-02-5.79243E-02 2.14814E-02 7.33335E-02
 -1      7537-5.23644E-02-7.29246E-02-7.96264E-02 2.25135E-02 1.00867E-01 8.06061E-02
 -1      7538-5.83849E-02 1.43430E-02 2.54437E-01-4.38644E-02-3.74830E-02-3.97602E-02
 -1      7539 1.28874E-03-3.90351E-02-2.41620E-02-8.66628E-02 3.17683E-02 1.67272E-02
 -1      7540 3.67797E-02 5.09698E-02-8.14718E-02-7.22046E-02 3.66733E-02-4.08376E-02
 -1      7541 2.93675E+00 2.80354E-01 7.20131E-02-6.01330E-02 1.12565E-01-1.61728E-04
 -1      7542 1.78592E-01-5.25985E-01-1.46351E-01 2.95507E-01-1.79123E-01-7.01375E-03
 -1      7543-1.10159E-02-5.09263E-01-3.74735E-02 1.71355E-01-2.08488E-01-1.15899E-01
 -1      7544 5.19651E-01 3.30198E-02 2.33461E-02-1.30048E-01 3.04329E-02-1.94337E-02
 -1      7545-1.50862E-02 2.13502E-01-2.31614E-01 1.95160E-02-1.16445E-01 2.51262E-02
 -1      7546 3.59094E-02 1.54061E-02-5.33108E-02-7.63572E-02-5.73834E-03 5.45944E-03
 -1      7547-3.04252E-02-3.91499E-02 1.91807E-01-8.61741E-02-5.63096E-02 7.01541E-02
 -1      7548-3.21353E-01-2.57113E-01 8.67244E-02 2.81303E-02-6.88767E-03 2.24048E-02
 -1      7549-8.03542E-02-2.22911E-01 1.99965E-01 2.37124E-01-4.20939E-03 2.77084E-02
 -1      7550-4.40822E-02 3.04457E-01 3.32520E-01-1.32630E-01-1.39372E-01 6.99601E-02
 -1      7551-7.37565E-02-9.21622E-02-1.57111E-02 5.30450E-02-2.32561E-02 3.47883E-02
 -1      7552-1.96558E-01 1.09522E-01 3.06990E-01 1.54787E-01-3.00478E-02 6.44093E-02
 -1      7553-1.70600E-01 8.01997E-02 1.12391E-01-7.81558E-02 6.85607E-02 2.90265E-02
 -1      7554 7.84577E-02 3.87371E-02-1.53481E-01-7.17056E-02 1.64774E-02-4.20697E-02
 -1      7555-2.04524E-01 2.23594E-01-8.18631E-02 3.72595E-02-1.40709E-02-1.50133E-02
 -1      7556 1.17499E+00-1.03969E-01-8.59297E-02-1.10377E-01 2.36295E-02-1.11177E-01
 -1      7557 4.84334E-01-6.76681E-03-3.33163E-01 6.14921E-02-4.46364E-02 3.81389E-02
 -1      7558 8.63869E-02 1.17912E-01 1.73835E-03-1.19921E-01 1.76429E-02-5.68184E-02
 -1      7559 1.16896E-01 2.38726E-01 3.65974E-01-1.58921E-01-5.46842E-02-4.45387E-02
 -1      7560 5.61681E-02 3.82737E-02-7.65241E-02 2.55132E-02-7.72576E-03 5.13094E-04
 -1      7561 5.08201E-02-4.93807E-02 2.65848E-02-3.51124E-02 1.99067E-02 5.95145E-02
 -1      7562-5.86353E-02 3.58441E-02 1.29730E-01-4.21460E-02-1.89021E-03 2.24704E-01
 -1      7563-7.25248E-02 7.85013E-02 1.26277E-01 1.35965E-01 1.51754E-01 2.67161E-02
 -1      7564-8.30829E-01 8.47853E-02 3.97669E-01 1.77187E-01-5.93746E-02 1.29992E-01
 -1      7565-9.27216E-02-1.90036E-01 1.52296E-02 1.19487E-02 1.20006E-01 1.55148E-02
 -1      7566-2.49872E-02 2.74034E-01 5.68420E-02-8.84968E-02 3.13363E-02-7.75472E-02
 -1      7567 2.73722E-01 5.89079E-02-1.27860E-01 8.30673E-04 1.08452E-03-5.24330E-02
 -1      7568 2.62887E-01-1.78331E-01 1.09380E-01 1.14216E-01-1.99856E-01 4.68240E-02
 -1      7569 0.00000E+00 0.00000E+00 0.00000E+00 0.00000E+00 0.00000E+00 0.00000E+00
 -1      7570 1.38981E-01 9.47685E-02 2.78837E-01-2.17899E-01 1.84337E-01-2.40713E-01
 -1      7571 7.91961E-02 3.85904E-01-2.01118E-02 1.54371E-02 6.92967E-02 4.53431E-02
 -1      7572 5.11852E-01 6.51702E-03-1.21284E-01-1.16730E-01-3.81905E-02 1.16530E-01
 -1      7573 2.32608E-01-1.53623E-01-1.43732E-01 2.39076E-02-3.20157E-02 4.29515E-02
 -1      7574-1.26399E-01-2.04701E-02 1.06270E-01-1.44838E-01-2.77319E-02-1.72882E-01
 -1      7575 1.38991E-01 2.40491E-01 4.34631E-01-6.16579E-02-2.00609E-01 8.85672E-02
 -1      7576-1.55005E+00 3.18726E-01 2.14171E-01 4.07911E-02 1.01661E-01 1.53160E-01
 -1      7577-2.84094E-02 2.10781E-02 2.09089E-01 2.56259E-01-1.61359E-01 1.72398E-01
 -1      7578-4.95096E-01 1.32763E-02-1.63462E-03-3.30723E-02 9.75608E-02 6.96903E-02
 -1      7579-2.42953E-01-1.42786E-01-1.21814E-01 5.80932E-02 7.70437E-02-1.68391E-01
 -1      7580-1.21333E-01 3.18733E-02-2.06459E-01 7.47813E-02 1.60797E-01-6.66685E-02
 -1      7581-1.10565E-01-2.89523E-01-2.65579E-01 2.18828E-02 2.29793E-02-2.35710E-02
 -1      7582 1.03208E+00 3.07500E-01 1.46684E-01 4.89545E-01 2.74824E-01 2.07160E-01
 -1      7583-5.47510E-02 2.70787E-01-8.48936E-03-1.38198E-01 2.46965E-01 2.16526E-02
 -1      7584 0.00000E+00 0.00000E+00 0.00000E+00 0.00000E+00 0.00000E+00 0.00000E+00
 -1      7585 0.00000E+00 0.00000E+00 0.00000E+00 0.00000E+00 0.00000E+00 0.00000E+00
 -1      7586 0.00000E+00 0.00000E+00 0.00000E+00 0.00000E+00 0.00000E+00 0.00000E+00
 -1      7587 8.01805E-03 1.94975E-01-1.40445E-01 2.67023E-02 1.64141E-01 6.55358E-02
 -1      7588 1.68705E+00-3.44449E-02 1.71106E-01-1.84727E-01-4.35037E-02-2.91029E-01
 -1      7589 9.61720E-01 3.04967E-02-6.85010E-01 6.54200E-02 3.59020E-01-1.33191E-01
 -1      7590 2.40593E-01 2.90054E-01 7.08416E-02-2.42705E-01 6.83227E-02-6.16811E-02
 -1      7591-2.76568E-01-4.36325E-01-2.23084E-01-1.62419E-01 6.49793E-02-4.68466E-02
 -1      7592 5.49922E-02-1.07363E-02-9.93684E-02-1.44775E-01-5.30022E-02 2.55592E-02
 -1      7593-4.80383E-01 4.22999E-01 4.65101E-01 5.47159E-02 1.56244E-01 2.14791E-01
 -1      7594-3.23950E+00 8.90924E-02-1.01264E-02 4.73690E-02 6.77446E-02 3.33203E-01
 -1      7595-4.78483E+00 3.42059E-01 2.25791E-01-5.09530E-02-6.01885E-01-1.63063E-01
 -1      7596-2.29580E+00-3.11096E-01-1.63231E-01-8.50442E-02-3.55931E-02 1.50637E-01
 -1      7597-9.25438E-01 2.68180E-01-2.63610E-01-8.66923E-02-4.95198E-01 3.20801E-01
 -1      7598-1.58827E-01 6.58355E-02 4.87446E-02-1.77708E-01-8.52356E-02 3.11053E-01
 -1      7599 1.40569E-02 4.13873E-02 1.66861E-01 3.78853E-02 5.40663E-02 1.55252E-03
 -1      7600 0.00000E+00 0.00000E+00 0.00000E+00 0.00000E+00 0.00000E+00 0.00000E+00
 -1      7601 2.56913E+00 1.17023E-01-3.65923E-01 4.92090E-01-2.29512E-01-1.65525E-02
 -1      7602 2.92847E+00 3.27332E-01 4.07298E-01-1.14985E-02-4.57256E-02-4.11187E-02
 -1      7603 3.09654E+00 3.89403E-01-5.75920E-01-9.97379E-03 1.90375E-01-3.31185E-01
 -1      7604 4.52552E+00 5.06990E-01 4.46062E-02 1.68703E-01-1.61269E-01-1.15431E-01
 -1      7605 1.39788E+00-9.18900E-02-1.92094E-01 4.04491E-02-4.52460E-02-5.84262E-03
 -1      7606 1.67893E+00 1.87768E-01 4.82545E-01-6.62935E-02-9.00372E-02-7.52453E-01
 -1      7607-5.27165E-01 4.41432E-03 7.02538E-03-1.65960E-03-8.87151E-02-6.31506E-01
 -1      7608-4.03382E+00 8.35475E-02-2.71998E-01 7.32036E-02 3.80713E-01-6.22381E-01
 -1      7609-3.90280E+00-6.03534E-01-1.02427E+00-8.50522E-02-5.42733E-01-2.13818E-01
 -1      7610-5.30123E+00-4.63801E-01 1.00642E+00-1.11652E+00-5.71288E-01-6.37482E-01
 -1      7611-2.47539E+00-5.32941E-02-3.20774E-01-2.71337E-01 2.07369E-02-2.54587E-01
 -1      7612-1.49496E+00 3.35770E-02 2.22438E-01 2.22038E-02 1.38281E-01-2.44302E-02
 -1      7613-7.65258E+00 2.20676E-01-9.78259E-01 2.15959E-01 2.00653E-01 2.00968E-01
 -1      7614-2.45267E+00 3.03881E-01 3.19834E-01-3.78383E-01 1.86638E-01 5.82608E-02
 -1      7615-2.77304E+00-1.58923E-01 8.31709E-02-1.08355E-01 1.47533E-01-2.80511E-01
 -1      7616-1.58209E+00 5.77996E-02-3.10780E-01 1.49347E-01-9.04074E-03 2.71890E-01
 -1      7617-3.62306E+00 1.14106E-01 6.41834E-01 2.24336E-01 1.29760E-01 5.84420E-01
 -1      7618-3.81380E-01 1.85621E-01 1.30965E-01 8.74647E-02 8.70516E-02 4.01733E-01
 -1      7619-1.07055E+00 4.88193E-02-3.46970E-01 1.12595E-02-4.03794E-02 6.74543E-01
 -1      7620 1.58339E+00 5.67516E-01 6.67000E-01-6.45527E-02 1.94629E-01 6.66360E-01
 -1      7621 4.73709E+00-2.67256E-01-1.81475E-01-1.97675E-01-2.56333E-01 8.94111E-01
 -1      7622 1.88327E+00-8.46563E-02 1.00082E-01 1.03431E-01-6.38283E-02 2.56614E-01
 -1      7623 1.75134E+00-1.05755E-01 3.46161E-01 4.36566E-02-8.23499E-02 1.19280E-01
 -1      7624 2.95435E+00 2.82469E-01-1.80323E+00 1.13466E+00 7.91880E-01 4.45019E-01
 -1      7625 1.31188E+00 5.43656E-03-5.66785E-01-1.16983E-01-5.84744E-02-6.11274E-02
 -1      7626 1.70276E+00 2.55832E-01 3.99589E-01 5.48074E-02 6.07462E-02 6.87838E-01
 -1      7627 0.00000E+00 0.00000E+00 0.00000E+00 0.00000E+00 0.00000E+00 0.00000E+00
 -1      7628 0.00000E+00 0.00000E+00 0.00000E+00 0.00000E+00 0.00000E+00 0.00000E+00
 -1      7629 4.26875E-01-1.97480E-01-4.79765E-01-1.92230E-02-5.69443E-02 5.29200E-02
 -1      7630-2.06429E+00-5.09488E-01-9.52426E-01 3.58684E-02-1.46393E-02-2.21436E-01
 -1      7631-3.92468E+00-6.98338E-01-8.90227E-01 4.00813E-02 1.54017E-01 1.48643E-01
 -1      7632 7.05917E-01 5.31537E-02-2.19719E-01-2.72341E-02-1.69421E-01-1.44151E-02
 -1      7633 1.88998E+00 1.33930E-01 6.47175E-01 8.60776E-02 2.58635E-02-8.03205E-02
 -1      7634 4.51725E+00-7.14669E-01-3.21521E-01 4.70441E-01 2.09902E-01 3.80542E-01
 -1      7635 2.08015E+00 1.04909E-01-6.77945E-02 2.12814E-02-9.40917E-02-1.07697E-02
 -1      7636 1.04720E+00 7.82081E-02 1.31984E-01 4.45561E-02 1.25647E-03-1.63075E-01
 -1      7637 1.07088E-01-1.01723E-01-2.86867E-01 7.96024E-02 2.15407E-02-1.87174E-01
 -1      7638-1.23805E+00 5.07672E-02 4.90249E-01-2.25276E-01 1.41117E-01-3.51986E-02
 -1      7639-3.65840E-01 1.28285E-01 4.00247E-01 2.52051E-02 1.50575E-02 2.55261E-01
 -1      7640 7.88413E-02 1.00235E-01 7.87488E-02 1.11160E-02-9.76383E-02 1.98148E-01
 -1      7641 1.04984E+00 1.48996E-01 1.51234E-01-2.45178E-02-4.31160E-03 1.46681E-01
 -1      7642 0.00000E+00 0.00000E+00 0.00000E+00 0.00000E+00 0.00000E+00 0.00000E+00
 -1      7643 6.79142E+00 2.65581E+00 2.89777E+00-3.84180E-01-2.60047E-01 1.09036E-01
 -1      7644 7.78099E+00 1.04575E+00 1.35128E+00-1.97158E-01 1.79880E-01-5.83853E-01
 -1      7645 1.02155E+01 8.98209E-01 2.75586E+00-1.28684E-01-1.34113E-01-2.36611E-01
 -1      7646 1.20156E+00-6.14938E-02-2.89629E-01-2.57341E-01-1.36568E-01-2.11709E-01
 -1      7647 6.08522E+00 2.83450E-01 1.20606E+00-2.91139E-01 5.19021E-02-9.26682E-01
 -1      7648-1.54704E+00-2.92979E-01-3.86963E-01 1.74594E-01 7.29608E-02-6.56842E-01
 -1      7649-1.85108E+00 4.24454E-01 1.28612E-01-2.07924E-01 2.08678E-01-6.25748E-01
 -1      7650-2.94638E+00-5.02762E-01-3.79355E-01 2.44756E-01 4.40411E-02 1.11602E-01
 -1      7651-7.05225E+00-6.40970E-01-9.86968E-01-1.30452E-01-3.03868E-01-1.19220E+00
 -1      7652-1.01538E+01-5.13979E-01-5.39849E-01 7.29394E-01 1.66912E-01 7.68947E-01
 -1      7653-1.14132E+01-1.30053E+00-3.64024E+00 5.85549E-01-6.73865E-03 2.11658E-01
 -1      7654-8.11749E+00-4.44610E-01-1.05481E+00-1.41843E-01 2.58336E-01-4.24109E-01
 -1      7655-6.11433E+00-8.90478E-02-3.47633E-01 3.43309E-02 2.22092E-01 1.05812E+00
 -1      7656-7.26649E+00 4.64980E-02-8.90953E-01 5.16093E-01 1.11823E-01 1.24420E+00
 -1      7657-3.81166E+00 2.72393E-01 5.47708E-01 1.51490E-02 1.73247E-01 9.70782E-01
 -1      7658-1.19855E+00 1.02878E-02-1.22001E-01 9.97665E-02 5.03160E-02 7.29752E-01
 -1      7659 2.00836E-01-2.96845E-01-1.26521E-01 8.73737E-02 9.41411E-03 6.39497E-01
 -1      7660 7.90243E-01 4.41240E-02-1.28784E-01 3.10946E-02-7.16457E-02 2.05023E-01
 -1      7661 4.59479E+00 1.79417E-03 6.85066E-01-3.62976E-01-2.04451E-01 1.16140E+00
 -1      7662 3.62408E+00 2.25359E-01 5.03566E-01-7.40426E-02-2.24221E-01 5.67871E-01
 -1      7663 1.41863E+00 2.31520E-01 1.37496E-01-1.16460E-01-1.19438E-01 3.23911E-01
 -1      7664 6.10549E+00 5.44243E-01 1.02086E+00-3.32575E-01-4.90306E-02 2.15658E-01
 -1      7665 7.98956E+00 9.25266E-01 1.37474E+00 1.45123E-01 2.42471E-01 1.08513E+00
 -1      7666 1.04323E+01 1.72289E+00 2.22151E+00-4.59042E-01 2.90545E-01 8.65996E-01
 -1      7667 1.65713E+00 2.32796E-01 5.63914E-01 5.41327E-02-1.99499E-02-1.54151E-01
 -1      7668 0.00000E+00 0.00000E+00 0.00000E+00 0.00000E+00 0.00000E+00 0.00000E+00
 -1      7669 0.00000E+00 0.00000E+00 0.00000E+00 0.00000E+00 0.00000E+00 0.00000E+00
 -1      7670 1.98586E+00 7.97794E-02 1.96136E-02 2.73242E-02 1.37017E-01-1.39763E-01
 -1      7671-1.39900E-01-2.29162E-01-3.78530E-01 1.16736E-01-5.10317E-02-4.16452E-02
 -1      7672-1.49957E+00-6.38263E-02 2.93451E-01 1.57903E-01 9.66528E-02-7.48489E-01
 -1      7673-1.25791E+00-2.70627E-01-9.76294E-02 1.20936E-01-1.00670E-01 1.48528E-01
 -1      7674-4.13541E+00 1.20959E-01-1.20969E-01 4.38842E-01 2.24062E-01-3.87526E-01
 -1      7675-1.03351E+01-4.58909E-01-5.51113E-01 8.30079E-01 2.85744E-01 7.13019E-01
 -1      7676-2.29915E+00 2.16424E-01 1.17722E-01-2.85114E-02 8.29077E-02-4.45560E-01
 -1      7677-4.39306E-01 4.77858E-02-1.44492E-01 2.00683E-02-1.55373E-01 2.92730E-01
 -1      7678 1.04126E-01 2.15821E-03-5.23319E-02-5.84859E-02-8.60237E-03 3.28163E-02
 -1      7679 1.46889E+00-1.42863E-01-2.34589E-01-2.27575E-01-2.01592E-01 7.00498E-01
 -1      7680 1.26597E+00 1.68095E-01 2.65239E-01-1.23295E-01 6.67620E-02-1.59276E-01
 -1      7681 5.38263E+00 2.02991E-01 9.64982E-02-3.15416E-01-1.40992E-01 6.90379E-01
 -1      7682 2.25150E+00-1.02293E-01-4.09821E-01 1.29232E-01-1.10851E-01 1.21217E-01
 -1      7683 2.14853E+00-4.03481E-01-4.84912E-01-6.49298E-02-1.33790E-01-3.43611E-01
 -1      7684 8.94487E-01 3.98559E-02-2.14799E-01-4.91182E-02-2.03830E-02-9.76672E-02
 -1      7685 6.40877E-01 2.45764E-02-8.39196E-02 4.24862E-02-6.67713E-02-3.70890E-02
 -1      7686-9.76513E-02-1.56352E-01-3.82899E-01 2.52006E-02 2.35684E-02-1.31528E-01
 -1      7687 3.86741E-02-1.01294E-02 1.49439E-01 8.00398E-02 7.11035E-02-7.30129E-02
 -1      7688-2.55859E+00-1.06625E-01 2.37202E-01 2.02077E-02 1.93022E-01-1.33308E-02
 -1      7689-2.22928E+00 2.91701E-01 2.09812E-01 1.58587E-02 1.47081E-01 2.31044E-01
 -1      7690-7.07898E-01-1.15521E-01 1.17730E-01-8.45907E-02 1.67610E-02 8.87478E-02
 -1      7691-6.99412E-01 3.18203E-01 1.01213E+00-7.82798E-02 1.82065E-01 4.10892E-01
 -1      7692-7.15278E-01-3.16408E-01-4.29817E-01-7.08262E-02-4.12495E-02-8.61584E-02
 -1      7693 3.09740E+00-3.74085E-01-7.45799E-01-2.85662E-01-3.24141E-01-3.56647E-01
 -1      7694 1.59861E+00 2.60353E-02-4.42957E-01 1.97347E-01-4.20979E-02-8.88353E-02
 -1      7695 1.76634E+00 6.56328E-02-3.52655E-01 4.16767E-02 3.71657E-03-4.87600E-02
 -1      7696 4.90546E-01-4.19431E-01-7.72025E-01 2.73409E-02-6.35960E-02-1.12404E-01
 -1      7697 6.65321E-01 1.47102E-01-3.15282E-02-1.01457E-01 4.38232E-02 4.92720E-02
 -1      7698 1.36317E-03-8.87878E-02-1.98853E-01-4.00379E-02-2.41252E-02-8.07116E-02
 -1      7699-6.50446E-01 1.27487E-01 5.76100E-02-1.61120E-02 6.84338E-03-5.32978E-02
 -1      7700-8.67994E-01-4.98069E-02 1.72484E-01-3.50697E-02-9.60846E-02 8.22470E-02
 -1      7701-7.06459E-01-1.15831E-01 2.71885E-01-8.30941E-02 4.99629E-02-5.72504E-02
 -1      7702-1.76358E+00 1.80882E-01 1.18544E-01-5.79358E-02-9.92709E-02-8.81225E-02
 -1      7703-1.29670E+00 3.11200E-01 5.59273E-01-1.15115E-01-6.70963E-02 1.70238E-01
 -1      7704-8.59188E-01-2.98888E-02 3.09671E-01 8.66170E-02 7.75447E-02-4.58675E-02
 -1      7705-1.39323E+00 1.62076E-01 2.81165E-01-3.67034E-01-4.22795E-02-7.57435E-03
 -1      7706-1.67236E-01 7.49732E-01 3.67421E-01-2.90371E-01-2.72098E-01-3.94153E-02
 -1      7707-1.67936E+00-2.05914E-01 1.78089E-01 2.12059E-01 5.52707E-02 1.54603E-01
 -1      7708-2.41539E+00 1.35434E-01 7.97537E-02-1.07336E-01-4.94666E-02 4.53902E-01
 -1      7709-2.06883E+00 1.31538E-01 1.12659E-01 4.06607E-02-6.28020E-02-1.32858E-01
 -1      7710-5.09467E-01-7.94480E-02 2.74262E-01-5.59016E-02 4.95195E-02 3.45038E-02
 -1      7711-1.14079E+00 4.69290E-02 8.37948E-02 1.22613E-01 8.22899E-02 1.60695E-01
 -1      7712-1.43534E+00 2.82502E-01 3.72796E-01 1.38796E-01-5.63119E-02-5.71667E-02
 -1      7713-6.92233E-01 2.98399E-02 2.18823E-01 3.14003E-02-8.08512E-02-5.95968E-02
 -1      7714 3.05589E-02-5.30687E-02 5.76326E-02 3.74703E-04 2.31346E-02 4.46322E-02
 -1      7715 3.86033E-01 6.85800E-02-3.33142E-02 6.30181E-02-2.32084E-02 3.37528E-02
 -1      7716 5.35883E-01 3.51407E-03-1.01348E-01-3.70108E-02-3.45118E-02 7.19177E-03
 -1      7717 2.15633E+00-3.97577E-01-5.11488E-01-9.00540E-02 2.12306E-01 4.77215E-01
 -1      7718 1.76550E+00-6.33542E-02-3.21593E-01 5.75380E-02 3.46776E-02-2.89647E-01
 -1      7719 6.54274E-01-5.23330E-02-3.77698E-01-2.32954E-01-1.08381E-01 6.92400E-03
 -1      7720 2.08063E+00 8.23054E-02-1.73477E-01 1.82797E-01 1.84797E-02-5.36913E-02
 -1      7721 2.20593E+00-2.45887E-01-3.35555E-01-1.79652E-01 2.50311E-01 3.87827E-01
 -1      7722 1.64423E+00 1.38175E-01-2.74242E-01-2.69253E-01-7.85940E-02-1.52508E-01
 -1      7723 2.82580E+00-2.99482E-01-4.76065E-01 2.13413E-01 1.33565E-01-5.52817E-01
 -1      7724 0.00000E+00 0.00000E+00 0.00000E+00 0.00000E+00 0.00000E+00 0.00000E+00
 -1      7725 0.00000E+00 0.00000E+00 0.00000E+00 0.00000E+00 0.00000E+00 0.00000E+00
 -1      7726 0.00000E+00 0.00000E+00 0.00000E+00 0.00000E+00 0.00000E+00 0.00000E+00
 -1      7727 2.89804E+00-4.59046E-01 1.16819E+00-1.26683E+00-1.88330E-01-4.55704E-01
 -1      7728 4.91126E+00-3.28522E-01-3.62279E-02-1.06340E+00-1.79017E-01 4.24128E-01
 -1      7729 4.16470E+00-7.42612E-02-4.57103E-01 4.59226E-01 2.36542E-01-4.78082E-01
 -1      7730 1.46742E+00-2.19272E-01-3.01212E-01 6.82290E-02 1.39239E-01-1.69483E-01
 -1      7731 3.77228E+00 1.10058E-01 4.06312E-02 1.40013E-01 3.89236E-02-4.68479E-01
 -1      7732 4.39105E-01 7.80971E-02-6.88787E-02-1.01391E-01 1.17254E-01-2.03674E-01
 -1      7733-8.84110E-01-1.85256E-01-1.78923E-01-4.92036E-02-4.86755E-02-7.32414E-01
 -1      7734-2.38037E+00 2.74600E-01-9.97153E-03 1.16049E-02-4.42194E-02-5.09107E-01
 -1      7735-5.10959E+00-2.57931E-01-2.53590E-01 7.18747E-03-2.64685E-01-8.05359E-01
 -1      7736-1.93008E+00-4.24401E-02-1.61672E-01-2.23634E-01 1.50615E-01 3.18998E-01
 -1      7737-5.31228E+00 1.28562E-01 2.04931E-01-2.70535E-01-1.96587E-01-5.56231E-01
 -1      7738-8.02813E+00 6.00783E-02 8.39232E-01-7.72224E-01-6.64876E-01-9.38762E-04
 -1      7739-7.94216E+00-2.49031E-01-7.21979E-01 1.00488E+00 3.71356E-02-3.70660E-01
 -1      7740-2.27712E+00 2.58279E-02 9.94090E-02 3.64635E-01 3.14258E-01-2.84248E-01
 -1      7741-1.35263E+00 8.08387E-01 8.93082E-01-4.74846E-01-3.01719E-02 6.56634E-01
 -1      7742-5.31192E+00 1.66034E-01-3.60671E-01-8.35955E-01-1.98463E-01 2.04628E+00
 -1      7743-2.92141E+00-2.04019E-02 3.63479E-01-1.37985E-02-1.00708E-01 3.60456E-01
 -1      7744-5.46366E+00-4.42111E-01 7.67882E-02 8.78308E-02-3.58920E-01 2.96675E-01
 -1      7745-3.29050E+00-3.80635E-01 5.10662E-02-2.09763E-03 1.41288E-01 4.46986E-01
 -1      7746-5.20336E-01 1.44078E-01-1.20579E-01-1.71067E-01-1.93422E-01 2.35184E-01
 -1      7747 1.75500E+00 4.95362E-01 2.63867E-01 8.97070E-02 1.77273E-01 8.95602E-01
 -1      7748 2.48473E+00 2.64305E-01 5.23558E-01-2.79075E-01-1.32774E-01 8.47185E-01
 -1      7749 8.82391E-01-6.01049E-02 2.98707E-01 1.98470E-01-2.75080E-01-8.04415E-03
 -1      7750 2.28824E+00-4.19441E-01 8.46617E-02 4.96784E-02-4.98809E-02 5.19244E-01
 -1      7751 5.22993E+00-8.30800E-02-2.31142E-01 2.39287E-01 1.20552E-01 5.86902E-01
 -1      7752 5.31907E+00 6.46153E-01 7.75111E-01-3.67730E-01 2.25037E-01 1.11913E+00
 -1      7753 4.61819E+00 2.75564E-01 1.12344E+00 2.84350E-01-5.25467E-02 3.12522E-01
 -1      7754 7.10184E+00 1.21166E-01 8.70556E-02 2.56118E-01 1.42670E-01 2.40328E-01
 -1      7755 5.71670E+00 1.90115E-01 7.27105E-01 7.66526E-01-1.27009E-01-7.62590E-01
 -1      7756 9.05687E+00 1.67423E+00 1.23584E+00 5.00424E-01 2.78258E-01 1.05127E-01
 -1      7757 0.00000E+00 0.00000E+00 0.00000E+00 0.00000E+00 0.00000E+00 0.00000E+00
 -1      7758 9.34020E+00 6.45737E-01 1.14235E-01-3.81099E-01 3.38659E-01 3.37499E-01
 -1      7759 4.98307E+00-4.02074E-01-8.56226E-01-3.05838E-01 2.32316E-01-6.61925E-01
 -1      7760 5.62461E+00 4.93911E-01-1.93032E-01-8.07976E-02-4.20904E-03-6.03957E-01
 -1      7761-5.54512E+00-6.17794E-01-4.77106E-01 3.73036E-01-1.08058E-01-1.16672E+00
 -1      7762-7.53758E+00-3.68310E-01 4.25605E-01 2.92076E-01-1.19265E-01 6.52715E-02
 -1      7763-1.42620E+00-1.78005E-01-5.69345E-01-2.22749E-01 1.01405E-02 7.74499E-01
 -1      7764 1.98681E+00-9.67038E-02-3.57534E-01 2.57330E-02 1.51534E-01 5.51418E-01
 -1      7765 4.95856E+00-1.44705E-01-4.03050E-01-2.68481E-01 5.22369E-01 8.39833E-01
 -1      7766-8.00802E-03-2.84594E-01-8.03803E-01 1.78951E-01 3.23866E-03-6.11114E-01
 -1      7767 0.00000E+00 0.00000E+00 0.00000E+00 0.00000E+00 0.00000E+00 0.00000E+00
 -1      7768-1.01798E+00-5.42216E-02-1.74885E-02-2.37649E-03-3.39597E-02-5.36351E-02
 -1      7769-2.62155E+00 2.15840E-01-7.37737E-02 5.41021E-01-7.57572E-02-3.63344E-01
 -1      7770-3.06083E+00-5.78942E-01-4.24891E-01-3.91712E-02-6.52473E-02 2.30495E-01
 -1      7771 2.35155E+00-3.18442E-01-1.74538E-01-4.49404E-01 2.10842E-01 3.45927E-01
 -1      7772 3.30284E+00 2.72444E-01 2.13741E-01 2.31798E-01 4.98595E-02-2.37052E-01
 -1      7773-8.53319E-01 1.25798E-02 2.62833E-01 2.81487E-02 8.98172E-03-1.69004E-01
 -1      7774-2.12693E+00-1.57738E-01-1.79996E-01-6.51227E-02-6.53962E-02-5.53439E-02
 -1      7775-3.31428E+00-3.62618E-01-2.15164E-01-2.26955E-02-1.49419E-01 1.61764E-01
 -1      7776-2.39607E+00 4.22274E-01 9.49924E-02-1.14275E-01-1.62188E-01 1.36125E-01
 -1      7777 1.50273E-01-3.46901E-02-1.13771E-05 1.44637E-01-8.08938E-04 5.01288E-02
 -1      7778 1.07095E+00 1.94835E-02-7.18719E-02 1.05576E-02-1.01580E-01 1.96758E-01
 -1      7779 0.00000E+00 0.00000E+00 0.00000E+00 0.00000E+00 0.00000E+00 0.00000E+00
 -1      7780-2.00722E-01 6.79333E-02 1.88931E-01-7.08552E-02-8.49637E-03 2.75762E-02
 -1      7781-1.24993E+00 2.26205E-01 9.03849E-02 6.17507E-02 1.93367E-01-7.78724E-01
 -1      7782-3.94513E+00 1.83552E-01 5.90349E-01-1.71603E-01 2.44277E-01-7.84365E-01
 -1      7783-1.12111E+01-4.82038E-01-7.72340E-01-2.70199E-01-3.21986E-01 5.74173E-01
 -1      7784-1.82453E+00 2.12884E-02-9.24844E-02-2.61114E-02-9.71160E-02 2.11806E-01
 -1      7785-3.35541E-01-1.06497E-01-1.70092E-01-3.04651E-02-3.28951E-02-2.51272E-02
 -1      7786 8.66390E-02 7.84025E-02 3.89795E-01 1.03469E-01 1.32974E-01-1.35312E-01
 -1      7787 3.51165E+00 4.00281E-01 3.08695E-01-8.06144E-02-7.60061E-02 6.14725E-01
 -1      7788 4.16301E+00 1.77461E-01 3.18651E-01 4.04321E-01 8.82521E-02-3.15077E-01
 -1      7789 1.81614E+00-5.53664E-02-4.86262E-02-5.29847E-02-1.75046E-02-5.55970E-02
 -1      7790 3.40850E+00 2.03516E-01 8.72321E-02 2.99138E-01 9.05420E-02-3.61556E-01
 -1      7791 5.20203E+00 4.59402E-03-3.41237E-01 1.70355E-01-1.27911E-01-4.46762E-01
 -1      7792 2.51258E-01 7.11395E-02 3.41869E-02 1.06066E-02 3.13859E-02 4.51654E-02
 -1      7793-5.66044E-01 1.17647E-01 5.01328E-01-2.04042E-01-9.60092E-02 1.47626E-01
 -1      7794-1.71787E+00-6.24195E-02 1.12425E-02-3.14309E-02 2.07608E-02 1.76678E-01
 -1      7795-2.07547E+00 9.44314E-02 4.00334E-01 2.96169E-01-1.26399E-01-1.44668E-01
 -1      7796-3.59068E+00-4.36822E-01-2.92720E-01-3.54243E-01-3.31357E-01 4.37969E-01
 -1      7797 3.06574E-01 2.52450E-02-1.53838E-01 2.97690E-02-2.71352E-02-1.37785E-01
 -1      7798 3.11159E-02 4.51751E-02-3.32117E-01 9.98805E-02-1.26905E-01-1.42120E-02
 -1      7799 1.51195E+00-3.05711E-01-3.67968E-01-3.03435E-01-8.87331E-02-1.96663E-01
 -1      7800 1.92709E+00-2.93406E-01-1.01263E+00 6.68040E-01 1.51061E-01-4.78545E-01
 -1      7801 5.84578E+00 8.16774E-01 6.97158E-01 2.01012E-01-2.78792E-01 6.36022E-01
 -1      7802 1.52070E+00-2.27419E-01-2.41167E-01 3.59426E-01 3.97354E-01 1.17343E-01
 -1      7803 2.61500E+00 1.23259E-01-7.01541E-01 1.01423E+00 4.03029E-01-1.15298E-01
 -1      7804 0.00000E+00 0.00000E+00 0.00000E+00 0.00000E+00 0.00000E+00 0.00000E+00
 -1      7805 1.74808E+00-1.89461E-01-3.95408E-01-6.50916E-02 2.11500E-01 1.45272E-01
 -1      7806 5.16632E-02-1.01692E-01-2.12438E-01 5.60787E-02-1.28062E-01 7.12099E-03
 -1      7807 6.42055E+00 1.22756E+00 4.23094E-01 2.51030E-01-7.25307E-01-3.74598E-01
 -1      7808 1.19103E-01-1.04933E-01-1.31759E-01-2.58342E-02-3.13915E-04-2.72370E-03
 -1      7809-2.77621E-01-9.95640E-02-1.54438E-02-1.19212E-01-7.49765E-02 8.78729E-03
 -1      7810-5.17969E-01 1.83980E-01 8.82747E-02 4.79431E-02-1.54685E-01 2.33237E-02
 -1      7811-5.40901E+00-5.16851E-01-5.38838E-01-4.51129E-02 5.17397E-02-8.15786E-01
 -1      7812-1.32792E+00 6.42157E-01 2.60457E-01 2.65880E-02-2.81893E-02-1.20601E-01
 -1      7813-4.69921E+00-7.41686E-01-4.38718E-01 7.92431E-02 5.88347E-02 6.99995E-01
 -1      7814 1.48532E-02-2.62289E-02 6.87479E-02-3.88422E-02-1.80815E-02-9.51919E-03
 -1      7815 2.94153E+00 8.56232E-01 4.30076E-01 2.12247E-01-2.06655E-01 5.14410E-01
 -1      7816 0.00000E+00 0.00000E+00 0.00000E+00 0.00000E+00 0.00000E+00 0.00000E+00
 -1      7817 1.15878E-01 2.58292E-01-2.57357E-01-2.47211E-02-5.22847E-02 1.09062E-01
 -1      7818 2.02591E-01 3.55988E-01 9.03624E-02 1.18614E-01 7.71184E-02-6.02347E-02
 -1      7819-9.25188E-01 3.65115E-03 2.96242E-01-3.29657E-02-5.54083E-02 1.02461E-01
 -1      7820-1.23363E+00-4.03099E-02 3.62208E-01-1.99284E-01-2.44339E-01-3.48157E-01
 -1      7821-4.72796E-01-5.91428E-02 5.75999E-02 2.36029E-01-7.98661E-02 3.02576E-02
 -1      7822 2.84494E-02-9.95557E-03-2.55443E-02 1.10748E-01-2.71896E-02-3.69439E-02
 -1      7823-3.34166E-01-6.94548E-02-1.09083E-01-1.21105E-01 2.46394E-02-1.86042E-03
 -1      7824 4.10260E-02-2.02571E-01 1.03053E-02 7.41732E-02-5.01820E-02-1.43990E-02
 -1      7825 5.47912E-01 1.85842E-01 4.54806E-02-2.26635E-01-8.20630E-02 1.30146E-02
 -1      7826 1.65572E-01 2.97476E-01 1.43788E-03-2.87882E-01-1.17447E-01 6.18586E-03
 -1      7827-1.60659E-01 3.01028E-02 2.33380E-01-2.89292E-01 2.80277E-01 7.50965E-02
 -1      7828-3.00669E-01-3.57576E-01-1.92086E-01 1.01606E-01-1.56920E-02 6.88482E-02
 -1      7829-8.99398E-02-1.49996E-01 7.64326E-02-4.12399E-02 2.03263E-02 8.07654E-02
 -1      7830-6.76671E-01 3.45553E-02 8.39442E-02-5.92750E-02 1.56537E-01-3.18894E-02
 -1      7831 0.00000E+00 0.00000E+00 0.00000E+00 0.00000E+00 0.00000E+00 0.00000E+00
 -1      7832-8.45579E-01 1.58778E-01 5.44913E-01 4.36909E-03-7.71721E-03 3.20654E-02
 -1      7833-1.63756E+00 2.47057E-01 4.72829E-01 4.09480E-01 3.20612E-01 1.33804E-01
 -1      7834-1.57891E+00 3.81925E-01 3.97450E-01-3.07460E-01 2.05593E-01-2.63093E-02
 -1      7835 7.00367E-01-2.36229E-01-5.62625E-01-7.35084E-02-9.98252E-02-5.78551E-02
 -1      7836 3.42820E-02 1.70844E-01 1.93607E-02-3.42416E-02-2.95531E-02 1.29016E-02
 -1      7837 1.82542E+00 2.11792E-01-4.26156E-01-5.54075E-01-9.53176E-02-3.10289E-01
 -1      7838 0.00000E+00 0.00000E+00 0.00000E+00 0.00000E+00 0.00000E+00 0.00000E+00
 -1      7839 7.07559E+00 1.47283E+00 1.38417E+00 4.50090E-01 4.91124E-01-1.12165E+00
 -1      7840 1.72847E+00-3.59752E-01-4.21776E-01-1.31787E-01-5.93739E-02-1.16279E-01
 -1      7841 1.11111E+00-2.55506E-01-2.72791E-01 1.60712E-01-1.10277E-01-1.69779E-02
 -1      7842 7.82202E-01-1.62787E-01-2.22064E-01-1.10201E-01 4.39388E-02-1.97923E-01
 -1      7843 5.77809E-01 1.62398E-01 3.55161E-01-7.37776E-02 2.70467E-01-2.20239E-01
 -1      7844-2.33105E+00-2.15538E-02-1.51298E-01 3.02007E-01-1.91425E-01-5.12155E-03
 -1      7845-1.84439E+00-1.08294E-01-5.62218E-02-8.37278E-02 7.72329E-02-4.37878E-02
 -1      7846-5.00126E+00-4.47826E-01-7.17632E-01 8.24682E-02-5.20063E-01-2.06896E-01
 -1      7847-2.33139E+00 5.55469E-01 6.68026E-01 5.29785E-01 2.60748E-01 3.42473E-01
 -1      7848-3.40409E+00 3.84027E-01 3.43597E-01 3.53273E-01-3.56755E-02 3.63733E-01
 -1      7849-4.05171E+00-4.77100E-01 5.01584E-01 7.21158E-02-5.91562E-01 1.22765E-01
 -1      7850-1.96005E-01-1.39932E-01-2.78205E-01 8.92849E-02-1.99967E-01 2.50548E-01
 -1      7851 4.37962E+00 6.33657E-01 7.31149E-01 2.09721E-01 3.94054E-01 3.42675E-01
 -1      7852 7.08345E+00 1.36980E+00 1.59130E-01-4.29267E-01 6.56794E-01 3.12977E-01
 -1      7853 1.18426E+00-2.47012E-01-1.37686E+00 6.90606E-01-1.86099E-01 2.38453E-02
 -1      7854 1.89059E+00-1.39339E-01-6.77950E-02-4.78687E-01-8.82607E-02-1.72325E-01
 -1      7855 7.77657E+00 6.13470E-01 8.03092E-01-4.66781E-01 2.63698E-01-1.12567E+00
 -1      7856 1.60705E+00 2.04335E-01 2.64725E-01-5.06487E-04-1.13063E-01-1.82301E-01
 -1      7857 7.26723E-02-4.13630E-02-1.17156E-02 2.06705E-02-2.29112E-02-1.41922E-01
 -1      7858-1.47223E+00-1.06539E-01 2.13770E-01 1.11406E-01 2.14611E-02-5.20887E-01
 -1      7859-6.58273E-01 1.74513E-01 3.19671E-01 2.21593E-02-4.99146E-02-5.27930E-02
 -1      7860-4.97826E+00-4.21349E-01-7.92254E-01-4.26910E-01 1.79485E-01-8.91509E-01
 -1      7861-2.37062E+00-3.16514E-01-2.28225E-01-1.09521E-01 1.82362E-01-8.60164E-02
 -1      7862-6.24334E+00-2.10573E-01-5.61761E-01-1.27414E-01 2.06973E-02-6.88722E-01
 -1      7863-1.03697E+00 4.86827E-01 1.65786E+00-6.44847E-01 3.39617E-01-1.63719E-01
 -1      7864-2.56816E+00-1.17074E-01-1.80978E-01-9.55434E-02 3.99299E-02 5.07734E-03
 -1      7865-1.82026E+00 2.00990E-01-6.09237E-02 2.25082E-01 1.88163E-01 9.95071E-02
 -1      7866-6.65089E+00-7.16922E-01-8.90208E-01 6.08765E-01-3.55857E-02 7.56185E-01
 -1      7867-5.67998E-01-4.54690E-03-1.39999E-01 1.38376E-01-3.82264E-02 2.15020E-02
 -1      7868-1.67868E+00-3.81684E-01-2.62656E-01-2.48624E-02 8.88686E-02 7.80111E-01
 -1      7869 3.29135E+00 7.99292E-01 1.00519E+00 2.58490E-01 2.54581E-01 8.04558E-01
 -1      7870 5.59485E-01-2.52855E-01-2.24419E-01 9.10888E-02-2.75157E-02 8.29299E-02
 -1      7871 1.96787E+00 5.74077E-01 6.00113E-01 2.87470E-01-3.36928E-02 1.16808E-01
 -1      7872 2.43192E+00 5.79451E-01 5.67514E-02 6.06314E-02-1.90159E-01 7.96624E-02
 -1      7873 2.71155E+00 1.39550E-01 4.14592E-02 6.59262E-02 6.09478E-02-7.09338E-02
 -1      7874 6.41931E+00 4.42374E-02 6.43057E-01 2.16305E-01-1.06169E-01 8.92374E-01
 -1      7875 3.80346E+00 7.21826E-01 3.09961E-01 2.64410E-01-8.24946E-02 2.70610E-01
 -1      7876 3.79234E+00 2.65452E-01 2.81592E-02-3.51788E-01 6.74330E-02-1.61029E-01
 -1      7877 3.81283E-02-3.52563E-02-7.98049E-04-2.84355E-02 3.68854E-02 1.57958E-01
 -1      7878 1.01368E+01 2.63218E+00 2.88393E+00-1.21516E+00-7.10909E-02 2.40436E+00
 -1      7879 4.19367E+00 6.77736E-01 2.24670E-01-5.46119E-04-1.70293E-01 4.14067E-02
 -1      7880-3.00925E+00-4.10463E-01-2.55826E-02 2.01564E-03 9.47952E-02 4.84493E-02
 -1      7881 0.00000E+00 0.00000E+00 0.00000E+00 0.00000E+00 0.00000E+00 0.00000E+00
 -1      7882 0.00000E+00 0.00000E+00 0.00000E+00 0.00000E+00 0.00000E+00 0.00000E+00
 -1      7883 0.00000E+00 0.00000E+00 0.00000E+00 0.00000E+00 0.00000E+00 0.00000E+00
 -1      7884 5.31860E+00 1.27122E+00 6.71834E-01-9.41235E-02 1.71918E-01 1.76503E-01
 -1      7885 6.26335E+00 1.28823E-02-3.77466E-01 3.85605E-01 8.44717E-02-2.32092E-01
 -1      7886 3.06178E+00-3.63605E-01 1.22411E-01 1.32074E-01-1.98807E-01 2.13289E-01
 -1      7887 4.29681E+00 6.50452E-02 1.37493E-01-3.28470E-01-2.44249E-02-1.00960E+00
 -1      7888 4.59441E+00 1.26341E-01 1.50729E-01 5.10846E-03-9.67684E-02-4.00448E-01
 -1      7889 1.67461E+00-1.93276E-01-5.06099E-01-6.79821E-02-8.27191E-02-5.28304E-01
 -1      7890 1.87021E+00 7.27211E-02 2.64310E-01 2.92799E-02-1.63454E-04-6.72099E-01
 -1      7891 1.47633E+00-2.68673E-01-4.15960E-01 3.04343E-02-1.21825E-01-7.63334E-01
 -1      7892 6.52689E-01 2.40034E-01 4.05702E-01-1.04272E-02 2.01368E-03-3.18329E-01
 -1      7893 4.84847E-01 1.19037E-01-2.44524E-01-3.51258E-02 6.31381E-02-5.54404E-02
 -1      7894-1.26518E+00-4.49227E-02-6.74467E-02-7.26635E-02 1.40636E-01-8.43599E-01
 -1      7895-1.33175E+00-1.59577E-01 9.04212E-02-2.51264E-01 1.51478E-01-6.55022E-01
 -1      7896-5.79059E+00 2.38614E-01-3.96012E-01-1.40763E-01 4.96091E-02-8.62568E-01
 -1      7897-2.42950E+00 3.58395E-01 1.88711E-01 3.55237E-02-4.76687E-02-2.01982E-01
 -1      7898-6.35283E+00-2.98086E-01-1.18243E-01-3.12624E-02 2.09159E-01 4.46272E-01
 -1      7899-2.13804E+00-7.58671E-01-1.19471E+00 1.09974E-01 7.21091E-02 8.09245E-01
 -1      7900-1.15702E+00 2.23008E-01 3.55542E-01-7.99957E-02 1.47089E-01 7.97659E-01
 -1      7901 9.67770E-02 3.15877E-02-9.65617E-02 2.13334E-02 3.85122E-02 3.54317E-01
 -1      7902-2.50073E-01-1.12524E-01 1.69029E-01 4.56610E-02-1.93298E-02-1.58231E-02
 -1      7903 1.01719E+00-6.36393E-02-2.68903E-02 6.32504E-02-1.52702E-01 6.75511E-01
 -1      7904 1.46051E+00 2.20928E-02 2.85450E-01 2.94895E-01-9.92650E-02 7.57082E-01
 -1      7905 6.02698E+00-3.61591E-01 3.42185E-01 4.98766E-01-1.39082E-01 1.20448E+00
 -1      7906 0.00000E+00 0.00000E+00 0.00000E+00 0.00000E+00 0.00000E+00 0.00000E+00
 -1      7907 0.00000E+00 0.00000E+00 0.00000E+00 0.00000E+00 0.00000E+00 0.00000E+00
 -1      7908 0.00000E+00 0.00000E+00 0.00000E+00 0.00000E+00 0.00000E+00 0.00000E+00
 -1      7909 2.82517E+00-4.20061E-01-5.22408E-01-1.10930E-01-3.13347E-02-3.90195E-01
 -1      7910 5.50094E+00 3.54614E-01 2.59864E-01 4.01224E-03 5.16857E-02-1.04519E+00
 -1      7911 2.23049E-01-2.19019E-02-1.46329E-01 1.42349E-02-3.34525E-02-3.52452E-02
 -1      7912-1.38099E+00-3.76751E-02 1.69877E-01-6.47338E-02 1.72054E-02-4.73908E-01
 -1      7913-7.27541E-01 2.02337E-02 1.06412E-01 8.19217E-03-2.91037E-02 2.46157E-02
 -1      7914-1.82318E+00 1.54569E-01 1.27036E-01 3.11236E-02-3.59123E-02-1.55614E-01
 -1      7915-3.08881E+00 4.45576E-01 2.51503E-01 8.34340E-02 4.32882E-02-5.61311E-01
 -1      7916-2.72832E+00 3.98640E-01 3.80790E-01-1.32569E-02 4.59013E-02 3.49973E-01
 -1      7917-4.42978E+00 1.66972E-01 2.64928E-01 1.05591E-02 9.68329E-02 8.84912E-01
 -1      7918 1.40166E+00-1.22663E-01-1.90002E-01 1.01969E-01-1.70310E-01 4.06469E-01
 -1      7919 2.26312E+00 1.29009E-01-2.93644E-01 5.99786E-02 4.10774E-02-3.28672E-01
 -1      7920 3.61792E+00-9.57685E-01-6.04618E-01 1.46120E-01-4.85425E-02 7.20473E-01
 -1      7921 2.76224E+00-2.56686E-01-2.71842E-01-3.56296E-02-1.55597E-02 2.60366E-01
 -1      7922 0.00000E+00 0.00000E+00 0.00000E+00 0.00000E+00 0.00000E+00 0.00000E+00
 -1      7923 3.19120E+00-1.17531E-01-4.46316E-02 2.15501E-01-1.38785E-01-4.09567E-01
 -1      7924 5.04688E+00 4.17383E-01 5.11728E-01-2.15018E-01 3.54469E-01-8.44156E-01
 -1      7925 1.64581E+00-1.45177E-01 9.90916E-02 3.29610E-02 1.35059E-01-9.27992E-01
 -1      7926 1.59043E+00-1.09589E-01 2.03229E-01-1.24405E-01 7.20818E-02-8.18672E-01
 -1      7927-1.08470E+00 1.57454E-01-3.03161E-01-1.17799E-01 5.99537E-02-1.95180E-02
 -1      7928-2.57438E+00 9.23117E-02-4.08483E-01-1.94285E-01-7.01266E-02-5.35717E-01
 -1      7929-4.06992E+00-7.69340E-02-3.42190E-01 1.88091E-01-6.28083E-02-9.33413E-01
 -1      7930-2.24423E+00 2.77244E-01-3.05590E-01-3.86248E-02-9.16827E-02 1.57306E-02
 -1      7931-6.81082E+00-3.14075E-01-7.99052E-02-4.01635E-02-5.69344E-01-2.20398E-01
 -1      7932-6.33327E+00 1.83079E-01-9.35503E-02-2.58727E-01 1.66925E-02-1.03022E-01
 -1      7933-1.03643E+01-4.08303E-01-1.12740E+00-2.09731E-01-1.12049E-01-1.41701E-01
 -1      7934-3.40274E+00 3.55913E-01 7.97072E-02 2.33498E-01-1.25936E-01-4.28737E-01
 -1      7935-7.99447E+00-2.79541E-01-2.81415E-01 5.14344E-01-1.97140E-01 1.19497E-01
 -1      7936-3.26388E+00-3.42659E-02 1.06684E-01 1.41239E-02-6.66300E-02 5.15588E-01
 -1      7937-1.72877E+00-1.76339E-01-3.01166E-01-3.50406E-01-5.23622E-01 6.72752E-01
 -1      7938 9.34858E-01 2.85371E-01 2.47569E-01 5.79541E-02 8.79646E-02 7.45729E-01
 -1      7939 1.04592E+00-6.01897E-02-1.55652E-01-3.78312E-03-4.42342E-02 6.70782E-02
 -1      7940 3.47251E+00 8.17812E-02 1.80743E-01-2.18712E-01-1.62673E-02 6.37521E-01
 -1      7941 2.15767E+00-6.07651E-01-2.02066E-01-9.70341E-03 3.84998E-02-5.14575E-02
 -1      7942 8.12529E+00 2.33210E-01-1.10108E-01 4.02353E-01 3.83320E-01-1.83710E-01
 -1      7943 4.92335E+00 2.12437E-01 1.49407E-01-3.18063E-01 3.42291E-01 1.31308E+00
 -1      7944-5.54803E+00-3.34285E-01 4.93521E-02 1.49969E-02-1.63569E-01-1.04012E+00
 -1      7945-3.52627E+00 2.04506E-01 4.06817E-01 1.31412E-01-1.55833E-01 6.10885E-01
 -1      7946 5.23725E-01 1.97994E-01 6.46029E-02-6.59289E-03-1.14312E-01-3.43220E-01
 -1      7947-1.25937E+00-2.74879E-01-1.87398E-01 4.83533E-02-2.12125E-03-7.91337E-02
 -1      7948-2.32507E+00-2.25083E-01 2.69787E-01-2.37835E-01-1.89996E-01-5.32238E-02
 -1      7949-2.80485E+00 1.20881E-01-1.38996E-02 6.77477E-01-8.68892E-02-2.43421E-01
 -1      7950 2.57116E+00 2.89673E-01-2.04411E-01 2.67214E-01 1.66985E-01-6.58161E-02
 -1      7951 4.42739E+00 6.48407E-01 4.92340E-01 7.91831E-02-1.71086E-01-2.73318E-01
 -1      7952 3.01105E+00 5.59925E-01 3.93493E-01 6.65897E-02-9.93778E-02-8.92295E-02
 -1      7953 2.10296E-01 7.58955E-02 1.19440E-01-6.01181E-02-4.49804E-02-9.37667E-02
 -1      7954-6.09331E-01 4.73983E-02 1.06987E-01-2.75379E-02 8.00934E-02-1.45586E-01
 -1      7955-1.91733E+00 1.75678E-02-3.12949E-01 3.68339E-01-1.32852E-01-3.17190E-01
 -1      7956-3.81191E+00-7.22597E-01-6.06366E-01 6.35833E-02-7.92278E-02-2.09089E-02
 -1      7957-4.82368E+00-4.76309E-01-6.36401E-01 1.25953E-01-3.09013E-02 4.12408E-01
 -1      7958-1.14127E+00 5.31962E-02 4.68359E-01 2.37105E-01-7.05860E-02 5.84114E-02
 -1      7959-1.25954E+00-2.67250E-01-2.31607E-01 6.70993E-02-1.91916E-02 2.38859E-02
 -1      7960 7.26075E-02-1.36125E-02-3.58382E-02 1.25377E-02-1.19060E-02 8.70136E-02
 -1      7961 1.16702E+00-7.80533E-02-3.45206E-01 5.80695E-02 1.36482E-02 2.32779E-01
 -1      7962 3.43348E+00 5.04815E-01 4.63077E-01-7.73661E-01 1.01622E-01 2.39676E-01
 -1      7963 0.00000E+00 0.00000E+00 0.00000E+00 0.00000E+00 0.00000E+00 0.00000E+00
 -1      7964 4.90990E+00 1.86007E-01 1.28132E-01 4.69630E-01-4.37688E-02-3.56964E-01
 -1      7965 2.79678E+00 7.61100E-02 1.95120E-01 1.05509E-01 2.00482E-01 1.03167E-01
 -1      7966 2.16942E+00 3.53901E-01 1.32762E-01 4.56284E-02 7.95335E-02-3.12268E-01
 -1      7967 2.49610E-01-9.50087E-02-3.55874E-01-3.31150E-02-8.81163E-03 2.70528E-03
 -1      7968 2.33952E-01 1.47715E-01 4.10001E-01-3.94392E-02 5.60924E-03 4.33164E-02
 -1      7969-2.95120E+00 1.24314E-01 6.68017E-02-3.98506E-03 5.26795E-02-3.51412E-01
 -1      7970-3.80217E+00-5.68372E-01-6.81885E-01-5.50059E-02-4.35487E-02 6.64048E-02
 -1      7971-4.82802E+00-6.15554E-01-3.44083E-01 1.52438E-01-2.21119E-01 8.77438E-01
 -1      7972-4.35527E-01-8.30355E-02-6.32101E-02-6.98363E-02-2.13550E-02 2.45310E-01
 -1      7973-1.44339E-01 7.32762E-02 6.29216E-02-1.31919E-02 5.40206E-02-5.52312E-02
 -1      7974-1.36997E-01-3.59819E-01-5.85012E-01-4.25387E-02-4.54619E-02-6.00637E-02
 -1      7975 2.16156E+00-5.04349E-02 1.16999E-01-1.93778E-02-4.71234E-03 2.24299E-01
 -1      7976 9.98275E-01 3.57468E-02-8.49567E-01 2.55937E-01-7.91253E-03-5.13375E-02
 -1      7977 3.96521E+00 6.17193E-01 2.40210E-01 1.56323E-01 1.36950E-01 1.66067E-02
 -1      7978 2.76368E+00-1.18752E-02-6.72851E-02 2.01749E-01 1.01860E-01-5.93618E-01
 -1      7979 1.63394E+00-9.26336E-02-3.68512E-01-1.92578E-01 1.90005E-01 8.31991E-02
 -1      7980 5.74727E+00 1.36150E-01 4.30794E-01 6.32682E-03 2.62472E-01-1.27089E+00
 -1      7981 1.57160E+00-4.97788E-02-4.07271E-02-1.20204E-02-6.20223E-02-6.49974E-01
 -1      7982 1.81939E+00-2.87866E-01-1.01516E-02-9.84091E-02 2.07904E-01-6.68317E-01
 -1      7983 2.16864E-02 3.41705E-01 5.89864E-01 4.93069E-02 5.33250E-02-1.62296E-02
 -1      7984-1.53644E+00 1.12381E-01 4.44785E-01-2.69850E-01 2.99454E-02 1.54469E-01
 -1      7985 1.85077E+00-1.64675E-01-3.83745E-01-1.95498E-01 3.49229E-01 9.69592E-02
 -1      7986 0.00000E+00 0.00000E+00 0.00000E+00 0.00000E+00 0.00000E+00 0.00000E+00
 -1      7987 6.13887E+00 8.10928E-01 7.69185E-01 1.36110E-01-1.31161E-01-1.23610E+00
 -1      7988 7.40831E-01 9.15505E-02 4.60068E-03 1.66845E-01 2.94332E-02 1.63579E-01
 -1      7989 8.76111E-03-3.32137E-01-4.56244E-01 6.82188E-02-3.87839E-04 8.32367E-02
 -1      7990-2.01299E+00-6.23348E-01-3.47414E-01-3.63607E-01 2.43934E-01-4.14909E-01
 -1      7991-6.53404E-01-1.86578E-02 2.63502E-02 1.00484E-01-1.01314E-01 2.67126E-02
 -1      7992-1.16532E+00 1.65715E-01 2.75369E-01 6.36832E-02-6.09228E-02 8.08955E-03
 -1      7993-1.84833E+00-2.78151E-01-7.16744E-02-5.32591E-01-4.57601E-02 3.03734E-01
 -1      7994-2.47334E-02 1.92066E-01 2.28640E-01-6.69550E-02-2.24313E-02 5.73698E-02
 -1      7995 7.45042E+00 9.09838E-01 5.17049E-01 2.07016E-01-4.84646E-01 5.91082E-01
 -1      7996 0.00000E+00 0.00000E+00 0.00000E+00 0.00000E+00 0.00000E+00 0.00000E+00
 -1      7997-5.76841E-02 1.71978E-01 2.76613E-01 2.75705E-02 1.19633E-02 3.38529E-02
 -1      7998 1.82359E-01-1.65126E-01-2.83119E-01-4.05710E-02-6.94587E-02-4.63094E-02
 -1      7999 1.79032E-01 2.88621E-01-2.33491E-01 5.66073E-02 6.02099E-02-9.43301E-02
 -1      8000 2.01916E-01 2.41319E-01-3.71601E-02-9.33184E-02-9.22532E-02-6.94608E-02
 -1      8001-9.58874E-02 1.26789E-02 1.08574E-01-7.69652E-03 2.68004E-02 1.55380E-02
 -1      8002 1.22331E+00 1.53415E-01-6.36782E-02 2.97999E-02-2.20240E-01 8.19167E-02
 -1      8003 1.47442E-01 3.04946E-01-6.16440E-03-1.49869E-01-7.21025E-02 9.08516E-03
 -1      8004-3.61837E-02 1.03425E-01 8.53375E-02-1.82604E-01 2.90362E-01-8.79728E-02
 -1      8005 7.38842E-01-2.92108E-01-1.80913E-02 8.42801E-03-5.38282E-02 9.98236E-02
 -1      8006 0.00000E+00 0.00000E+00 0.00000E+00 0.00000E+00 0.00000E+00 0.00000E+00
 -1      8007 0.00000E+00 0.00000E+00 0.00000E+00 0.00000E+00 0.00000E+00 0.00000E+00
 -1      8008-6.15442E-03-6.58260E-01-5.94797E-01 9.84550E-02-4.46677E-01-3.74484E-01
 -1      8009 1.84516E+00-8.54634E-02-3.92235E-01 5.66761E-01-1.79055E-01 1.33445E-01
 -1      8010-5.32594E-01 5.58283E-02 3.50102E-01 2.58751E-02 6.12829E-02 1.77991E-02
 -1      8011-1.75605E+00 1.38553E-02 3.43455E-01 1.51910E-01 1.33273E-01 2.70116E-01
 -1      8012-2.95687E-01 5.90536E-01 5.35155E-01-1.17680E-01 8.13614E-02 1.41909E-02
 -1      8013-1.68544E+00 1.59608E-01 3.47690E-01-3.42143E-02 1.09310E-01 7.02982E-02
 -1      8014-9.72351E-01 8.49523E-02 3.44360E-01-2.51573E-02 1.37122E-01-1.10801E-01
 -1      8015 8.25694E-01-9.33484E-02-1.94215E-01-1.82470E-01-1.66234E-01-5.38800E-02
 -1      8016 1.96443E+00-1.13005E-01-5.24703E-01-3.23937E-01-1.39571E-01-1.87044E-01
 -1      8017-8.39898E-02 3.98162E-01-1.02402E-01 7.30294E-02-5.46263E-03-6.50747E-02
 -1      8018 2.47783E+00-5.61454E-01-3.88517E-01 6.76148E-02-1.70687E-01-1.40601E-01
 -1      8019 0.00000E+00 0.00000E+00 0.00000E+00 0.00000E+00 0.00000E+00 0.00000E+00
 -1      8020 7.67865E+00 9.66720E-01 1.42048E-01-5.08971E-02 6.76007E-01-9.86206E-01
 -1      8021 1.65886E+00-3.41976E-01-1.09336E-01-2.22627E-01-1.74343E-01-1.38484E-01
 -1      8022 1.82530E+00 1.16651E-01-4.04695E-02-3.20961E-02-7.78416E-02-4.22958E-02
 -1      8023 1.67421E+00 2.96798E-01 3.67816E-01 3.39619E-02 8.75734E-03-8.41245E-02
 -1      8024-4.20686E-01-9.69163E-02-5.01207E-02-1.14386E-01-1.83684E-03 1.79131E-01
 -1      8025-1.68681E+00 8.40683E-02-1.53192E-01-5.95494E-01-5.64963E-02 1.03986E-02
 -1      8026-7.43370E+00-8.36582E-01-7.62178E-01 1.35718E-02-3.80186E-01-2.36251E-01
 -1      8027-4.47567E-01 3.14579E-01 4.74612E-01-3.45840E-01 7.48334E-02-4.46823E-02
 -1      8028-4.54464E-02 8.94172E-02 7.31735E-02-1.27937E-02-1.15565E-02 3.05121E-02
 -1      8029 2.46749E-01-1.15821E-01-2.70902E-01-1.06479E-01-7.26395E-02-2.23545E-02
 -1      8030 4.65753E-01-4.89454E-02-1.93299E-01 7.00708E-02-1.27815E-01-8.21371E-02
 -1      8031 4.10335E+00-2.48058E-01 5.24932E-01 1.62407E-01 3.79189E-01 5.23923E-01
 -1      8032 8.76477E+00 1.55618E+00 1.42553E+00 2.58012E-01 5.56832E-01 1.01480E-01
 -1      8033 1.58301E-01-3.17980E-01-5.64170E-01 4.94457E-01-7.07265E-03 2.63015E-01
 -1      8034 2.63182E+00 1.56052E-01-2.00289E-02 8.37899E-02-1.72977E-02-1.13514E-01
 -1      8035 6.65200E+00 3.76233E-01-1.14697E-01-1.07150E-01 1.54043E-01-5.58986E-01
 -1      8036 4.90072E+00-3.29215E-02 8.35512E-01-1.41449E-01-4.98580E-02-4.36716E-01
 -1      8037 1.78992E+00 3.61725E-01 1.47728E-01-1.77473E-01-1.85051E-02-1.83673E-01
 -1      8038 2.00446E-01 4.39873E-02 9.05634E-02 3.49742E-02 2.79726E-02-1.67195E-01
 -1      8039-2.13264E+00-6.83162E-02-2.96922E-02-1.76365E-01-8.29535E-02-1.97906E-01
 -1      8040-1.83741E+00-1.24690E-01 2.30137E-02-6.91243E-02 9.02066E-02-3.26928E-02
 -1      8041-2.88767E+00-5.49196E-01-4.20951E-01-2.80868E-01-9.59008E-02 4.88873E-02
 -1      8042-3.64740E+00-4.18683E-01-4.22964E-01-1.18951E-02 1.26561E-01-2.21500E-02
 -1      8043-2.78618E+00-2.53664E-01-1.79619E-01-4.24235E-02 8.51424E-02 6.39597E-02
 -1      8044-1.60634E+00 8.11332E-02 6.79298E-02 4.36312E-01 2.47773E-01 2.48659E-01
 -1      8045-6.12100E+00-1.09881E+00-8.79044E-01-4.18633E-02-6.70898E-02 1.07585E+00
 -1      8046-1.53280E+00-1.31976E-01 2.75926E-02 7.13945E-02 1.02201E-01-7.77896E-02
 -1      8047-6.12423E-01 1.24477E-01-7.52414E-02-1.15895E-02 8.10241E-02 2.05153E-02
 -1      8048-1.43537E+00-7.93816E-02 1.05047E-01 2.18706E-02 2.12711E-01 7.48465E-01
 -1      8049 1.07800E-01 1.70476E-02-6.75649E-02-1.30109E-02-2.23429E-02 8.81837E-02
 -1      8050 2.24461E+00 2.68077E-01 5.11302E-02-9.57726E-02-1.46457E-01 1.51379E-01
 -1      8051 3.67286E+00 3.83267E-01 4.20207E-01 1.86191E-01 6.70055E-02 1.50086E-01
 -1      8052 2.79949E+00 1.36889E-01-2.62045E-01 8.70815E-01-1.66222E-01 3.49894E-01
 -1      8053 0.00000E+00 0.00000E+00 0.00000E+00 0.00000E+00 0.00000E+00 0.00000E+00
 -1      8054 0.00000E+00 0.00000E+00 0.00000E+00 0.00000E+00 0.00000E+00 0.00000E+00
 -1      8055 3.08313E+00 1.94049E-01-1.64690E-01-5.94821E-03 1.31610E-01-4.54369E-01
 -1      8056-9.41469E+00 4.07113E-01 6.64030E-01 3.81471E-01 2.85493E-01-8.57523E-02
 -1      8057-3.30153E+00-3.42695E-01-5.05560E-01 9.27006E-02-1.35644E-01-7.19134E-03
 -1      8058 3.21664E+00 8.16503E-02-1.80694E-01 1.69937E-01-2.06478E-01 2.09630E-01
 -1      8059 9.78409E+00 3.35339E+00 3.23575E+00 5.61279E-01 3.63631E-01 1.64874E+00
 -1      8060 6.47305E+00 4.98809E-01 8.52499E-01 1.08031E+00-4.10785E-01 5.91282E-01
 -1      8061 5.39084E+00 6.19373E-01 4.28993E-01-3.65830E-02-3.90723E-01-9.76539E-01
 -1      8062 6.34423E+00 2.24675E-02-3.31661E-01 2.37288E-01-8.66784E-02 4.78809E-01
 -1      8063 2.77079E+00-2.79427E-02-5.91953E-02 1.37360E-01 5.90463E-02 1.82082E-01
 -1      8064 2.96689E+00-9.86437E-02-3.05528E-01-2.47986E-02-2.89845E-01-5.44045E-01
 -1      8065 4.12447E+00 6.38750E-01 2.00649E-01-8.04348E-03 5.16851E-03-6.45353E-01
 -1      8066 1.66927E+00 9.45738E-02-4.26404E-03-1.52781E-01-2.20014E-01-7.96988E-01
 -1      8067 2.45822E+00 4.35795E-01 7.72394E-01-2.48685E-01-1.74978E-01-8.34024E-01
 -1      8068 2.02081E+00 2.21110E-01 6.78549E-02-1.24669E-01 7.55556E-02-6.57765E-01
 -1      8069-1.14067E+00-1.39100E-01-1.37147E-01 4.84134E-01 2.31812E-01-5.83534E-01
 -1      8070-1.17900E+00-4.74492E-02 2.75975E-02 1.42125E-01 8.77509E-02-2.55279E-01
 -1      8071-2.52671E+00-6.94727E-02 1.39484E-01-1.94437E-01 1.23275E-01-5.78102E-01
 -1      8072-4.38728E+00-1.95682E-01 2.96156E-01 2.33243E-02-1.42972E-01-1.04895E-01
 -1      8073-1.95161E+00 2.11713E-02 2.36336E-01 1.37144E-01-8.69728E-03 1.42113E-01
 -1      8074-6.71172E+00-6.59584E-02-1.07722E+00-1.01211E+00 4.88636E-01-1.39545E+00
 -1      8075-3.61073E+00-2.00023E-01-1.48280E-01 1.23617E-01 2.66578E-02 9.42943E-01
 -1      8076-6.33328E+00 1.54083E-01 1.22994E-01-9.84503E-02 2.74840E-01-2.75083E-02
 -1      8077-2.62455E+00 9.94217E-02 2.99711E-01-1.82575E-01-6.43197E-02-3.20299E-01
 -1      8078-5.70804E+00-5.71310E-01-7.05086E-01 2.25441E-01 1.59411E-01 9.99606E-01
 -1      8079-4.69901E+00-3.19648E-01-1.86720E-01-2.10002E-01 2.83399E-01 7.68103E-01
 -1      8080-2.05034E+00-3.45858E-01-9.25273E-01 4.55103E-02-8.41630E-02 8.39751E-01
 -1      8081-1.02334E+00 4.12329E-02 2.51464E-01 7.61670E-02-3.75124E-02 7.48527E-01
 -1      8082 1.43695E+00 8.26580E-02-3.80627E-02 3.61697E-01 5.63968E-02 8.19423E-01
 -1      8083 1.05827E+00-4.74419E-02-3.96032E-01 1.27750E-01-5.84801E-02 4.51444E-01
 -1      8084 2.83210E+00 2.82195E-01 6.18949E-01 9.94595E-02 1.91769E-01 2.51915E-01
 -1      8085 2.44707E+00 1.33575E-01-3.87098E-01-8.51418E-02-7.74143E-03-1.31010E-01
 -1      8086 5.42249E+00-1.22796E+00-2.83333E-02 3.38317E-01 1.95328E-01 1.12173E+00
 -1      8087 0.00000E+00 0.00000E+00 0.00000E+00 0.00000E+00 0.00000E+00 0.00000E+00
 -1      8088 0.00000E+00 0.00000E+00 0.00000E+00 0.00000E+00 0.00000E+00 0.00000E+00
 -1      8089 1.76699E+00-1.99418E-01-4.41929E-01 1.07297E-01-5.23843E-02 2.29387E-01
 -1      8090 8.37917E-01 4.92671E-03-3.81439E-01-3.50352E-02 4.30264E-02 3.88426E-02
 -1      8091 7.89488E-01-1.98257E-01-3.98820E-01 1.68755E-01 4.41835E-02 1.06617E-01
 -1      8092 3.06258E-01-5.92276E-02-2.68330E-01 8.89719E-02 1.24803E-02-7.39278E-02
 -1      8093-7.02539E-01-4.54953E-03 1.86624E-01 2.50415E-02 3.44084E-02-3.24620E-03
 -1      8094-3.34147E+00 5.06123E-02-5.60584E-03-3.96767E-01 9.43285E-02-6.87028E-01
 -1      8095-1.92477E+00 7.94230E-02 1.73457E-02-8.23505E-03 7.64722E-02-3.45851E-01
 -1      8096-3.24525E+00 2.65030E-01-1.89581E-01 4.86739E-01-1.82123E-01 6.76866E-01
 -1      8097-1.68963E+00 1.83101E-01 4.65125E-01-1.78978E-01 7.41223E-02-2.37563E-01
 -1      8098-9.55256E-01-3.07960E-02 2.49576E-01-6.46018E-02 6.71493E-02-2.13069E-02
 -1      8099 9.57800E-01-8.08576E-02-3.19430E-01-1.34415E-02-5.44287E-02-1.16586E-01
 -1      8100 2.62955E+00-7.51800E-02-1.69695E-01-1.58960E-01-1.31559E-01 3.33322E-01
 -1      8101 0.00000E+00 0.00000E+00 0.00000E+00 0.00000E+00 0.00000E+00 0.00000E+00
 -1      8102 6.47910E-01-8.93350E-02-4.53729E-01-1.82780E-01 1.06867E-01 1.20052E-02
 -1      8103 1.14335E-01 1.13345E-01 1.25181E-01 1.55707E-02 8.93200E-03-1.04080E-01
 -1      8104-1.17292E+00 1.60228E-02 1.69530E-01-1.32888E-01-5.40873E-02 3.26443E-03
 -1      8105-1.40503E+00 3.61720E-02 2.32162E-01 1.03757E-01-1.71884E-01-8.47916E-02
 -1      8106-2.04901E+00 1.22808E-01 2.34847E-01-1.80804E-01-7.54843E-02 4.96249E-02
 -1      8107-8.77976E-01-1.04778E-01 1.44461E-01-6.82096E-02-3.83985E-02 1.36474E-02
 -1      8108-6.96503E-01 2.49616E-02 3.86764E-01 1.82383E-01-7.09092E-04-8.34528E-02
 -1      8109 1.85512E-01 4.93797E-02 6.24702E-02-2.15367E-02-4.24369E-02 1.03387E-02
 -1      8110 6.68398E-01-1.00833E-02-1.57895E-01 6.96635E-02 3.63491E-03 5.09033E-02
 -1      8111 1.43521E+00-9.35004E-03-3.97869E-01 1.26926E-01 5.00938E-02 1.44079E-01
 -1      8112 1.80691E+00-4.50977E-01-8.20525E-01 1.37129E-01-1.34998E-01 9.22361E-02
 -1      8113 0.00000E+00 0.00000E+00 0.00000E+00 0.00000E+00 0.00000E+00 0.00000E+00
 -1      8114 2.82647E+00-3.28995E-01-3.37837E-01 8.44714E-02 2.53642E-02 1.43284E-01
 -1      8115 2.97197E+00 2.21984E-01 4.89461E-02 2.17067E-01-6.27658E-02-4.90833E-01
 -1      8116-7.34345E-02-5.47671E-02 1.69391E-02-8.13151E-02-3.03879E-02 4.79584E-02
 -1      8117 3.84656E-02 5.79369E-02 1.13629E-01-2.61468E-02 4.72956E-02-1.93547E-02
 -1      8118 1.90686E-01 4.47558E-02-5.99564E-03 1.04472E-02 1.05755E-01-1.51549E-02
 -1      8119-3.55991E-01 1.90522E-01 3.35038E-01-3.71588E-02 7.51437E-02 1.23512E-01
 -1      8120-9.15702E-01-5.82216E-02-1.54368E-01-1.66772E-01 1.24110E-01 3.20444E-01
 -1      8121-3.96794E+00-1.90400E-01-8.61061E-01-2.92600E-01 2.45696E-01 7.81445E-01
 -1      8122-2.32897E+00 3.58148E-01 3.47515E-01-6.63392E-02-2.18874E-02 3.74199E-01
 -1      8123-9.38615E-01-8.36232E-03 9.82113E-02-6.28528E-02 3.12811E-02 7.60908E-02
 -1      8124-1.29342E-01 7.34419E-02 1.75769E-01 2.51871E-02 6.29486E-02 1.15383E-02
 -1      8125-5.82953E-01-3.26189E-02 1.29340E-02 5.30535E-02-6.82258E-02-1.29368E-02
 -1      8126-1.11291E+00 9.91391E-02 3.23892E-01-1.44110E-01-6.30627E-02 4.91585E-01
 -1      8127 1.40954E-01-4.73123E-02-9.88272E-03-2.18873E-02-1.17575E-02-3.11326E-02
 -1      8128 3.28357E-02 2.04531E-02 1.77323E-01 1.12493E-02-8.57123E-02-4.81803E-02
 -1      8129-1.55469E-01 9.21696E-02 4.71707E-01 1.32685E-01-2.16361E-01-2.99205E-02
 -1      8130 6.36902E-01-2.69323E-01-1.48613E-01 1.64289E-02-3.96701E-02-6.81939E-02
 -1      8131 5.99192E-01-2.45817E-01 1.48741E-02 1.08719E-01-2.23387E-01 3.91821E-02
 -1      8132 0.00000E+00 0.00000E+00 0.00000E+00 0.00000E+00 0.00000E+00 0.00000E+00
 -1      8133 0.00000E+00 0.00000E+00 0.00000E+00 0.00000E+00 0.00000E+00 0.00000E+00
 -1      8134 0.00000E+00 0.00000E+00 0.00000E+00 0.00000E+00 0.00000E+00 0.00000E+00
 -1      8135 2.53992E+00-2.72497E-01 6.44967E-02-2.75492E-01-2.71638E-01-1.11419E-01
 -1      8136 2.46595E-01-2.87510E-01-6.24230E-01-1.36920E-01-2.10795E-01-1.28610E-01
 -1      8137 4.08247E-01-3.86565E-02 2.08920E-01-2.44950E-03-4.05262E-01-5.31815E-01
 -1      8138-1.58983E+00-1.91773E-01 1.56620E-01 3.86062E-02-6.33755E-02-5.23167E-01
 -1      8139-2.67022E+00 7.28114E-01 4.35139E-01 4.20086E-01 1.43984E-01-8.10853E-01
 -1      8140-3.43703E+00-4.75860E-01-4.57443E-01 2.24740E-01 1.89999E-01-1.43377E-01
 -1      8141-5.26885E+00 2.55572E-02-6.41069E-02 3.10056E-01-4.36543E-02 2.72822E-01
 -1      8142-6.67648E-01 7.25637E-02-1.06437E-01 1.40843E-01 1.24851E-01 1.62226E-01
 -1      8143 3.72162E-01 1.56223E-01-1.71317E-01-7.83338E-02 1.75512E-01 2.33945E-01
 -1      8144 2.18552E+00 8.64371E-02 3.92835E-01 7.21857E-02-1.65081E-01-4.52188E-01
 -1      8145 4.85214E+00 4.62809E-01 5.17417E-01-3.62935E-01 1.46390E-01 1.29396E+00
 -1      8146 0.00000E+00 0.00000E+00 0.00000E+00 0.00000E+00 0.00000E+00 0.00000E+00
 -1      8147 3.82432E-01-4.62283E-01-3.04781E-01-5.25592E-01 1.78854E-01 1.81853E-01
 -1      8148 3.76565E+00-9.51323E-01-8.78801E-01-6.42477E-01-4.22820E-02-8.17549E-02
 -1      8149-9.16486E+00-1.18661E+00-7.84719E-01 8.66850E-01-2.49224E-01-1.68548E+00
 -1      8150-4.63095E+00 6.27188E-01-1.96459E-01-1.24827E+00 5.11801E-01 2.44062E+00
 -1      8151-4.11669E+00-1.95701E-01-1.57849E-01-4.93542E-01-6.47851E-02 9.21142E-01
 -1      8152-1.22769E+00 7.36676E-02-1.01761E-01 2.07973E-02-2.22619E-03 8.81128E-01
 -1      8153 1.02552E+01 5.64328E-01 1.59009E+00-1.02244E+00 3.38308E-01 1.72299E+00
 -1      8154 0.00000E+00 0.00000E+00 0.00000E+00 0.00000E+00 0.00000E+00 0.00000E+00
 -1      8155 1.04669E+01 1.22466E+00 1.36820E+00-7.58198E-02-2.09487E-01-1.74488E+00
 -1      8156 5.93410E+00 8.65898E-01 9.62576E-01-6.92748E-02-7.89678E-02-1.11958E+00
 -1      8157-1.37511E+00-3.16151E-01-2.99161E-01-4.38878E-03-6.24271E-02-8.16776E-01
 -1      8158-4.56047E+00-3.61339E-01-7.17848E-01 2.24355E-02 7.49755E-03-6.99975E-01
 -1      8159-6.79666E+00-5.70564E-01-5.80825E-01-1.37853E-02 2.22322E-01-1.26263E+00
 -1      8160-7.69624E+00-1.03668E+00-1.32929E+00 8.96556E-02 3.14288E-01 8.18894E-01
 -1      8161-4.35883E+00-9.65246E-01-1.02953E+00-4.29220E-03 2.42846E-01 7.98520E-01
 -1      8162 7.70552E+00 1.35917E+00 3.90187E-01 2.42533E-02 9.10317E-02 4.59294E-01
 -1      8163 2.67275E+00 3.71845E-01 2.98128E-01 1.21859E-01 4.98453E-02 5.38869E-02
 -1      8164 8.54761E+00 1.50588E+00 1.75155E+00 4.36857E-02-1.51405E-01 8.30454E-01
 -1      8165 2.62719E+00 4.81476E-01 4.84422E-01 2.10210E-01-7.29784E-02-1.36245E-02
 -1      8166 1.31131E+00 1.94026E-01 2.72950E-01-1.77801E-01-1.48429E-02-3.80335E-02
 -1      8167-1.50735E+00-2.27524E-01-3.94280E-01 9.98195E-02-1.90608E-02 1.17283E-01
 -1      8168 0.00000E+00 0.00000E+00 0.00000E+00 0.00000E+00 0.00000E+00 0.00000E+00
 -1      8169-3.21382E-01-1.56986E-01-2.08072E-01-1.30269E-02-3.93844E-02-1.13305E-01
 -1      8170-2.94423E+00 5.20885E-02-2.42784E-01-2.00401E-01-8.42468E-02 4.23229E-01
 -1      8171-2.91389E+00-5.39711E-01-5.09225E-01 2.56786E-01-7.70318E-02 4.26989E-03
 -1      8172 1.82484E+00 7.62119E-01 5.46154E-01-4.33639E-01-1.71340E-01 5.09752E-02
 -1      8173 2.01863E+00-9.62109E-02-2.98822E-02-5.34500E-01-1.65169E-01-9.57088E-01
 -1      8174 6.75136E+00 5.95182E-01 1.26634E+00 2.11321E-01-7.13185E-01-7.88674E-01
 -1      8175 6.64292E+00-8.29063E-03-3.37347E-01 1.31864E-01-1.68682E-01-3.92438E-01
 -1      8176 1.20028E+00-2.72358E-01-4.83482E-01-6.35180E-01-7.17344E-02 6.00587E-03
 -1      8177 2.07381E+00 3.15322E-01 5.24958E-01 2.24491E-02-4.05955E-02-9.55592E-01
 -1      8178 1.02933E+00-2.59733E-01-4.40610E-01 6.51910E-02-4.07404E-02-6.26918E-01
 -1      8179 1.13972E+00-1.84205E-01-2.37518E-01-8.62844E-02 4.09051E-02-6.74337E-01
 -1      8180-1.75335E+00-3.08882E-01-1.35199E-01-6.26447E-02-1.53649E-01-7.11274E-01
 -1      8181-4.21222E-01 1.08616E-01 3.68172E-01-1.63259E-02-2.04638E-01-6.06588E-01
 -1      8182-4.51687E+00-4.13137E-01-4.43593E-01-5.99555E-02-1.69239E-01-7.26883E-01
 -1      8183-6.97227E+00-1.16826E+00-6.46413E-01-8.94329E-01 5.34881E-01-1.34246E+00
 -1      8184-8.63750E+00-5.27398E-01 4.04566E-01-8.17109E-01-6.74130E-01-1.61724E-02
 -1      8185-8.42268E+00-1.48307E+00-1.19142E+00-8.13854E-01 5.98822E-01-1.38612E+00
 -1      8186-8.58049E+00-7.99002E-01-2.71964E-01-5.51673E-01-3.68016E-02-5.39293E-02
 -1      8187-8.07299E+00-7.75274E-01-9.43774E-01-2.03471E-01-3.46064E-01-1.21563E-01
 -1      8188-5.41643E-01-4.63096E-01-8.45594E-02-2.24807E-01 1.75007E-02-9.26212E-02
 -1      8189-2.35706E+00 6.71551E-01-1.15381E-01 9.33265E-01 1.99741E-02-5.03274E-01
 -1      8190-8.18601E+00-7.29063E-01-2.79557E-01 1.64656E-01-1.24344E-01 4.43726E-01
 -1      8191-1.90473E+00-1.56465E-01 1.12721E-01 2.53937E-01-1.64033E-02-2.56055E-01
 -1      8192-5.54313E+00-7.72491E-01 2.57196E-01 2.51391E-01-1.20472E-01 1.17751E+00
 -1      8193-6.85318E-01 1.34335E-01-2.24180E-01 2.39011E-03-6.58200E-02-7.12498E-02
 -1      8194-1.23455E+00-2.04870E-01-3.77492E-01 2.47440E-02 7.85658E-03 6.61388E-01
 -1      8195 4.62827E-01 8.77147E-02-1.18905E-01 8.43753E-02-7.35518E-02-1.20901E-01
 -1      8196 9.89857E-02-5.48800E-02 2.56194E-02-4.01606E-02 5.28305E-03-8.39695E-02
 -1      8197 1.91279E+00-5.19346E-02-3.74840E-01 6.75072E-02 1.94834E-01 5.73727E-01
 -1      8198 2.02162E+00 3.16097E-01 1.12426E-01 1.83069E-01-1.15806E-01 5.25110E-01
 -1      8199 5.28119E+00 1.04079E-01-2.48894E-01 4.25374E-02 3.16519E-01 6.04654E-01
 -1      8200 6.34106E+00 5.85910E-01-4.77434E-01-8.00268E-02-1.13027E-01 3.97169E-01
 -1      8201 4.55059E+00 4.51542E-01 5.36358E-01 1.20027E-01-1.43038E-01 6.64644E-01
 -1      8202 9.35987E+00 3.51453E-01 7.16770E-01-8.06074E-01-1.81853E-01 1.08444E+00
 -1      8203 2.37790E+00 6.73271E-01-2.03779E-01 4.92704E-01-2.21873E-01-7.14303E-01
 -1      8204 9.62655E+00 2.26250E+00 1.08705E+00 9.74743E-01 3.15065E-01-1.65628E+00
 -1      8205 0.00000E+00 0.00000E+00 0.00000E+00 0.00000E+00 0.00000E+00 0.00000E+00
 -1      8206 0.00000E+00 0.00000E+00 0.00000E+00 0.00000E+00 0.00000E+00 0.00000E+00
 -1      8207 1.18207E+00 2.61049E-01-1.74605E-01 1.55988E-01 6.03907E-04-1.08751E-01
 -1      8208 5.18843E-03 3.41330E-01-7.06622E-02 1.00744E-01 1.58447E-03-7.05495E-02
 -1      8209 1.20201E-01 2.73429E-01-4.06019E-02 5.23070E-02-5.74583E-02 4.05614E-02
 -1      8210 1.21868E+00-4.51463E-02-3.29146E-01 1.96648E-02-4.63753E-02 2.16336E-01
 -1      8211 2.84927E-01 2.17108E-01-1.09737E-01-6.14527E-02-2.30861E-02 1.28423E-01
 -1      8212 2.15105E-03-9.46063E-02 9.60924E-02-6.26031E-02 7.91907E-03 9.12367E-02
 -1      8213-3.07568E-01 6.39523E-02 1.41470E-01-1.00824E-01-1.20068E-01 4.89919E-03
 -1      8214-5.72051E-02-8.37024E-02-4.07403E-03 1.16315E-02-6.67877E-03 1.79740E-02
 -1      8215 1.04838E-01 2.82075E-02 1.60879E-01-1.16609E-01 1.99965E-02 1.28143E-01
 -1      8216-4.74096E-01-3.34244E-01-1.89770E-01 2.02665E-01 1.29987E-01 4.62153E-02
 -1      8217-1.47170E-01 3.17195E-02 2.21180E-01 8.41131E-02 1.30010E-01 9.78368E-02
 -1      8218 3.42481E-02 2.89917E-01 2.86343E-01 8.53223E-02-5.12243E-02 8.25723E-02
 -1      8219 1.97975E-04-2.05407E-01 2.85364E-02-6.03375E-02 6.34540E-02 3.65758E-02
 -1      8220-7.51021E-01 5.66127E-01 6.88221E-01 4.42022E-01-7.67985E-02 2.08650E-02
 -1      8221-7.62009E-02-3.19035E-02 2.76757E-02-1.91198E-02-3.49884E-02 2.22849E-02
 -1      8222-1.10631E-01-1.13568E-01-5.68414E-02-3.32546E-03 5.86360E-02-1.00317E-01
 -1      8223-2.20314E-02-5.53166E-03-8.58729E-02 7.41877E-02-7.89534E-02-6.78004E-02
 -1      8224 8.62935E-01-2.47375E-02 1.18807E-01 2.20908E-02 1.81124E-01 7.60884E-02
 -1      8225 4.34201E-01-2.93924E-01-4.30948E-01 4.64819E-01 2.58477E-01 8.75411E-03
 -1      8226-2.41412E-02 5.30781E-01 1.65101E-01 1.22236E-01 2.91870E-03-4.76772E-02
 -1      8227-1.14664E-01-6.06078E-01-6.22372E-02 5.60110E-02 6.36235E-02 1.05941E-01
 -1      8228 5.16603E-01-3.18723E-01-4.56018E-01-9.46713E-03 3.14434E-02 7.29835E-02
 -1      8229-5.50861E-02-1.07646E-01-2.25280E-02-1.05461E-01 5.27313E-02-1.43223E-02
 -1      8230-4.47433E-01 5.26370E-01 5.99883E-01-1.92209E-01-1.41099E-01-2.78289E-03
 -1      8231-2.49369E-01-8.27418E-01-2.44305E-01-2.25132E-01 7.64086E-02 2.74773E-01
 -1      8232 1.50379E-01-2.66839E-01-1.73310E-02 1.18090E-01-8.42107E-02-7.05872E-02
 -1      8233-3.70092E-01 2.98449E-01 2.42125E-01 1.42770E-01-1.35502E-01 1.05186E-01
 -1      8234 1.05390E-01-1.72779E-01-1.78546E-01 1.97441E-02-2.38583E-02-7.52091E-03
 -1      8235 1.36301E+00-8.02008E-02-1.76510E-01 7.55414E-01 5.43140E-01 1.02667E-01
 -1      8236 0.00000E+00 0.00000E+00 0.00000E+00 0.00000E+00 0.00000E+00 0.00000E+00
 -1      8237-3.31481E-02-3.61574E-01-4.32474E-02-6.15916E-02 7.27998E-02-9.29676E-02
 -1      8238-1.54585E+00-5.21186E-01-5.05113E-01-1.79100E-01 3.31714E-02-5.24231E-03
 -1      8239 1.92675E-02 2.63411E-01 2.24897E-01-4.91447E-02 1.47461E-01 1.22221E-02
 -1      8240-6.96266E-04-3.13902E-01-1.82778E-01 8.39655E-02 2.77050E-01-1.34031E-01
 -1      8241 2.06811E-02-7.52696E-03 2.25172E-02 1.35257E-01 2.06109E-02-6.68090E-03
 -1      8242 1.57816E-01 9.84106E-01 2.79189E-01-1.70722E-01-1.89106E-01 6.93694E-02
 -1      8243 1.48279E+00 4.24326E-01 2.91918E-01 1.30721E-01 7.71500E-02 1.23646E-02
 -1      8244 0.00000E+00 0.00000E+00 0.00000E+00 0.00000E+00 0.00000E+00 0.00000E+00
 -1      8245-1.24559E-01 4.65928E-01-1.32326E-01 2.98559E-02-6.42820E-02 2.44857E-01
 -1      8246-1.02199E-01 8.66495E-03-6.87416E-02-6.91423E-02-1.58852E-02-1.14566E-01
 -1      8247 5.36372E-02 1.93002E-01-5.28393E-05-1.18810E-01-3.95156E-02 9.42362E-03
 -1      8248-4.20840E-01-1.76838E-02 1.67407E-01 1.14811E-01-7.52051E-02 1.14232E-01
 -1      8249-3.44183E-01 2.27850E-01 3.89023E-01-1.35581E-01 9.78023E-02-6.62982E-02
 -1      8250-1.87102E-01-2.05627E-01-1.43890E-01 1.30065E-01 3.66207E-02-7.92154E-02
 -1      8251 1.99735E-01-6.79706E-04-3.54045E-02 1.24266E-01-1.96677E-02-1.96003E-02
 -1      8252 1.99346E-01-1.51971E-01-7.95692E-02 2.11348E-01 1.57243E-02 1.32101E-02
 -1      8253 5.86276E-01-2.91114E-02-5.91005E-02-1.22104E-01-4.42276E-02-4.26898E-02
 -1      8254 1.75955E+00-1.12963E-01-8.50376E-01 6.06629E-01-1.69457E-01 4.36193E-02
 -1      8255-2.63485E-02-1.43165E-01-2.46337E-01-2.52570E-01-1.49474E-01 8.34342E-02
 -1      8256-2.36937E-01 3.30919E-01 4.95123E-01-1.21955E-01-4.51815E-02 1.05159E-02
 -1      8257-1.12883E+00 2.25789E-02 4.45829E-01-2.63611E-01 2.51799E-01 2.21579E-02
 -1      8258 8.13297E-03 4.78968E-02 7.73408E-02 8.13863E-02 1.02473E-02-7.01108E-02
 -1      8259 1.38307E+00 4.15914E-01-2.39453E-01-2.71105E-01-1.36251E-01-9.84783E-02
 -1      8260 0.00000E+00 0.00000E+00 0.00000E+00 0.00000E+00 0.00000E+00 0.00000E+00
 -1      8261 0.00000E+00 0.00000E+00 0.00000E+00 0.00000E+00 0.00000E+00 0.00000E+00
 -1      8262 7.37927E-01-3.44872E-01-2.41203E-01 2.49783E-01-1.93342E-01 7.92343E-02
 -1      8263 1.50416E+00 2.01463E-01 3.36826E-01 9.29210E-04 2.07745E-03-1.20096E-01
 -1      8264 2.99575E-01-2.20545E-01-7.60518E-02-1.19043E-01 2.81539E-02 2.08911E-02
 -1      8265-5.50034E-01 3.02389E-01 2.59024E-01-3.19976E-01 7.13699E-02 1.24323E-02
 -1      8266-1.07646E+00 1.05396E-01 1.59482E-01-3.70449E-01 1.95397E-01-2.23831E-01
 -1      8267 9.44323E-01 1.03117E-01 1.11665E-01 2.69121E-01-3.81688E-02-1.81220E-02
 -1      8268 0.00000E+00 0.00000E+00 0.00000E+00 0.00000E+00 0.00000E+00 0.00000E+00
 -1      8269 0.00000E+00 0.00000E+00 0.00000E+00 0.00000E+00 0.00000E+00 0.00000E+00
 -1      8270 6.29492E+00 1.57636E+00 2.19486E+00 9.00627E-01 5.81479E-02-5.64254E-01
 -1      8271 8.36595E+00 4.93761E-01-1.76095E-01 3.33825E-02 2.64375E-01-1.06659E+00
 -1      8272 7.33502E+00 7.06179E-01 4.46639E-01 4.33977E-01-2.04588E-01-8.43482E-01
 -1      8273 2.53984E+00 2.68063E-01 9.33964E-02 5.84979E-02 2.82842E-03-2.43122E-02
 -1      8274 4.50660E+00 4.62546E-01 6.66475E-01-1.37712E-01 1.16285E-01-4.31798E-01
 -1      8275 4.45003E+00-1.22003E-02-2.79629E-02-6.61566E-02-1.49149E-01-3.44503E-01
 -1      8276 4.83861E+00 3.64425E-01 5.35967E-01 1.48330E-01-2.47861E-01-4.61035E-01
 -1      8277 2.04292E+00 1.83743E-01 1.46830E-01 1.87585E-01-1.38256E-01-5.23613E-02
 -1      8278 1.37271E+00 2.20126E-01 3.43546E-01-4.18081E-02 1.18845E-01-5.44586E-01
 -1      8279-1.65560E+00-3.59650E-01-2.12199E-01-6.21648E-02-3.37394E-03-8.30677E-01
 -1      8280-1.97918E+00-5.99769E-01-4.18685E-01-1.09827E-01 4.61279E-02-8.02202E-01
 -1      8281-3.93160E+00-2.99872E-01-4.23874E-02-4.88817E-01 1.75923E-01-7.08629E-01
 -1      8282-3.31047E+00-2.15241E-01-2.13756E-01-2.57015E-03-2.08393E-01-4.33424E-01
 -1      8283-7.85168E+00-3.85652E-02 1.04788E+00-2.21269E-01 3.74895E-01-2.46902E-01
 -1      8284-8.12070E+00-1.37753E+00-6.14763E-01 1.08343E-01 1.91303E-02-6.64956E-01
 -1      8285-9.38728E+00-1.55793E+00-1.68139E+00-1.49797E-01 2.32729E-02-6.73627E-01
 -1      8286-1.09380E+01-1.24174E+00-9.03016E-01 3.15760E-01-4.51686E-01 3.68419E-01
 -1      8287-8.53334E+00-1.01738E+00-2.01811E+00-2.72955E-02-8.52973E-02-5.07531E-02
 -1      8288-9.83168E+00-6.74311E-01-1.11072E+00 3.89999E-02 2.91889E-02 2.31285E-01
 -1      8289-7.42673E+00-3.19932E-01-3.95585E-01 1.16704E-01-3.27316E-01 2.57269E-01
 -1      8290-7.58847E+00-6.70604E-01-6.90960E-01 2.06445E-01 5.57252E-01 4.34116E-01
 -1      8291-5.11019E+00-5.10942E-01 1.32697E-03 8.12888E-02-3.40887E-01 4.73096E-01
 -1      8292-4.90013E+00-6.30878E-01-1.82081E-01 1.15083E-01-9.94288E-02 8.86943E-01
 -1      8293-1.39522E+00-3.37920E-01-6.06750E-02-1.72468E-01 7.86136E-02 6.01522E-02
 -1      8294-1.01264E+00-1.84050E-01-2.37756E-01 1.47625E-02-5.13954E-02 5.72834E-01
 -1      8295 1.92922E+00 2.33622E-01 2.25202E-02 8.18684E-03 5.13526E-02 7.28816E-01
 -1      8296 4.24869E+00 6.00071E-01-7.24353E-02 6.60763E-01 1.38292E-02 1.07158E+00
 -1      8297 3.87497E+00 2.72744E-01 1.04167E-01 1.47781E-01 2.69830E-01 5.92981E-01
 -1      8298 4.73781E+00 5.08997E-03 2.84408E-01 3.02355E-02 1.90592E-01 4.54118E-01
 -1      8299 7.21648E-01 2.68197E-01-8.15602E-02-6.39293E-02-7.91589E-02-9.54838E-02
 -1      8300 1.04408E+01 9.90258E-01 7.45436E-01 5.34805E-02-5.62624E-02 5.42967E-01
 -1      8301 1.23917E+01 3.50859E+00 2.84220E+00-1.11965E-01 7.76969E-01 1.03730E+00
 -1      8302 9.77149E+00 1.35703E+00 1.18286E+00 3.08420E-01-9.91210E-02 9.03219E-01
 -1      8303 1.91292E+00-3.86707E-01-8.13979E-01-2.39461E-01-2.07961E-01 9.77491E-02
 -1      8304 2.37654E+00 1.25896E+00 1.70917E-01 2.32065E-01 5.44014E-02 4.17449E-01
 -1      8305-2.89117E-01-7.35530E-01-2.81646E-01-3.25135E-01 3.31812E-02-1.58814E-01
 -1      8306 0.00000E+00 0.00000E+00 0.00000E+00 0.00000E+00 0.00000E+00 0.00000E+00
 -1      8307-1.03900E+00-1.84578E-01-8.74210E-02-1.31863E-02 6.59881E-02 4.91446E-03
 -1      8308-2.24549E+00 7.44459E-01 3.94539E-01 6.04245E-01 5.25285E-01 4.02420E-01
 -1      8309-3.68278E+00 5.01421E-01 2.07204E-01 3.67749E-01 1.34651E-01 5.19373E-01
 -1      8310 0.00000E+00 0.00000E+00 0.00000E+00 0.00000E+00 0.00000E+00 0.00000E+00
 -1      8311 9.68696E+00 2.00206E+00 1.59988E+00-1.85126E-01-2.93100E-02-9.33432E-01
 -1      8312 6.49759E+00 4.72284E-01 7.72107E-01-7.18809E-01-1.70532E-02-1.45902E+00
 -1      8313-1.39887E+00-2.46773E-01-1.56769E-01-3.17312E-02 3.18719E-03-7.08749E-01
 -1      8314-5.36855E+00-5.42092E-01-9.14105E-01-5.51077E-01 2.15709E-01-1.35056E+00
 -1      8315-1.11715E+01-1.03577E+00-1.59849E+00-1.11090E-01 6.04691E-01-1.84722E-02
 -1      8316-1.01689E+01-2.41972E+00-1.66425E+00 5.57877E-01-4.03533E-02 7.97278E-01
 -1      8317-9.27094E+00-1.53547E+00-1.08612E+00 5.67480E-02 5.96756E-01 8.88728E-03
 -1      8318 1.87991E+00 2.68404E-01 1.85976E-01-6.89156E-02 6.89120E-02 6.45906E-01
 -1      8319 2.78998E+00 7.60635E-01 7.45461E-01 2.30615E-01 1.62036E-01 9.25327E-01
 -1      8320 4.82342E+00 5.39091E-01 8.03208E-01 6.29016E-02-1.11403E-01 8.14988E-01
 -1      8321 0.00000E+00 0.00000E+00 0.00000E+00 0.00000E+00 0.00000E+00 0.00000E+00
 -1      8322 5.07399E+00 1.33775E+00-5.72963E-01 9.39695E-01 5.00582E-01-6.87861E-01
 -1      8323-3.91623E+00 8.15039E-01 9.79439E-01-1.57247E-01 1.57089E-01-7.51079E-01
 -1      8324-3.91153E+00-2.33411E-01 8.21018E-02 2.22047E-01-1.43119E-01-2.40611E-01
 -1      8325 1.45250E+00 4.85204E-02 3.46109E-01-1.59354E-02 4.82156E-02 3.56814E-02
 -1      8326 3.97700E+00-1.10279E+00-5.79801E-01 2.96454E-01-1.64114E-01 7.81490E-01
 -1      8327 0.00000E+00 0.00000E+00 0.00000E+00 0.00000E+00 0.00000E+00 0.00000E+00
 -1      8328-4.36276E+00-2.37666E-01-2.60522E-01 2.05196E-01-6.26512E-02-1.12686E+00
 -1      8329 0.00000E+00 0.00000E+00 0.00000E+00 0.00000E+00 0.00000E+00 0.00000E+00
 -1      8330 1.05517E+01 9.34768E-01 8.12456E-01-4.04517E-01 5.38471E-01 2.38086E-01
 -1      8331 7.65466E+00 1.07892E+00 8.85753E-01 1.57593E-02 4.47968E-01-1.12439E+00
 -1      8332 1.70727E+00 1.54706E-01 1.89285E-01-2.02264E-02-7.78672E-03-6.35892E-01
 -1      8333-5.60507E+00-7.77895E-01-6.84834E-01-2.71458E-02-2.59547E-01-6.98683E-01
 -1      8334-5.22623E+00-6.34657E-01-7.24588E-01 4.71337E-01-1.71767E-01-1.23573E+00
 -1      8335-8.77383E+00-7.76850E-01-7.20320E-01 6.36519E-02-2.54692E-03-8.86729E-01
 -1      8336-5.09445E+00-2.88244E-01 4.38427E-02 3.24973E-01-2.83609E-01 7.45700E-01
 -1      8337-1.23141E+00-1.57850E-01-3.29499E-01-1.29313E-01-3.47294E-01 6.51146E-01
 -1      8338 7.63931E+00 9.04750E-01 1.02826E+00-6.69671E-01 3.82313E-01 1.23106E+00
 -1      8339 0.00000E+00 0.00000E+00 0.00000E+00 0.00000E+00 0.00000E+00 0.00000E+00
 -1      8340 0.00000E+00 0.00000E+00 0.00000E+00 0.00000E+00 0.00000E+00 0.00000E+00
 -1      8341 0.00000E+00 0.00000E+00 0.00000E+00 0.00000E+00 0.00000E+00 0.00000E+00
 -1      8342 1.02946E+01 1.16056E+00 7.67044E-01 2.10678E-01 5.63648E-01-1.60814E+00
 -1      8343-1.08796E+00-2.20431E-01-7.29695E-02-1.16702E-01 6.08438E-02-6.29455E-01
 -1      8344-6.81885E+00-1.85523E+00-1.19312E+00-3.39754E-02 7.68481E-02-1.13190E+00
 -1      8345-3.09910E+00-2.73120E-01-1.04897E-01 1.07326E-01-1.25123E-01 1.29611E-01
 -1      8346-7.44163E+00-2.13857E-01-1.11882E+00-3.34764E-01-5.24216E-01 9.59869E-01
 -1      8347-4.20410E+00-6.16693E-01-7.15240E-01-8.42941E-03 2.00530E-01 5.72253E-01
 -1      8348-1.18651E+00-1.09726E-01-1.91415E-01-4.79838E-02 4.64527E-02 5.03542E-01
 -1      8349 1.99015E+00 4.58700E-01 6.59749E-01-9.75089E-03 4.29834E-02 9.17277E-01
 -1      8350 7.17938E+00 9.34010E-01 1.67388E-01-4.17151E-02 3.04052E-01 2.33455E-01
 -1      8351 8.39989E+00 7.46616E-01 1.76653E+00 2.47434E-01-6.30889E-01 5.93081E-01
 -1      8352 0.00000E+00 0.00000E+00 0.00000E+00 0.00000E+00 0.00000E+00 0.00000E+00
 -1      8353 1.52883E+00 2.59267E-01 4.12381E-01 1.24445E-02 1.81451E-02-1.24618E-01
 -1      8354-2.79389E+00-3.23508E-01-4.07705E-01-1.28476E-01 9.60018E-02 2.36205E-01
 -1      8355 1.66223E+00 1.27562E-01-2.54320E-02-2.87987E-01 1.94084E-01-1.43516E-01
 -1      8356-1.23811E+00-1.93650E-02-1.54864E-01-5.61853E-02-5.33090E-02 2.08455E-01
 -1      8357-6.85047E+00-9.33214E-01-7.45876E-01 9.87127E-02-1.17024E-01-7.66002E-01
 -1      8358-4.87386E+00-5.44415E-01 1.04411E-01-6.02515E-03-4.66825E-02 1.00100E+00
 -1      8359 1.66753E+00 7.25960E-02 2.83814E-01 8.24772E-02 2.81751E-02-1.94872E-01
 -1      8360 2.55305E+00 1.43642E-01 8.14596E-03 4.10545E-01 1.83598E-01-2.26464E-01
 -1      8361 6.52187E+00 4.75651E-01 2.76804E-01-3.43122E-01 4.86489E-01 9.97839E-01
 -1      8362 3.68046E+00 3.98215E-01-5.90032E-02 6.17729E-01 1.86124E-01-1.21672E-01
 -1      8363 0.00000E+00 0.00000E+00 0.00000E+00 0.00000E+00 0.00000E+00 0.00000E+00
 -1      8364 5.05951E+00 2.53350E+00 1.94649E+00-1.14772E+00 3.09262E-01 2.29097E-01
 -1      8365 1.00959E+01 4.87326E+00 5.08865E+00-1.30136E+00 2.60780E-01-1.04208E+00
 -1      8366 8.08280E-01 2.95866E-01 3.36571E-01 8.51997E-01-5.69070E-01-4.40910E-01
 -1      8367 4.12963E+00 9.99291E-01 4.49884E-01 8.48323E-01-8.00110E-03-1.74778E-01
 -1      8368 6.64481E+00-2.60071E-01-3.85297E-01 2.83874E-01-1.35942E-01-5.21417E-01
 -1      8369 1.00832E+00 8.13907E-02-2.76605E-01 7.87980E-02-5.99752E-02-4.97244E-01
 -1      8370-1.33140E-02 1.78424E-02 1.81514E-01-3.98309E-02 3.10314E-02 7.40596E-02
 -1      8371-1.37152E+00-2.47059E-02 5.80458E-01-2.31906E-01-3.16475E-01-6.36450E-01
 -1      8372-4.00767E+00 8.77349E-03-3.23709E-01-5.23670E-02-2.38044E-01-6.14977E-01
 -1      8373-5.06191E+00-1.20621E+00-9.45102E-01-5.35176E-02 2.73945E-01-5.99716E-01
 -1      8374-5.43261E+00-6.82827E-01-3.71457E-01 1.67040E-01 1.42737E-01-1.11252E+00
 -1      8375-7.83932E+00-1.33555E+00-1.14752E+00-2.21601E-01 6.16008E-01-6.69863E-01
 -1      8376-7.40567E+00-2.40767E-01 1.10038E-01 2.16443E-01 2.81968E-01-1.07534E+00
 -1      8377-1.05199E+01-8.47330E-01-7.69239E-01-1.29083E-01-1.85298E-01-1.80116E-02
 -1      8378-6.51666E+00-4.26071E-02-2.06274E-01-4.27721E-01 4.12930E-01-3.80249E-02
 -1      8379-2.66073E+00-6.36973E-02 2.90442E-01 5.51951E-01-3.39621E-01-3.83522E-01
 -1      8380-7.90278E+00-4.04409E-01-7.22919E-03-3.28773E-02 4.62301E-02 2.20466E-01
 -1      8381-6.51189E+00-1.12224E+00-1.24371E-01 1.00777E-01-1.95549E-01 1.64731E+00
 -1      8382-4.75215E+00-7.86300E-01-6.88774E-01 2.16406E-01 1.97496E-01 7.18399E-01
 -1      8383-5.72873E-01 2.73601E-02-1.99388E-01 1.94673E-02-2.22904E-02-8.70278E-02
 -1      8384-1.14772E+00-9.99781E-02-8.00932E-04-1.22490E-01 9.84817E-03 4.97844E-01
 -1      8385 1.72838E-01 2.29832E-02 5.37412E-02-1.13097E-01-3.92245E-02-7.84826E-02
 -1      8386 8.29996E-02 1.21066E-01 1.08591E-01-1.15717E-01-4.08300E-02-9.88588E-03
 -1      8387 1.49533E+00-2.86576E-02-2.90027E-01 3.67293E-02 9.37040E-02 6.46514E-01
 -1      8388 2.50049E+00 1.65155E-01-7.70194E-02 1.70535E-02-3.72679E-02 7.77490E-01
 -1      8389 2.48698E+00 8.58146E-02-2.63273E-01-1.31736E-01-3.37402E-01 2.51638E-01
 -1      8390 5.79117E+00 7.23497E-01 3.80981E-01-1.96471E-01 6.61947E-02 5.20736E-01
 -1      8391 1.28188E-01-2.91329E-01-2.71832E-01 7.19083E-02 7.44352E-02-1.21162E-01
 -1      8392 2.42408E+00-8.31519E-02 2.71772E-03-2.80153E-01 3.75772E-02 3.82906E-01
 -1      8393 9.34378E+00 3.66778E-01 1.10020E+00-2.21313E-01-6.16138E-01 1.04364E+00
 -1      8394 8.41718E+00 2.05069E+00 7.63746E-01 1.05303E+00 7.46303E-01-9.74125E-01
 -1      8395 0.00000E+00 0.00000E+00 0.00000E+00 0.00000E+00 0.00000E+00 0.00000E+00
 -1      8396 8.30231E-01 5.59016E-02-1.05485E+00 8.76093E-01 5.46709E-02-3.21860E-01
 -1      8397 3.24336E-01-4.48456E-01-6.11051E-01 3.01178E-01-2.00015E-01-1.22695E-01
 -1      8398 3.13624E-01 2.63991E-01 6.31544E-02 1.19781E-01-1.33421E-01-1.20121E-01
 -1      8399 7.58318E-01 1.39377E-01-2.94226E-01 5.33411E-02 6.69424E-02-9.23175E-02
 -1      8400 1.25965E-02 7.01482E-02-9.11584E-02 7.30802E-02-4.79349E-02 6.87271E-02
 -1      8401-2.99427E-02-1.91503E-01-7.54792E-02 5.58404E-03 1.17769E-01 1.90113E-02
 -1      8402 1.93175E-01 4.62879E-02 3.08771E-01-2.46994E-02-8.51287E-02 6.16398E-02
 -1      8403 1.76653E-02 6.71659E-02 5.96092E-02 4.90938E-02 5.24615E-02 4.44000E-02
 -1      8404-1.33852E-01 2.21577E-01 2.38617E-01-6.44432E-02 9.94765E-02-5.63521E-02
 -1      8405-1.32611E+00 2.34058E-01 3.18432E-01-2.87620E-01-1.20342E-01 1.34116E-01
 -1      8406-8.57457E-01-3.10161E-02 1.76373E-01-1.89468E-01-3.55451E-02 4.07732E-02
 -1      8407-9.10840E-02-1.48974E-01 3.20065E-01-7.11767E-02 1.45180E-01 6.90013E-02
 -1      8408-1.58289E-01-2.96717E-01-1.02068E-01-7.76153E-02 1.62122E-01-4.44438E-02
 -1      8409-1.45507E+00-1.06181E-01 1.06529E-01 2.90761E-01-5.41791E-02 1.73277E-02
 -1      8410 1.15940E-02-9.81475E-03-7.02376E-04-6.47285E-02 1.19962E-02-7.24973E-03
 -1      8411-1.86812E-01-5.16761E-02-1.23862E-01-1.00873E-01 1.18276E-02-2.36822E-02
 -1      8412 1.45150E-01-3.77539E-02-1.47386E-01-1.44255E-01-8.76846E-03-1.12815E-02
 -1      8413 6.91964E-01 2.80084E-01 1.41288E-01-2.50860E-01 2.58455E-02 1.11239E-01
 -1      8414-2.21518E-01 9.15027E-02-5.06423E-01 1.03320E-01 8.15139E-02-8.49605E-02
 -1      8415 6.03145E-01-4.98299E-01-3.69442E-01 2.02708E-01-2.30669E-01-9.89409E-02
 -1      8416 0.00000E+00 0.00000E+00 0.00000E+00 0.00000E+00 0.00000E+00 0.00000E+00
 -1      8417 1.17259E+00 3.13073E-02-4.84616E-01 1.03534E+00-1.84930E-01-5.97694E-01
 -1      8418 4.77477E-01-9.11938E-02-7.18212E-02 1.43744E-01 2.20025E-01 1.31222E-01
 -1      8419 4.90599E-01 2.16819E-02-5.32446E-01-5.41007E-02 8.26121E-02 3.95339E-02
 -1      8420-1.60889E-02 1.29205E-01-7.65241E-04-4.48752E-02-3.21146E-02 7.62655E-03
 -1      8421-2.10032E-01-2.09045E-01-2.90111E-01-4.92047E-02-1.91222E-02-5.58685E-02
 -1      8422-9.47756E-01 2.37804E-01 3.65910E-01 1.05803E-01-1.46053E-01-1.39465E-01
 -1      8423-1.01226E-01-1.78960E-01-1.33895E-01-2.76284E-02 1.30898E-01 4.11978E-02
 -1      8424-7.64981E-01-1.28150E-01 1.52432E-01 1.18206E-01-2.61917E-01-2.16817E-01
 -1      8425 2.05924E-02 6.24268E-02 2.51618E-01-1.40755E-02-1.22462E-01-1.21333E-01
 -1      8426-5.62258E-01-3.25537E-02 4.80709E-01-7.59568E-02-4.66229E-02 2.60699E-02
 -1      8427 1.12091E-01 1.26420E-02-2.35906E-02-1.08703E-02-9.40296E-02-1.17922E-01
 -1      8428 3.31702E-01 4.04445E-01 1.07235E-01 1.03619E-01-1.17197E-01-1.14173E-01
 -1      8429 1.40287E+00-7.42746E-02-4.20088E-01 1.96080E-01 3.89029E-01 8.82316E-02
 -1      8430 0.00000E+00 0.00000E+00 0.00000E+00 0.00000E+00 0.00000E+00 0.00000E+00
 -1      8431 7.31561E-02 1.30291E-01 1.36878E-02 5.06691E-02 2.07155E-02 4.25131E-02
 -1      8432-1.29340E-01-3.07025E-01-3.29546E-02-6.57974E-02-2.31061E-02 4.73819E-02
 -1      8433 7.25453E-02-5.57889E-01-3.52877E-02 6.39936E-03-9.16321E-04-2.68059E-02
 -1      8434-1.13815E-01-6.75165E-01-1.65117E-01 7.30835E-02-8.21946E-02-4.62145E-02
 -1      8435-1.02901E-01 3.24112E-02 9.12039E-02-2.13002E-02-3.29766E-03 6.93888E-02
 -1      8436 4.32294E-02 1.42422E-01-1.29354E-02-4.15792E-02 2.51874E-02-1.76646E-02
 -1      8437 3.18374E-01 1.09130E-01-2.95198E-01-8.76360E-02 9.94624E-02-6.16303E-03
 -1      8438 0.00000E+00 0.00000E+00 0.00000E+00 0.00000E+00 0.00000E+00 0.00000E+00
 -1      8439 0.00000E+00 0.00000E+00 0.00000E+00 0.00000E+00 0.00000E+00 0.00000E+00
 -1      8440-4.81194E-02 3.20821E-01 3.28701E-02 3.80372E-02-7.44873E-03-7.69665E-02
 -1      8441 2.21119E-01 3.21503E-01-2.87203E-01 1.37617E-01 2.82749E-03 2.91949E-02
 -1      8442-9.01965E-02-6.46352E-02 4.38679E-02-2.65582E-02-2.52460E-02 5.97054E-02
 -1      8443 4.44768E-03-4.88271E-03 8.95977E-02 5.22851E-02-3.20971E-02 7.76488E-02
 -1      8444-1.76299E-01-4.32219E-02 2.63750E-01 1.46377E-01 1.04647E-01 9.62611E-02
 -1      8445-1.15639E-01 1.29213E-01 1.38028E-01-8.97957E-02-1.51239E-01-1.96533E-02
 -1      8446-3.15965E-01-2.59664E-01 1.19063E-01-1.86661E-01-4.37479E-03-4.84144E-02
 -1      8447-3.42011E-01-2.11992E-01-4.97662E-03 1.65409E-01 1.35382E-01-2.84391E-02
 -1      8448-1.96098E-01-1.03040E-01-1.58858E-02 8.72252E-02 6.91296E-02-3.15296E-02
 -1      8449 2.16638E-01 1.75516E-01-1.04477E-01-8.25719E-02 2.65146E-02-7.33881E-02
 -1      8450 1.88912E-01-9.74791E-02-9.66198E-02-8.68990E-02-7.48809E-02 1.87558E-02
 -1      8451 1.22380E+00 3.28829E-01-3.63114E-01 4.18277E-01-1.10309E-01-2.39644E-01
 -1      8452 4.62438E-02-4.18186E-01-1.79601E-01 3.77401E-01-2.61352E-01 1.30311E-01
 -1      8453 0.00000E+00 0.00000E+00 0.00000E+00 0.00000E+00 0.00000E+00 0.00000E+00
 -1      8454 2.50208E+00-1.13966E-01-4.14229E-01 2.47849E-01-8.65136E-02 3.60439E-01
 -1      8455-1.06038E+00-9.93982E-02 2.54558E-01-2.38637E-01 2.65440E-01 4.88366E-02
 -1      8456-6.63695E-01-5.69719E-01 2.28732E-01 5.30455E-01 1.40235E-01-1.55799E-01
 -1      8457-1.85141E+00-1.78981E-01 7.51851E-01-1.32705E-01 2.33090E-01-2.93108E-01
 -1      8458 2.84445E-01-1.40106E-02 8.45099E-02 1.09693E-01 1.58207E-02-5.38437E-02
 -1      8459-2.73164E-01-4.54826E-01-3.83870E-01-2.19899E-01 4.67219E-03 1.71097E-02
 -1      8460-7.13515E-01-2.78661E-01-3.77561E-01-6.76219E-02-5.31895E-02-2.56568E-01
 -1      8461-6.27506E-01-1.47384E-01 9.53612E-02-2.97145E-01 7.53232E-02 1.26459E-01
 -1      8462 0.00000E+00 0.00000E+00 0.00000E+00 0.00000E+00 0.00000E+00 0.00000E+00
 -1      8463 2.71300E+00 1.56438E+00 1.39307E+00 1.20536E-01-1.30401E-01-4.28834E-02
 -1      8464 8.95821E+00 2.05931E+00 2.05859E+00 5.81317E-01-3.79621E-01 2.43242E-01
 -1      8465 6.87040E+00 8.67523E-01 1.75237E+00-1.41151E-01 4.11546E-01-5.91432E-01
 -1      8466 6.62746E+00 3.71113E-01 7.61096E-02 8.59175E-02-2.30483E-01-1.11368E-01
 -1      8467 3.93022E+00 4.85185E-01 4.03390E-01-8.44708E-02 3.21013E-01-6.59150E-01
 -1      8468 5.06733E+00 6.52601E-01 3.78392E-01-6.73087E-02-1.56667E-02-5.40738E-01
 -1      8469 2.19846E+00 3.76433E-01 2.89665E-01-1.29327E-01 4.66792E-02-6.89631E-01
 -1      8470 1.71537E+00-1.49348E-01-3.93999E-01-8.39407E-02 4.95577E-02-3.65445E-01
 -1      8471 1.97625E+00 1.72411E-01 1.62309E-01-6.31217E-02 1.16347E-01-6.85480E-01
 -1      8472-1.28124E+00-3.55918E-01-1.46847E-01-5.43160E-02-1.31160E-01-7.84995E-01
 -1      8473-1.83600E+00-4.76462E-01-4.80030E-01 7.43431E-02 8.42337E-02-6.71492E-01
 -1      8474-2.31059E+00-8.95900E-01-7.54201E-01-2.27452E-01-1.98487E-01-6.61956E-01
 -1      8475-4.08023E+00-5.31042E-01-2.14555E-01-5.87526E-01-1.32143E-01-8.46080E-01
 -1      8476-4.36342E+00-1.48749E-01-4.01092E-01-1.31190E-01-1.54419E-01-7.30127E-01
 -1      8477-4.34505E+00-3.78209E-01-1.00377E+00-1.07727E-01-2.85711E-03-8.01170E-01
 -1      8478-8.01535E+00-6.17982E-01 1.90084E-01-2.24277E-01 4.19622E-02 1.76986E-01
 -1      8479-9.51119E+00-1.62486E+00-4.23161E-01-3.49276E-01-2.56266E-01 2.32513E-01
 -1      8480-1.03960E+01-9.81686E-01-1.94692E+00-3.09057E-01 1.81063E-01-8.57064E-01
 -1      8481-9.96052E+00-6.01156E-01 9.18426E-02 1.65231E-01-2.84114E-01 1.20538E+00
 -1      8482-8.24713E+00-7.53132E-01-6.33045E-01 1.19768E-01-5.23033E-01 3.03754E-01
 -1      8483-1.03048E+01-9.35089E-01-6.28721E-01-4.00006E-01 3.84050E-01-1.35516E+00
 -1      8484-6.07731E+00-4.14646E-01-6.88582E-01 1.08492E-01-4.25220E-01 7.27216E-01
 -1      8485-7.23797E+00-7.18873E-01-5.23676E-01-8.89030E-02 4.13002E-01 3.15072E-01
 -1      8486-4.80898E+00-7.79604E-01-1.16774E+00 4.51777E-02-4.26951E-02 8.61574E-01
 -1      8487-5.38964E+00-5.70832E-01-4.14486E-01-1.51311E-01 2.37753E-01 6.64462E-01
 -1      8488-4.63920E+00-4.58312E-01-1.91967E-01-6.89862E-02 2.53832E-01 6.84048E-01
 -1      8489-1.71284E+00-2.97282E-01-3.54640E-01-8.48068E-02 5.14233E-02 2.33009E-01
 -1      8490-1.74758E+00-3.74656E-01-6.47275E-01-1.62599E-01-5.07346E-02 6.38489E-01
 -1      8491-1.20583E+00-9.54039E-02-2.27920E-01 9.10112E-03-4.08006E-02 6.19924E-01
 -1      8492 4.84525E-02 2.40978E-01 9.55819E-02 8.28763E-02 6.20188E-02-1.18672E-04
 -1      8493 9.94650E-01-1.18973E-01-1.72953E-01 3.58967E-02 4.70693E-02 6.75176E-01
 -1      8494 1.85740E+00 4.09653E-01 3.11185E-01-5.41290E-01-2.64039E-01 6.78015E-01
 -1      8495 4.99411E-01-1.51238E-02-1.13078E-01 2.43494E-02-2.82566E-02-1.42521E-01
 -1      8496 4.38701E+00 7.10545E-01 3.49475E-01 2.70425E-01 2.30032E-01 8.50687E-01
 -1      8497 4.32053E+00 4.15247E-01 5.76073E-01 1.34847E-01 1.36914E-01 7.73102E-01
 -1      8498 5.40856E-01 4.14111E-01-1.75038E-01 3.62230E-01-3.67203E-03-1.51082E-01
 -1      8499 7.92246E+00 8.23058E-01-3.33475E-01 9.96553E-01-2.19472E-01 1.57658E-01
 -1      8500 6.58354E+00 3.81775E-01-1.83170E-01 5.50040E-01 3.04778E-01 5.64537E-01
 -1      8501 1.11235E+01 9.15397E-01 2.13961E+00 2.04373E-01 7.40061E-02 6.95842E-01
 -1      8502 2.89291E+00 1.15924E+00 1.70043E-01 6.40965E-01-6.47492E-02 2.45582E-01
 -1      8503-1.67513E-01-4.07433E-01-4.45102E-01-5.10562E-02-9.13196E-02-1.69300E-01
 -1      8504 0.00000E+00 0.00000E+00 0.00000E+00 0.00000E+00 0.00000E+00 0.00000E+00
 -1      8505-2.39146E+00 2.99730E-01 1.44883E-01 6.59828E-01 5.38945E-01 2.99020E-01
 -1      8506 0.00000E+00 0.00000E+00 0.00000E+00 0.00000E+00 0.00000E+00 0.00000E+00
 -1      8507-1.14715E+00-2.54113E-01-6.22727E-02 1.73439E-02 1.12615E-02-7.25981E-01
 -1      8508-4.02167E+00-5.47354E-01-9.11338E-01-4.54614E-01 1.82483E-01-1.08100E+00
 -1      8509-1.00351E+01-1.45001E+00-2.24706E+00-9.41450E-02-8.84435E-02-5.84181E-01
 -1      8510-1.18351E+01-7.08612E-01-8.16390E-01 4.54680E-01 6.29016E-01 1.66185E+00
 -1      8511 1.73230E+00 3.06525E-01 3.83241E-01 3.86723E-02 8.83623E-02 7.95670E-01
 -1      8512 1.94092E+00 3.32920E-01 3.10367E-01-4.73236E-02-9.50734E-02 7.47952E-01
 -1      8513 5.83680E+00 8.12927E-02 6.24380E-01 2.07829E-01 1.18956E-01 6.87262E-01
 -1      8514 0.00000E+00 0.00000E+00 0.00000E+00 0.00000E+00 0.00000E+00 0.00000E+00
 -1      8515 0.00000E+00 0.00000E+00 0.00000E+00 0.00000E+00 0.00000E+00 0.00000E+00
 -1      8516 3.09902E+00 8.31615E-02-1.01795E-01 6.10291E-01 5.29189E-02 4.92174E-01
 -1      8517 4.72481E+00 5.57567E-01 3.95301E-01 1.00391E+00 1.17730E-01 8.91002E-01
 -1      8518 3.07105E+00-2.13699E-01-4.29198E-01-2.68350E-01-1.07491E-01-9.43633E-01
 -1      8519 6.00883E+00 7.28249E-01 5.52741E-01-8.42583E-02-2.28123E-01-1.05915E+00
 -1      8520 2.64262E+00-1.12613E-01 1.34885E-01 1.32535E-01 1.33545E-01 4.26100E-01
 -1      8521 2.51761E+00 2.46309E-01-1.24026E-01-1.22786E-02-1.09235E-01-4.23361E-01
 -1      8522 1.65602E+00 7.39603E-02 1.12231E-01 2.14785E-01 1.83916E-01-1.06320E-01
 -1      8523 1.41105E+00 2.26703E-01-1.34561E-01 2.70047E-02-2.17629E-01-3.24346E-01
 -1      8524 2.55457E-01-5.55543E-02 1.48127E-01-9.24645E-02 7.08272E-02-3.96360E-01
 -1      8525-2.35518E-01-1.22184E-01-2.75716E-01 9.19061E-03-1.68706E-01-6.99337E-01
 -1      8526-1.49708E+00-2.96077E-01-4.44183E-01-6.85653E-02-2.54487E-01-2.38784E-02
 -1      8527-1.71452E+00 1.76442E-01-1.19607E-01 2.36774E-01-1.69931E-01 3.06846E-01
 -1      8528-3.85319E+00-7.09658E-01-4.80399E-01 2.85022E-01-4.45618E-02-7.63848E-01
 -1      8529-2.64596E+00 3.60118E-01 5.32591E-01 3.39925E-02 1.69073E-01 6.42431E-01
 -1      8530-2.79531E+00-1.63563E-02 1.60441E-01 7.23156E-01-5.36447E-01 1.06027E+00
 -1      8531-3.15227E+00 7.31470E-02 6.54714E-01 8.57886E-02 5.28053E-02 5.57769E-01
 -1      8532-8.77139E-01-3.70147E-03-1.48174E-01-2.91136E-02-1.44173E-01 1.22431E-01
 -1      8533-1.22562E+00-1.01174E-01 3.23401E-01 6.14871E-02 2.38504E-01 4.66952E-01
 -1      8534 2.15710E-01 3.48101E-01 8.08940E-02 1.18099E-01-1.94630E-01 3.11380E-01
 -1      8535-7.81331E-02-7.09923E-02 3.78018E-01 4.89589E-02 1.60055E-01 5.94182E-01
 -1      8536 9.96324E-01-1.12228E-03 5.22196E-02-1.25522E-01 4.27968E-02-2.82844E-01
 -1      8537 3.12913E+00 2.86441E-01-3.71177E-01-2.00060E-01-1.80320E-01 5.28113E-01
 -1      8538 2.41107E+00 2.92629E-01 5.28518E-01-2.98335E-01 3.08623E-01-2.02303E-01
 -1      8539 3.19086E+00-1.56027E-01-4.89252E-01 2.73825E-01-2.18562E-01 7.89355E-01
 -1      8540 5.36343E+00 6.97770E-01 1.46233E-01 4.81732E-01 1.78971E-01 1.55867E+00
 -1      8541 5.42792E+00 1.31901E+00 1.81774E-01-3.00831E-01 5.79913E-02-8.92400E-01
 -1      8542 0.00000E+00 0.00000E+00 0.00000E+00 0.00000E+00 0.00000E+00 0.00000E+00
 -1      8543 0.00000E+00 0.00000E+00 0.00000E+00 0.00000E+00 0.00000E+00 0.00000E+00
 -1      8544 0.00000E+00 0.00000E+00 0.00000E+00 0.00000E+00 0.00000E+00 0.00000E+00
 -1      8545 1.43709E+00 4.69519E-02-2.16045E-01 5.61199E-02 1.07057E-01-1.32077E-02
 -1      8546 6.60579E-01 6.15239E-02 5.20010E-02 5.71240E-02 4.48970E-02 2.43922E-02
 -1      8547 1.22267E-01 2.24742E-02-1.07747E-02-1.05483E-02 2.77661E-02-2.09996E-02
 -1      8548 3.02755E-02-1.19261E-02-6.44263E-02-7.17589E-03 1.98233E-02-3.62267E-02
 -1      8549-3.62053E-01-7.21933E-02 5.71289E-02 1.30597E-03 1.14960E-02-5.34533E-02
 -1      8550-6.15115E-01-8.27472E-02 2.37259E-01 1.25383E-01-5.99243E-02 1.93090E-02
 -1      8551-1.43178E+00-9.09228E-02 5.58442E-02 1.15396E-01-1.12792E-01-8.11033E-02
 -1      8552-8.55587E-01 6.66621E-02 1.70143E-01 4.99882E-02 2.12784E-02 3.54089E-02
 -1      8553-4.29727E-01 3.24648E-03-1.12361E-02-1.80495E-02-3.44189E-02 5.39087E-02
 -1      8554-1.04044E+00-9.39581E-02 1.09342E-01 1.70028E-03 9.58758E-02 1.31542E-01
 -1      8555 2.84397E-02 1.33520E-01 1.89047E-01 1.10634E-02-4.16362E-02-1.04357E-02
 -1      8556 5.52497E-01 8.49458E-02-1.10257E-02-8.24412E-03 9.58897E-03 2.67767E-02
 -1      8557 8.90996E-01 1.80802E-01-5.54828E-02-9.85296E-02 1.16620E-01 5.78124E-02
 -1      8558 1.71551E+00-1.30883E-02-1.78303E-01-2.95848E-01-8.86877E-02 2.30648E-01
 -1      8559 0.00000E+00 0.00000E+00 0.00000E+00 0.00000E+00 0.00000E+00 0.00000E+00
 -1      8560 0.00000E+00 0.00000E+00 0.00000E+00 0.00000E+00 0.00000E+00 0.00000E+00
 -1      8561 1.41053E+00-1.03347E-01-4.08166E-01 1.64323E-01-1.26299E-01 3.54499E-02
 -1      8562 1.44454E+00-8.91280E-02-2.17536E-01 1.25374E-01-9.36239E-02-6.64815E-03
 -1      8563 1.29961E+00-7.27628E-02-1.52949E-01 1.08642E-01-4.79975E-02-1.20326E-01
 -1      8564 5.36188E-01-9.69344E-02-4.69776E-01-1.29606E-01-1.69963E-01 1.73300E-01
 -1      8565 7.48076E-01-9.26460E-02-3.48677E-01 6.36375E-02-1.29835E-01-3.20203E-02
 -1      8566 3.50608E-01 1.22786E-01-9.01099E-02-1.94263E-02-1.02415E-02 8.53494E-02
 -1      8567 6.34511E-01 7.81393E-02-1.29769E-01-5.23670E-02 8.79643E-03 1.92561E-02
 -1      8568 1.88842E-02-6.06426E-03-3.13010E-02-6.25461E-02 2.20853E-03-5.50986E-03
 -1      8569 5.62303E-02 5.74641E-03-4.49019E-02-3.61778E-03 6.03957E-02 3.95834E-02
 -1      8570-6.47382E-01 2.82712E-02 5.85946E-02 1.32688E-02-4.38946E-02-7.60066E-02
 -1      8571-1.85812E-01 3.35514E-03 3.85815E-02-8.81072E-03 3.84999E-02 1.17356E-02
 -1      8572-2.26709E-01 4.66212E-02 9.49964E-02 3.83957E-02 2.56476E-02 1.64237E-02
 -1      8573-1.51510E+00 9.40385E-02 2.77990E-01-5.97029E-02-9.23030E-02-8.83238E-02
 -1      8574-3.61189E-01 4.34129E-02 3.20546E-01 2.67623E-02 1.43917E-04-1.70408E-01
 -1      8575-3.15471E-01 7.98802E-02 1.93801E-01 8.70126E-02 1.46331E-01-1.30984E-02
 -1      8576-4.25916E-01 3.19174E-01 5.18094E-01-8.87297E-03 1.51290E-01 1.16993E-01
 -1      8577-9.33436E-01-5.15763E-02 4.74962E-01-1.33446E-01 7.24052E-02 5.92821E-02
 -1      8578-1.15562E+00 4.03150E-01 5.69277E-01-7.88661E-03-5.73655E-02-1.66356E-01
 -1      8579-1.15860E+00 2.34539E-01 3.42547E-01 2.94366E-02 1.36056E-01 2.24842E-01
 -1      8580-4.70428E-01-2.39215E-02 2.12511E-01-7.97016E-02 7.88253E-02-9.61659E-02
 -1      8581-3.56344E-01-3.18873E-02 5.55905E-02-3.81864E-03 9.78979E-02-8.80799E-03
 -1      8582-1.41504E+00 1.05526E-01 4.57361E-02 7.40327E-02 9.07992E-02 1.77548E-01
 -1      8583-4.21827E-01 1.34947E-01 1.05923E-02 5.32197E-02 1.42277E-02-1.90018E-01
 -1      8584-1.04523E-01-2.18007E-02 1.59779E-01 1.15858E-03 6.54422E-02 7.15131E-02
 -1      8585 1.74183E-01 7.73423E-02 4.17995E-02 1.90691E-02 2.14553E-02-3.00401E-02
 -1      8586 1.00945E-01-3.00624E-02-2.38850E-02-4.14031E-02-3.56847E-02-7.75362E-02
 -1      8587 5.97334E-01 4.67975E-02-3.59761E-02 2.58254E-02-3.02510E-03 1.10030E-01
 -1      8588 2.43802E-01 4.95061E-02-1.15046E-01 3.01252E-02-2.71425E-02 2.78638E-02
 -1      8589 1.67395E-01-7.46079E-02-2.13507E-01-2.86508E-02-2.06132E-02 2.78032E-02
 -1      8590 1.78190E+00-1.31841E-01-2.09482E-01 2.14377E-01 7.67920E-02 5.33893E-02
 -1      8591 6.85825E-01-7.93050E-02-2.16874E-01-1.07282E-01-9.31124E-02-4.39976E-02
 -1      8592 7.62562E-01-8.63128E-02-2.91430E-01-1.27142E-01-9.69287E-02-6.40034E-02
 -1      8593 1.09602E+00 1.08280E-01-3.38824E-01-3.60409E-02-1.38747E-01-1.41674E-01
 -1      8594 2.24563E+00-3.41371E-01-5.38442E-01-1.22216E-01 1.59469E-01 1.98295E-01
 -1      8595 1.37217E+00-2.31598E-01-5.70963E-01-1.98383E-01-1.79946E-01-2.13436E-01
 -1      8596 0.00000E+00 0.00000E+00 0.00000E+00 0.00000E+00 0.00000E+00 0.00000E+00
 -1      8597 9.03892E-01-5.86902E-02-8.89012E-02-8.95082E-02-7.81095E-02-3.42135E-02
 -1      8598-6.22349E-02-1.42890E-01-1.95865E-01-1.09691E-01-1.07201E-01 1.23594E-02
 -1      8599-5.29887E-01-4.64461E-01-5.48749E-02-8.12603E-02-2.95930E-01-3.12632E-01
 -1      8600-4.89914E-01 5.24915E-02 3.08834E-01 1.64224E-01 8.21141E-02-9.38895E-02
 -1      8601-8.35896E-01-2.76310E-02-2.25527E-02-2.11953E-02 9.12036E-02 1.85913E-02
 -1      8602 1.60796E+00 2.10523E-01 3.51542E-01-3.30785E-01 1.70332E-01 5.77041E-01
 -1      8603 6.06378E+00 1.01010E+00 1.41875E+00-1.47661E+00-1.08436E-01-6.21895E-01
 -1      8604 1.42005E+00 7.60913E-02-7.22289E-01-8.06016E-02-4.49830E-01-7.51669E-01
 -1      8605-2.59166E+00-6.22592E-02 1.36226E-01 1.61394E-01-1.43056E-02-3.13795E-01
 -1      8606-4.67427E+00-3.45709E-01 2.16088E-01 2.75218E-01 3.42707E-01-9.66404E-01
 -1      8607-8.00826E+00-5.34778E-01-1.26507E+00 4.62530E-01-8.19985E-02-5.39221E-01
 -1      8608-2.33952E-01-3.31778E-01-8.87666E-01-2.95670E-01 2.38104E-01 9.82957E-01
 -1      8609 3.39850E+00-3.76580E-03-4.09086E-01-3.18922E-01 3.17383E-01 8.55444E-01
 -1      8610 5.12936E+00 6.22622E-01 1.95800E-01-5.92027E-01 1.23335E-01 1.15748E+00
 -1      8611 6.10963E+00 4.95042E-01 4.83752E-01-2.32561E-01-3.87462E-02 1.26293E+00
 -1      8612 0.00000E+00 0.00000E+00 0.00000E+00 0.00000E+00 0.00000E+00 0.00000E+00
 -1      8613 5.47470E+00 2.84364E-01-3.06910E-01-1.03196E-01 6.66176E-02-6.57784E-01
 -1      8614-5.90217E-01 8.88313E-02 3.30557E-01 2.46130E-03-1.57849E-01-7.31852E-01
 -1      8615-5.32530E+00-5.46946E-01 1.29205E-01 8.92344E-02-2.92709E-01 2.53662E-01
 -1      8616-1.19736E+00 4.09099E-02-1.26769E-01 7.31855E-02-1.13922E-01 8.07562E-01
 -1      8617 3.53051E+00 2.72782E-01-5.52851E-01-2.19906E+00-2.08821E-01-1.15141E+00
 -1      8618-2.67144E+00-4.08271E-01-4.11078E-01 2.52877E-01 2.13560E-02-1.05288E+00
 -1      8619-6.04117E+00-5.46133E-01-9.91220E-02-1.44718E-01 2.87006E-01-1.19817E+00
 -1      8620-1.16434E+01-1.17629E+00-1.17505E+00 3.91228E-02-5.97599E-01-4.68210E-01
 -1      8621 3.37946E+00 6.57076E-01 7.25878E-01-2.02201E-01-2.15435E-01 9.80179E-01
 -1      8622 6.46861E+00 2.33879E-01 9.45246E-01 3.27152E-01 2.04552E-01 6.63666E-02
 -1      8623 9.42055E+00 9.34556E-01 9.39123E-01-8.32124E-01 6.72009E-02 1.33289E+00
 -1      8624 5.85297E+00 2.27097E-01-4.06714E-02-2.84637E-01 1.11792E-01-2.05603E-01
 -1      8625 2.31149E+00-1.26464E-01 8.17467E-02-1.09288E-01 8.66431E-02 2.93817E-01
 -1      8626 8.79507E-01-1.14476E-01-2.65487E-01 1.62469E-01 1.50749E-01 1.43466E-01
 -1      8627 1.34630E+00 7.48926E-02-1.23776E-01 1.41018E-02-6.55071E-02-2.21790E-01
 -1      8628-2.70971E-01-2.93052E-01 2.08372E-01-3.94283E-02-2.68194E-01-3.58871E-01
 -1      8629-1.07718E+00 2.57011E-02 4.20559E-02-1.28832E-01-1.52684E-02 2.41719E-01
 -1      8630-3.67936E+00-5.12443E-01 1.40781E-01-1.90656E-01 4.53105E-02-5.17437E-01
 -1      8631-1.44399E+00 1.04972E-01-1.68682E-01-1.32675E-02-3.00429E-01-1.68660E-01
 -1      8632-2.55217E+00 2.81623E-03-1.41846E-01-3.31890E-01-6.00805E-02 3.55873E-01
 -1      8633-7.25606E+00-4.77924E-01-5.56386E-01 4.80426E-01 1.41527E-01-8.31682E-01
 -1      8634-4.32865E+00-4.97610E-01-6.39035E-01 2.58708E-01-1.90125E-01-3.03140E-01
 -1      8635-3.08753E+00-7.48493E-03-1.82057E-01 2.10622E-01-1.01243E-01-4.93569E-01
 -1      8636-2.11309E+00 1.14403E-01-7.93111E-02 2.34611E-01-9.87527E-04-3.59151E-01
 -1      8637-3.43299E+00-6.61572E-01-3.32285E-01-3.04331E-02 4.76798E-02 4.97153E-01
 -1      8638-2.01705E+00-5.23045E-01-1.78491E-02 3.25627E-02-5.01478E-02 7.68487E-01
 -1      8639-6.65158E-01-2.49610E-02-4.16332E-01 1.07818E-01-2.28478E-01 7.68900E-01
 -1      8640 3.21793E+00 7.46245E-01 6.22239E-01-7.18393E-03-4.69098E-01 4.39850E-01
 -1      8641 1.47525E+00-9.38162E-02 3.01026E-01 1.48842E-01-6.05467E-03-1.01414E-01
 -1      8642 2.89499E+00 4.01141E-01-4.64860E-02-2.19447E-01 3.07167E-02 5.23513E-01
 -1      8643 2.83086E+00 1.48413E-01 2.03676E-01 2.47911E-01 5.33965E-02-4.48162E-01
 -1      8644 9.32605E+00 2.03825E+00 2.08688E+00-3.74027E-01-3.07838E-01 1.21184E+00
 -1      8645 5.05431E+00 6.92300E-01 5.30226E-01-3.56416E-01-1.65357E-01 7.15862E-01
 -1      8646 2.12291E+00-6.21926E-01-3.58648E-01-5.31702E-01 5.33939E-01 5.20696E-02
 -1      8647 0.00000E+00 0.00000E+00 0.00000E+00 0.00000E+00 0.00000E+00 0.00000E+00
 -1      8648 2.04177E+00-3.73247E-02 1.36295E-01 4.66928E-01-2.77652E-02-2.56843E-02
 -1      8649 1.05908E-02-2.23187E-02-1.54186E-01-1.98708E-01 5.98743E-02-2.86213E-02
 -1      8650-2.04948E+00 2.62007E-01 3.67523E-01-5.14979E-01-6.00533E-02 8.26351E-02
 -1      8651-5.40720E-01-2.01410E-01 1.78881E-01-3.02236E-01-1.76368E-01-4.11495E-02
 -1      8652-9.62421E-01-1.40539E-01-2.32374E-01-1.87426E-01 4.21847E-02-2.75590E-01
 -1      8653-1.78684E+00 2.97097E-02 6.45403E-02-4.03496E-02-1.10622E-01 4.45938E-03
 -1      8654-3.38891E-01 8.36580E-03 8.72081E-02 4.53782E-02-7.77107E-02-8.35754E-03
 -1      8655 3.75157E-01 1.45534E-01 5.82324E-02 1.37166E-02-1.59479E-02-1.84195E-01
 -1      8656 0.00000E+00 0.00000E+00 0.00000E+00 0.00000E+00 0.00000E+00 0.00000E+00
 -1      8657 2.87193E-01 2.12545E-01-1.09526E-01 2.56022E-01-3.55861E-02-4.20812E-02
 -1      8658 3.57010E+00 5.80750E-01 6.09790E-01 5.49798E-01 1.22548E-01-3.85319E-01
 -1      8659 8.64739E-01 4.37175E-01-5.52285E-02 1.97992E-01-3.99176E-03 3.50024E-01
 -1      8660 5.92183E-01-1.22529E-01 3.81351E-02 5.67094E-02 7.46866E-02 8.65159E-02
 -1      8661-7.15492E-03-1.05520E-02 1.69268E-01-8.35820E-02-1.59545E-02 7.96571E-02
 -1      8662-4.97876E-01 2.75912E-01 6.60592E-01-1.68589E-01-8.85474E-02 1.89972E-01
 -1      8663-8.32975E-01-4.39152E-01-1.82382E-01-2.51566E-01 5.59267E-02 6.83734E-02
 -1      8664-1.19683E+00-5.54779E-02 6.83122E-02-1.59023E-01-3.94995E-02 2.17444E-02
 -1      8665-1.29173E-01-1.07544E-01-1.06609E-01-2.16215E-02-2.14725E-02-3.20503E-02
 -1      8666 1.35554E+00 1.95261E-01 4.27142E-01-2.04724E-02 1.36172E-01 7.77648E-02
 -1      8667 7.45213E-01-1.76570E-01-4.38289E-01-4.43176E-03 1.12176E-02 7.74800E-02
 -1      8668 1.43043E+00-4.18075E-01-2.17599E-01-2.71478E-01 1.32859E-01 5.08927E-02
 -1      8669 1.97265E+00-5.15323E-01-9.77530E-01 5.07104E-01 3.60667E-01-2.56640E-01
 -1      8670 0.00000E+00 0.00000E+00 0.00000E+00 0.00000E+00 0.00000E+00 0.00000E+00
 -1      8671 1.37619E-01 2.04405E-01-6.52643E-02 2.97423E-02-4.81939E-02 7.66274E-02
 -1      8672-1.69275E+00 2.50468E-01 4.80515E-01-3.79603E-01-1.59001E-01 1.60613E-01
 -1      8673 8.32814E-01-5.78553E-02-5.08530E-01 2.19619E-01 4.46759E-02-1.78052E-01
 -1      8674 0.00000E+00 0.00000E+00 0.00000E+00 0.00000E+00 0.00000E+00 0.00000E+00
 -1      8675 5.05290E-01 4.04975E-01-2.21690E-01-2.95159E-02-1.90826E-02 1.02171E-01
 -1      8676 2.91661E-01-2.33127E-01-7.75809E-02 1.70854E-01-1.44079E-01-5.64542E-02
 -1      8677 3.36267E-01 3.00140E-01 1.36065E-01-3.10766E-01-2.05470E-01 6.38210E-02
 -1      8678-1.19561E-01-9.37721E-02-3.34751E-02-9.66866E-02-6.60101E-03 1.73123E-01
 -1      8679-3.71144E-02 3.09660E-01 2.47879E-01-1.67643E-01-3.85273E-02-1.29475E-02
 -1      8680-6.89662E-01-2.49648E-02 3.25685E-01-1.49884E-01 2.37663E-01 1.07219E-01
 -1      8681-1.41497E+00 6.57713E-01 5.64973E-01-1.81260E-01 3.71185E-01 3.97376E-01
 -1      8682-4.65111E-01-3.81289E-02 9.03021E-02-1.72709E-02 1.26358E-01 1.24340E-02
 -1      8683 2.39215E-01 6.77648E-02 2.01695E-02 1.24373E-01 7.05149E-03-1.85075E-01
 -1      8684 1.41910E+00 2.88156E-01-5.51985E-01 5.26350E-01 6.20556E-02-6.42576E-02
 -1      8685 3.48761E+00 3.77808E-01 4.54640E-01-6.92727E-01-3.76269E-01-2.50372E-01
 -1      8686 1.03064E+00-3.88984E-01-3.07497E-01-1.06183E-01-2.15956E-01-2.02543E-01
 -1      8687 5.90969E-01-9.37694E-02-8.10478E-02-1.70244E-01-1.34692E-02-3.12792E-02
 -1      8688-1.06079E+00-1.48464E-01-2.47891E-01-2.77848E-01 1.65149E-02 2.94316E-02
 -1      8689-8.29749E-01 2.29953E-01 1.05720E-01 1.73810E-01 1.31511E-01-5.13115E-02
 -1      8690-7.79379E-01 5.56818E-02 8.85652E-02-1.76521E-01 1.31556E-02 1.40118E-01
 -1      8691-2.89455E+00-1.55479E-02 2.14175E-03 5.36033E-01 1.29806E-01 3.31127E-01
 -1      8692-1.84583E+00 3.23587E-01-1.31086E-01-1.63375E-01 1.82464E-01-2.69883E-01
 -1      8693-1.13559E+00 2.56904E-01 1.88099E-01-3.11401E-02 2.60820E-01 1.75241E-01
 -1      8694-3.43135E-01 3.29236E-02 4.39861E-02-3.31396E-02 3.65278E-02-5.68839E-02
 -1      8695-1.10607E-01 8.46466E-02 1.53011E-01-7.61659E-02 4.81023E-02-6.05015E-02
 -1      8696 9.00415E-01 8.13120E-02-1.44591E-01 1.60161E-01-1.80741E-01-1.76527E-01
 -1      8697 2.77320E-01 1.11972E-01-1.22139E-01 1.82959E-01-1.16211E-01-1.14846E-01
 -1      8698 2.07534E+00 2.09511E-01 6.70357E-02 7.29922E-01 6.30254E-02 1.78762E-01
 -1      8699 0.00000E+00 0.00000E+00 0.00000E+00 0.00000E+00 0.00000E+00 0.00000E+00
 -1      8700 4.44055E+00 5.89598E-01 4.08861E-01 6.18116E-01-2.70388E-01 4.90578E-02
 -1      8701 7.60544E-02 1.94805E-01 3.34579E-01 6.28500E-02-2.36742E-02-1.80387E-02
 -1      8702-3.69056E+00-5.63086E-01-3.91992E-01-9.77796E-01 2.76193E-01-3.47147E-01
 -1      8703 3.97098E+00 8.61389E-01 3.14878E-01 1.15522E+00-6.96097E-02 2.84750E-01
 -1      8704 7.52551E+00 1.74118E+00 6.02133E-01-2.57304E-01 9.55074E-02 5.24958E-03
 -1      8705 3.33685E-01 9.79087E-02 1.75705E-01-1.97635E-01-6.38960E-02 1.48118E-01
 -1      8706-3.67726E+00-1.17050E-02 8.09526E-02-3.23982E-01 8.86202E-02-5.84846E-01
 -1      8707-2.29750E+00 2.96478E-01-2.05800E-01 3.07752E-01 6.19806E-02 3.16504E-01
 -1      8708-2.90905E+00 2.55584E-01 7.07577E-02-3.47831E-01 1.13031E-01-4.98144E-01
 -1      8709-4.09529E-03 1.24817E-02-1.36082E-01 1.13533E-01 1.81202E-02-7.79905E-02
 -1      8710 3.64698E-01 1.11114E-01 1.49623E-01-9.24238E-02-3.21062E-03-1.35813E-01
 -1      8711 1.38648E+00-3.96442E-02 7.39541E-02-1.88917E-01 2.72353E-02-2.22360E-01
 -1      8712 2.36079E+00-7.24243E-02 2.00572E-01-4.40787E-01 7.41419E-02-3.13975E-01
 -1      8713 0.00000E+00 0.00000E+00 0.00000E+00 0.00000E+00 0.00000E+00 0.00000E+00
 -1      8714 0.00000E+00 0.00000E+00 0.00000E+00 0.00000E+00 0.00000E+00 0.00000E+00
 -1      8715 0.00000E+00 0.00000E+00 0.00000E+00 0.00000E+00 0.00000E+00 0.00000E+00
 -1      8716 1.35810E+01 2.59965E+00 3.02934E+00 2.05558E+00-9.00020E-01-9.09740E-01
 -1      8717 7.58611E+00 1.99768E-01 1.44352E-03-3.49463E-01-3.12081E-02-8.01693E-01
 -1      8718 5.53397E+00 2.60465E-01 1.27536E-01-4.28441E-01-1.58896E-01-7.40269E-01
 -1      8719 1.10962E+01 2.17283E+00 1.60536E+00-3.86319E-01-2.72098E-01-1.35074E+00
 -1      8720 1.08590E+01 2.20639E+00 1.78943E+00-1.36697E-01-2.75044E-01-6.97412E-01
 -1      8721 2.59232E+00-3.99292E-01-8.70704E-02 3.78761E-01-2.44955E-01 3.52852E-01
 -1      8722 6.52246E+00 5.58596E-02 1.62045E-01-3.76237E-01 2.43903E-01-1.20778E+00
 -1      8723 3.05441E+00 4.13678E-01-1.19607E-01-1.20144E-01 1.07341E-01-8.67066E-01
 -1      8724 2.36245E+00 1.09569E-01-3.33839E-02 4.67781E-02-2.20297E-01-7.33111E-01
 -1      8725 4.92659E-01 2.94054E-02 5.12855E-02-7.30460E-02 2.07355E-01-6.10559E-01
 -1      8726-1.25605E+00 2.63923E-01 3.68718E-01-9.45177E-02 1.51964E-01-8.41763E-01
 -1      8727-9.71477E-01 8.54663E-02 1.95585E-01-1.50900E-01 1.10130E-02-1.22602E-01
 -1      8728-3.27811E+00-4.05231E-01-6.46561E-01-2.62967E-01 7.16167E-02-4.50421E-01
 -1      8729-1.19420E+00 8.11015E-02-5.48185E-02 2.46449E-02-4.97608E-02 9.45250E-02
 -1      8730-4.10141E+00 5.00363E-02 1.83851E-01-8.27499E-02 3.77536E-01-5.39792E-01
 -1      8731-6.13091E+00 1.29129E-01 3.77496E-01 1.84488E-01 4.07157E-01-3.06304E-01
 -1      8732-9.09717E+00-7.77072E-01 1.30767E-01 3.89138E-01 6.04799E-01-8.03894E-02
 -1      8733-4.40729E+00-2.38887E-01-3.38778E-01-5.22144E-01 2.80438E-02-5.39935E-01
 -1      8734-1.01620E+01-7.74681E-01-1.49582E+00 5.25394E-01 1.00411E-01 5.68965E-01
 -1      8735-7.28144E+00-5.99815E-01-1.17347E+00 2.04940E-02 9.12196E-02-6.49395E-01
 -1      8736-9.89213E+00-6.68143E-01-5.91315E-01 6.01713E-01-4.61064E-02 1.10835E+00
 -1      8737-4.41702E+00-1.07143E-01 5.85563E-02 9.22838E-02 1.87150E-01 8.12339E-01
 -1      8738-7.37801E+00-1.03029E+00-6.82407E-01 4.71264E-01 3.51273E-01 1.54843E+00
 -1      8739-1.54268E+00-2.17010E-01-3.92807E-01 3.66055E-03 5.85317E-02 7.69244E-01
 -1      8740-1.38082E+00 1.31079E-01 5.12344E-01-1.14015E-01 3.07586E-01 7.23573E-01
 -1      8741-2.21368E-01-3.69891E-02-3.23535E-01 1.28223E-01-1.65912E-01 7.51461E-01
 -1      8742 7.14965E-01 8.50094E-02 4.86312E-01 1.24724E-01-1.93720E-01 7.46966E-01
 -1      8743 1.37457E+00-1.77008E-01-2.95245E-01 4.05253E-02-1.27671E-01 7.23877E-01
 -1      8744 4.00108E+00 4.25690E-01 4.83357E-01 9.22092E-02-2.66957E-01 4.87320E-01
 -1      8745 5.48050E+00-3.07912E-02-4.75241E-01-3.22932E-01-5.38776E-01 3.80013E-01
 -1      8746 5.83681E+00 3.21182E-01 1.18800E-01-2.67952E-01-1.60023E-01 4.82886E-01
 -1      8747 9.28009E+00 5.86700E-01 9.08303E-02-2.70576E-01-2.42834E-01 3.04577E-01
 -1      8748 4.35554E+00 2.00777E-01 9.43051E-02 5.70395E-01 5.08279E-02 5.48064E-01
 -1      8749 6.24553E+00 1.09391E+00 1.34038E+00-1.09886E+00 2.25752E-01 1.29062E+00
 -1      8750 0.00000E+00 0.00000E+00 0.00000E+00 0.00000E+00 0.00000E+00 0.00000E+00
 -1      8751 0.00000E+00 0.00000E+00 0.00000E+00 0.00000E+00 0.00000E+00 0.00000E+00
 -1      8752 0.00000E+00 0.00000E+00 0.00000E+00 0.00000E+00 0.00000E+00 0.00000E+00
 -1      8753 8.98847E+00 1.54007E+00 1.45576E+00 1.93409E+00-3.42915E-01-2.11300E-01
 -1      8754 7.75409E+00 4.11605E-01 2.79187E-01 1.31577E-01 2.97437E-02-1.83990E-01
 -1      8755-4.25379E+00-2.14046E-01-5.31425E-01-1.55580E-01-2.19519E-01-3.91537E-01
 -1      8756 4.41495E+00-2.00452E-01 6.11473E-02-2.01022E-01 1.09698E-01 3.05056E-01
 -1      8757 6.60134E+00 1.57491E-01 2.59859E-01 6.38338E-01 2.44108E-01 1.33324E+00
 -1      8758 1.02516E+01 2.49887E+00 2.50773E+00-1.63689E+00-3.29617E-01 1.16474E+00
 -1      8759 0.00000E+00 0.00000E+00 0.00000E+00 0.00000E+00 0.00000E+00 0.00000E+00
 -1      8760 8.50828E+00 1.36458E+00 1.33968E+00-5.19842E-01-2.49738E-01-1.11530E+00
 -1      8761 5.67525E+00 3.60182E-01 8.66703E-01 5.96059E-02-4.06077E-02-2.61383E-01
 -1      8762-6.83478E+00-2.98226E-01-3.37839E-01-5.04466E-01-1.99456E-01-1.08104E+00
 -1      8763-6.00623E+00-8.08018E-01-1.07790E+00-1.20270E-01-2.98452E-01 5.09788E-01
 -1      8764 4.06049E+00 1.65031E-01 2.36269E-01 2.29194E-01-1.12282E-02 5.32179E-01
 -1      8765 0.00000E+00 0.00000E+00 0.00000E+00 0.00000E+00 0.00000E+00 0.00000E+00
 -1      8766 2.55567E+00 5.66230E-02 7.50020E-01-5.70616E-02 1.29669E-01-7.27039E-01
 -1      8767-4.30270E+00-1.28442E-01-5.59303E-01-3.86160E-02 4.94367E-02 2.56068E-01
 -1      8768-2.91553E+00-1.60043E-01-1.12227E-01-2.06608E-02-1.38326E-02 5.09885E-01
 -1      8769 7.51001E+00 2.80080E+00 1.19143E+00-2.66794E+00 5.14501E-01 1.58137E+00
 -1      8770 5.59246E+00 1.79137E-01 5.55922E-01-1.13378E-01-2.24239E-01-2.28539E-01
 -1      8771 3.49070E+00 5.57341E-01 7.47708E-01 2.16308E-02-2.18690E-03-8.31054E-01
 -1      8772 5.47750E-02-2.10753E-01-4.44578E-02 3.78600E-02-1.74050E-01-2.05006E-01
 -1      8773-5.49384E+00-2.24246E-01-8.13326E-01 3.89460E-01 7.57022E-02-4.74925E-01
 -1      8774-1.72471E+00 2.79701E-01 6.58303E-02 7.58500E-02 1.61494E-01 4.51832E-01
 -1      8775 7.23678E-02 1.13034E-01-1.09703E-01-1.26452E-01 6.71584E-02 7.33700E-01
 -1      8776 0.00000E+00 0.00000E+00 0.00000E+00 0.00000E+00 0.00000E+00 0.00000E+00
 -1      8777 4.28261E+00 7.78012E-01 7.13628E-01-9.17538E-02-1.62600E-01-4.52989E-01
 -1      8778 5.11609E+00 4.73706E-01 5.49027E-01 6.72710E-02 3.46250E-01-8.10546E-01
 -1      8779 2.76137E+00 6.83590E-01 3.56734E-01 1.01969E-01-1.41126E-02-1.10521E+00
 -1      8780 6.41206E-01-5.62272E-01 7.44414E-02 1.69422E-02 4.13443E-02-7.17200E-01
 -1      8781-2.39278E+00 1.76250E-01-3.24286E-01-2.04736E-02-5.56184E-02-3.65903E-01
 -1      8782-7.68955E+00 6.90143E-02-3.73999E-01-5.55436E-01-6.57353E-01-2.86069E-01
 -1      8783-1.11349E+01-1.93927E+00-5.99861E-01 2.55316E-01-8.70979E-02-1.67628E+00
 -1      8784-1.11748E+01-1.31531E+00-1.05615E+00 2.04412E-01-8.73977E-02-4.70742E-01
 -1      8785-2.47553E+00-6.50481E-01-6.09534E-01-5.69473E-02-2.31333E-01 8.62868E-01
 -1      8786-7.58934E-01 1.36602E-01-5.85729E-02-7.59228E-02-2.12674E-01 5.89663E-01
 -1      8787 5.56377E+00 7.40846E-02 2.78784E-01 3.32050E-02 3.46367E-01 3.39810E-01
 -1      8788 6.16532E+00 4.48791E-01 6.49531E-01-3.48083E-01-9.72408E-02 9.29603E-01
 -1      8789 1.04080E+01 1.57299E+00 1.38278E+00-7.26963E-01 2.72280E-01 2.11942E+00
 -1      8790-2.35410E+00-4.41437E-01-3.98124E-01 4.31235E-02 1.46548E-01-7.41204E-01
 -1      8791 1.96736E+00 3.86312E-01 7.74834E-01-3.31769E-02 2.15022E-03 8.96838E-01
 -1      8792 0.00000E+00 0.00000E+00 0.00000E+00 0.00000E+00 0.00000E+00 0.00000E+00
 -1      8793 4.81711E+00 6.88683E-01 2.73511E-01-5.95050E-01 2.02075E-01-2.02389E-01
 -1      8794 7.09304E+00 6.56070E-01 9.51885E-01-1.56298E-01 3.69313E-01-1.88229E-01
 -1      8795 2.60926E+00-3.24993E-01 2.56612E-01-1.97996E-01 3.69834E-02 4.19485E-01
 -1      8796 1.06706E+00-5.40627E-02-1.13538E-01 1.35078E-01 2.24224E-02-6.10044E-02
 -1      8797 1.53973E+00-3.49990E-01 6.28519E-03-1.23997E-01 2.17439E-01-8.66828E-01
 -1      8798 9.85685E-01 2.50994E-01 3.92320E-01-9.45894E-03 1.93912E-02-9.53834E-02
 -1      8799-2.12376E+00-4.25570E-01-2.25842E-01-1.16298E-01 3.81746E-01-4.01029E-01
 -1      8800-2.56405E+00 9.10163E-02 1.50907E-01 2.02264E-01-4.04915E-02-4.15109E-01
 -1      8801-3.07881E+00 3.89726E-01-5.22967E-01-6.08508E-01-1.78778E-01 1.35814E-01
 -1      8802-3.95511E+00 7.43969E-02-2.55546E-01 4.00138E-01 7.13697E-02-3.73313E-01
 -1      8803-4.81047E+00-1.30800E-01-5.62583E-01-3.10149E-01-1.28411E-01 3.82544E-01
 -1      8804-8.89250E+00-9.51988E-01-1.22394E+00-1.00317E-02-3.49784E-02-2.87110E-01
 -1      8805-3.72646E+00 2.05087E-01-3.23404E-01 3.40277E-01-1.79990E-01-5.29509E-01
 -1      8806-6.62348E+00-6.60766E-01-6.17342E-01-1.16966E-01-1.75022E-02 2.26958E-01
 -1      8807-2.37636E+00 3.22602E-01 9.20492E-02 2.77469E-01-1.03013E-01-2.59585E-01
 -1      8808-3.56212E+00-1.25211E-01-2.28408E-01 1.57009E-01-2.21778E-02 8.26152E-01
 -1      8809-1.99864E+00-3.24600E-01-5.31206E-01 5.89130E-02 1.12811E-02 1.62990E-01
 -1      8810-1.98607E+00-3.77457E-01 2.82182E-01 1.77406E-01 6.74386E-02 5.34688E-01
 -1      8811 7.15456E-02 6.48763E-02 3.98690E-02-2.39091E-02 1.33456E-02-1.50985E-02
 -1      8812-5.57757E-02-1.15595E-01-8.10862E-02-1.10172E-01 4.73470E-03-1.14384E-03
 -1      8813-5.10099E-02 8.08755E-03 5.04509E-01 8.04751E-02 4.45142E-02 2.21503E-01
 -1      8814 3.26129E+00 9.29503E-01 9.21592E-01 8.16379E-02-2.30604E-01 1.11520E+00
 -1      8815 2.32160E+00 2.00467E-01 9.47057E-03-6.30784E-01 6.68309E-02 8.17573E-02
 -1      8816 6.84441E+00 3.17507E-01 6.44873E-01 4.49890E-01 3.57594E-01 2.87878E-01
 -1      8817 6.20869E+00-8.29858E-01-6.41399E-01 3.49686E-01 2.70207E-01-6.54237E-01
 -1      8818 3.26321E+00-1.65309E-01-3.63608E-02-4.83755E-01 1.47559E-01 3.77934E-01
 -1      8819 1.94187E+00 1.27873E-01-1.51019E-01-8.45676E-01 5.06951E-01 7.96103E-02
 -1      8820 0.00000E+00 0.00000E+00 0.00000E+00 0.00000E+00 0.00000E+00 0.00000E+00
 -1      8821 3.90079E+00-2.89490E-01-2.63021E-02-6.14342E-01-1.74662E-01-2.34315E-01
 -1      8822 2.47925E+00 1.48933E-01 1.84387E-01 4.39390E-01 5.18603E-02-6.01074E-02
 -1      8823 2.97076E-01 3.83330E-01 1.02990E-01 9.61089E-02 4.60460E-02 6.15865E-02
 -1      8824 2.21603E-01-6.68456E-02-4.91143E-02-1.06496E-01 3.93920E-02-7.94309E-02
 -1      8825-3.37554E-01-9.38219E-02 1.09921E-01 1.57243E-01-1.66342E-01 8.58563E-02
 -1      8826-1.86924E+00 2.05232E-01 5.99370E-01-7.34226E-01-1.13387E-01 6.23488E-01
 -1      8827-8.51303E-01-1.19064E-01-1.12010E-01-1.35753E-01-5.68330E-02 5.09227E-02
 -1      8828-2.47990E+00 1.23049E-01 4.31543E-01 3.40140E-01-1.92179E-01-4.18609E-03
 -1      8829-4.49017E-01-2.15906E-01 1.85157E-01-2.28538E-02 6.68443E-02-8.05380E-02
 -1      8830-3.53273E-01 2.68558E-02 1.49648E-01 2.05522E-02-5.49008E-03-3.62889E-04
 -1      8831 3.48501E-01 2.58290E-01 3.44082E-01-2.13082E-01-7.29597E-02-2.84121E-02
 -1      8832 9.09407E-01 1.74058E-01 1.49439E-01-1.17950E-01 5.66519E-02-2.73369E-02
 -1      8833 1.73802E+00-7.17803E-02-2.50500E-01-3.58108E-01 7.74555E-02 2.19136E-01
 -1      8834 6.48326E-01 1.47248E-01-2.36681E-01 1.96777E-01 5.39189E-02-1.41480E-01
 -1      8835 0.00000E+00 0.00000E+00 0.00000E+00 0.00000E+00 0.00000E+00 0.00000E+00
 -1      8836 0.00000E+00 0.00000E+00 0.00000E+00 0.00000E+00 0.00000E+00 0.00000E+00
 -1      8837 2.47566E-01 2.16567E-01-2.79594E-01 1.78947E-01-4.98903E-02-8.55150E-02
 -1      8838 8.36979E-01-4.58625E-02-4.89988E-02 1.42345E-01 6.82291E-03 1.27484E-01
 -1      8839-1.89131E-01-5.55257E-02 1.35860E-02-3.82843E-02 9.12960E-03 5.19069E-02
 -1      8840-3.02944E+00-2.27981E-02-6.81489E-02-5.36785E-01-4.40305E-01 8.90304E-02
 -1      8841-9.51678E-01-2.63621E-01 1.71167E-01 1.03756E-01 1.92050E-02-5.44110E-02
 -1      8842 8.03332E-01-2.57669E-01-4.45425E-01-1.66315E-02 1.11929E-01 1.77315E-01
 -1      8843 2.70711E+00-5.16038E-02-2.45648E-01 7.99721E-01 3.47337E-01 4.38262E-03
 -1      8844-1.67853E-01-2.74603E-02-2.33288E-02 3.92782E-03 5.61041E-02 9.58223E-02
 -1      8845-2.14433E+00 3.72314E-01 4.65890E-01-2.37639E-01-2.11498E-01 3.02737E-01
 -1      8846 1.28418E+00-9.98215E-02-5.29060E-01 1.09841E-01 1.17268E-01-2.47238E-01
 -1      8847 1.45710E+00 2.18513E-01-4.75979E-01 4.28300E-01 1.50865E-01-1.21790E-01
 -1      8848 0.00000E+00 0.00000E+00 0.00000E+00 0.00000E+00 0.00000E+00 0.00000E+00
 -1      8849 8.46977E-01 3.50973E-02-5.88641E-02 2.95570E-01-9.78359E-02-8.46736E-02
 -1      8850 2.34678E-01 3.20166E-01 1.06661E-01-2.09646E-01-9.44167E-02 6.94164E-02
 -1      8851-6.86452E-02-1.95688E-02-6.40361E-02-2.43033E-01-6.79921E-02 6.36727E-02
 -1      8852-6.69785E-01-2.32158E-01-1.27990E-01-1.91013E-01 6.66132E-03 4.42909E-02
 -1      8853-2.11268E-01 3.14094E-01 3.76737E-01 9.33955E-02 3.72736E-02 1.20443E-01
 -1      8854-9.36855E-01 3.60327E-01 3.28611E-01-1.50900E-01 2.86758E-01 1.74828E-01
 -1      8855 4.23856E-01-6.34105E-02-9.16128E-02-1.01069E-01-4.18533E-02-4.16937E-02
 -1      8856 1.17742E+00-2.68156E-01-4.37737E-02 6.53993E-01-2.72934E-01 4.97424E-03
 -1      8857 1.85392E+00-6.26332E-01-2.67082E-01-9.58559E-02-1.99684E-01-2.61434E-01
 -1      8858 1.02537E+00 3.12790E-01 1.99025E-01 2.67231E-02-1.75565E-01 1.98076E-03
 -1      8859-3.43014E-02-2.46764E-01-4.61200E-01-1.07510E-01-1.02960E-01 1.41727E-01
 -1      8860-6.91098E-01 5.05338E-02 4.17827E-01 1.80243E-01 1.05003E-01-5.99169E-02
 -1      8861-2.34266E+00 1.70649E-01 4.99522E-01-3.05946E-01 2.84448E-01-3.89980E-01
 -1      8862-2.71368E+00 1.15175E-01-3.60983E-02 3.10818E-01 2.03072E-01 2.62223E-01
 -1      8863-3.16545E-01 1.16053E-01 7.77092E-02-8.12351E-02 1.25973E-01 2.37473E-02
 -1      8864-3.60475E-02 2.81291E-02 1.28603E-01 4.03603E-03 7.59418E-02-2.91774E-03
 -1      8865 4.27357E-01 2.62021E-02 1.47966E-02-9.49437E-02-1.03895E-01-3.54269E-02
 -1      8866 1.38615E+00-2.75661E-01-4.02024E-02-4.83446E-02-1.45771E-01 5.97607E-02
 -1      8867 0.00000E+00 0.00000E+00 0.00000E+00 0.00000E+00 0.00000E+00 0.00000E+00
 -1      8868 0.00000E+00 0.00000E+00 0.00000E+00 0.00000E+00 0.00000E+00 0.00000E+00
 -1      8869 3.62938E+00 1.28305E-01 9.33487E-02 5.48671E-01-1.14157E-01 4.83884E-01
 -1      8870 1.25469E+00-2.30651E-01-1.84269E-01-4.70067E-02-1.98841E-01-9.89691E-02
 -1      8871 5.54049E-02 1.86378E-01 3.71767E-01-4.12254E-02 1.55618E-02-5.05246E-02
 -1      8872-5.41710E-01-3.08065E-03 1.39398E-01-3.07407E-02-5.92666E-02 2.47562E-02
 -1      8873-3.40722E+00-2.28656E-01-3.27724E-01-3.75824E-01 2.00913E-01-3.83570E-01
 -1      8874-3.31778E+00-4.84443E-01-5.03230E-01 7.98059E-03 1.31922E-01 3.96206E-01
 -1      8875-1.78267E+00 3.63389E-01 3.12916E-01 1.40551E-01 1.32922E-01 3.35148E-01
 -1      8876-1.29273E+00 2.88724E-01 1.62819E-01 6.49422E-02 1.31184E-01 1.43963E-01
 -1      8877 9.49673E-01-4.50363E-01-3.10110E-01 1.31324E-03-1.44531E-01 1.35076E-01
 -1      8878 4.43839E+00 5.26159E-01 5.51125E-01 1.45689E-01-8.58878E-02-1.98630E-01
 -1      8879 2.52613E+00 8.34724E-02 2.74941E-01-6.63455E-02-5.70979E-02 1.16105E-01
 -1      8880 1.59829E+00-4.63207E-01-2.67588E-01-1.75449E-01-1.56488E-01-1.29500E-01
 -1      8881 9.26766E-01-1.61728E-01-5.88596E-01-4.54286E-02-3.55187E-02 4.12732E-02
 -1      8882 2.84823E-01 7.42230E-02 2.37372E-01-1.70900E-01-9.98612E-02 1.09521E-01
 -1      8883-1.27793E+00-1.12689E-01-2.27382E-01 9.05985E-02 1.55481E-02 8.54373E-02
 -1      8884-2.25848E+00 5.82480E-02-1.57040E-01 2.92241E-01-6.73631E-02 4.09144E-01
 -1      8885-3.99449E+00 2.66358E-01-6.45713E-02-3.26844E-01 1.02493E-01-3.77870E-01
 -1      8886 4.67120E-01 3.93950E-02 5.94802E-02-3.43315E-02 1.33584E-02-1.47262E-01
 -1      8887 1.31165E+00-5.55086E-02-2.91996E-02-5.58529E-02 1.19356E-02-2.46120E-01
 -1      8888 4.62539E+00 5.72817E-01 1.40260E-02 1.88719E-01 1.37825E-01 6.54728E-01
 -1      8889 3.14860E+00 1.27013E-01 2.72619E-01-3.38794E-01 5.60261E-02-3.48686E-01
 -1      8890 0.00000E+00 0.00000E+00 0.00000E+00 0.00000E+00 0.00000E+00 0.00000E+00
 -1      8891 0.00000E+00 0.00000E+00 0.00000E+00 0.00000E+00 0.00000E+00 0.00000E+00
 -1      8892 0.00000E+00 0.00000E+00 0.00000E+00 0.00000E+00 0.00000E+00 0.00000E+00
 -1      8893 8.44521E+00 7.40145E-01-9.19557E-01-2.35673E-01 4.47824E-01-1.68481E+00
 -1      8894 1.02914E+01 1.34657E+00 8.60512E-01 3.29383E-01-2.58629E-01 6.69132E-01
 -1      8895 2.40075E+00-2.02920E-01 9.69372E-02 2.05026E-01 1.66629E-04 4.16081E-01
 -1      8896 3.71366E+00 4.30179E-01 1.11481E-01-6.01415E-02-1.13224E-01-3.27878E-01
 -1      8897 6.50580E+00 8.21085E-01 6.98520E-01-1.98567E-01-2.42040E-01-9.67853E-01
 -1      8898 2.68866E+00 6.15595E-02-6.95126E-01-2.95480E-01 1.20870E-01-9.24251E-01
 -1      8899 3.33497E+00 8.27533E-01 7.51459E-01-2.92865E-01-7.27388E-02-1.55938E+00
 -1      8900 9.61451E-01-4.22805E-01-4.43993E-01 1.88929E-02 3.71814E-02-3.27502E-01
 -1      8901-3.02238E-01-2.89513E-01 2.51259E-01-5.41239E-02-2.67248E-02-6.70015E-01
 -1      8902-7.20334E-01 2.57959E-01 3.63866E-01 2.21228E-02 8.05285E-02-7.54906E-01
 -1      8903-3.30419E+00-1.10775E-01-8.83361E-01 4.13324E-02 2.31941E-01-4.05094E-01
 -1      8904-4.92526E+00-2.47527E-02-9.08286E-02 3.13617E-01 3.95457E-01-3.05514E-01
 -1      8905-5.17902E+00-3.01195E-01-3.82887E-01 1.89236E-01 5.72614E-02-2.31599E-01
 -1      8906-7.25942E+00 2.95148E-01 5.24054E-01 5.24587E-01 1.82883E-01 3.27222E-01
 -1      8907-3.30999E+00 1.95026E-01-1.78606E-02-2.64194E-01 5.53769E-02-5.31277E-01
 -1      8908-9.60820E+00-1.35265E+00-9.30342E-01 3.75899E-01 1.65487E-02 7.47379E-01
 -1      8909-1.18770E+01-3.60287E-01 4.15313E-01 9.69381E-01-8.40435E-02 2.42849E+00
 -1      8910-7.41189E+00-5.35256E-01-6.06548E-01 3.53927E-01-1.55668E-01 7.65264E-01
 -1      8911-8.44457E+00-1.07165E+00-1.42145E+00 1.93372E-01 2.13052E-01 3.82361E-01
 -1      8912-4.11771E+00-2.88275E-01 4.70959E-02-1.15772E-01 9.22148E-02 8.99817E-01
 -1      8913-5.55162E+00-5.02145E-01-1.02025E-01 1.09652E-01 1.91071E-01 1.30648E+00
 -1      8914-2.17838E+00-3.68387E-01-5.46255E-01 1.02965E-01-1.35930E-01 8.56282E-01
 -1      8915-1.51729E+00 1.48876E-02 3.33610E-01-2.79370E-02 2.59007E-01 7.07537E-01
 -1      8916-3.98646E-01 9.32066E-02 2.37149E-03-1.89136E-02-7.46510E-02 5.47392E-01
 -1      8917 2.29467E-01-1.63505E-01 2.61921E-01 8.32543E-02-3.15184E-02 7.65584E-01
 -1      8918 7.18544E-01-3.99354E-01-3.48311E-01-1.20677E-01-1.69483E-01 6.97284E-01
 -1      8919 3.04064E+00 7.14053E-01 2.40798E-01 6.93669E-02-1.70295E-01 8.45108E-01
 -1      8920 4.65612E+00 2.79513E-01 7.68215E-01-5.54350E-02-1.84900E-01 4.65574E-01
 -1      8921 8.70094E+00 2.65834E-01 8.27216E-01-2.35362E-01-2.87015E-01 2.56994E-01
 -1      8922 4.40690E+00 3.92171E-01 1.87572E-01 5.40371E-01 3.91407E-02 7.58683E-01
 -1      8923 1.29869E+01 3.44216E+00 3.03173E+00-2.57837E-02 1.31373E-01 4.86645E-02
 -1      8924 1.06807E+01 3.81040E+00 3.55239E+00 5.32956E-01 2.59201E-01 2.25568E-01
 -1      8925 0.00000E+00 0.00000E+00 0.00000E+00 0.00000E+00 0.00000E+00 0.00000E+00
 -1      8926 0.00000E+00 0.00000E+00 0.00000E+00 0.00000E+00 0.00000E+00 0.00000E+00
 -1      8927 0.00000E+00 0.00000E+00 0.00000E+00 0.00000E+00 0.00000E+00 0.00000E+00
 -1      8928 7.51047E+00 4.77219E-01 8.24865E-01 1.28638E+00 1.04086E-01 5.54799E-01
 -1      8929-6.39699E+00-6.54297E-01-7.27355E-01 2.56454E-01-1.67982E-01 7.98062E-01
 -1      8930 6.54058E+00 8.84138E-01 3.09442E-01-1.34507E-01-1.58151E-01-1.24434E+00
 -1      8931-6.30086E+00 6.47810E-02-6.57640E-01-4.74477E-01 1.23058E-01-1.15859E+00
 -1      8932-9.57627E+00-1.09748E+00-1.53001E+00-2.31988E-01 3.83840E-01-3.85276E-01
 -1      8933-2.09385E+00-1.63762E-01-5.14159E-01-9.36230E-02-7.91600E-02 4.18993E-01
 -1      8934-3.34880E+00-1.58463E-01-3.18694E-01-2.06222E-01 3.66437E-02 8.43709E-01
 -1      8935 1.03099E+01 1.14713E+00 1.62852E+00 9.37154E-01 6.90189E-01 2.09440E+00
 -1      8936 8.72897E+00 1.70252E+00 8.92321E-01-4.35432E-01-1.18213E-01-6.66476E-01
 -1      8937 6.41225E-01 5.48819E-01 2.43026E-01 8.82650E-02-1.80495E-01 4.25981E-01
 -1      8938 0.00000E+00 0.00000E+00 0.00000E+00 0.00000E+00 0.00000E+00 0.00000E+00
 -1      8939 1.62160E+00-3.33930E-02-2.22211E-01-1.39979E-01 9.72939E-02 1.87876E-03
 -1      8940 1.61680E+00 1.34531E-01-1.46627E-01 3.02220E-01 8.60339E-02-1.45107E-01
 -1      8941 1.01816E+00-1.04719E-01-1.33207E-01 6.19372E-02 1.55214E-01 1.91468E-01
 -1      8942 1.04472E+00-2.81460E-02-1.86589E-01 1.02288E-01-3.89509E-03-4.20970E-02
 -1      8943 5.27414E-01-1.14647E-01-1.56889E-01 1.54865E-01 1.50400E-01 1.67037E-01
 -1      8944 6.18041E-01 8.46885E-02 5.55505E-03 9.85493E-02-8.23728E-02-6.85114E-02
 -1      8945 7.61244E-02-1.03519E-02-6.69770E-02 2.48160E-02-1.83399E-02-3.93928E-02
 -1      8946-4.42854E-01 9.40547E-02 1.34850E-01-2.31713E-03 4.27626E-02-9.82502E-02
 -1      8947-4.90403E-01 2.96864E-01 3.22325E-01-1.39676E-01 1.51357E-01-2.10066E-01
 -1      8948-7.12115E-01-4.49009E-02-7.20262E-02-2.14352E-02-1.87886E-03 2.14795E-01
 -1      8949-1.36288E+00-1.60985E-02 1.82498E-01 1.95859E-01 1.19032E-02-7.67248E-02
 -1      8950-1.00169E+00 3.31919E-01 1.03760E-01 8.21762E-02-8.67739E-02 2.53581E-01
 -1      8951-1.84142E+00 1.47103E-01-2.05543E-01 8.55316E-02-8.33199E-02-2.54903E-01
 -1      8952-1.82369E+00 4.73552E-01 2.37724E-01 1.50484E-01-7.61339E-02 2.25131E-01
 -1      8953-1.63041E+00 5.47909E-01 3.79732E-01 1.56015E-01-2.26114E-01-3.48682E-01
 -1      8954-1.59865E+00 5.97010E-02 1.18297E-01-2.23942E-01 1.41420E-02 1.88348E-01
 -1      8955-1.09795E+00 1.36803E-01 3.92381E-02 1.52300E-01-7.64897E-02-1.49096E-01
 -1      8956-6.58451E-01-4.27761E-03-7.40284E-02-5.68545E-02-1.05329E-01-9.82347E-02
 -1      8957-4.11207E-02 1.09794E-01 1.77243E-01-5.93141E-02-1.94861E-02-5.59992E-02
 -1      8958 3.07896E-01 1.10506E-01 7.92164E-02 3.65662E-02-9.70418E-02-5.57214E-02
 -1      8959-5.08942E-02 3.56462E-02 2.27130E-02 3.07244E-03 4.08572E-02 7.54799E-03
 -1      8960-4.98102E-01-1.56204E-01-1.64581E-01 2.17532E-02 9.86189E-02 6.69335E-02
 -1      8961 6.64061E-01 3.08049E-02 4.07844E-02-5.12745E-02 8.28480E-03 2.17181E-02
 -1      8962 1.43500E+00 2.24582E-01 1.33573E-02 1.87784E-01 1.81561E-02 3.65350E-01
 -1      8963 7.50505E-01-5.41461E-02-1.98363E-01 2.96305E-02-3.46195E-03-1.47345E-01
 -1      8964 9.76734E-01-4.05490E-01-4.00099E-01-1.19973E-01 7.98597E-02-1.19635E-01
 -1      8965 2.78313E+00 1.87630E-01-6.30291E-02-4.38487E-02-3.09779E-03 2.63630E-01
 -1      8966 2.91011E+00 4.43216E-01-1.09572E+00-5.08562E-02 8.77962E-02-6.08500E-01
 -1      8967 0.00000E+00 0.00000E+00 0.00000E+00 0.00000E+00 0.00000E+00 0.00000E+00
 -1      8968 1.35925E+00 4.30368E-02-1.33860E-01 1.04824E-01 5.30349E-02 2.28138E-02
 -1      8969 3.88617E-01-2.17924E-02-2.16367E-01-9.36191E-03 1.03438E-01-1.13789E-02
 -1      8970-3.72549E-01 7.72099E-02 2.21363E-01-2.51086E-02-9.08389E-03 1.03598E-01
 -1      8971-4.77164E-01-8.26040E-03 1.59807E-01 1.72361E-01-8.70210E-02 9.01467E-02
 -1      8972-2.20446E-01-3.44700E-03 1.51287E-01-6.66084E-02-1.62044E-01 5.83266E-02
 -1      8973-9.34443E-01-1.04313E-02 1.95848E-01 8.36111E-02-3.31141E-01 7.05406E-02
 -1      8974-6.87143E-01 4.67176E-02 1.79130E-01-1.08843E-02-1.38551E-01-7.87870E-02
 -1      8975-6.69413E-01 1.13041E-01 1.56311E-01-6.10241E-02-1.55205E-01 9.18879E-02
 -1      8976-6.89079E-01-1.28457E-01 1.98722E-01 9.43858E-02-1.14586E-01-5.85783E-02
 -1      8977-2.69847E-01-9.79471E-04 4.56760E-01 2.61080E-02-7.85774E-02 2.80887E-03
 -1      8978 2.60217E-01 8.56542E-02 6.38104E-02 3.63705E-02-5.56539E-02-4.52361E-02
 -1      8979 2.81770E-01-1.16566E-01-8.55103E-02 3.20372E-02-3.78670E-03 1.19159E-01
 -1      8980 3.21440E-01-4.64227E-02-2.01247E-01 1.26747E-01 2.59413E-02 6.83144E-02
 -1      8981 4.37319E-01-1.18455E-01-1.92581E-01-1.70961E-01 1.86236E-01-4.86611E-02
 -1      8982 1.33006E+00-1.69847E-01-4.50867E-01-9.53741E-02 2.34425E-02 8.81956E-02
 -1      8983 1.71362E+00-1.34900E-01-3.90488E-01 1.21818E-01 8.57393E-02 7.29213E-02
 -1      8984 0.00000E+00 0.00000E+00 0.00000E+00 0.00000E+00 0.00000E+00 0.00000E+00
 -1      8985 2.73240E+00-1.97556E-01-1.54466E-01 4.24681E-03-4.71445E-02 2.90642E-01
 -1      8986 3.72376E-01-1.34247E-02-3.85487E-01 2.28583E-02-8.07366E-02-2.97375E-02
 -1      8987-4.14963E-01-9.44178E-02-3.04922E-01-1.07822E-01-1.88958E-02 7.88488E-02
 -1      8988-1.95002E+00 1.92051E-02-1.22993E-02 7.18307E-02 4.76972E-03-2.39411E-01
 -1      8989-4.15231E-01-4.68317E-02 2.45832E-01 4.19981E-02 1.76352E-02-5.03135E-02
 -1      8990-8.52890E-02 1.34846E-01 1.67275E-01-1.37837E-02 4.47418E-02 1.78497E-02
 -1      8991 0.00000E+00 0.00000E+00 0.00000E+00 0.00000E+00 0.00000E+00 0.00000E+00
 -1      8992 0.00000E+00 0.00000E+00 0.00000E+00 0.00000E+00 0.00000E+00 0.00000E+00
 -1      8993 2.86970E+00 1.16254E-01 4.96314E-01-1.06594E-01-4.26654E-02 2.41202E-01
 -1      8994-1.47277E+00-2.32656E-01-1.81009E-01 7.54144E-02-4.82656E-02-4.16155E-01
 -1      8995-1.09202E+00 2.53569E-01 1.57496E-01-2.80881E-01 2.94385E-01 3.58225E-01
 -1      8996-1.89621E+00 1.93775E-01-1.83141E-01-1.67634E-01 2.21228E-01 4.89171E-01
 -1      8997-1.79064E+00 1.87393E-01-5.45578E-02 2.53570E-01 6.20073E-03-2.20993E-01
 -1      8998 1.06344E+00-7.56404E-02-2.62642E-01-1.45940E-01-1.10607E-01-1.98792E-01
 -1      8999 2.79746E+00-3.76068E-01-2.23908E-01 3.43913E-01-3.71652E-01-9.51626E-01
 -1      9000 0.00000E+00 0.00000E+00 0.00000E+00 0.00000E+00 0.00000E+00 0.00000E+00
 -1      9001 9.71340E+00 2.39420E+00 1.74707E+00 1.50439E-01-2.29805E-01 7.37148E-01
 -1      9002 5.93766E+00 6.02144E-01 5.06116E-01 4.18253E-01 3.22910E-01-1.11220E+00
 -1      9003 1.11389E+00-6.81163E-02-2.40106E-01-4.92207E-02-2.92131E-01-3.88971E-01
 -1      9004 2.49093E+00 4.15354E-01 1.37425E-01-4.40520E-03-1.13424E-02-6.13601E-01
 -1      9005-1.93012E+00-1.70898E-01-6.51343E-01-3.30714E-02-9.66736E-02-2.15911E-01
 -1      9006-4.13041E+00 2.59811E-02-3.01948E-01 4.72982E-01-1.30938E-02-5.60456E-01
 -1      9007-2.97887E+00-3.05540E-01-5.06307E-01 2.79267E-01 2.23015E-01-4.25733E-01
 -1      9008-4.61566E+00-1.83702E-01 2.04378E-01-5.47279E-01-3.75108E-01 6.85129E-01
 -1      9009-1.45145E+00-4.92693E-02-2.95957E-01 1.60349E-01 1.64359E-01 3.94373E-01
 -1      9010-1.99777E+00-3.55816E-01-1.51670E-01-2.35561E-01-2.09448E-02 7.25016E-01
 -1      9011 9.90085E-01 4.81770E-01 1.68803E-02-1.50943E-01 1.40283E-01 3.99516E-01
 -1      9012 2.25999E+00 3.74853E-01 2.00202E-01-2.48911E-01 1.94123E-01 5.02164E-01
 -1      9013 2.21811E+00 3.50871E-03 8.46116E-01 3.65753E-02 2.73597E-02 3.50307E-01
 -1      9014 4.30257E+00 1.70780E-01-3.24584E-02-3.78146E-01 7.67852E-02 5.63762E-01
 -1      9015 4.59824E+00-4.90252E-02 2.92561E-01 6.61289E-01-2.09856E-01-1.25625E+00
 -1      9016 0.00000E+00 0.00000E+00 0.00000E+00 0.00000E+00 0.00000E+00 0.00000E+00
 -1      9017 0.00000E+00 0.00000E+00 0.00000E+00 0.00000E+00 0.00000E+00 0.00000E+00
 -1      9018 4.35084E+00 2.24841E-01 2.72958E-01 1.77406E-01 1.10728E-01-6.60353E-01
 -1      9019-5.45246E-02-2.07783E-01 3.85400E-01-2.26650E-03-4.21638E-01-4.95904E-01
 -1      9020 7.13642E-01 3.13125E-01-8.21897E-02-2.55774E-02 7.33035E-03-5.59641E-01
 -1      9021-2.12891E+00-5.05597E-01-4.07536E-02 4.72380E-02-2.24589E-02-8.42308E-01
 -1      9022-4.24714E+00-1.70623E-01-4.83939E-01-3.46809E-01-1.03592E-01-2.65008E-01
 -1      9023-5.64659E+00-3.58678E-01-5.25573E-01 7.23885E-01-7.49342E-03-1.26540E+00
 -1      9024-8.13175E+00-6.16983E-01-1.74747E+00-3.16639E-01-1.13763E-01 6.04105E-01
 -1      9025-6.32673E+00-1.08222E+00 1.22567E-01 3.30710E-01-1.89321E-01 4.65059E-01
 -1      9026 8.10471E-01 2.59324E-01-4.84846E-01-1.42639E-01 1.31895E-01 6.48828E-01
 -1      9027 3.58701E+00-7.00040E-02 7.37749E-01 1.56575E-01-3.40818E-02-1.31618E-01
 -1      9028 0.00000E+00 0.00000E+00 0.00000E+00 0.00000E+00 0.00000E+00 0.00000E+00
 -1      9029-4.11020E-01-1.63845E-01 4.32121E-01 6.74974E-02-1.29814E-01 3.69817E-01
 -1      9030 3.66177E+00-3.50323E-01-3.23420E-01 6.47986E-03 4.61602E-02 4.42815E-01
 -1      9031 2.48181E+00-2.10786E-01-4.29704E-01 2.93284E-01 2.71480E-01-5.49966E-01
 -1      9032 8.35529E-01-2.58607E-01-2.39695E-01-3.13805E-01-7.39530E-02 1.96779E-01
 -1      9033 8.31461E-01-1.75289E-02 4.30615E-02 8.06647E-03 1.45491E-02-3.70736E-02
 -1      9034-1.04640E-02-4.93900E-02-2.18678E-02-9.27738E-02-5.87218E-03 8.63720E-02
 -1      9035-1.00581E-01-1.19934E-02-1.07623E-02-3.81822E-02 7.69276E-02 4.22929E-02
 -1      9036-9.61377E-01 1.00870E-01 9.23921E-02 5.98428E-02 4.54525E-03-8.16419E-02
 -1      9037-1.97649E+00 2.84478E-02 8.16235E-02 1.06997E-02-1.57464E-01-5.63276E-02
 -1      9038-3.37008E+00 2.58995E-01 9.72540E-02 3.41399E-01-1.66608E-01-2.99519E-01
 -1      9039-3.32071E+00 4.67746E-02 2.67738E-01-4.42929E-01-2.57259E-01 2.19650E-01
 -1      9040-8.00762E-01 1.79110E-01 6.56202E-02 2.43688E-01-2.68425E-02-2.44023E-01
 -1      9041-1.05798E+00-4.91310E-02 8.91396E-02-3.22982E-02-5.51746E-03 6.23878E-02
 -1      9042 2.39865E-01 1.65148E-01 2.28930E-01 4.27879E-02 3.15111E-02-1.11154E-01
 -1      9043 2.27081E+00-7.45441E-02-5.40765E-03-1.33524E-01 8.44516E-02 1.94857E-01
 -1      9044 2.97595E+00-3.27946E-01-3.00835E-01-4.01758E-01 1.75739E-01 9.41206E-02
 -1      9045 2.24765E+00 1.01138E-02-4.77962E-02-2.06944E-01 2.01724E-01 2.29707E-01
 -1      9046 1.44213E+00-1.48902E-01-3.32124E-01-2.39539E-01-7.07089E-03 2.70661E-01
 -1      9047 7.53464E-01 2.23289E-02 1.79227E-02-1.21896E-01-3.83443E-02 2.32536E-03
 -1      9048 1.71233E-01 1.05310E-01-1.36121E-02-2.18913E-01 2.02807E-02 1.33836E-01
 -1      9049-3.55395E-01-1.27294E-01-4.56969E-02-1.45396E-01-2.71504E-02 5.07996E-02
 -1      9050-7.13988E-01 6.57670E-02-6.98008E-02 7.49126E-02-1.38400E-01-2.72977E-02
 -1      9051-2.50646E+00 3.53487E-01 1.68016E-01 2.75884E-01-1.21709E-01-3.27058E-01
 -1      9052-3.55326E+00 2.08100E-01-8.06349E-02 7.62300E-01-1.30190E-01-4.10963E-02
 -1      9053-1.62453E+00-1.54729E-01-9.26761E-02 1.18603E-01 1.16348E-02-3.61230E-03
 -1      9054-2.04807E+00-1.45819E-01-1.01075E-01-3.82304E-02-3.68421E-02 1.07561E-01
 -1      9055-7.12783E-01 5.20024E-01 5.69642E-01 3.26876E-01-6.43018E-02-2.62470E-01
 -1      9056-3.65670E-02-4.56172E-02 2.28011E-01 1.74731E-01 6.06860E-02-1.26726E-01
 -1      9057 2.36105E-01-5.60894E-02-4.75532E-02 9.79083E-02-3.69123E-02-1.10633E-01
 -1      9058 1.19126E+00 5.20539E-02 1.49966E-01-9.26709E-02 6.93813E-02 1.12351E-02
 -1      9059 1.82173E+00-2.28643E-01-2.87617E-01 1.37193E-01 3.82879E-01 2.21645E-01
 -1      9060 3.61474E+00-2.04211E-01-1.04854E-01 8.59402E-03 1.36526E-02-5.14747E-02
 -1      9061 1.82140E+00 1.43854E-01 3.17350E-01 5.48111E-02-1.74550E-01 1.51633E-01
 -1      9062 2.36796E+00 1.90776E-02 3.79334E-01 2.14596E-01-4.93420E-02-1.68383E-02
 -1      9063-9.08366E-02-5.72850E-02-7.54774E-02-6.62181E-02 4.81504E-02 1.33254E-02
 -1      9064-2.82601E-01 1.67968E-01 9.38129E-02 9.78872E-02-2.79732E-01 1.02243E-01
 -1      9065-1.26655E+00-1.92466E-01 9.60432E-02-1.51228E-01 1.41786E-01 2.53134E-01
 -1      9066-2.70476E+00-8.79650E-03 1.42433E-01-6.71612E-01-7.51405E-02-3.04429E-01
 -1      9067-3.64657E+00-2.86049E-01-1.19483E-01 2.78517E-01-1.22072E-01-2.78255E-01
 -1      9068-3.10013E+00-2.54450E-01-2.98024E-01-2.41407E-02-3.57818E-01 5.07580E-01
 -1      9069-2.05668E+00-2.16578E-01-1.21144E-01 3.02799E-01-7.53792E-02-2.33714E-01
 -1      9070-7.78581E-02-1.43960E-02 1.93072E-01 2.10439E-01 2.25933E-02-8.36259E-02
 -1      9071 3.75647E-01 9.55902E-02 1.77373E-01 3.22875E-02-4.96190E-03-2.32965E-03
 -1      9072 6.35817E-01-1.70445E-01-8.65178E-02-1.15207E-01 8.79471E-02-4.58210E-02
 -1      9073 1.48637E+00-5.29795E-01-9.14297E-01 7.35342E-02 4.52070E-02-6.53360E-01
 -1      9074 0.00000E+00 0.00000E+00 0.00000E+00 0.00000E+00 0.00000E+00 0.00000E+00
 -1      9075 6.58922E-01-2.23538E-01-2.04867E-01 1.54835E-02-1.53126E-01 1.87548E-01
 -1      9076-2.41781E+00 2.80921E-02-3.25349E-02-2.17785E-01 1.02761E-01-1.43674E-01
 -1      9077 0.00000E+00 0.00000E+00 0.00000E+00 0.00000E+00 0.00000E+00 0.00000E+00
 -1      9078 2.27606E+00-4.79091E-02-7.64362E-01 7.60587E-01-2.60682E-01 8.02566E-02
 -1      9079 3.71165E+00 1.18741E-01 1.48158E-01-6.07357E-01-1.24489E-01-3.17303E-01
 -1      9080 1.99108E+00 1.25988E-02-5.75587E-01 4.37731E-01-2.00783E-01 2.80635E-01
 -1      9081 7.05553E-01-3.56759E-02-1.37687E-02 1.49864E-02-3.56564E-02-3.77522E-02
 -1      9082 2.26182E-02-2.47537E-01-2.68716E-01-1.21744E-01-1.54409E-01 5.23969E-02
 -1      9083-3.56726E-02-5.95043E-03-8.93622E-02 5.54020E-02-1.84336E-02 2.10985E-01
 -1      9084-1.91556E+00 1.65080E-01 2.26230E-01-3.96808E-01 6.08018E-02-1.12850E-01
 -1      9085-1.39172E+00 1.61234E-01 2.83248E-01 1.48506E-01 2.95528E-01 5.19936E-01
 -1      9086-3.45217E+00 1.66803E-01 1.86898E-01 7.45730E-01 2.62996E-01 4.36317E-01
 -1      9087-2.12406E+00 1.71883E-01 6.46271E-01-4.77934E-01 3.46110E-01-3.52533E-01
 -1      9088-9.69146E-01 1.84223E-01 3.89263E-02-2.55058E-01 1.79090E-01-3.75412E-01
 -1      9089-7.78902E-01-1.15064E-02-3.64202E-02 6.84017E-02-4.70818E-02-8.06568E-02
 -1      9090 3.91575E-02 6.07084E-02 1.62204E-01 1.48059E-02 1.85538E-02 1.05921E-02
 -1      9091 2.08122E-01-7.22464E-02-2.34628E-01-1.24343E-01-2.08964E-02-6.08017E-02
 -1      9092 1.08929E+00-2.27095E-01-6.81915E-01-3.98099E-01-1.45963E-01 3.25358E-02
 -1      9093 1.50233E+00 5.63532E-02-3.14089E-01-4.46857E-01-2.23071E-01-6.49915E-01
 -1      9094 3.68172E+00 1.12652E-01-4.25113E-01-2.60054E-01-2.83358E-01-1.44151E-01
 -1      9095 0.00000E+00 0.00000E+00 0.00000E+00 0.00000E+00 0.00000E+00 0.00000E+00
 -1      9096 2.19499E+00-2.26962E-01-7.70494E-02-3.27547E-01-1.30432E-01-1.74102E-01
 -1      9097-3.67932E+00-2.24698E-01-3.74887E-01-1.07446E+00 5.17045E-02-2.57260E-01
 -1      9098-2.07735E+00 2.29824E-01 4.93324E-02 3.60200E-01 8.09501E-02-9.38508E-02
 -1      9099-2.20724E+00 1.00306E-01-2.05376E-02 2.47563E-01 4.16275E-02 1.28429E-01
 -1      9100-1.06626E+00-1.81780E-01-1.23890E-01-6.43460E-02 3.27205E-02 6.32100E-02
 -1      9101-1.30972E+00-3.66000E-01-2.16057E-01 3.51786E-02-3.37213E-02 5.43661E-02
 -1      9102 1.70196E+00 1.69575E-01 1.37923E-01 1.49777E-01 1.88727E-02 8.79910E-02
 -1      9103 2.19924E+00 2.26331E-02-2.73826E-01 7.12030E-01 7.15608E-02-1.64472E-01
 -1      9104 4.33450E+00 7.28719E-01 4.75249E-01 1.31097E+00-5.34404E-03 2.31176E-01
 -1      9105 1.55663E+00-8.49337E-02 6.11399E-02 2.14197E-01 5.07482E-03 1.59754E-03
 -1      9106 1.36844E+00-1.40092E-01-3.40079E-02 7.29832E-02 1.24366E-01-1.48124E-01
 -1      9107 1.21344E+00-6.34830E-03-6.99358E-02-8.43077E-02-7.72890E-02-1.77550E-01
 -1      9108-1.77108E-02-1.39309E-01-6.62647E-02 5.77929E-03-1.60626E-02-7.72724E-02
 -1      9109-2.22727E+00 1.59978E-01 2.37382E-02 4.45924E-01 1.84428E-01 2.01484E-01
 -1      9110-4.01931E+00 4.09338E-01 4.03405E-01 3.65444E-01 1.57998E-02 8.37538E-01
 -1      9111-2.24080E+00 3.26380E-01 1.17156E-01-4.23128E-01 8.37748E-02-2.38468E-01
 -1      9112-2.06938E+00 1.09229E-01-1.15828E-01-2.37803E-01 5.22113E-02-6.56497E-02
 -1      9113-1.06179E+00 1.07547E-01 1.05699E-01-2.13330E-01 5.47288E-02-1.41132E-01
 -1      9114-1.03019E+00-1.26994E-01 2.50902E-04 8.26623E-02-2.24534E-02 1.00623E-01
 -1      9115-9.64484E-01 2.41834E-02 1.94741E-01 3.49385E-02 1.55766E-03 3.68514E-02
 -1      9116 2.67301E+00 2.93787E-01-2.16972E-02-5.14944E-01-1.41574E-01-4.58131E-01
 -1      9117 0.00000E+00 0.00000E+00 0.00000E+00 0.00000E+00 0.00000E+00 0.00000E+00
 -1      9118 3.79039E+00 2.79029E-01 5.21436E-02-2.64205E-01-2.05827E-01-5.19428E-01
 -1      9119 3.62253E+00 7.66555E-01-2.12267E-01-1.72180E-01-1.08805E-01-7.85546E-01
 -1      9120 8.10921E-02-1.66111E-01-5.96551E-02 1.66226E-02-3.33610E-02 6.30270E-03
 -1      9121 8.29029E-01 2.98186E-01-3.27272E-01-9.46807E-02-2.80348E-02-4.42851E-01
 -1      9122-2.20667E+00-2.82892E-01 3.89678E-01-1.72491E-01-1.92245E-02-8.91315E-01
 -1      9123-2.31927E+00 3.41815E-01-6.69324E-01 6.19000E-02-2.05476E-01-1.37907E-02
 -1      9124-5.75954E+00-5.27453E-01-6.86221E-01 4.53455E-02-1.74314E-01 8.86684E-01
 -1      9125-7.49031E+00-8.17183E-01 1.06999E-01-2.34778E-01-2.02485E-01 1.68362E+00
 -1      9126-4.21453E+00-5.12572E-01-4.18623E-02 1.88262E-01 1.53043E-02 7.37448E-01
 -1      9127-3.04055E+00-7.68184E-01-1.42681E-01 2.76862E-02-3.26086E-03 8.78579E-01
 -1      9128-4.28879E-01-2.22976E-01 2.09378E-01 8.23266E-02-1.39039E-02 4.12127E-01
 -1      9129 2.09783E+00 2.57018E-01 5.62263E-02 1.58770E-01-1.36188E-01 4.78131E-01
 -1      9130 1.70073E+00-7.66554E-01-8.79505E-02-4.56206E-01 8.16066E-02-1.90540E-01
 -1      9131 6.03894E+00 1.01951E+00 8.20517E-01-5.36688E-01-9.69626E-02-2.63921E-01
 -1      9132 0.00000E+00 0.00000E+00 0.00000E+00 0.00000E+00 0.00000E+00 0.00000E+00
 -1      9133 1.47895E+00 1.11770E-01 5.32321E-02-7.73809E-02-8.45068E-02-2.54762E-01
 -1      9134 1.81308E+00-2.59889E-01-1.33197E-01-8.90437E-02-7.29992E-02 1.97093E-01
 -1      9135-6.70085E-01 4.83953E-01 9.01610E-02-3.02908E-02 4.01040E-02 3.83049E-02
 -1      9136-1.66858E+00 3.18315E-01 1.31711E-01 2.32740E-02-6.62816E-02 2.03096E-02
 -1      9137-3.46769E+00-1.66086E-01 2.24378E-02 5.94832E-02-4.13553E-03 4.79914E-01
 -1      9138-3.10057E+00 9.00197E-02 2.98970E-02 2.79514E-01-1.44466E-02-3.82927E-01
 -1      9139-4.66237E-01-3.13653E-01-1.32428E-01 6.45529E-02-9.78862E-03-1.97226E-02
 -1      9140 1.02441E+00-2.00738E-01-4.18169E-02-2.28593E-01 1.09333E-01-1.31100E-01
 -1      9141 4.26886E+00 1.63732E-01-2.01469E-01-7.81411E-02-6.58080E-02-2.90294E-01
 -1      9142 0.00000E+00 0.00000E+00 0.00000E+00 0.00000E+00 0.00000E+00 0.00000E+00
 -1      9143 0.00000E+00 0.00000E+00 0.00000E+00 0.00000E+00 0.00000E+00 0.00000E+00
 -1      9144 4.34249E+00 4.29793E-01 7.57790E-02-3.07273E-01 2.70849E-02 1.83818E-01
 -1      9145 3.84939E+00 9.29165E-02 1.05150E+00-1.06250E-03-1.12954E-01 9.62513E-02
 -1      9146 2.48822E+00 1.67917E-01 2.84574E-01-9.48768E-02-1.51108E-02-2.71439E-01
 -1      9147 2.72868E+00 3.02482E-01 6.92094E-02 9.32836E-02 1.64573E-02-9.27850E-01
 -1      9148-1.60191E+00-1.95044E-01 1.07951E-01 1.29629E-01-1.28554E-01-2.83155E-01
 -1      9149-2.72543E+00 2.07051E-01 1.47775E-01 1.64016E-01 6.77369E-03-6.95485E-01
 -1      9150-5.58432E+00-4.39576E-01-5.57142E-01 3.09553E-01-3.47097E-02-1.28033E+00
 -1      9151-3.36841E+00 1.14947E-02 8.09291E-02 3.11859E-01 5.21604E-02-3.30399E-01
 -1      9152-5.91516E+00 5.46508E-02-4.85514E-01-2.55790E-01-4.07108E-02 4.38556E-01
 -1      9153-4.36459E+00-2.35637E-01-1.04010E+00-2.30545E-01 2.56056E-01 9.95018E-02
 -1      9154 2.25661E-01 1.58996E-01-9.85392E-02-9.06514E-02 1.39632E-01 4.98639E-01
 -1      9155-3.08714E-01-1.77338E-01 2.74085E-01 5.50168E-02-2.60667E-03 2.94026E-01
 -1      9156 2.41524E+00 2.53401E-01 5.33409E-02-9.16135E-02 3.34601E-02 5.78536E-01
 -1      9157 2.13936E+00 2.31060E-02 7.28317E-01-1.97274E-01-1.16755E-01 2.72032E-01
 -1      9158 3.74478E+00 3.46300E-01 3.87913E-01-2.50404E-01 2.05678E-02 6.31173E-01
 -1      9159 4.40125E+00-1.24565E-01 5.21324E-01-1.51776E-01-1.25285E-01-5.77739E-02
 -1      9160 5.47680E+00 3.08796E-01 4.15407E-01-5.05969E-01 2.46891E-01 9.80167E-01
 -1      9161 4.11334E+00 6.71191E-02-8.69701E-02 1.80009E-02 8.10152E-02 5.78446E-01
 -1      9162 6.28845E+00 1.25612E+00 1.02492E+00 1.16927E+00 2.95003E-01-4.55220E-01
 -1      9163 4.58665E+00 5.62808E-01 6.38180E-01 1.74799E-01 1.01932E-01-7.73745E-01
 -1      9164 3.88058E-01 9.42446E-02-4.55449E-01 8.68946E-02 7.42802E-02-5.06195E-01
 -1      9165-3.61340E+00 1.23586E-01-7.73907E-01-4.81572E-02 3.13482E-02-3.57780E-01
 -1      9166-5.02570E+00 1.71944E-01-1.16655E-01-5.55577E-01-2.56423E-01 6.58964E-01
 -1      9167-4.09059E+00-3.43242E-01-1.76945E-02 9.90157E-03-1.61056E-01 6.95071E-01
 -1      9168-2.70188E+00-4.92951E-01 1.14856E-01 1.54901E-01 1.33384E-01 6.79004E-01
 -1      9169 1.24420E+00-1.66244E-01-3.10595E-01-2.78169E-01 9.27437E-02 2.17656E-01
 -1      9170 1.15191E+00-5.36887E-02 3.77267E-02 8.11846E-02 7.64062E-03-1.11281E-01
 -1      9171 4.27826E-01 3.05363E-02-1.45874E-01-6.56264E-02 6.20769E-02 6.18025E-02
 -1      9172 1.03215E-01 7.95054E-02 1.41215E-02-8.68756E-02 2.64835E-02 1.21199E-01
 -1      9173-9.78721E-01-5.44743E-02-5.35855E-02 1.01700E-01-4.55997E-02 8.85794E-03
 -1      9174-9.68046E-01 2.14984E-01 7.43635E-02-1.92356E-01 7.19147E-03 2.30853E-01
 -1      9175-2.27493E+00 1.53310E-01 2.83719E-02 3.35563E-01-7.56236E-02-1.90690E-01
 -1      9176-2.31351E+00 9.35498E-02 3.11412E-01-4.73292E-01-3.77792E-02 2.40614E-01
 -1      9177-3.48844E+00 2.81012E-01 2.85608E-01-2.37717E-01-1.99768E-01 3.05639E-01
 -1      9178-4.51572E-01 3.49328E-01 1.27003E-01 5.76587E-02-7.70638E-03-1.90789E-01
 -1      9179-9.62510E-01 5.04240E-02 1.82141E-01 5.97115E-02 9.69513E-03 5.08475E-02
 -1      9180 3.18504E-02-9.08329E-02-2.35062E-02 1.13992E-01 4.14566E-02-1.24273E-01
 -1      9181 1.25571E+00 2.92118E-02 3.39391E-02-2.82633E-02 4.57207E-03 3.46556E-02
 -1      9182 2.22662E+00 9.48486E-03 5.06515E-03-3.15152E-01 1.06413E-01 2.19729E-01
 -1      9183 2.31294E+00 1.09255E-01-1.21072E-01-2.74362E-01 3.78746E-02 7.05771E-02
 -1      9184 2.46880E+00 4.41057E-01 1.86640E-01 1.44239E-01-1.27381E-01 8.41610E-02
 -1      9185 1.00211E+00 8.11849E-02 1.32580E-01-6.89338E-02-2.68999E-02-8.52777E-02
 -1      9186 1.73463E-01-1.18178E-01-3.26333E-01 9.30699E-02 1.52316E-02 6.91288E-02
 -1      9187-1.26659E+00-1.37064E-01 2.93512E-01-2.53507E-01-2.71626E-02 1.37593E-01
 -1      9188-2.06765E+00-4.28735E-02-3.10793E-01 4.05481E-01-2.96964E-01-1.45292E-01
 -1      9189-2.18065E+00-5.89599E-01-1.10972E-01 1.31460E+00-3.90016E-01 2.42771E-01
 -1      9190-2.01431E+00-5.09713E-03 4.47407E-02 1.91364E-01-9.15316E-02 3.80779E-02
 -1      9191-2.09691E+00-7.86626E-02-1.52304E-01-4.05400E-01 2.74008E-02 2.08043E-01
 -1      9192-2.28048E+00 2.47142E-02-1.08228E-01-1.46044E-01 6.14677E-02 1.36195E-01
 -1      9193-7.71907E-01 1.09074E-01 3.74852E-01 1.46988E-01-5.34371E-02-1.15111E-01
 -1      9194 6.29249E-02 2.36847E-02 6.91057E-02 9.06154E-03-7.14824E-02 3.82717E-02
 -1      9195 2.17903E-01 1.30156E-01 4.78982E-02-7.18650E-02-1.40800E-02 1.87529E-02
 -1      9196 7.30504E-02-1.41185E-01-3.49106E-01 6.94688E-02 8.01561E-02 6.74898E-02
 -1      9197 0.00000E+00 0.00000E+00 0.00000E+00 0.00000E+00 0.00000E+00 0.00000E+00
 -1      9198 3.22026E+00 2.87392E-02 6.66840E-02 1.42659E-01 7.35214E-02 9.26101E-02
 -1      9199 2.05412E+00-1.94349E-01-8.02767E-02-3.42358E-01 3.18817E-01 4.44589E-01
 -1      9200 3.47382E-03 2.60707E-02 2.01911E-01-9.40371E-02-1.83064E-02 1.46962E-02
 -1      9201-6.55559E-01-8.60404E-02 1.45109E-02 1.49402E-01-8.87779E-02 3.36107E-02
 -1      9202-2.52692E+00 5.47981E-01 4.61954E-01 5.13378E-01-3.65927E-02-1.65998E-01
 -1      9203-3.27284E+00 9.94423E-02 5.11124E-02 5.09941E-01-1.57900E-01-2.23074E-01
 -1      9204 2.34278E-02 1.09160E-01 2.53956E-01 2.22192E-02-3.88983E-02-3.80961E-02
 -1      9205 9.87206E-01 1.14253E-01-5.05767E-02-4.11793E-02 4.48913E-02-2.14242E-02
 -1      9206 1.45352E+00 5.06964E-02-2.56410E-01 1.93364E-01 5.03389E-02 1.53556E-01
 -1      9207 2.12070E+00-4.59966E-01-5.32261E-01-4.54343E-01 2.47292E-01 1.98584E-01
 -1      9208 1.14558E+00-1.36122E-01-1.16316E-01 1.50522E-01-2.06078E-01 2.96256E-01
 -1      9209-1.09474E+00-3.13054E-01-3.12774E-01-1.51876E-01 7.84332E-02-7.10562E-02
 -1      9210 6.35239E-01-1.57556E-01 4.51924E-03 1.75070E-01 3.72628E-03-6.46081E-02
 -1      9211 0.00000E+00 0.00000E+00 0.00000E+00 0.00000E+00 0.00000E+00 0.00000E+00
 -1      9212 2.03209E+00-1.72423E-01-4.29044E-01 5.63381E-01-3.02721E-01 1.52471E-01
 -1      9213 3.01909E+00-3.40513E-01-1.63568E-01-3.54839E-01-1.01388E-01-5.88234E-01
 -1      9214 2.60923E+00 1.35982E-01-6.53496E-02 1.09703E-01-1.58358E-01 4.67938E-01
 -1      9215 1.09257E+00 9.29828E-02 1.61417E-01 1.00386E-01-2.81374E-02 3.75356E-03
 -1      9216 2.18617E-01-5.64575E-02-1.54274E-01-5.03908E-02-1.04371E-01 6.79225E-03
 -1      9217-1.08832E-01 3.33095E-02 6.83339E-02 2.30660E-02-2.14013E-02 1.04801E-01
 -1      9218-1.82658E+00 1.36909E-01 1.90043E-01-2.42097E-01 1.29668E-01 5.17259E-02
 -1      9219-1.16147E+00 5.63253E-02 6.69661E-02-3.90709E-01 3.18356E-01 2.82412E-01
 -1      9220-1.30405E+00 1.75153E-01 3.06683E-01 5.68400E-03 1.84587E-01 7.08917E-01
 -1      9221-3.05336E+00 2.10177E-01-6.77314E-02 4.05625E-01 1.21509E-01 4.45647E-01
 -1      9222-2.45634E+00-2.10837E-01 3.01737E-01-8.34985E-02 1.62482E-01-1.59816E-01
 -1      9223-1.15108E+00 1.28803E-01 1.63484E-01-3.01610E-01 1.72709E-01-4.15704E-01
 -1      9224-4.08082E-01 1.93384E-01-1.33656E-02-5.68377E-02 7.24840E-02-5.81456E-02
 -1      9225 1.46802E+00 7.97499E-02-1.58294E-01-2.41722E-01 1.39242E-02 1.14857E-03
 -1      9226 1.59807E+00-2.67652E-01-1.81933E-02-3.27729E-01-1.00155E-01-2.84575E-01
 -1      9227 4.11938E+00-3.52383E-01-2.38244E-01-5.71134E-01-1.33017E-01-4.99358E-01
 -1      9228 1.07993E+00 1.20778E-02-2.77852E-02 1.03802E-01 2.19001E-02 6.42546E-02
 -1      9229 6.10682E-01-3.53202E-01-3.24349E-01 7.14536E-02 9.20735E-02 6.76841E-02
 -1      9230 1.42910E-02-1.91466E-02-4.83208E-02 5.41517E-03 5.94827E-03-6.72423E-02
 -1      9231-1.19313E+00-1.22797E-01-1.38788E-01-5.82762E-02 7.10780E-02-1.33376E-01
 -1      9232-2.64194E+00-1.96092E-02 3.02093E-01-1.61707E-01 1.26464E-01-4.73777E-01
 -1      9233-3.53614E+00 8.85445E-02-3.10530E-01-6.30240E-01-2.79692E-03-2.67971E-01
 -1      9234-3.12683E+00 1.36498E-01-2.25308E-01 3.31861E-01 6.78665E-02 2.08203E-01
 -1      9235-2.52092E+00 2.68711E-02-3.55665E-01 3.87077E-01-1.76200E-02 2.36934E-02
 -1      9236-9.37643E-01-3.04201E-02 3.49989E-02-9.94487E-02 3.06403E-02-2.42369E-02
 -1      9237-1.26247E+00-8.95404E-02-4.28827E-01-1.17440E-02-7.19620E-03 1.15642E-01
 -1      9238 3.21990E-01 1.80313E-01 9.20981E-02 2.88848E-02-3.52412E-02-1.60536E-02
 -1      9239 1.11039E+00 5.28212E-02 3.08195E-02 2.39724E-02-1.84590E-02 2.90029E-02
 -1      9240 9.55907E-01 1.13714E-01 6.17310E-02 4.56851E-03 3.29018E-02 2.62777E-02
 -1      9241 1.19651E+00-1.57923E-01 6.79930E-02 1.91408E-01 9.39670E-02 1.67191E-01
 -1      9242 1.04827E+00 1.06127E-01 9.34335E-02-4.01897E-02 5.49798E-02-2.99273E-02
 -1      9243 9.95017E-01-7.44078E-02-3.42136E-01 2.23822E-02-4.67125E-02-2.12520E-02
 -1      9244-2.11429E+00 4.37233E-02 9.97385E-02 2.96782E-01 6.65957E-02 2.77286E-01
 -1      9245-1.83155E+00-8.21533E-03-3.33453E-02 3.45782E-02-8.02537E-02-1.29790E-01
 -1      9246-2.10022E+00 5.06825E-03-4.09695E-02 6.32400E-02-2.17707E-02 5.22366E-02
 -1      9247-1.06189E+00 4.07211E-02-1.01490E-01-1.81513E-01-6.54701E-02-2.36206E-01
 -1      9248-1.05269E+00-2.11856E-01-3.36855E-01 5.17829E-02-3.53851E-02 1.20109E-01
 -1      9249-8.88961E-01 5.57251E-02 9.86009E-02 1.76595E-02 6.11236E-02 5.43623E-02
 -1      9250 2.28844E+00 6.77467E-02 1.01195E-01-2.83448E-02-8.78096E-02 2.44453E-01
 -1      9251 2.36297E+00-3.43786E-02-2.21681E-01-3.44002E-01-5.98704E-02-1.90608E-01
 -1      9252 0.00000E+00 0.00000E+00 0.00000E+00 0.00000E+00 0.00000E+00 0.00000E+00
 -1      9253 0.00000E+00 0.00000E+00 0.00000E+00 0.00000E+00 0.00000E+00 0.00000E+00
 -1      9254 5.04047E+00 3.76191E-01 5.72224E-01 4.43930E-02-1.43677E-03-9.12765E-02
 -1      9255 2.22475E+00 9.44031E-02 7.01208E-02-6.66590E-02-8.00620E-02-1.46158E-01
 -1      9256 3.97156E+00 1.06423E+00 3.70437E-01 7.37939E-02 3.87554E-02-9.98614E-01
 -1      9257 2.79137E+00 4.18266E-01 6.32054E-01 7.98911E-02 1.82578E-01-5.49366E-01
 -1      9258 2.22317E+00 7.75287E-02-7.97542E-01-2.40052E-01-2.68230E-02-5.08555E-01
 -1      9259 2.58877E-01-2.63961E-02 2.33677E-02 3.15783E-02-3.87164E-02 2.71446E-02
 -1      9260 3.33698E-01 7.78960E-02-2.45481E-01 6.84767E-02-1.36515E-01-3.49170E-01
 -1      9261-1.62620E+00-3.51656E-01-3.18295E-01 1.62973E-01-2.85927E-02-4.66939E-01
 -1      9262-4.22697E+00-9.20688E-01-6.65598E-01-3.04574E-01 9.43533E-02-1.10205E+00
 -1      9263-2.47770E+00-1.08462E-01-3.31598E-01 1.33607E-01-3.35437E-01-4.94769E-03
 -1      9264-5.90986E+00-4.95764E-01-6.21174E-01 8.53712E-02 7.71283E-03 2.08918E-01
 -1      9265-4.60832E+00-7.97145E-01-3.24489E-02 1.24743E-01 4.85536E-02 7.46246E-01
 -1      9266-2.19571E+00-5.07083E-01-2.42988E-02 1.63006E-01 1.64324E-01 5.56434E-01
 -1      9267-3.39549E-01-1.28568E-01 2.15457E-01 2.24908E-02 1.16607E-01 2.35720E-01
 -1      9268-1.26902E-01-1.27646E-01-1.85930E-01 2.44029E-03-6.93975E-03 6.75528E-03
 -1      9269 2.31013E+00 2.70145E-01-3.34473E-01 2.98530E-01 1.41607E-01 1.04887E+00
 -1      9270 1.54496E+00 6.20861E-02 3.41851E-01-2.93545E-02 7.94709E-02-1.74816E-01
 -1      9271 4.89343E+00 4.14860E-01-2.42594E-01 1.01033E-01-4.55566E-02 6.06815E-01
 -1      9272 3.67185E+00 5.00741E-01 1.03346E+00-3.31566E-01 3.83345E-01-2.19149E-02
 -1      9273 0.00000E+00 0.00000E+00 0.00000E+00 0.00000E+00 0.00000E+00 0.00000E+00
 -1      9274 0.00000E+00 0.00000E+00 0.00000E+00 0.00000E+00 0.00000E+00 0.00000E+00
 -1      9275 4.16587E+00 2.64049E-01 4.56606E-02 7.54299E-01 3.65113E-02 6.93078E-01
 -1      9276-1.16753E+00 1.04637E-02-1.02257E-01-1.88002E-01 1.18232E-01-2.80498E-01
 -1      9277-3.21518E+00-2.71141E-01-4.95603E-02-1.60525E-01 1.94184E-01-8.72366E-01
 -1      9278 5.11517E+00 3.91749E-01-9.08669E-03 2.17730E-01-1.00579E-01 1.19486E+00
 -1      9279 0.00000E+00 0.00000E+00 0.00000E+00 0.00000E+00 0.00000E+00 0.00000E+00
 -1      9280 2.53399E+00-2.47030E-01-2.28385E-01 1.67023E-01-2.71908E-02 2.38678E-01
 -1      9281-3.62816E+00-2.76810E-01-4.23237E-01-1.58209E-01 1.36049E-01-5.30920E-01
 -1      9282-2.32639E+00 6.56872E-01 1.41920E-01 4.38636E-01-1.15496E-01 5.74211E-01
 -1      9283-4.32290E+00-5.81859E-01-1.29365E-01 1.42928E-01 1.98872E-02 8.00830E-01
 -1      9284-1.72627E+00 3.43475E-01 5.71132E-02-4.51645E-02-2.80826E-02-5.21078E-01
 -1      9285 1.39140E+00-3.01413E-01 1.41890E-01-3.38493E-01 1.87162E-01-2.98184E-01
 -1      9286 0.00000E+00 0.00000E+00 0.00000E+00 0.00000E+00 0.00000E+00 0.00000E+00
 -1      9287 0.00000E+00 0.00000E+00 0.00000E+00 0.00000E+00 0.00000E+00 0.00000E+00
 -1      9288 5.72040E-01-1.64205E-01-7.62266E-02 1.05890E-02 8.65020E-02 3.94836E-02
 -1      9289 3.39405E-01 5.38396E-02 3.14177E-02 5.03942E-02 1.13476E-01-6.24605E-02
 -1      9290 3.21315E-01 5.70720E-02 2.52183E-02 5.53053E-02 4.06811E-02-1.05047E-02
 -1      9291 4.12524E-01-5.66702E-02-2.17500E-02 1.08382E-01 8.03923E-02 5.47090E-02
 -1      9292 2.76526E-02-1.44319E-02-1.49133E-02 1.46622E-03 1.90445E-02-1.56726E-02
 -1      9293-2.65645E-01-2.17284E-02 9.75388E-02-7.73842E-02 3.52997E-03 4.38218E-02
 -1      9294-7.09106E-01 4.65955E-02 1.42014E-01 1.05506E-01-1.29875E-01-6.35128E-02
 -1      9295-1.78583E-01 1.17228E-01 8.63820E-03-4.68060E-02-5.73363E-02-4.93419E-02
 -1      9296-4.04152E-01 8.08070E-02-2.00281E-02-1.55424E-02-8.03119E-02-3.98694E-02
 -1      9297 1.35472E-01-1.99190E-01-2.41019E-01-9.31595E-03 2.22202E-01-8.90635E-03
 -1      9298-1.76498E-01 2.83170E-03 1.35144E-02-1.07115E-03 1.34800E-02 8.70799E-03
 -1      9299-2.39890E+00-3.09149E-02 1.45297E-01-1.47156E-01 1.24689E-01-1.04160E-01
 -1      9300 2.03312E-01 8.77309E-02-6.03642E-02 3.00521E-02 1.87974E-02-4.53645E-02
 -1      9301 4.72237E-01 1.57588E-01 2.90328E-04 8.20548E-02-5.16433E-02 3.21690E-02
 -1      9302 8.47852E-01-1.17082E-01-9.55450E-02 9.38950E-03-5.85633E-02-1.31689E-01
 -1      9303 1.87381E+00 1.44798E-01 2.37377E-02-1.02255E-01-8.40811E-03 1.42768E-01
 -1      9304 2.08505E+00 1.35326E-01 7.33572E-02 1.04148E-01-7.74588E-02 2.45754E-01
 -1      9305 3.59587E-01-1.29040E-01-5.83764E-02-1.20094E-01-9.69224E-02 1.59499E-02
 -1      9306 1.01514E+00 1.68606E-01 2.90058E-02-6.90877E-02 1.96927E-02-5.07047E-02
 -1      9307-1.80257E-01-9.42295E-02 3.17210E-02-8.46758E-02-2.75281E-02-2.46327E-03
 -1      9308-4.50548E-01 5.81375E-02 8.24149E-02-1.87191E-02-1.82340E-02-6.95058E-03
 -1      9309-1.15929E+00-1.10834E-01 2.05688E-02 7.22343E-02-4.23795E-02-2.48189E-01
 -1      9310-1.03509E+00 1.78740E-02 1.67243E-01-3.36548E-02 7.53815E-02-6.00866E-02
 -1      9311-4.62485E-01 1.49469E-01-1.46461E-01 1.03014E-01 6.18734E-02-1.36925E-01
 -1      9312-8.08383E-01-2.08289E-02 1.14211E-01-2.21923E-02-1.33633E-02-2.09019E-02
 -1      9313-2.54929E-01-1.96045E-02 8.84670E-02 3.39472E-02 4.15787E-02 4.19327E-02
 -1      9314 2.50259E+00-4.84375E-03-3.41226E-02 1.61059E-01 1.03197E-01 1.06389E-01
 -1      9315 0.00000E+00 0.00000E+00 0.00000E+00 0.00000E+00 0.00000E+00 0.00000E+00
 -1      9316 3.90047E+00 3.73782E-01 8.69721E-02 2.26624E-01 1.28271E-01-7.89384E-01
 -1      9317 2.05409E+00 2.23068E-02 1.36980E-01-2.36891E-02-1.40917E-02-5.54740E-02
 -1      9318 4.56488E-01 1.31922E-01-4.12096E-02 5.37527E-02 9.62147E-02-1.34828E-01
 -1      9319-7.80820E-01 4.17133E-02 2.44582E-01-2.71595E-02-1.50850E-02 2.07542E-01
 -1      9320-2.46042E+00 2.41958E-01-8.78575E-02-1.60383E-01 8.94984E-02 5.88227E-01
 -1      9321-2.22978E+00 3.91676E-01 1.18821E-01 2.53898E-01 2.80882E-02-3.72641E-01
 -1      9322-3.43611E+00 7.16034E-03 1.13813E+00-2.87601E-01-2.44867E-01 1.12906E-01
 -1      9323-1.89201E+00-1.50085E-01-5.64846E-02-9.33684E-02 7.65127E-02 2.15126E-01
 -1      9324 2.66900E-01 1.44274E-01 2.83001E-02-2.07734E-02 8.39111E-02-1.59455E-02
 -1      9325-1.29196E-01-3.48779E-02 2.18413E-01 8.15995E-02-1.16563E-01-6.52864E-02
 -1      9326 9.06485E-01 3.15908E-02 5.91105E-02 1.40634E-02 3.72277E-02 1.08782E-01
 -1      9327 7.62152E-01-2.31121E-01-3.83052E-02 4.75058E-02 2.46401E-03-1.51032E-01
 -1      9328 1.53914E+00-1.33170E-01-6.21271E-02 3.99319E-02-2.94596E-02-3.34969E-01
 -1      9329 2.79766E+00-3.22781E-01-4.81369E-01 1.28360E-01-2.28069E-02-6.96136E-01
 -1      9330 0.00000E+00 0.00000E+00 0.00000E+00 0.00000E+00 0.00000E+00 0.00000E+00
 -1      9331-1.44563E+00 1.20224E-01 1.14544E-01-1.48099E-01 7.95431E-02 4.65953E-01
 -1      9332 0.00000E+00 0.00000E+00 0.00000E+00 0.00000E+00 0.00000E+00 0.00000E+00
 -1      9333 4.21422E+00-5.40290E-01-5.08725E-01-3.17360E-01 3.32032E-02 7.42219E-01
 -1      9334 2.85559E+00 3.16787E-01 1.55828E-01 1.43022E-01 3.20743E-02-2.66994E-01
 -1      9335 1.97619E+00 2.48195E-02 2.44493E-02 1.28397E-01-1.32701E-02 1.86071E-02
 -1      9336 1.19598E+00 7.63089E-02-5.00216E-02-2.90952E-01 5.59716E-03 4.83119E-02
 -1      9337 3.25368E-02 4.61876E-03-1.45329E-02-6.52936E-02 2.08821E-02 6.21775E-03
 -1      9338-1.02879E+00 9.64474E-03 2.74525E-01-8.36504E-02 1.84716E-02 6.41631E-02
 -1      9339-1.83354E+00 5.18201E-02 1.47892E-01-1.71802E-01 5.74228E-02 8.27189E-02
 -1      9340-3.71176E+00 2.93241E-01-1.48939E-01 4.78814E-01-4.74444E-02 3.73236E-02
 -1      9341-2.54120E+00-1.10979E-01-8.71681E-02-8.01939E-02-2.28519E-03 2.92944E-01
 -1      9342-2.43955E+00 6.32919E-02 4.00634E-01-1.02812E-01-1.00347E-01 4.69702E-02
 -1      9343-1.00442E+00 3.37371E-02 1.38449E-01 1.32167E-01-6.18204E-02 1.71621E-02
 -1      9344 1.00851E-01-2.70073E-02-3.96339E-03 9.22098E-03 2.69052E-04-1.48787E-02
 -1      9345 1.08159E+00-5.76640E-02-1.54993E-01 1.03879E-01-1.73700E-02-6.33838E-02
 -1      9346 2.50480E+00-5.15145E-02-2.66884E-01 5.80514E-01 8.88303E-02-2.98928E-01
 -1      9347 2.50023E+00 1.46932E-01-5.17660E-02-1.17011E-01 1.60347E-02 2.16934E-02
 -1      9348 3.04077E+00 1.76910E-01-1.13465E-01 2.96356E-01 5.63210E-02-2.64418E-01
 -1      9349 0.00000E+00 0.00000E+00 0.00000E+00 0.00000E+00 0.00000E+00 0.00000E+00
 -1      9350 2.16901E+00-2.75006E-02-9.53469E-02 2.06516E-01-8.38102E-02-5.28546E-02
 -1      9351-5.08125E-01-3.52678E-02-5.20577E-02-1.01616E-02-2.27940E-03 4.85009E-02
 -1      9352-1.18623E+00-2.47432E-02 9.64725E-02-4.36192E-03 1.34037E-03-8.19540E-02
 -1      9353-2.46890E+00-1.84847E-01-1.34015E-01-3.35312E-02 4.94628E-02 1.36355E-01
 -1      9354-1.27242E+00-1.20986E-01-8.51698E-02-2.36095E-02 3.56969E-02 1.29670E-02
 -1      9355-6.58089E-01-1.18904E-01-1.62232E-01-2.06429E-02 8.32293E-02 1.10589E-02
 -1      9356-8.48453E-01 4.70668E-02-1.50799E-01 3.16765E-02 4.88655E-02-1.01617E-01
 -1      9357 5.86571E-01 3.31294E-02 2.71408E-03 1.30801E-02-4.81254E-02 2.21082E-02
 -1      9358-2.00252E+00-6.35425E-02-1.10508E-01 1.37883E-01-3.90900E-02-1.02375E-01
 -1      9359 1.50684E+00 5.53711E-02 8.69060E-02 1.26955E-02-1.23520E-01 3.95019E-03
 -1      9360 2.53215E-02 1.22708E-01 2.43531E-01 1.63311E-02 8.12191E-02-7.44911E-02
 -1      9361-9.82566E-01-1.10934E-01-1.01896E-01-8.23103E-02 2.45471E-02 3.39738E-02
 -1      9362 0.00000E+00 0.00000E+00 0.00000E+00 0.00000E+00 0.00000E+00 0.00000E+00
 -1      9363 3.85907E+00 4.35574E-01 1.68564E-01 1.88704E-01-1.45024E-01 8.38677E-02
 -1      9364 2.86108E+00 8.67157E-02-1.35924E-01-3.28499E-01 2.43785E-02 1.44031E-02
 -1      9365 2.22450E+00 1.09299E-01-1.29786E-01 2.72762E-01 5.28973E-03 1.93054E-02
 -1      9366 1.86883E+00 1.36808E-01-6.67339E-02 6.33054E-02 3.23771E-02-1.61152E-02
 -1      9367 1.28358E+00-2.19981E-01-3.74534E-02 7.02025E-02 8.11697E-02-6.75455E-02
 -1      9368 1.16560E+00 4.09113E-02 7.66817E-02 2.67657E-02 4.71996E-02-9.91312E-02
 -1      9369-8.78161E-01-1.49389E-01-5.47682E-02-4.36119E-02-4.76259E-03 4.07111E-02
 -1      9370-1.06540E+00-1.01395E-01-9.87068E-02 8.94814E-02 9.26566E-02 3.90993E-02
 -1      9371-1.84107E+00-1.95960E-02 1.59440E-02 2.24601E-01 1.34895E-01 3.73022E-02
 -1      9372-2.52753E+00-2.79552E-01-7.79467E-02 2.35300E-02 1.73115E-01-1.17081E-01
 -1      9373-3.51891E+00-6.67242E-02 1.29832E-01-4.73724E-01 1.33106E-01-7.70449E-02
 -1      9374-2.66133E+00 4.12830E-03-3.58888E-01 8.41527E-01 4.17267E-02-3.60945E-01
 -1      9375-1.71723E+00-5.31567E-02-3.38821E-02 8.57922E-02-2.15761E-02-6.09127E-02
 -1      9376-8.77922E-01-8.05853E-02 8.70502E-03 3.72394E-02 1.25392E-05 5.33666E-02
 -1      9377-1.00940E-02 3.02740E-02 1.47331E-01-5.74100E-03 6.42845E-02-6.89627E-03
 -1      9378 4.00201E-02 2.31213E-02 1.53400E-02 2.36813E-02 3.56842E-02 2.56110E-02
 -1      9379 2.80262E-01 3.94851E-03-1.15331E-01 5.67618E-03-6.84616E-02 1.50998E-01
 -1      9380 1.33857E+00-1.21893E-01-4.17734E-01-2.52732E-01-1.28245E-01 3.98658E-02
 -1      9381 2.27048E+00 3.60033E-01 1.35617E-01-2.74871E-01-1.58106E-01-1.37556E-01
 -1      9382 2.84068E+00 2.86223E-02 1.32482E-01-3.11244E-01-7.14933E-02 5.10568E-01
 -1      9383 0.00000E+00 0.00000E+00 0.00000E+00 0.00000E+00 0.00000E+00 0.00000E+00
 -1      9384 0.00000E+00 0.00000E+00 0.00000E+00 0.00000E+00 0.00000E+00 0.00000E+00
 -1      9385 3.66449E+00 7.23848E-02-5.27007E-02-4.16369E-01-9.86364E-02-4.76058E-01
 -1      9386 2.21340E+00-5.78555E-02-1.18383E-01-1.51340E-02-7.35880E-02-4.38578E-02
 -1      9387 4.17924E-01 1.79505E-01-3.35095E-02-4.34511E-02 2.64558E-03 5.50156E-02
 -1      9388-2.46719E+00-4.66578E-02-2.71621E-02-2.85549E-01-1.60868E-03-2.46620E-01
 -1      9389-2.85343E+00-1.86982E-01 3.75593E-02-4.74265E-01-8.04740E-03-2.55807E-01
 -1      9390-2.95079E+00-1.76242E-01 4.02460E-02 1.61173E-01 1.69193E-01 7.85887E-02
 -1      9391-3.25213E+00 1.11420E-02 2.17733E-02 3.53096E-01 2.13762E-02 3.40152E-01
 -1      9392-2.95645E-01-2.08183E-01-1.94041E-02-1.97227E-02 2.66269E-03-7.22013E-02
 -1      9393 2.10853E+00 9.02591E-02 7.67500E-02 2.49713E-01-3.54799E-02-3.46426E-02
 -1      9394 1.15621E+00-2.23782E-01 2.89898E-01 1.03407E-01 3.33292E-03 4.17805E-01
 -1      9395 3.45594E+00 3.39147E-01 4.15198E-02 5.57486E-01 1.32275E-01 2.42326E-01
 -1      9396 3.46691E+00 2.72562E-01 5.16054E-02-4.98747E-03-9.87534E-02 1.44300E-01
 -1      9397 1.81498E+00-1.94097E-01-3.09814E-02 1.83720E-01-2.61963E-02 1.26739E-01
 -1      9398 2.55706E+00 9.79379E-02 1.68587E-01 9.87682E-02-2.07151E-01-3.05377E-01
 -1      9399 1.33783E+00-1.58624E-01-7.41390E-02-8.43354E-02 5.35897E-02 1.57522E-01
 -1      9400-1.13941E-01-2.88228E-01-1.22838E-01-8.16043E-03-3.10846E-02-6.34911E-02
 -1      9401-1.29998E+00-7.85724E-02 4.00092E-02-9.28193E-02 5.14712E-02-1.38832E-01
 -1      9402-1.36945E+00 6.16380E-01-6.18597E-02 1.30473E-01-1.31498E-03 3.63318E-01
 -1      9403-3.03262E+00 2.22818E-01 1.68818E-01-2.16484E-01-1.47542E-02-3.65648E-01
 -1      9404-1.31749E+00 5.17973E-01 2.72417E-01-1.64528E-01-1.86362E-02-9.21618E-02
 -1      9405-2.15354E+00-1.56790E-02 7.18016E-02 3.71676E-03 5.78177E-02 1.83461E-01
 -1      9406-7.89202E-01 2.65280E-01 1.23647E-01-1.87691E-01-2.42854E-02-6.07502E-02
 -1      9407-1.13606E+00-2.23596E-02 4.23143E-02 3.14298E-02 4.53699E-02 1.40657E-01
 -1      9408 4.63164E-01 2.37514E-01-9.50849E-03 1.80672E-02 6.54884E-03 7.76866E-02
 -1      9409 2.25484E+00 3.89354E-01 1.37951E-01 2.12836E-01-8.84494E-02 3.83871E-01
 -1      9410 8.24792E-01-4.62867E-01-4.05556E-01-2.77264E-01-4.06444E-02-1.88105E-01
 -1      9411 1.94936E+00 2.09889E-02 6.99937E-02 1.45292E-01 1.01231E-02 4.34555E-02
 -1      9412 0.00000E+00 0.00000E+00 0.00000E+00 0.00000E+00 0.00000E+00 0.00000E+00
 -1      9413 2.91139E+00 9.08355E-02-2.27024E-01-7.58649E-02-3.27639E-02-3.58684E-01
 -1      9414 0.00000E+00 0.00000E+00 0.00000E+00 0.00000E+00 0.00000E+00 0.00000E+00
 -1      9415 3.96352E-01 1.40568E-01 7.76649E-02-7.70448E-02 3.95607E-02 1.27733E-03
 -1      9416-9.60469E-01-4.89617E-02-9.42062E-03 1.27313E-02 9.11082E-03-2.48092E-02
 -1      9417-2.46994E+00-1.88000E-01 2.16577E-02-1.54275E-01 1.54357E-02 2.75712E-01
 -1      9418-1.38025E+00 5.55505E-01 3.52342E-01 1.93325E-01-2.89585E-02-1.09882E-01
 -1      9419-6.51626E-01 1.72728E-01 1.80317E-01-1.53462E-02 4.56533E-02-3.66791E-02
 -1      9420 5.27761E-01 3.03158E-01 6.26057E-02-3.48423E-02 4.44633E-02 9.48012E-02
 -1      9421 1.17730E+00 6.47173E-02-9.25156E-02 6.38947E-03-1.71710E-02 1.16845E-01
 -1      9422 1.34739E+00-4.24412E-01-3.50673E-01 1.20845E-02-2.77165E-02-2.14430E-02
 -1      9423 3.41705E+00 2.81210E-01-2.04497E-01 1.15391E-01 1.08856E-02-1.01932E-01
 -1      9424 3.94981E+00-9.00111E-01-6.72866E-01 4.32325E-01 7.14797E-02-5.01566E-01
 -1      9425 2.78155E+00 6.30530E-02 9.67360E-02 2.61805E-01-2.98441E-02-3.21939E-01
 -1      9426 1.50967E+00-1.35492E-01-1.13765E-01-2.44393E-01 7.33104E-02 1.69671E-01
 -1      9427-1.15643E+00-1.06022E-01-2.85953E-02 1.08616E-01-6.05048E-02-3.26075E-02
 -1      9428-6.20952E-01 3.21025E-01 2.15721E-01-8.67717E-02-2.61741E-02 9.45835E-02
 -1      9429-5.94346E-01 6.53668E-02 2.08974E-01 4.23516E-03 2.77714E-02 1.29031E-02
 -1      9430-4.16360E+00-2.38868E-01-2.53329E-01-7.94147E-01 9.21722E-02 8.28250E-01
 -1      9431-1.75427E-01-2.01606E-01-1.27607E-01 6.99786E-02-5.14806E-03 2.13907E-03
 -1      9432 1.95069E+00 2.33646E-01 2.40634E-01-1.11089E-01-1.84951E-02 2.63373E-01
 -1      9433 9.40688E-01-2.15478E-01-1.60124E-01 1.25191E-01-5.22190E-02-1.21371E-01
 -1      9434 1.85542E+00-2.05917E-01-1.75741E-01-2.21150E-01 3.13343E-02 1.71701E-01
 -1      9435 0.00000E+00 0.00000E+00 0.00000E+00 0.00000E+00 0.00000E+00 0.00000E+00
 -1      9436 4.45260E-01 2.10578E-01 5.89082E-02-6.33264E-02 7.46063E-02 5.01735E-02
 -1      9437-2.26419E+00 4.94903E-01 3.71823E-01 2.58294E-01-1.14785E-01-3.08616E-01
 -1      9438-3.10516E+00-3.66120E-01-8.28982E-02-1.64378E-01-5.06743E-02 2.25201E-01
 -1      9439-3.24473E+00 8.09646E-02-9.43947E-03 4.47479E-01-9.70069E-02-2.59837E-01
 -1      9440-1.11867E+00-4.25025E-03 1.20893E-02 2.87779E-04 4.94017E-02 8.24977E-02
 -1      9441 2.23948E+00-3.83173E-01-5.37993E-01 3.95366E-01 5.31582E-02-1.35787E-01
 -1      9442 0.00000E+00 0.00000E+00 0.00000E+00 0.00000E+00 0.00000E+00 0.00000E+00
 -1      9443 0.00000E+00 0.00000E+00 0.00000E+00 0.00000E+00 0.00000E+00 0.00000E+00
 -1      9444 3.85751E+00 3.67926E-01-4.94983E-02-4.62836E-01 2.75439E-01 7.31838E-02
 -1      9445 3.98961E+00 4.67320E-01 1.09467E-01-4.53724E-01 1.36782E-01-1.15171E-02
 -1      9446 2.27552E+00-2.50301E-02-8.23251E-02 2.60848E-01-6.13308E-02-3.64285E-02
 -1      9447-4.95686E-02-1.41146E-01-1.68698E-01 3.52637E-02-8.44356E-03 1.71964E-02
 -1      9448 1.80392E-01 1.21602E-02 2.09253E-02-1.04604E-02-4.42092E-02-5.41394E-02
 -1      9449-1.07187E+00-1.94458E-02 1.21799E-01-1.13971E-01-1.40183E-02-5.07259E-02
 -1      9450-1.66500E+00 1.21640E-01 2.60624E-01 3.33473E-02-5.78594E-02-2.72403E-02
 -1      9451-2.52460E+00-1.32922E-01 1.19282E-01 2.29346E-01-1.26292E-02-1.24779E-01
 -1      9452-3.12556E+00-3.26403E-02-1.32483E-01-2.64695E-01-1.11783E-01 1.71453E-01
 -1      9453-3.30619E+00-1.11901E-01-2.04656E-01-4.13426E-01-2.02806E-02 1.64461E-01
 -1      9454 1.16399E-01 9.60697E-02 1.55997E-02-7.37415E-02-3.01026E-02 4.06878E-02
 -1      9455 1.25990E+00 7.29071E-02-2.76461E-01 1.98860E-01 6.92860E-02 4.64734E-02
 -1      9456 1.95726E+00 9.11966E-02-1.43852E-01-2.37419E-01 2.25442E-02 2.60430E-02
 -1      9457 2.65990E+00 1.21830E-01-2.66785E-01-2.25700E-01 1.19936E-03 1.60913E-01
 -1      9458 3.07257E+00-6.90810E-02-8.75210E-02 4.53731E-01 9.57421E-02 1.57499E-01
 -1      9459 0.00000E+00 0.00000E+00 0.00000E+00 0.00000E+00 0.00000E+00 0.00000E+00
 -1      9460 0.00000E+00 0.00000E+00 0.00000E+00 0.00000E+00 0.00000E+00 0.00000E+00
 -1      9461 2.56819E+00 1.52347E-01-1.91976E-01-6.22117E-02-4.29395E-02-1.51759E-01
 -1      9462 3.12972E+00-6.02225E-01-4.51767E-01 2.13929E-01-1.22359E-01-1.61487E-01
 -1      9463 1.50786E+00 9.46873E-02-1.01085E-02-2.01062E-01 1.07068E-01-1.06701E-01
 -1      9464-8.09421E-01-1.53984E-02-1.88000E-02 8.67237E-02-2.35727E-02 2.38139E-02
 -1      9465-1.74036E+00-1.68612E-01-1.26207E-01 3.02580E-02-7.80439E-02-9.21798E-03
 -1      9466-3.24245E+00-1.05582E-01-2.36446E-01 1.13769E+00-6.42636E-02 9.90198E-02
 -1      9467-2.04224E+00-2.78003E-01 8.41826E-02 2.67722E-01-9.88294E-02 2.79826E-02
 -1      9468-2.37531E+00-2.97358E-02 2.98241E-02-1.58593E-02 4.51416E-02-3.14457E-04
 -1      9469-1.75064E+00 2.99570E-02 1.08968E-02 8.78896E-03 1.40809E-01 4.24687E-02
 -1      9470 1.03992E+00 1.03285E-01 2.97608E-02-1.46807E-02-2.63365E-02 2.06499E-02
 -1      9471 1.66296E+00 2.80060E-01-6.82739E-02-5.53158E-02-3.32114E-03-1.16921E-02
 -1      9472 2.49159E+00 6.66059E-02-8.28971E-02 6.52212E-01 2.28947E-01 7.70722E-02
 -1      9473 4.08501E+00 9.05246E-01 7.75408E-01-6.58439E-01 6.75675E-02 1.79948E-01
 -1      9474 2.67009E+00 4.26395E-01-5.05260E-02-1.90085E-01-4.22444E-02 1.04913E-01
 -1      9475-1.06815E+00-8.85366E-02-1.96772E-02 1.07669E-01-2.14076E-02-4.74570E-02
 -1      9476-8.42170E-01-4.02276E-02-8.10646E-02 2.91432E-02-8.72641E-03-5.65525E-02
 -1      9477-6.12902E-02 2.67320E-02 1.50979E-01 5.63500E-02 4.16138E-02-6.72982E-02
 -1      9478 1.82394E-01-9.19973E-02-2.57290E-01-1.66996E-02-6.54354E-02 3.90966E-02
 -1      9479 3.54136E+00 4.63261E-02 5.46842E-02 3.13806E-01 6.73045E-03 1.79217E-01
 -1      9480 0.00000E+00 0.00000E+00 0.00000E+00 0.00000E+00 0.00000E+00 0.00000E+00
 -1      9481 2.67755E+00 1.49570E-01 4.91793E-02 1.38442E-01 1.65706E-02 8.15254E-02
 -1      9482 2.27366E+00 1.08310E-01 6.37994E-02-7.63172E-04 1.30523E-01 1.74095E-02
 -1      9483 1.83286E+00 6.10668E-02 3.42526E-02 3.69339E-02 1.22269E-01 1.42609E-01
 -1      9484 1.04285E+00 9.35333E-02 1.66755E-02 2.86617E-02 1.10941E-01 3.82720E-02
 -1      9485 5.01882E-01-5.74498E-02-7.78082E-02 3.53317E-02 2.58487E-02 1.79249E-02
 -1      9486-8.06193E-01-1.36398E-01-8.41232E-03-1.16846E-02 1.47669E-02 1.93753E-02
 -1      9487-7.80808E-01-4.59389E-02 1.90449E-01 3.16983E-02 4.07352E-02 1.99062E-02
 -1      9488-2.12861E+00 4.59017E-03-4.49501E-02-9.06126E-02-1.01504E-04-8.91349E-02
 -1      9489-1.89409E+00-8.33530E-02-1.94903E-01 3.54068E-02 5.13611E-02 1.09397E-01
 -1      9490-1.87953E+00 1.47187E-01 1.11171E-01 9.21924E-02-4.98398E-02 1.54622E-02
 -1      9491-3.00356E+00 1.82332E-02-1.14833E-02-1.09865E-01-9.17893E-02-1.83507E-01
 -1      9492-2.10978E+00-2.73279E-01-3.01256E-01-3.24305E-02-1.19222E-01 1.87982E-02
 -1      9493-1.45745E+00-4.30638E-02-3.26979E-03 3.25647E-02-1.49752E-01-4.22510E-02
 -1      9494-4.83604E-01 1.47208E-02-5.30551E-02-2.83418E-02-1.56898E-02-2.73247E-02
 -1      9495-2.05841E-01 1.01798E-01-9.08753E-03 2.20650E-02 6.71090E-03-7.81479E-02
 -1      9496 1.04192E+00 2.62482E-02-1.79529E-01-4.02536E-02-5.11199E-03-2.80822E-02
 -1      9497 1.73510E+00-3.26543E-01 1.00771E-01 1.53246E-01-1.04096E-02-1.95073E-01
 -1      9498 1.14406E+00 5.27740E-02-3.39158E-02-4.30406E-02 4.44163E-02 3.93259E-02
 -1      9499 2.35754E+00 2.35121E-01-5.45614E-02 1.14557E-01 6.03625E-02 9.60453E-02
 -1      9500 2.69447E+00 4.52680E-03-6.24026E-02 2.98013E-02 3.15274E-02-4.08512E-01
 -1      9501 2.44270E-01 1.27005E-01-2.07379E-02 1.13638E-01-4.21208E-02 4.60359E-02
 -1      9502-9.46135E-01-7.41696E-02 5.15668E-02-3.91304E-02-1.14077E-01 3.44962E-02
 -1      9503-2.79034E+00-2.07316E-01-2.74702E-01-1.34803E-01 7.29952E-03-3.06865E-01
 -1      9504-3.27148E+00-3.06341E-02-1.32214E-01-3.11737E-02 8.71482E-02 3.06619E-01
 -1      9505 0.00000E+00 0.00000E+00 0.00000E+00 0.00000E+00 0.00000E+00 0.00000E+00
 -1      9506 1.54787E+00-2.36548E-01-5.45338E-02 1.37358E-01 1.53305E-01 3.61567E-01
 -1      9507 2.22698E+00 1.23209E-01 1.75659E-01-4.45470E-03-1.55948E-02-4.38720E-01
 -1      9508 2.74309E-01-4.33054E-01-2.22670E-01 3.15573E-01 1.79361E-01 4.58818E-02
 -1      9509 1.93723E+00 5.96144E-01 1.94700E-01-1.86592E-02-2.63681E-01-4.90460E-01
 -1      9510-2.80417E-01-2.12572E-01-9.75282E-02-3.67420E-02 5.82639E-02-1.40232E-01
 -1      9511 5.98858E-02-2.60765E-02-6.05557E-02-1.80568E-02 3.06626E-02-2.38744E-02
 -1      9512-9.96969E-01-1.59690E-01-2.97742E-01 5.15253E-03-1.11212E-01 1.68927E-01
 -1      9513-2.26343E+00 8.26029E-02 1.85663E-01-2.64225E-02 5.85589E-02-3.26253E-01
 -1      9514-1.32970E+00 2.92893E-01-5.92621E-02 1.41673E-01-4.63931E-02 3.35590E-01
 -1      9515-2.53642E+00 2.62257E-01 8.08306E-02 4.21932E-02-1.10228E-01-6.04650E-01
 -1      9516-3.16045E-01 2.33296E-01 5.75801E-02-9.08298E-02-1.71880E-01-3.52661E-02
 -1      9517-1.76153E+00-3.37289E-01 6.77550E-02 7.45175E-02 1.43874E-01 4.66449E-01
 -1      9518 3.01817E-01 2.42430E-01 4.86996E-02 1.07403E-03-1.11189E-01-6.20679E-02
 -1      9519-3.56816E-01-1.01987E-01-3.35222E-02 3.02947E-02 3.01723E-02 8.58171E-02
 -1      9520 1.10988E+00 1.07351E-01-5.86478E-02 6.85084E-02 1.82459E-02-2.33997E-01
 -1      9521 3.37819E+00 3.34264E-01-8.93397E-02-2.36705E-01-1.77756E-01 5.90894E-01
 -1      9522 3.24373E+00-2.22756E-01-3.77556E-01 5.73429E-02-1.92118E-01 4.62532E-01
 -1      9523 3.55384E+00 2.17677E-01-2.54775E-01-1.66255E-02-2.41060E-02-3.83143E-01
 -1      9524 1.14586E+00-1.62819E-01 2.77675E-01-1.51139E-01 2.42748E-01-6.10856E-01
 -1      9525-7.83411E-01-9.80564E-02-5.04507E-03-2.30549E-02 2.11608E-03 1.96436E-01
 -1      9526-1.33405E+00-6.77846E-02 4.58565E-02 1.21032E-01-6.53074E-02-2.47214E-02
 -1      9527 1.11178E+00-1.45133E-01-1.50571E-01-1.35970E-01 5.95137E-02 8.21731E-03
 -1      9528 7.17919E-01-1.19482E-01-2.77949E-02 3.38250E-02 2.95870E-03-1.79169E-01
 -1      9529 6.75277E-01 6.84656E-02-4.91480E-02 7.32704E-02-1.44808E-01-1.93664E-01
 -1      9530 7.02839E-02 1.22549E-02 1.97383E-02-1.38164E-02 2.19645E-02-8.85154E-03
 -1      9531-9.45894E-03-8.38789E-03-2.38757E-02 1.43473E-02 2.91613E-02-6.32775E-02
 -1      9532-2.82197E-01-8.46338E-02 5.37243E-02-4.15274E-02-4.37321E-02 2.51289E-02
 -1      9533-4.98748E-01 9.79148E-03 1.84001E-02-1.75108E-02 3.89432E-02-9.99784E-02
 -1      9534-5.96275E-01 1.54036E-01 3.95586E-02-1.03700E-01-1.51911E-01 9.29634E-02
 -1      9535-1.27962E+00-9.46422E-02 1.43634E-01-4.43216E-02-3.16363E-01 2.32725E-02
 -1      9536-1.77822E+00 2.70939E-02 1.91699E-02-9.69589E-02-3.47201E-02 2.48904E-01
 -1      9537-1.82117E+00-2.45641E-01 5.89766E-02 1.49687E-01-1.77221E-02 1.61336E-01
 -1      9538-4.77514E-01 8.52089E-02 1.97122E-01-1.67713E-02 5.68076E-02 5.92361E-02
 -1      9539 5.05403E-01-4.60719E-02 3.77523E-04 3.72016E-02 1.40402E-02 1.39629E-01
 -1      9540 4.69122E-01-1.69836E-01-1.64337E-03 1.08232E-02 9.18692E-02 3.08186E-02
 -1      9541 0.00000E+00 0.00000E+00 0.00000E+00 0.00000E+00 0.00000E+00 0.00000E+00
 -1      9542 0.00000E+00 0.00000E+00 0.00000E+00 0.00000E+00 0.00000E+00 0.00000E+00
 -1      9543 1.54305E+00-2.34914E-01-1.54148E-01-7.46571E-02 4.47402E-02 1.00917E-01
 -1      9544 1.42381E+00-3.03297E-02-1.42889E-01 1.29261E-01 1.61892E-01-9.26886E-02
 -1      9545-1.61243E+00 2.85344E-01 4.10767E-02 5.38399E-02-1.17165E-01-3.07417E-01
 -1      9546 1.66887E+00 1.80293E-02-2.43272E-01 4.12113E-02 9.15275E-02-4.67134E-02
 -1      9547 0.00000E+00 0.00000E+00 0.00000E+00 0.00000E+00 0.00000E+00 0.00000E+00
 -1      9548 1.14650E+00-2.31371E-01-2.39097E-01 1.32572E-01-4.32610E-02-6.26933E-02
 -1      9549 4.17243E-01-5.42122E-02-3.13235E-01-4.18496E-02-1.42332E-01-1.56516E-02
 -1      9550-2.63770E-01-1.50088E-01-2.78188E-01-9.59495E-02-3.18742E-02 8.79765E-02
 -1      9551 3.00639E-01 1.33054E-02-2.20128E-02 1.19774E-02 1.43903E-02-4.38550E-02
 -1      9552 2.37051E-02-9.35621E-04-1.64593E-02-6.21493E-02-4.55562E-03 7.61547E-03
 -1      9553-3.60274E-01-1.36970E-03 4.65881E-02 6.33194E-02 3.08277E-03 3.56850E-02
 -1      9554-2.32797E-01 1.15193E-01 1.10306E-01 7.26186E-02 1.15548E-01-7.78317E-02
 -1      9555-8.59889E-01-1.78562E-02 1.34128E-01 8.63274E-02 1.57019E-01 4.17617E-02
 -1      9556-1.34443E+00-5.40973E-02 1.11098E-01-3.85802E-02 8.49558E-02 1.45386E-01
 -1      9557-4.47345E-01-8.55227E-02-4.51112E-02-4.00482E-02 4.44698E-02 8.25485E-04
 -1      9558-1.09134E+00 2.25011E-04 3.41494E-04 9.93729E-02 8.65808E-02 1.42791E-01
 -1      9559-4.63453E-01 1.26041E-02 2.08914E-01-3.34726E-03 9.14178E-02-2.78025E-02
 -1      9560-1.60327E-01 1.13572E-01 1.08388E-01-1.86857E-02 3.95229E-02 1.56652E-02
 -1      9561 7.45927E-02 5.19820E-03-3.43036E-03 5.57715E-03-1.20320E-02-2.63872E-02
 -1      9562 2.17924E-01-2.69052E-02-1.29269E-01-1.18156E-02-4.33579E-02 1.62780E-02
 -1      9563 9.93150E-01 7.45924E-02 2.68628E-01-2.68304E-02-7.18743E-02-1.85005E-01
 -1      9564 1.71716E+00 1.82540E-01-4.32727E-02-2.03545E-01-2.29065E-01-6.14857E-02
 -1      9565 0.00000E+00 0.00000E+00 0.00000E+00 0.00000E+00 0.00000E+00 0.00000E+00
 -1      9566 0.00000E+00 0.00000E+00 0.00000E+00 0.00000E+00 0.00000E+00 0.00000E+00
 -1      9567 1.81472E+00 2.01965E-01 1.47037E-01 1.44036E-01-9.03174E-02-2.34590E-01
 -1      9568 9.98147E-01-1.28020E-01-2.40102E-01 5.39228E-02-1.38634E-01 4.08673E-02
 -1      9569 5.99252E-01-2.15927E-01-1.18438E-03 2.71731E-02-4.38507E-02-1.37914E-01
 -1      9570 3.57623E-01-4.94628E-02-1.00622E-01-4.36867E-02-3.03927E-02 7.64071E-02
 -1      9571 1.21348E-01 1.11458E-01 6.82172E-02 4.08553E-02 1.01537E-02 8.99090E-04
 -1      9572-4.69651E-01 2.36124E-01 4.04699E-02-1.09947E-01 7.88623E-02 6.65603E-02
 -1      9573-1.15159E-01 2.34076E-01 2.24635E-01-1.75889E-02 6.34606E-03-5.47661E-02
 -1      9574 3.44942E-02-4.93145E-02 3.50399E-03-6.48972E-03-1.91280E-02-1.35303E-02
 -1      9575 4.32796E-01-3.18133E-02-1.01647E-01-3.48718E-02-7.06084E-02 2.60211E-02
 -1      9576-4.74018E-01-1.73475E-02 4.95718E-02 3.34986E-02 1.94927E-02 2.76509E-02
 -1      9577-5.28198E-01-8.36171E-02-8.54566E-02 5.62140E-02 5.62985E-02-2.70863E-02
 -1      9578 1.08885E+00-4.63364E-02-1.17951E-01-1.31045E-01-1.37979E-01-1.93959E-02
 -1      9579 1.83404E+00 1.09502E-01-4.90350E-02 1.19706E-01-8.03981E-02-1.01448E-01
 -1      9580 1.11463E+00-4.38726E-02 1.77982E-02 6.63967E-02-1.98083E-01 8.63415E-02
 -1      9581 4.76768E-01 1.47628E-01-7.37350E-02-3.63024E-02-5.00706E-03 4.83096E-02
 -1      9582-6.48782E-01 4.63062E-02 2.34649E-01-1.19330E-01 1.13718E-01 2.54342E-02
 -1      9583-1.53219E+00-1.62143E-01 5.18789E-02-4.09541E-03-3.36017E-02 8.43781E-02
 -1      9584 0.00000E+00 0.00000E+00 0.00000E+00 0.00000E+00 0.00000E+00 0.00000E+00
 -1      9585 2.33222E+00 4.14618E-02-4.13681E-01-2.08552E-01 3.33457E-02-9.60999E-02
 -1      9586 1.34002E+00-8.31460E-02-1.97257E-01 1.30365E-01 6.08295E-02-1.50800E-02
 -1      9587 1.03497E+00-8.56221E-02-1.25206E-01 2.03855E-02 9.08881E-02-5.52090E-02
 -1      9588 8.56006E-01 6.23077E-02 8.51857E-02-6.63117E-02-7.33660E-02-2.51222E-02
 -1      9589 1.09217E-01-2.43981E-02-1.87292E-02 6.29202E-03 1.15660E-02-1.74519E-02
 -1      9590 1.07166E-02-6.80888E-02-8.08031E-02-3.00185E-02 2.76515E-02-3.19465E-02
 -1      9591-3.27429E-02-1.80087E-02-1.76325E-02-2.55370E-02 5.13336E-02-5.52753E-02
 -1      9592-7.23173E-01-1.15709E-01-1.83106E-02 2.93665E-02-4.65092E-03 1.53727E-02
 -1      9593-6.95032E-01-2.02937E-02 4.44934E-03 5.11124E-03 2.56070E-02-1.48597E-03
 -1      9594-1.51231E+00-1.65481E-01 6.57880E-02 9.81660E-03-2.39892E-02-8.14738E-02
 -1      9595-2.31299E+00-3.06835E-01 1.15116E-01-2.01005E-02-8.48578E-02 7.81142E-02
 -1      9596-2.32040E+00-4.77900E-01-3.23806E-02 3.86809E-02-2.35477E-02 2.53537E-02
 -1      9597-2.36441E+00-4.70860E-01-1.89503E-01 1.36330E-01-8.21660E-03-1.43815E-02
 -1      9598-1.42642E+00-2.89610E-01 7.93123E-03-3.37064E-02-7.82196E-03 6.40782E-02
 -1      9599-1.24599E+00-1.09677E-01 4.50802E-02 6.09909E-02 5.28157E-02 8.46250E-03
 -1      9600-6.34357E-01 1.32894E-01 1.33477E-01-4.15434E-02-1.50097E-02 3.91077E-02
 -1      9601-6.63966E-01 8.72759E-02 1.20144E-01-6.43396E-03 3.28274E-02 4.14660E-02
 -1      9602-8.53807E-02-2.14198E-02-6.53053E-02-1.43984E-02 1.66091E-02-2.62649E-02
 -1      9603 9.94555E-02-1.56011E-02-4.66586E-03-1.34263E-02-3.70863E-02 1.67440E-02
 -1      9604 8.39730E-01 1.77028E-01-1.20213E-02-5.52925E-02-6.80869E-03-4.35787E-02
 -1      9605 2.04882E+00 4.41094E-01 2.08201E-01 1.94693E-01-1.57894E-02-2.62513E-01
 -1      9606 0.00000E+00 0.00000E+00 0.00000E+00 0.00000E+00 0.00000E+00 0.00000E+00
 -1      9607 3.05342E+00 4.17689E-01-8.23048E-03-1.53119E-01 5.88036E-02-3.72810E-02
 -1      9608 1.54546E+00-1.08669E-01-1.60531E-01 1.84186E-01-1.10039E-01-1.53738E-01
 -1      9609-1.14462E+00-1.13796E-01 1.77441E-01 1.01284E-02-5.17825E-02 5.33925E-02
 -1      9610-2.22873E+00-3.51556E-01 1.16689E-01-7.00422E-02 3.01728E-04 5.07539E-02
 -1      9611 9.88455E-01 1.17998E-01-9.05615E-02-4.94204E-02-3.61380E-02 8.31886E-02
 -1      9612 1.62175E+00 9.65353E-02 9.63255E-03 6.34771E-02 1.06308E-01-2.09545E-01
 -1      9613 2.44398E+00 1.17372E-01-3.67230E-01 1.59209E-01 1.23195E-01 2.15242E-01
 -1      9614 2.77489E+00 4.77468E-01-8.72128E-02-7.43194E-02-1.77129E-02-1.51561E-01
 -1      9615 1.50186E+00 2.64172E-02-1.44293E-01 1.07612E-01 5.14871E-03 6.22436E-04
 -1      9616 1.01323E+00 7.78223E-02-7.64440E-02-1.91009E-02 5.36384E-03-9.00324E-02
 -1      9617 4.30888E-02 1.21860E-02 3.07447E-02-4.84282E-02 6.47774E-03-3.32291E-02
 -1      9618-2.37018E+00 5.82302E-02 1.40730E-01 1.03845E-01-5.69547E-02-1.21005E-02
 -1      9619-2.66433E+00-5.26789E-01-2.15211E-01-1.23406E-01-1.06414E-02 4.91755E-03
 -1      9620-1.29193E+00-2.11522E-01 1.22400E-01 1.04184E-02-4.74649E-02 9.57130E-02
 -1      9621-1.18857E+00-1.71972E-01 8.59225E-02-6.41840E-02 2.68765E-02 3.71188E-02
 -1      9622 9.50560E-02 5.90879E-02 5.78610E-02 1.58980E-02 3.82691E-03 1.10325E-03
 -1      9623 1.60102E+00 1.39453E-01-4.05746E-02-3.22377E-02-2.13086E-02 4.94871E-02
 -1      9624 2.28175E+00 1.71898E-01-3.13769E-01 2.81468E-02 2.99386E-02 1.42912E-01
 -1      9625 0.00000E+00 0.00000E+00 0.00000E+00 0.00000E+00 0.00000E+00 0.00000E+00
 -1      9626 1.30781E+00-1.02829E-01-3.93318E-01-6.22337E-02-5.31272E-02 3.13051E-02
 -1      9627 7.73542E-01 1.82210E-01 5.07060E-02-4.17449E-03-2.03637E-02-2.95430E-02
 -1      9628-8.07301E-01 1.24175E-02 2.88253E-03 6.10123E-02 8.30439E-03-4.56568E-03
 -1      9629-6.02921E-01 1.42772E-02 9.57786E-02-1.95291E-02 3.01445E-02-3.71022E-02
 -1      9630-6.55450E-01 1.23383E-01 9.19586E-02-6.05350E-02 1.90337E-02 2.27754E-02
 -1      9631-3.76146E-02 3.88930E-02-2.97097E-02-3.34440E-02 1.99922E-02-1.50394E-02
 -1      9632 1.40359E-01-1.72522E-03 1.01751E-02 3.47084E-02 9.97112E-03 4.32200E-02
 -1      9633 6.73210E-01-1.00581E-01-2.85387E-01 8.99642E-02-3.59459E-02 1.25891E-01
 -1      9634 2.48902E+00 2.42540E-01-1.51683E-01-1.38919E-01-7.91975E-02 1.00468E-01
 -1      9635 1.65116E+00-2.81331E-02-1.03839E-01 2.22242E-01 2.83333E-03-1.27059E-01
 -1      9636-2.08554E+00-3.89038E-01 6.42369E-02-6.48852E-02-7.10571E-02 2.43198E-02
 -1      9637-1.16330E+00-2.73082E-01 5.85277E-02 2.47438E-02 8.57066E-03 4.56034E-02
 -1      9638 1.95065E+00 2.88853E-01 1.40740E-02 8.93747E-02-4.01508E-03-4.87147E-03
 -1      9639 8.77934E-01 2.13200E-01 3.57688E-02-1.25037E-02-2.20315E-02-5.04786E-02
 -1      9640 3.75115E-02-6.01390E-03-3.07046E-02-2.11631E-02-1.75508E-02-2.41378E-02
 -1      9641-5.57858E-01 5.45943E-02 5.47361E-02 2.98869E-02-7.80189E-03-6.97259E-03
 -1      9642-6.89342E-01-3.57056E-02 3.68926E-02 4.16756E-03 8.76525E-03 4.57870E-04
 -1      9643 9.94255E-01 3.43508E-01 1.58897E-01-9.16362E-03-1.34801E-02 7.81532E-02
 -1      9644 0.00000E+00 0.00000E+00 0.00000E+00 0.00000E+00 0.00000E+00 0.00000E+00
 -1      9645 1.64073E-02-2.71336E-02-5.31446E-02-4.99094E-03 1.24918E-02-1.99593E-02
 -1      9646-4.44847E-01-2.09968E-02 4.90984E-02 7.17333E-02 3.83966E-03-9.67791E-03
 -1      9647 2.53917E-01 6.21963E-02 3.67842E-02 3.90406E-02-5.94220E-02-3.81379E-02
 -1      9648 2.40989E-01 5.80769E-02 5.27470E-02 2.01368E-02-4.01068E-02-7.40234E-03
 -1      9649 7.45474E-01 1.03967E-01 7.58544E-02-8.53729E-02 3.03299E-02 2.83278E-02
 -1      9650 4.58427E-01-1.02759E-02-3.06281E-02 4.14510E-02 2.32714E-02 5.73827E-02
 -1      9651 1.24647E+00 2.03769E-01 1.13017E-01-3.60322E-02 1.43528E-01-6.92371E-02
 -1      9652 0.00000E+00 0.00000E+00 0.00000E+00 0.00000E+00 0.00000E+00 0.00000E+00
 -1      9653 1.80090E-01 1.21449E-01 5.00858E-02 3.14736E-02-1.84465E-03-1.91824E-02
 -1      9654 4.69449E-01-6.73311E-02-1.91650E-01 1.02815E-01 3.93421E-02 1.78666E-03
 -1      9655 0.00000E+00 0.00000E+00 0.00000E+00 0.00000E+00 0.00000E+00 0.00000E+00
 -1      9656 9.12716E-02-8.06172E-02 3.84969E-03 6.47290E-02 2.68992E-02-1.01206E-01
 -1      9657-4.45926E-01-3.85801E-03 2.18381E-02 7.90290E-02-7.84578E-02 7.27552E-02
 -1      9658-7.56725E-01 7.44652E-02 1.36843E-01 3.61667E-02-1.75028E-01-3.84398E-02
 -1      9659-1.99812E-01 5.43567E-02 3.91245E-01 5.06039E-02-1.63276E-01-2.34638E-02
 -1      9660 6.05514E-02 1.55616E-01 1.08077E-02-3.45661E-02-5.07501E-02 3.12438E-02
 -1      9661 3.53209E-01-1.62154E-01-6.33252E-02-1.59157E-01 1.31427E-01-4.95479E-02
 -1      9662 1.98797E-02-2.38738E-02 1.01964E-02 4.80432E-03 1.33433E-02-1.05394E-02
 -1      9663-9.36027E-01 1.04412E-01 1.38250E-01 3.00176E-01-3.26931E-01 8.53060E-02
 -1      9664 2.46098E+00 3.85883E-01-2.81280E-01-1.29314E-01 4.06024E-02-6.55639E-02
 -1      9665-2.03421E+00-4.85697E-01 6.57682E-02-1.03993E-01-6.66201E-02-1.29474E-01
 -1      9666 3.21670E-01-2.62375E-02-3.81144E-02-1.89092E-03 9.51497E-02-3.79911E-02
 -1      9667 1.38489E+00-1.81106E-01-4.28943E-01-1.49853E-01 7.26560E-02 1.34568E-01
 -1      9668 2.79408E+00-8.58879E-02-3.24473E-01-2.02043E-01 1.65456E-01 2.94604E-01
 -1      9669-7.84061E-01-1.11468E-01 2.40782E-02-1.66212E-02-2.87405E-03-2.05320E-02
 -1      9670-7.94937E-01-5.98129E-02 1.10915E-02 2.98896E-02 9.68560E-03 3.17566E-02
 -1      9671 1.71011E+00 2.10318E-01-7.73746E-02 3.84655E-02-3.01656E-02-7.55538E-02
 -1      9672-2.28901E+00 1.92886E-01-7.21312E-02 2.19488E-01-8.08145E-02-1.38775E-01
 -1      9673-1.13202E+00 1.11931E-02 1.74327E-01 1.43625E-01-4.37161E-02-1.02619E-01
 -1      9674-7.75994E-01-1.15733E-01-2.69728E-02 1.45083E-02 1.65504E-02-1.24451E-02
 -1      9675-1.14889E-01-3.06105E-02-4.42436E-02 1.03064E-02 3.11082E-03 2.62815E-02
 -3
    1PSTEP                         3           1           1          
  100CL  101 1.000000000        9675                     0    1           1
 -4  ERROR       1    1
 -5  STR(%)      1    1    0    0
 -1         1 0.00000E+00
 -1         2 0.00000E+00
 -1         3 0.00000E+00
 -1         4 0.00000E+00
 -1         5 0.00000E+00
 -1         6 0.00000E+00
 -1         7 0.00000E+00
 -1         8 0.00000E+00
 -1         9 0.00000E+00
 -1        10 0.00000E+00
 -1        11 0.00000E+00
 -1        12 0.00000E+00
 -1        13 0.00000E+00
 -1        14 0.00000E+00
 -1        15 0.00000E+00
 -1        16 0.00000E+00
 -1        17 0.00000E+00
 -1        18 0.00000E+00
 -1        19 0.00000E+00
 -1        20 0.00000E+00
 -1        21 0.00000E+00
 -1        22 0.00000E+00
 -1        23 0.00000E+00
 -1        24 0.00000E+00
 -1        25 0.00000E+00
 -1        26 0.00000E+00
 -1        27 0.00000E+00
 -1        28 0.00000E+00
 -1        29 0.00000E+00
 -1        30 0.00000E+00
 -1        31 0.00000E+00
 -1        32 0.00000E+00
 -1        33 0.00000E+00
 -1        34 0.00000E+00
 -1        35 0.00000E+00
 -1        36 0.00000E+00
 -1        37 0.00000E+00
 -1        38 0.00000E+00
 -1        39 0.00000E+00
 -1        40 0.00000E+00
 -1        41 0.00000E+00
 -1        42 0.00000E+00
 -1        43 0.00000E+00
 -1        44 0.00000E+00
 -1        45 0.00000E+00
 -1        46 0.00000E+00
 -1        47 0.00000E+00
 -1        48 0.00000E+00
 -1        49 0.00000E+00
 -1        50 0.00000E+00
 -1        51 0.00000E+00
 -1        52 0.00000E+00
 -1        53 0.00000E+00
 -1        54 0.00000E+00
 -1        55 0.00000E+00
 -1        56 0.00000E+00
 -1        57 0.00000E+00
 -1        58 0.00000E+00
 -1        59 0.00000E+00
 -1        60 0.00000E+00
 -1        61 0.00000E+00
 -1        62 0.00000E+00
 -1        63 0.00000E+00
 -1        64 0.00000E+00
 -1        65 0.00000E+00
 -1        66 0.00000E+00
 -1        67 0.00000E+00
 -1        68 0.00000E+00
 -1        69 0.00000E+00
 -1        70 0.00000E+00
 -1        71 0.00000E+00
 -1        72 0.00000E+00
 -1        73 0.00000E+00
 -1        74 0.00000E+00
 -1        75 0.00000E+00
 -1        76 0.00000E+00
 -1        77 0.00000E+00
 -1        78 0.00000E+00
 -1        79 0.00000E+00
 -1        80 0.00000E+00
 -1        81 0.00000E+00
 -1        82 0.00000E+00
 -1        83 0.00000E+00
 -1        84 0.00000E+00
 -1        85 0.00000E+00
 -1        86 0.00000E+00
 -1        87 0.00000E+00
 -1        88 0.00000E+00
 -1        89 0.00000E+00
 -1        90 0.00000E+00
 -1        91 0.00000E+00
 -1        92 0.00000E+00
 -1        93 0.00000E+00
 -1        94 0.00000E+00
 -1        95 0.00000E+00
 -1        96 0.00000E+00
 -1        97 0.00000E+00
 -1        98 0.00000E+00
 -1        99 0.00000E+00
 -1       100 0.00000E+00
 -1       101 0.00000E+00
 -1       102 0.00000E+00
 -1       103 0.00000E+00
 -1       104 0.00000E+00
 -1       105 0.00000E+00
 -1       106 0.00000E+00
 -1       107 0.00000E+00
 -1       108 0.00000E+00
 -1       109 0.00000E+00
 -1       110 0.00000E+00
 -1       111 0.00000E+00
 -1       112 0.00000E+00
 -1       113 0.00000E+00
 -1       114 0.00000E+00
 -1       115 0.00000E+00
 -1       116 0.00000E+00
 -1       117 0.00000E+00
 -1       118 0.00000E+00
 -1       119 0.00000E+00
 -1       120 0.00000E+00
 -1       121 0.00000E+00
 -1       122 0.00000E+00
 -1       123 0.00000E+00
 -1       124 0.00000E+00
 -1       125 0.00000E+00
 -1       126 0.00000E+00
 -1       127 0.00000E+00
 -1       128 0.00000E+00
 -1       129 0.00000E+00
 -1       130 0.00000E+00
 -1       131 0.00000E+00
 -1       132 0.00000E+00
 -1       133 0.00000E+00
 -1       134 0.00000E+00
 -1       135 0.00000E+00
 -1       136 0.00000E+00
 -1       137 0.00000E+00
 -1       138 0.00000E+00
 -1       139 0.00000E+00
 -1       140 0.00000E+00
 -1       141 0.00000E+00
 -1       142 0.00000E+00
 -1       143 0.00000E+00
 -1       144 0.00000E+00
 -1       145 0.00000E+00
 -1       146 0.00000E+00
 -1       147 0.00000E+00
 -1       148 0.00000E+00
 -1       149 0.00000E+00
 -1       150 0.00000E+00
 -1       151 0.00000E+00
 -1       152 0.00000E+00
 -1       153 0.00000E+00
 -1       154 0.00000E+00
 -1       155 0.00000E+00
 -1       156 0.00000E+00
 -1       157 0.00000E+00
 -1       158 0.00000E+00
 -1       159 0.00000E+00
 -1       160 0.00000E+00
 -1       161 0.00000E+00
 -1       162 0.00000E+00
 -1       163 0.00000E+00
 -1       164 0.00000E+00
 -1       165 0.00000E+00
 -1       166 0.00000E+00
 -1       167 0.00000E+00
 -1       168 0.00000E+00
 -1       169 0.00000E+00
 -1       170 0.00000E+00
 -1       171 0.00000E+00
 -1       172 0.00000E+00
 -1       173 0.00000E+00
 -1       174 0.00000E+00
 -1       175 0.00000E+00
 -1       176 0.00000E+00
 -1       177 0.00000E+00
 -1       178 0.00000E+00
 -1       179 0.00000E+00
 -1       180 0.00000E+00
 -1       181 0.00000E+00
 -1       182 0.00000E+00
 -1       183 0.00000E+00
 -1       184 0.00000E+00
 -1       185 0.00000E+00
 -1       186 0.00000E+00
 -1       187 0.00000E+00
 -1       188 0.00000E+00
 -1       189 0.00000E+00
 -1       190 0.00000E+00
 -1       191 0.00000E+00
 -1       192 0.00000E+00
 -1       193 0.00000E+00
 -1       194 0.00000E+00
 -1       195 0.00000E+00
 -1       196 0.00000E+00
 -1       197 0.00000E+00
 -1       198 0.00000E+00
 -1       199 0.00000E+00
 -1       200 0.00000E+00
 -1       201 0.00000E+00
 -1       202 0.00000E+00
 -1       203 0.00000E+00
 -1       204 0.00000E+00
 -1       205 0.00000E+00
 -1       206 0.00000E+00
 -1       207 0.00000E+00
 -1       208 0.00000E+00
 -1       209 0.00000E+00
 -1       210 0.00000E+00
 -1       211 0.00000E+00
 -1       212 0.00000E+00
 -1       213 0.00000E+00
 -1       214 0.00000E+00
 -1       215 0.00000E+00
 -1       216 0.00000E+00
 -1       217 0.00000E+00
 -1       218 0.00000E+00
 -1       219 0.00000E+00
 -1       220 0.00000E+00
 -1       221 0.00000E+00
 -1       222 0.00000E+00
 -1       223 0.00000E+00
 -1       224 0.00000E+00
 -1       225 0.00000E+00
 -1       226 0.00000E+00
 -1       227 0.00000E+00
 -1       228 0.00000E+00
 -1       229 0.00000E+00
 -1       230 0.00000E+00
 -1       231 0.00000E+00
 -1       232 0.00000E+00
 -1       233 0.00000E+00
 -1       234 0.00000E+00
 -1       235 0.00000E+00
 -1       236 0.00000E+00
 -1       237 0.00000E+00
 -1       238 0.00000E+00
 -1       239 0.00000E+00
 -1       240 0.00000E+00
 -1       241 0.00000E+00
 -1       242 0.00000E+00
 -1       243 0.00000E+00
 -1       244 0.00000E+00
 -1       245 0.00000E+00
 -1       246 0.00000E+00
 -1       247 0.00000E+00
 -1       248 0.00000E+00
 -1       249 0.00000E+00
 -1       250 0.00000E+00
 -1       251 0.00000E+00
 -1       252 0.00000E+00
 -1       253 0.00000E+00
 -1       254 0.00000E+00
 -1       255 0.00000E+00
 -1       256 0.00000E+00
 -1       257 0.00000E+00
 -1       258 0.00000E+00
 -1       259 0.00000E+00
 -1       260 0.00000E+00
 -1       261 0.00000E+00
 -1       262 0.00000E+00
 -1       263 0.00000E+00
 -1       264 0.00000E+00
 -1       265 0.00000E+00
 -1       266 0.00000E+00
 -1       267 0.00000E+00
 -1       268 0.00000E+00
 -1       269 0.00000E+00
 -1       270 0.00000E+00
 -1       271 0.00000E+00
 -1       272 0.00000E+00
 -1       273 0.00000E+00
 -1       274 0.00000E+00
 -1       275 0.00000E+00
 -1       276 0.00000E+00
 -1       277 0.00000E+00
 -1       278 0.00000E+00
 -1       279 0.00000E+00
 -1       280 0.00000E+00
 -1       281 0.00000E+00
 -1       282 0.00000E+00
 -1       283 0.00000E+00
 -1       284 0.00000E+00
 -1       285 0.00000E+00
 -1       286 0.00000E+00
 -1       287 0.00000E+00
 -1       288 0.00000E+00
 -1       289 0.00000E+00
 -1       290 0.00000E+00
 -1       291 0.00000E+00
 -1       292 0.00000E+00
 -1       293 0.00000E+00
 -1       294 0.00000E+00
 -1       295 0.00000E+00
 -1       296 0.00000E+00
 -1       297 0.00000E+00
 -1       298 0.00000E+00
 -1       299 0.00000E+00
 -1       300 0.00000E+00
 -1       301 0.00000E+00
 -1       302 0.00000E+00
 -1       303 0.00000E+00
 -1       304 0.00000E+00
 -1       305 0.00000E+00
 -1       306 0.00000E+00
 -1       307 0.00000E+00
 -1       308 0.00000E+00
 -1       309 0.00000E+00
 -1       310 0.00000E+00
 -1       311 0.00000E+00
 -1       312 0.00000E+00
 -1       313 0.00000E+00
 -1       314 0.00000E+00
 -1       315 0.00000E+00
 -1       316 0.00000E+00
 -1       317 0.00000E+00
 -1       318 0.00000E+00
 -1       319 0.00000E+00
 -1       320 0.00000E+00
 -1       321 0.00000E+00
 -1       322 0.00000E+00
 -1       323 0.00000E+00
 -1       324 0.00000E+00
 -1       325 0.00000E+00
 -1       326 0.00000E+00
 -1       327 0.00000E+00
 -1       328 0.00000E+00
 -1       329 0.00000E+00
 -1       330 0.00000E+00
 -1       331 0.00000E+00
 -1       332 0.00000E+00
 -1       333 0.00000E+00
 -1       334 0.00000E+00
 -1       335 0.00000E+00
 -1       336 0.00000E+00
 -1       337 0.00000E+00
 -1       338 0.00000E+00
 -1       339 0.00000E+00
 -1       340 0.00000E+00
 -1       341 0.00000E+00
 -1       342 0.00000E+00
 -1       343 0.00000E+00
 -1       344 0.00000E+00
 -1       345 0.00000E+00
 -1       346 0.00000E+00
 -1       347 0.00000E+00
 -1       348 0.00000E+00
 -1       349 0.00000E+00
 -1       350 0.00000E+00
 -1       351 0.00000E+00
 -1       352 0.00000E+00
 -1       353 0.00000E+00
 -1       354 0.00000E+00
 -1       355 0.00000E+00
 -1       356 0.00000E+00
 -1       357 0.00000E+00
 -1       358 0.00000E+00
 -1       359 0.00000E+00
 -1       360 0.00000E+00
 -1       361 0.00000E+00
 -1       362 0.00000E+00
 -1       363 0.00000E+00
 -1       364 0.00000E+00
 -1       365 0.00000E+00
 -1       366 0.00000E+00
 -1       367 0.00000E+00
 -1       368 0.00000E+00
 -1       369 0.00000E+00
 -1       370 0.00000E+00
 -1       371 0.00000E+00
 -1       372 0.00000E+00
 -1       373 0.00000E+00
 -1       374 0.00000E+00
 -1       375 0.00000E+00
 -1       376 0.00000E+00
 -1       377 0.00000E+00
 -1       378 0.00000E+00
 -1       379 0.00000E+00
 -1       380 0.00000E+00
 -1       381 0.00000E+00
 -1       382 0.00000E+00
 -1       383 0.00000E+00
 -1       384 0.00000E+00
 -1       385 0.00000E+00
 -1       386 0.00000E+00
 -1       387 0.00000E+00
 -1       388 0.00000E+00
 -1       389 0.00000E+00
 -1       390 0.00000E+00
 -1       391 0.00000E+00
 -1       392 0.00000E+00
 -1       393 0.00000E+00
 -1       394 0.00000E+00
 -1       395 0.00000E+00
 -1       396 0.00000E+00
 -1       397 0.00000E+00
 -1       398 0.00000E+00
 -1       399 0.00000E+00
 -1       400 0.00000E+00
 -1       401 0.00000E+00
 -1       402 0.00000E+00
 -1       403 0.00000E+00
 -1       404 0.00000E+00
 -1       405 0.00000E+00
 -1       406 0.00000E+00
 -1       407 0.00000E+00
 -1       408 0.00000E+00
 -1       409 0.00000E+00
 -1       410 0.00000E+00
 -1       411 0.00000E+00
 -1       412 0.00000E+00
 -1       413 0.00000E+00
 -1       414 0.00000E+00
 -1       415 0.00000E+00
 -1       416 0.00000E+00
 -1       417 0.00000E+00
 -1       418 0.00000E+00
 -1       419 0.00000E+00
 -1       420 0.00000E+00
 -1       421 0.00000E+00
 -1       422 0.00000E+00
 -1       423 0.00000E+00
 -1       424 0.00000E+00
 -1       425 0.00000E+00
 -1       426 0.00000E+00
 -1       427 0.00000E+00
 -1       428 0.00000E+00
 -1       429 0.00000E+00
 -1       430 0.00000E+00
 -1       431 0.00000E+00
 -1       432 0.00000E+00
 -1       433 0.00000E+00
 -1       434 0.00000E+00
 -1       435 0.00000E+00
 -1       436 0.00000E+00
 -1       437 0.00000E+00
 -1       438 0.00000E+00
 -1       439 0.00000E+00
 -1       440 0.00000E+00
 -1       441 0.00000E+00
 -1       442 0.00000E+00
 -1       443 0.00000E+00
 -1       444 0.00000E+00
 -1       445 0.00000E+00
 -1       446 0.00000E+00
 -1       447 0.00000E+00
 -1       448 0.00000E+00
 -1       449 0.00000E+00
 -1       450 0.00000E+00
 -1       451 0.00000E+00
 -1       452 0.00000E+00
 -1       453 0.00000E+00
 -1       454 0.00000E+00
 -1       455 0.00000E+00
 -1       456 0.00000E+00
 -1       457 0.00000E+00
 -1       458 0.00000E+00
 -1       459 0.00000E+00
 -1       460 0.00000E+00
 -1       461 0.00000E+00
 -1       462 0.00000E+00
 -1       463 0.00000E+00
 -1       464 0.00000E+00
 -1       465 0.00000E+00
 -1       466 0.00000E+00
 -1       467 0.00000E+00
 -1       468 0.00000E+00
 -1       469 0.00000E+00
 -1       470 0.00000E+00
 -1       471 0.00000E+00
 -1       472 0.00000E+00
 -1       473 0.00000E+00
 -1       474 0.00000E+00
 -1       475 0.00000E+00
 -1       476 0.00000E+00
 -1       477 0.00000E+00
 -1       478 0.00000E+00
 -1       479 0.00000E+00
 -1       480 0.00000E+00
 -1       481 0.00000E+00
 -1       482 0.00000E+00
 -1       483 0.00000E+00
 -1       484 0.00000E+00
 -1       485 0.00000E+00
 -1       486 0.00000E+00
 -1       487 0.00000E+00
 -1       488 0.00000E+00
 -1       489 0.00000E+00
 -1       490 0.00000E+00
 -1       491 0.00000E+00
 -1       492 0.00000E+00
 -1       493 0.00000E+00
 -1       494 0.00000E+00
 -1       495 0.00000E+00
 -1       496 0.00000E+00
 -1       497 0.00000E+00
 -1       498 0.00000E+00
 -1       499 0.00000E+00
 -1       500 0.00000E+00
 -1       501 0.00000E+00
 -1       502 0.00000E+00
 -1       503 0.00000E+00
 -1       504 0.00000E+00
 -1       505 0.00000E+00
 -1       506 0.00000E+00
 -1       507 0.00000E+00
 -1       508 0.00000E+00
 -1       509 0.00000E+00
 -1       510 0.00000E+00
 -1       511 0.00000E+00
 -1       512 0.00000E+00
 -1       513 0.00000E+00
 -1       514 0.00000E+00
 -1       515 0.00000E+00
 -1       516 0.00000E+00
 -1       517 0.00000E+00
 -1       518 0.00000E+00
 -1       519 0.00000E+00
 -1       520 0.00000E+00
 -1       521 0.00000E+00
 -1       522 0.00000E+00
 -1       523 0.00000E+00
 -1       524 0.00000E+00
 -1       525 0.00000E+00
 -1       526 0.00000E+00
 -1       527 0.00000E+00
 -1       528 0.00000E+00
 -1       529 0.00000E+00
 -1       530 0.00000E+00
 -1       531 0.00000E+00
 -1       532 0.00000E+00
 -1       533 0.00000E+00
 -1       534 0.00000E+00
 -1       535 0.00000E+00
 -1       536 0.00000E+00
 -1       537 0.00000E+00
 -1       538 0.00000E+00
 -1       539 0.00000E+00
 -1       540 0.00000E+00
 -1       541 0.00000E+00
 -1       542 0.00000E+00
 -1       543 0.00000E+00
 -1       544 0.00000E+00
 -1       545 0.00000E+00
 -1       546 0.00000E+00
 -1       547 0.00000E+00
 -1       548 0.00000E+00
 -1       549 0.00000E+00
 -1       550 0.00000E+00
 -1       551 0.00000E+00
 -1       552 0.00000E+00
 -1       553 0.00000E+00
 -1       554 0.00000E+00
 -1       555 0.00000E+00
 -1       556 0.00000E+00
 -1       557 0.00000E+00
 -1       558 0.00000E+00
 -1       559 0.00000E+00
 -1       560 0.00000E+00
 -1       561 0.00000E+00
 -1       562 0.00000E+00
 -1       563 0.00000E+00
 -1       564 0.00000E+00
 -1       565 0.00000E+00
 -1       566 0.00000E+00
 -1       567 0.00000E+00
 -1       568 0.00000E+00
 -1       569 0.00000E+00
 -1       570 0.00000E+00
 -1       571 0.00000E+00
 -1       572 0.00000E+00
 -1       573 0.00000E+00
 -1       574 0.00000E+00
 -1       575 0.00000E+00
 -1       576 0.00000E+00
 -1       577 0.00000E+00
 -1       578 0.00000E+00
 -1       579 0.00000E+00
 -1       580 0.00000E+00
 -1       581 0.00000E+00
 -1       582 0.00000E+00
 -1       583 0.00000E+00
 -1       584 0.00000E+00
 -1       585 0.00000E+00
 -1       586 0.00000E+00
 -1       587 0.00000E+00
 -1       588 0.00000E+00
 -1       589 0.00000E+00
 -1       590 0.00000E+00
 -1       591 0.00000E+00
 -1       592 0.00000E+00
 -1       593 0.00000E+00
 -1       594 0.00000E+00
 -1       595 0.00000E+00
 -1       596 0.00000E+00
 -1       597 0.00000E+00
 -1       598 0.00000E+00
 -1       599 0.00000E+00
 -1       600 0.00000E+00
 -1       601 0.00000E+00
 -1       602 0.00000E+00
 -1       603 0.00000E+00
 -1       604 0.00000E+00
 -1       605 0.00000E+00
 -1       606 0.00000E+00
 -1       607 0.00000E+00
 -1       608 0.00000E+00
 -1       609 0.00000E+00
 -1       610 0.00000E+00
 -1       611 0.00000E+00
 -1       612 0.00000E+00
 -1       613 0.00000E+00
 -1       614 0.00000E+00
 -1       615 0.00000E+00
 -1       616 0.00000E+00
 -1       617 0.00000E+00
 -1       618 0.00000E+00
 -1       619 0.00000E+00
 -1       620 0.00000E+00
 -1       621 0.00000E+00
 -1       622 0.00000E+00
 -1       623 0.00000E+00
 -1       624 0.00000E+00
 -1       625 0.00000E+00
 -1       626 0.00000E+00
 -1       627 0.00000E+00
 -1       628 0.00000E+00
 -1       629 0.00000E+00
 -1       630 0.00000E+00
 -1       631 0.00000E+00
 -1       632 0.00000E+00
 -1       633 0.00000E+00
 -1       634 0.00000E+00
 -1       635 0.00000E+00
 -1       636 0.00000E+00
 -1       637 0.00000E+00
 -1       638 0.00000E+00
 -1       639 0.00000E+00
 -1       640 0.00000E+00
 -1       641 0.00000E+00
 -1       642 0.00000E+00
 -1       643 0.00000E+00
 -1       644 0.00000E+00
 -1       645 0.00000E+00
 -1       646 0.00000E+00
 -1       647 0.00000E+00
 -1       648 0.00000E+00
 -1       649 0.00000E+00
 -1       650 0.00000E+00
 -1       651 0.00000E+00
 -1       652 0.00000E+00
 -1       653 0.00000E+00
 -1       654 0.00000E+00
 -1       655 0.00000E+00
 -1       656 0.00000E+00
 -1       657 0.00000E+00
 -1       658 0.00000E+00
 -1       659 0.00000E+00
 -1       660 0.00000E+00
 -1       661 0.00000E+00
 -1       662 0.00000E+00
 -1       663 0.00000E+00
 -1       664 0.00000E+00
 -1       665 0.00000E+00
 -1       666 0.00000E+00
 -1       667 0.00000E+00
 -1       668 0.00000E+00
 -1       669 0.00000E+00
 -1       670 0.00000E+00
 -1       671 0.00000E+00
 -1       672 0.00000E+00
 -1       673 0.00000E+00
 -1       674 0.00000E+00
 -1       675 0.00000E+00
 -1       676 0.00000E+00
 -1       677 0.00000E+00
 -1       678 0.00000E+00
 -1       679 0.00000E+00
 -1       680 0.00000E+00
 -1       681 0.00000E+00
 -1       682 0.00000E+00
 -1       683 0.00000E+00
 -1       684 0.00000E+00
 -1       685 0.00000E+00
 -1       686 0.00000E+00
 -1       687 0.00000E+00
 -1       688 0.00000E+00
 -1       689 0.00000E+00
 -1       690 0.00000E+00
 -1       691 0.00000E+00
 -1       692 0.00000E+00
 -1       693 0.00000E+00
 -1       694 0.00000E+00
 -1       695 0.00000E+00
 -1       696 0.00000E+00
 -1       697 0.00000E+00
 -1       698 0.00000E+00
 -1       699 0.00000E+00
 -1       700 0.00000E+00
 -1       701 0.00000E+00
 -1       702 0.00000E+00
 -1       703 0.00000E+00
 -1       704 0.00000E+00
 -1       705 0.00000E+00
 -1       706 0.00000E+00
 -1       707 0.00000E+00
 -1       708 0.00000E+00
 -1       709 0.00000E+00
 -1       710 0.00000E+00
 -1       711 0.00000E+00
 -1       712 0.00000E+00
 -1       713 0.00000E+00
 -1       714 0.00000E+00
 -1       715 0.00000E+00
 -1       716 0.00000E+00
 -1       717 0.00000E+00
 -1       718 0.00000E+00
 -1       719 0.00000E+00
 -1       720 0.00000E+00
 -1       721 0.00000E+00
 -1       722 0.00000E+00
 -1       723 0.00000E+00
 -1       724 0.00000E+00
 -1       725 0.00000E+00
 -1       726 0.00000E+00
 -1       727 0.00000E+00
 -1       728 0.00000E+00
 -1       729 0.00000E+00
 -1       730 0.00000E+00
 -1       731 0.00000E+00
 -1       732 0.00000E+00
 -1       733 0.00000E+00
 -1       734 0.00000E+00
 -1       735 0.00000E+00
 -1       736 0.00000E+00
 -1       737 0.00000E+00
 -1       738 0.00000E+00
 -1       739 0.00000E+00
 -1       740 0.00000E+00
 -1       741 0.00000E+00
 -1       742 0.00000E+00
 -1       743 0.00000E+00
 -1       744 0.00000E+00
 -1       745 0.00000E+00
 -1       746 0.00000E+00
 -1       747 0.00000E+00
 -1       748 0.00000E+00
 -1       749 0.00000E+00
 -1       750 0.00000E+00
 -1       751 0.00000E+00
 -1       752 0.00000E+00
 -1       753 0.00000E+00
 -1       754 0.00000E+00
 -1       755 0.00000E+00
 -1       756 0.00000E+00
 -1       757 0.00000E+00
 -1       758 0.00000E+00
 -1       759 0.00000E+00
 -1       760 0.00000E+00
 -1       761 0.00000E+00
 -1       762 0.00000E+00
 -1       763 0.00000E+00
 -1       764 0.00000E+00
 -1       765 0.00000E+00
 -1       766 0.00000E+00
 -1       767 0.00000E+00
 -1       768 0.00000E+00
 -1       769 0.00000E+00
 -1       770 0.00000E+00
 -1       771 0.00000E+00
 -1       772 0.00000E+00
 -1       773 0.00000E+00
 -1       774 0.00000E+00
 -1       775 0.00000E+00
 -1       776 0.00000E+00
 -1       777 0.00000E+00
 -1       778 0.00000E+00
 -1       779 0.00000E+00
 -1       780 0.00000E+00
 -1       781 0.00000E+00
 -1       782 0.00000E+00
 -1       783 0.00000E+00
 -1       784 0.00000E+00
 -1       785 0.00000E+00
 -1       786 0.00000E+00
 -1       787 0.00000E+00
 -1       788 0.00000E+00
 -1       789 0.00000E+00
 -1       790 0.00000E+00
 -1       791 0.00000E+00
 -1       792 0.00000E+00
 -1       793 0.00000E+00
 -1       794 0.00000E+00
 -1       795 0.00000E+00
 -1       796 0.00000E+00
 -1       797 0.00000E+00
 -1       798 0.00000E+00
 -1       799 0.00000E+00
 -1       800 0.00000E+00
 -1       801 0.00000E+00
 -1       802 0.00000E+00
 -1       803 0.00000E+00
 -1       804 0.00000E+00
 -1       805 0.00000E+00
 -1       806 0.00000E+00
 -1       807 0.00000E+00
 -1       808 0.00000E+00
 -1       809 0.00000E+00
 -1       810 0.00000E+00
 -1       811 0.00000E+00
 -1       812 0.00000E+00
 -1       813 0.00000E+00
 -1       814 0.00000E+00
 -1       815 0.00000E+00
 -1       816 0.00000E+00
 -1       817 0.00000E+00
 -1       818 0.00000E+00
 -1       819 0.00000E+00
 -1       820 0.00000E+00
 -1       821 0.00000E+00
 -1       822 0.00000E+00
 -1       823 0.00000E+00
 -1       824 0.00000E+00
 -1       825 0.00000E+00
 -1       826 0.00000E+00
 -1       827 0.00000E+00
 -1       828 0.00000E+00
 -1       829 0.00000E+00
 -1       830 0.00000E+00
 -1       831 0.00000E+00
 -1       832 0.00000E+00
 -1       833 0.00000E+00
 -1       834 0.00000E+00
 -1       835 0.00000E+00
 -1       836 0.00000E+00
 -1       837 0.00000E+00
 -1       838 0.00000E+00
 -1       839 0.00000E+00
 -1       840 0.00000E+00
 -1       841 0.00000E+00
 -1       842 0.00000E+00
 -1       843 0.00000E+00
 -1       844 0.00000E+00
 -1       845 0.00000E+00
 -1       846 0.00000E+00
 -1       847 0.00000E+00
 -1       848 0.00000E+00
 -1       849 0.00000E+00
 -1       850 0.00000E+00
 -1       851 0.00000E+00
 -1       852 0.00000E+00
 -1       853 0.00000E+00
 -1       854 0.00000E+00
 -1       855 0.00000E+00
 -1       856 0.00000E+00
 -1       857 0.00000E+00
 -1       858 0.00000E+00
 -1       859 0.00000E+00
 -1       860 0.00000E+00
 -1       861 0.00000E+00
 -1       862 0.00000E+00
 -1       863 0.00000E+00
 -1       864 0.00000E+00
 -1       865 0.00000E+00
 -1       866 0.00000E+00
 -1       867 0.00000E+00
 -1       868 0.00000E+00
 -1       869 0.00000E+00
 -1       870 0.00000E+00
 -1       871 0.00000E+00
 -1       872 0.00000E+00
 -1       873 0.00000E+00
 -1       874 0.00000E+00
 -1       875 0.00000E+00
 -1       876 0.00000E+00
 -1       877 0.00000E+00
 -1       878 0.00000E+00
 -1       879 0.00000E+00
 -1       880 0.00000E+00
 -1       881 0.00000E+00
 -1       882 0.00000E+00
 -1       883 0.00000E+00
 -1       884 0.00000E+00
 -1       885 0.00000E+00
 -1       886 0.00000E+00
 -1       887 0.00000E+00
 -1       888 0.00000E+00
 -1       889 0.00000E+00
 -1       890 0.00000E+00
 -1       891 0.00000E+00
 -1       892 0.00000E+00
 -1       893 0.00000E+00
 -1       894 0.00000E+00
 -1       895 0.00000E+00
 -1       896 0.00000E+00
 -1       897 0.00000E+00
 -1       898 0.00000E+00
 -1       899 0.00000E+00
 -1       900 0.00000E+00
 -1       901 0.00000E+00
 -1       902 0.00000E+00
 -1       903 0.00000E+00
 -1       904 0.00000E+00
 -1       905 0.00000E+00
 -1       906 0.00000E+00
 -1       907 0.00000E+00
 -1       908 0.00000E+00
 -1       909 0.00000E+00
 -1       910 0.00000E+00
 -1       911 0.00000E+00
 -1       912 0.00000E+00
 -1       913 0.00000E+00
 -1       914 0.00000E+00
 -1       915 0.00000E+00
 -1       916 0.00000E+00
 -1       917 0.00000E+00
 -1       918 0.00000E+00
 -1       919 0.00000E+00
 -1       920 0.00000E+00
 -1       921 0.00000E+00
 -1       922 0.00000E+00
 -1       923 0.00000E+00
 -1       924 0.00000E+00
 -1       925 0.00000E+00
 -1       926 0.00000E+00
 -1       927 0.00000E+00
 -1       928 0.00000E+00
 -1       929 0.00000E+00
 -1       930 0.00000E+00
 -1       931 0.00000E+00
 -1       932 0.00000E+00
 -1       933 0.00000E+00
 -1       934 0.00000E+00
 -1       935 0.00000E+00
 -1       936 0.00000E+00
 -1       937 0.00000E+00
 -1       938 0.00000E+00
 -1       939 0.00000E+00
 -1       940 0.00000E+00
 -1       941 0.00000E+00
 -1       942 0.00000E+00
 -1       943 0.00000E+00
 -1       944 0.00000E+00
 -1       945 0.00000E+00
 -1       946 0.00000E+00
 -1       947 0.00000E+00
 -1       948 0.00000E+00
 -1       949 0.00000E+00
 -1       950 0.00000E+00
 -1       951 0.00000E+00
 -1       952 0.00000E+00
 -1       953 0.00000E+00
 -1       954 0.00000E+00
 -1       955 0.00000E+00
 -1       956 0.00000E+00
 -1       957 0.00000E+00
 -1       958 0.00000E+00
 -1       959 0.00000E+00
 -1       960 0.00000E+00
 -1       961 0.00000E+00
 -1       962 0.00000E+00
 -1       963 0.00000E+00
 -1       964 0.00000E+00
 -1       965 0.00000E+00
 -1       966 0.00000E+00
 -1       967 0.00000E+00
 -1       968 0.00000E+00
 -1       969 0.00000E+00
 -1       970 0.00000E+00
 -1       971 0.00000E+00
 -1       972 0.00000E+00
 -1       973 0.00000E+00
 -1       974 0.00000E+00
 -1       975 0.00000E+00
 -1       976 0.00000E+00
 -1       977 0.00000E+00
 -1       978 0.00000E+00
 -1       979 0.00000E+00
 -1       980 0.00000E+00
 -1       981 0.00000E+00
 -1       982 0.00000E+00
 -1       983 0.00000E+00
 -1       984 0.00000E+00
 -1       985 0.00000E+00
 -1       986 0.00000E+00
 -1       987 0.00000E+00
 -1       988 0.00000E+00
 -1       989 0.00000E+00
 -1       990 0.00000E+00
 -1       991 0.00000E+00
 -1       992 0.00000E+00
 -1       993 0.00000E+00
 -1       994 0.00000E+00
 -1       995 0.00000E+00
 -1       996 0.00000E+00
 -1       997 0.00000E+00
 -1       998 0.00000E+00
 -1       999 0.00000E+00
 -1      1000 0.00000E+00
 -1      1001 0.00000E+00
 -1      1002 0.00000E+00
 -1      1003 0.00000E+00
 -1      1004 0.00000E+00
 -1      1005 0.00000E+00
 -1      1006 0.00000E+00
 -1      1007 0.00000E+00
 -1      1008 0.00000E+00
 -1      1009 0.00000E+00
 -1      1010 0.00000E+00
 -1      1011 0.00000E+00
 -1      1012 0.00000E+00
 -1      1013 0.00000E+00
 -1      1014 0.00000E+00
 -1      1015 0.00000E+00
 -1      1016 0.00000E+00
 -1      1017 0.00000E+00
 -1      1018 0.00000E+00
 -1      1019 0.00000E+00
 -1      1020 0.00000E+00
 -1      1021 0.00000E+00
 -1      1022 0.00000E+00
 -1      1023 0.00000E+00
 -1      1024 0.00000E+00
 -1      1025 0.00000E+00
 -1      1026 0.00000E+00
 -1      1027 0.00000E+00
 -1      1028 0.00000E+00
 -1      1029 0.00000E+00
 -1      1030 0.00000E+00
 -1      1031 0.00000E+00
 -1      1032 0.00000E+00
 -1      1033 0.00000E+00
 -1      1034 0.00000E+00
 -1      1035 0.00000E+00
 -1      1036 0.00000E+00
 -1      1037 0.00000E+00
 -1      1038 0.00000E+00
 -1      1039 0.00000E+00
 -1      1040 0.00000E+00
 -1      1041 0.00000E+00
 -1      1042 0.00000E+00
 -1      1043 0.00000E+00
 -1      1044 0.00000E+00
 -1      1045 0.00000E+00
 -1      1046 0.00000E+00
 -1      1047 0.00000E+00
 -1      1048 0.00000E+00
 -1      1049 0.00000E+00
 -1      1050 0.00000E+00
 -1      1051 0.00000E+00
 -1      1052 0.00000E+00
 -1      1053 0.00000E+00
 -1      1054 0.00000E+00
 -1      1055 0.00000E+00
 -1      1056 0.00000E+00
 -1      1057 0.00000E+00
 -1      1058 0.00000E+00
 -1      1059 0.00000E+00
 -1      1060 0.00000E+00
 -1      1061 0.00000E+00
 -1      1062 0.00000E+00
 -1      1063 0.00000E+00
 -1      1064 0.00000E+00
 -1      1065 0.00000E+00
 -1      1066 0.00000E+00
 -1      1067 0.00000E+00
 -1      1068 0.00000E+00
 -1      1069 0.00000E+00
 -1      1070 0.00000E+00
 -1      1071 0.00000E+00
 -1      1072 0.00000E+00
 -1      1073 0.00000E+00
 -1      1074 0.00000E+00
 -1      1075 0.00000E+00
 -1      1076 0.00000E+00
 -1      1077 0.00000E+00
 -1      1078 0.00000E+00
 -1      1079 0.00000E+00
 -1      1080 0.00000E+00
 -1      1081 0.00000E+00
 -1      1082 0.00000E+00
 -1      1083 0.00000E+00
 -1      1084 0.00000E+00
 -1      1085 0.00000E+00
 -1      1086 0.00000E+00
 -1      1087 0.00000E+00
 -1      1088 0.00000E+00
 -1      1089 0.00000E+00
 -1      1090 0.00000E+00
 -1      1091 0.00000E+00
 -1      1092 0.00000E+00
 -1      1093 0.00000E+00
 -1      1094 0.00000E+00
 -1      1095 0.00000E+00
 -1      1096 0.00000E+00
 -1      1097 0.00000E+00
 -1      1098 0.00000E+00
 -1      1099 0.00000E+00
 -1      1100 0.00000E+00
 -1      1101 0.00000E+00
 -1      1102 0.00000E+00
 -1      1103 0.00000E+00
 -1      1104 0.00000E+00
 -1      1105 0.00000E+00
 -1      1106 0.00000E+00
 -1      1107 0.00000E+00
 -1      1108 0.00000E+00
 -1      1109 0.00000E+00
 -1      1110 0.00000E+00
 -1      1111 0.00000E+00
 -1      1112 0.00000E+00
 -1      1113 0.00000E+00
 -1      1114 0.00000E+00
 -1      1115 0.00000E+00
 -1      1116 0.00000E+00
 -1      1117 0.00000E+00
 -1      1118 0.00000E+00
 -1      1119 0.00000E+00
 -1      1120 0.00000E+00
 -1      1121 0.00000E+00
 -1      1122 0.00000E+00
 -1      1123 0.00000E+00
 -1      1124 0.00000E+00
 -1      1125 0.00000E+00
 -1      1126 0.00000E+00
 -1      1127 0.00000E+00
 -1      1128 0.00000E+00
 -1      1129 0.00000E+00
 -1      1130 0.00000E+00
 -1      1131 0.00000E+00
 -1      1132 0.00000E+00
 -1      1133 0.00000E+00
 -1      1134 0.00000E+00
 -1      1135 0.00000E+00
 -1      1136 0.00000E+00
 -1      1137 0.00000E+00
 -1      1138 0.00000E+00
 -1      1139 0.00000E+00
 -1      1140 0.00000E+00
 -1      1141 0.00000E+00
 -1      1142 0.00000E+00
 -1      1143 0.00000E+00
 -1      1144 0.00000E+00
 -1      1145 0.00000E+00
 -1      1146 0.00000E+00
 -1      1147 0.00000E+00
 -1      1148 0.00000E+00
 -1      1149 0.00000E+00
 -1      1150 0.00000E+00
 -1      1151 0.00000E+00
 -1      1152 0.00000E+00
 -1      1153 0.00000E+00
 -1      1154 0.00000E+00
 -1      1155 0.00000E+00
 -1      1156 0.00000E+00
 -1      1157 0.00000E+00
 -1      1158 0.00000E+00
 -1      1159 0.00000E+00
 -1      1160 0.00000E+00
 -1      1161 0.00000E+00
 -1      1162 0.00000E+00
 -1      1163 0.00000E+00
 -1      1164 0.00000E+00
 -1      1165 0.00000E+00
 -1      1166 0.00000E+00
 -1      1167 0.00000E+00
 -1      1168 0.00000E+00
 -1      1169 0.00000E+00
 -1      1170 0.00000E+00
 -1      1171 0.00000E+00
 -1      1172 0.00000E+00
 -1      1173 0.00000E+00
 -1      1174 0.00000E+00
 -1      1175 0.00000E+00
 -1      1176 0.00000E+00
 -1      1177 0.00000E+00
 -1      1178 0.00000E+00
 -1      1179 0.00000E+00
 -1      1180 0.00000E+00
 -1      1181 0.00000E+00
 -1      1182 0.00000E+00
 -1      1183 0.00000E+00
 -1      1184 0.00000E+00
 -1      1185 0.00000E+00
 -1      1186 0.00000E+00
 -1      1187 0.00000E+00
 -1      1188 0.00000E+00
 -1      1189 0.00000E+00
 -1      1190 0.00000E+00
 -1      1191 0.00000E+00
 -1      1192 0.00000E+00
 -1      1193 0.00000E+00
 -1      1194 0.00000E+00
 -1      1195 0.00000E+00
 -1      1196 0.00000E+00
 -1      1197 0.00000E+00
 -1      1198 0.00000E+00
 -1      1199 0.00000E+00
 -1      1200 0.00000E+00
 -1      1201 0.00000E+00
 -1      1202 0.00000E+00
 -1      1203 0.00000E+00
 -1      1204 0.00000E+00
 -1      1205 0.00000E+00
 -1      1206 0.00000E+00
 -1      1207 0.00000E+00
 -1      1208 0.00000E+00
 -1      1209 0.00000E+00
 -1      1210 0.00000E+00
 -1      1211 0.00000E+00
 -1      1212 0.00000E+00
 -1      1213 0.00000E+00
 -1      1214 0.00000E+00
 -1      1215 0.00000E+00
 -1      1216 0.00000E+00
 -1      1217 0.00000E+00
 -1      1218 0.00000E+00
 -1      1219 0.00000E+00
 -1      1220 0.00000E+00
 -1      1221 0.00000E+00
 -1      1222 0.00000E+00
 -1      1223 0.00000E+00
 -1      1224 0.00000E+00
 -1      1225 0.00000E+00
 -1      1226 0.00000E+00
 -1      1227 0.00000E+00
 -1      1228 0.00000E+00
 -1      1229 0.00000E+00
 -1      1230 0.00000E+00
 -1      1231 0.00000E+00
 -1      1232 0.00000E+00
 -1      1233 0.00000E+00
 -1      1234 0.00000E+00
 -1      1235 0.00000E+00
 -1      1236 0.00000E+00
 -1      1237 0.00000E+00
 -1      1238 0.00000E+00
 -1      1239 0.00000E+00
 -1      1240 0.00000E+00
 -1      1241 0.00000E+00
 -1      1242 0.00000E+00
 -1      1243 0.00000E+00
 -1      1244 0.00000E+00
 -1      1245 0.00000E+00
 -1      1246 0.00000E+00
 -1      1247 0.00000E+00
 -1      1248 0.00000E+00
 -1      1249 0.00000E+00
 -1      1250 0.00000E+00
 -1      1251 0.00000E+00
 -1      1252 0.00000E+00
 -1      1253 0.00000E+00
 -1      1254 0.00000E+00
 -1      1255 0.00000E+00
 -1      1256 0.00000E+00
 -1      1257 0.00000E+00
 -1      1258 0.00000E+00
 -1      1259 0.00000E+00
 -1      1260 0.00000E+00
 -1      1261 0.00000E+00
 -1      1262 0.00000E+00
 -1      1263 0.00000E+00
 -1      1264 0.00000E+00
 -1      1265 0.00000E+00
 -1      1266 0.00000E+00
 -1      1267 0.00000E+00
 -1      1268 0.00000E+00
 -1      1269 0.00000E+00
 -1      1270 0.00000E+00
 -1      1271 0.00000E+00
 -1      1272 0.00000E+00
 -1      1273 0.00000E+00
 -1      1274 0.00000E+00
 -1      1275 0.00000E+00
 -1      1276 0.00000E+00
 -1      1277 0.00000E+00
 -1      1278 0.00000E+00
 -1      1279 0.00000E+00
 -1      1280 0.00000E+00
 -1      1281 0.00000E+00
 -1      1282 0.00000E+00
 -1      1283 0.00000E+00
 -1      1284 0.00000E+00
 -1      1285 0.00000E+00
 -1      1286 0.00000E+00
 -1      1287 0.00000E+00
 -1      1288 0.00000E+00
 -1      1289 0.00000E+00
 -1      1290 0.00000E+00
 -1      1291 0.00000E+00
 -1      1292 0.00000E+00
 -1      1293 0.00000E+00
 -1      1294 0.00000E+00
 -1      1295 0.00000E+00
 -1      1296 0.00000E+00
 -1      1297 0.00000E+00
 -1      1298 0.00000E+00
 -1      1299 0.00000E+00
 -1      1300 0.00000E+00
 -1      1301 0.00000E+00
 -1      1302 0.00000E+00
 -1      1303 0.00000E+00
 -1      1304 0.00000E+00
 -1      1305 0.00000E+00
 -1      1306 0.00000E+00
 -1      1307 0.00000E+00
 -1      1308 0.00000E+00
 -1      1309 0.00000E+00
 -1      1310 0.00000E+00
 -1      1311 0.00000E+00
 -1      1312 0.00000E+00
 -1      1313 0.00000E+00
 -1      1314 0.00000E+00
 -1      1315 0.00000E+00
 -1      1316 0.00000E+00
 -1      1317 0.00000E+00
 -1      1318 0.00000E+00
 -1      1319 0.00000E+00
 -1      1320 0.00000E+00
 -1      1321 0.00000E+00
 -1      1322 0.00000E+00
 -1      1323 0.00000E+00
 -1      1324 0.00000E+00
 -1      1325 0.00000E+00
 -1      1326 0.00000E+00
 -1      1327 0.00000E+00
 -1      1328 0.00000E+00
 -1      1329 0.00000E+00
 -1      1330 0.00000E+00
 -1      1331 0.00000E+00
 -1      1332 0.00000E+00
 -1      1333 0.00000E+00
 -1      1334 0.00000E+00
 -1      1335 0.00000E+00
 -1      1336 0.00000E+00
 -1      1337 0.00000E+00
 -1      1338 0.00000E+00
 -1      1339 0.00000E+00
 -1      1340 0.00000E+00
 -1      1341 0.00000E+00
 -1      1342 0.00000E+00
 -1      1343 0.00000E+00
 -1      1344 0.00000E+00
 -1      1345 0.00000E+00
 -1      1346 0.00000E+00
 -1      1347 0.00000E+00
 -1      1348 0.00000E+00
 -1      1349 0.00000E+00
 -1      1350 0.00000E+00
 -1      1351 0.00000E+00
 -1      1352 0.00000E+00
 -1      1353 0.00000E+00
 -1      1354 0.00000E+00
 -1      1355 0.00000E+00
 -1      1356 0.00000E+00
 -1      1357 0.00000E+00
 -1      1358 0.00000E+00
 -1      1359 0.00000E+00
 -1      1360 0.00000E+00
 -1      1361 0.00000E+00
 -1      1362 0.00000E+00
 -1      1363 0.00000E+00
 -1      1364 0.00000E+00
 -1      1365 0.00000E+00
 -1      1366 0.00000E+00
 -1      1367 0.00000E+00
 -1      1368 0.00000E+00
 -1      1369 0.00000E+00
 -1      1370 0.00000E+00
 -1      1371 0.00000E+00
 -1      1372 0.00000E+00
 -1      1373 0.00000E+00
 -1      1374 0.00000E+00
 -1      1375 0.00000E+00
 -1      1376 0.00000E+00
 -1      1377 0.00000E+00
 -1      1378 0.00000E+00
 -1      1379 0.00000E+00
 -1      1380 0.00000E+00
 -1      1381 0.00000E+00
 -1      1382 0.00000E+00
 -1      1383 0.00000E+00
 -1      1384 0.00000E+00
 -1      1385 0.00000E+00
 -1      1386 0.00000E+00
 -1      1387 0.00000E+00
 -1      1388 0.00000E+00
 -1      1389 0.00000E+00
 -1      1390 0.00000E+00
 -1      1391 0.00000E+00
 -1      1392 0.00000E+00
 -1      1393 0.00000E+00
 -1      1394 0.00000E+00
 -1      1395 0.00000E+00
 -1      1396 0.00000E+00
 -1      1397 0.00000E+00
 -1      1398 0.00000E+00
 -1      1399 0.00000E+00
 -1      1400 0.00000E+00
 -1      1401 0.00000E+00
 -1      1402 0.00000E+00
 -1      1403 0.00000E+00
 -1      1404 0.00000E+00
 -1      1405 0.00000E+00
 -1      1406 0.00000E+00
 -1      1407 0.00000E+00
 -1      1408 0.00000E+00
 -1      1409 0.00000E+00
 -1      1410 0.00000E+00
 -1      1411 0.00000E+00
 -1      1412 0.00000E+00
 -1      1413 0.00000E+00
 -1      1414 0.00000E+00
 -1      1415 0.00000E+00
 -1      1416 0.00000E+00
 -1      1417 0.00000E+00
 -1      1418 0.00000E+00
 -1      1419 0.00000E+00
 -1      1420 0.00000E+00
 -1      1421 0.00000E+00
 -1      1422 0.00000E+00
 -1      1423 0.00000E+00
 -1      1424 0.00000E+00
 -1      1425 0.00000E+00
 -1      1426 0.00000E+00
 -1      1427 0.00000E+00
 -1      1428 0.00000E+00
 -1      1429 0.00000E+00
 -1      1430 0.00000E+00
 -1      1431 0.00000E+00
 -1      1432 0.00000E+00
 -1      1433 0.00000E+00
 -1      1434 0.00000E+00
 -1      1435 0.00000E+00
 -1      1436 0.00000E+00
 -1      1437 0.00000E+00
 -1      1438 0.00000E+00
 -1      1439 0.00000E+00
 -1      1440 0.00000E+00
 -1      1441 0.00000E+00
 -1      1442 0.00000E+00
 -1      1443 0.00000E+00
 -1      1444 0.00000E+00
 -1      1445 0.00000E+00
 -1      1446 0.00000E+00
 -1      1447 0.00000E+00
 -1      1448 0.00000E+00
 -1      1449 0.00000E+00
 -1      1450 0.00000E+00
 -1      1451 0.00000E+00
 -1      1452 0.00000E+00
 -1      1453 0.00000E+00
 -1      1454 0.00000E+00
 -1      1455 0.00000E+00
 -1      1456 0.00000E+00
 -1      1457 0.00000E+00
 -1      1458 0.00000E+00
 -1      1459 0.00000E+00
 -1      1460 0.00000E+00
 -1      1461 0.00000E+00
 -1      1462 0.00000E+00
 -1      1463 0.00000E+00
 -1      1464 0.00000E+00
 -1      1465 0.00000E+00
 -1      1466 0.00000E+00
 -1      1467 0.00000E+00
 -1      1468 0.00000E+00
 -1      1469 0.00000E+00
 -1      1470 0.00000E+00
 -1      1471 0.00000E+00
 -1      1472 0.00000E+00
 -1      1473 0.00000E+00
 -1      1474 0.00000E+00
 -1      1475 0.00000E+00
 -1      1476 0.00000E+00
 -1      1477 0.00000E+00
 -1      1478 0.00000E+00
 -1      1479 0.00000E+00
 -1      1480 0.00000E+00
 -1      1481 0.00000E+00
 -1      1482 0.00000E+00
 -1      1483 0.00000E+00
 -1      1484 0.00000E+00
 -1      1485 0.00000E+00
 -1      1486 0.00000E+00
 -1      1487 0.00000E+00
 -1      1488 0.00000E+00
 -1      1489 0.00000E+00
 -1      1490 0.00000E+00
 -1      1491 0.00000E+00
 -1      1492 0.00000E+00
 -1      1493 0.00000E+00
 -1      1494 0.00000E+00
 -1      1495 0.00000E+00
 -1      1496 0.00000E+00
 -1      1497 0.00000E+00
 -1      1498 0.00000E+00
 -1      1499 0.00000E+00
 -1      1500 0.00000E+00
 -1      1501 0.00000E+00
 -1      1502 0.00000E+00
 -1      1503 0.00000E+00
 -1      1504 0.00000E+00
 -1      1505 0.00000E+00
 -1      1506 0.00000E+00
 -1      1507 0.00000E+00
 -1      1508 0.00000E+00
 -1      1509 0.00000E+00
 -1      1510 0.00000E+00
 -1      1511 0.00000E+00
 -1      1512 0.00000E+00
 -1      1513 0.00000E+00
 -1      1514 0.00000E+00
 -1      1515 0.00000E+00
 -1      1516 0.00000E+00
 -1      1517 0.00000E+00
 -1      1518 0.00000E+00
 -1      1519 0.00000E+00
 -1      1520 0.00000E+00
 -1      1521 0.00000E+00
 -1      1522 0.00000E+00
 -1      1523 0.00000E+00
 -1      1524 0.00000E+00
 -1      1525 0.00000E+00
 -1      1526 0.00000E+00
 -1      1527 0.00000E+00
 -1      1528 0.00000E+00
 -1      1529 0.00000E+00
 -1      1530 0.00000E+00
 -1      1531 0.00000E+00
 -1      1532 0.00000E+00
 -1      1533 0.00000E+00
 -1      1534 0.00000E+00
 -1      1535 0.00000E+00
 -1      1536 0.00000E+00
 -1      1537 0.00000E+00
 -1      1538 0.00000E+00
 -1      1539 0.00000E+00
 -1      1540 0.00000E+00
 -1      1541 0.00000E+00
 -1      1542 0.00000E+00
 -1      1543 0.00000E+00
 -1      1544 0.00000E+00
 -1      1545 0.00000E+00
 -1      1546 0.00000E+00
 -1      1547 0.00000E+00
 -1      1548 0.00000E+00
 -1      1549 0.00000E+00
 -1      1550 0.00000E+00
 -1      1551 0.00000E+00
 -1      1552 0.00000E+00
 -1      1553 0.00000E+00
 -1      1554 0.00000E+00
 -1      1555 0.00000E+00
 -1      1556 0.00000E+00
 -1      1557 0.00000E+00
 -1      1558 0.00000E+00
 -1      1559 0.00000E+00
 -1      1560 0.00000E+00
 -1      1561 0.00000E+00
 -1      1562 0.00000E+00
 -1      1563 0.00000E+00
 -1      1564 0.00000E+00
 -1      1565 0.00000E+00
 -1      1566 0.00000E+00
 -1      1567 0.00000E+00
 -1      1568 0.00000E+00
 -1      1569 0.00000E+00
 -1      1570 0.00000E+00
 -1      1571 0.00000E+00
 -1      1572 0.00000E+00
 -1      1573 0.00000E+00
 -1      1574 0.00000E+00
 -1      1575 0.00000E+00
 -1      1576 0.00000E+00
 -1      1577 0.00000E+00
 -1      1578 0.00000E+00
 -1      1579 0.00000E+00
 -1      1580 0.00000E+00
 -1      1581 0.00000E+00
 -1      1582 0.00000E+00
 -1      1583 0.00000E+00
 -1      1584 0.00000E+00
 -1      1585 0.00000E+00
 -1      1586 0.00000E+00
 -1      1587 0.00000E+00
 -1      1588 0.00000E+00
 -1      1589 0.00000E+00
 -1      1590 0.00000E+00
 -1      1591 0.00000E+00
 -1      1592 0.00000E+00
 -1      1593 0.00000E+00
 -1      1594 0.00000E+00
 -1      1595 0.00000E+00
 -1      1596 0.00000E+00
 -1      1597 0.00000E+00
 -1      1598 0.00000E+00
 -1      1599 0.00000E+00
 -1      1600 0.00000E+00
 -1      1601 0.00000E+00
 -1      1602 0.00000E+00
 -1      1603 0.00000E+00
 -1      1604 0.00000E+00
 -1      1605 0.00000E+00
 -1      1606 0.00000E+00
 -1      1607 0.00000E+00
 -1      1608 0.00000E+00
 -1      1609 0.00000E+00
 -1      1610 0.00000E+00
 -1      1611 0.00000E+00
 -1      1612 0.00000E+00
 -1      1613 0.00000E+00
 -1      1614 0.00000E+00
 -1      1615 0.00000E+00
 -1      1616 0.00000E+00
 -1      1617 0.00000E+00
 -1      1618 0.00000E+00
 -1      1619 0.00000E+00
 -1      1620 0.00000E+00
 -1      1621 0.00000E+00
 -1      1622 0.00000E+00
 -1      1623 0.00000E+00
 -1      1624 0.00000E+00
 -1      1625 0.00000E+00
 -1      1626 0.00000E+00
 -1      1627 0.00000E+00
 -1      1628 0.00000E+00
 -1      1629 0.00000E+00
 -1      1630 0.00000E+00
 -1      1631 0.00000E+00
 -1      1632 0.00000E+00
 -1      1633 0.00000E+00
 -1      1634 0.00000E+00
 -1      1635 0.00000E+00
 -1      1636 0.00000E+00
 -1      1637 0.00000E+00
 -1      1638 0.00000E+00
 -1      1639 0.00000E+00
 -1      1640 0.00000E+00
 -1      1641 0.00000E+00
 -1      1642 0.00000E+00
 -1      1643 0.00000E+00
 -1      1644 0.00000E+00
 -1      1645 0.00000E+00
 -1      1646 0.00000E+00
 -1      1647 0.00000E+00
 -1      1648 0.00000E+00
 -1      1649 0.00000E+00
 -1      1650 0.00000E+00
 -1      1651 0.00000E+00
 -1      1652 0.00000E+00
 -1      1653 0.00000E+00
 -1      1654 0.00000E+00
 -1      1655 0.00000E+00
 -1      1656 0.00000E+00
 -1      1657 0.00000E+00
 -1      1658 0.00000E+00
 -1      1659 0.00000E+00
 -1      1660 0.00000E+00
 -1      1661 0.00000E+00
 -1      1662 0.00000E+00
 -1      1663 0.00000E+00
 -1      1664 0.00000E+00
 -1      1665 0.00000E+00
 -1      1666 0.00000E+00
 -1      1667 0.00000E+00
 -1      1668 0.00000E+00
 -1      1669 0.00000E+00
 -1      1670 0.00000E+00
 -1      1671 0.00000E+00
 -1      1672 0.00000E+00
 -1      1673 0.00000E+00
 -1      1674 0.00000E+00
 -1      1675 0.00000E+00
 -1      1676 0.00000E+00
 -1      1677 0.00000E+00
 -1      1678 0.00000E+00
 -1      1679 0.00000E+00
 -1      1680 0.00000E+00
 -1      1681 0.00000E+00
 -1      1682 0.00000E+00
 -1      1683 0.00000E+00
 -1      1684 0.00000E+00
 -1      1685 0.00000E+00
 -1      1686 0.00000E+00
 -1      1687 0.00000E+00
 -1      1688 0.00000E+00
 -1      1689 0.00000E+00
 -1      1690 0.00000E+00
 -1      1691 0.00000E+00
 -1      1692 0.00000E+00
 -1      1693 0.00000E+00
 -1      1694 0.00000E+00
 -1      1695 0.00000E+00
 -1      1696 0.00000E+00
 -1      1697 0.00000E+00
 -1      1698 0.00000E+00
 -1      1699 0.00000E+00
 -1      1700 0.00000E+00
 -1      1701 0.00000E+00
 -1      1702 0.00000E+00
 -1      1703 0.00000E+00
 -1      1704 0.00000E+00
 -1      1705 0.00000E+00
 -1      1706 0.00000E+00
 -1      1707 0.00000E+00
 -1      1708 0.00000E+00
 -1      1709 0.00000E+00
 -1      1710 0.00000E+00
 -1      1711 0.00000E+00
 -1      1712 0.00000E+00
 -1      1713 0.00000E+00
 -1      1714 0.00000E+00
 -1      1715 0.00000E+00
 -1      1716 0.00000E+00
 -1      1717 0.00000E+00
 -1      1718 0.00000E+00
 -1      1719 0.00000E+00
 -1      1720 0.00000E+00
 -1      1721 0.00000E+00
 -1      1722 0.00000E+00
 -1      1723 0.00000E+00
 -1      1724 0.00000E+00
 -1      1725 0.00000E+00
 -1      1726 0.00000E+00
 -1      1727 0.00000E+00
 -1      1728 0.00000E+00
 -1      1729 0.00000E+00
 -1      1730 0.00000E+00
 -1      1731 0.00000E+00
 -1      1732 0.00000E+00
 -1      1733 0.00000E+00
 -1      1734 0.00000E+00
 -1      1735 0.00000E+00
 -1      1736 0.00000E+00
 -1      1737 0.00000E+00
 -1      1738 0.00000E+00
 -1      1739 0.00000E+00
 -1      1740 0.00000E+00
 -1      1741 0.00000E+00
 -1      1742 0.00000E+00
 -1      1743 0.00000E+00
 -1      1744 0.00000E+00
 -1      1745 0.00000E+00
 -1      1746 0.00000E+00
 -1      1747 0.00000E+00
 -1      1748 0.00000E+00
 -1      1749 0.00000E+00
 -1      1750 0.00000E+00
 -1      1751 0.00000E+00
 -1      1752 0.00000E+00
 -1      1753 0.00000E+00
 -1      1754 0.00000E+00
 -1      1755 0.00000E+00
 -1      1756 0.00000E+00
 -1      1757 0.00000E+00
 -1      1758 0.00000E+00
 -1      1759 0.00000E+00
 -1      1760 0.00000E+00
 -1      1761 0.00000E+00
 -1      1762 0.00000E+00
 -1      1763 0.00000E+00
 -1      1764 0.00000E+00
 -1      1765 0.00000E+00
 -1      1766 0.00000E+00
 -1      1767 0.00000E+00
 -1      1768 0.00000E+00
 -1      1769 0.00000E+00
 -1      1770 0.00000E+00
 -1      1771 0.00000E+00
 -1      1772 0.00000E+00
 -1      1773 0.00000E+00
 -1      1774 0.00000E+00
 -1      1775 0.00000E+00
 -1      1776 0.00000E+00
 -1      1777 0.00000E+00
 -1      1778 0.00000E+00
 -1      1779 0.00000E+00
 -1      1780 0.00000E+00
 -1      1781 0.00000E+00
 -1      1782 0.00000E+00
 -1      1783 0.00000E+00
 -1      1784 0.00000E+00
 -1      1785 0.00000E+00
 -1      1786 0.00000E+00
 -1      1787 0.00000E+00
 -1      1788 0.00000E+00
 -1      1789 0.00000E+00
 -1      1790 0.00000E+00
 -1      1791 0.00000E+00
 -1      1792 0.00000E+00
 -1      1793 0.00000E+00
 -1      1794 0.00000E+00
 -1      1795 0.00000E+00
 -1      1796 0.00000E+00
 -1      1797 0.00000E+00
 -1      1798 0.00000E+00
 -1      1799 0.00000E+00
 -1      1800 0.00000E+00
 -1      1801 0.00000E+00
 -1      1802 0.00000E+00
 -1      1803 0.00000E+00
 -1      1804 0.00000E+00
 -1      1805 0.00000E+00
 -1      1806 0.00000E+00
 -1      1807 0.00000E+00
 -1      1808 0.00000E+00
 -1      1809 0.00000E+00
 -1      1810 0.00000E+00
 -1      1811 0.00000E+00
 -1      1812 0.00000E+00
 -1      1813 0.00000E+00
 -1      1814 0.00000E+00
 -1      1815 0.00000E+00
 -1      1816 0.00000E+00
 -1      1817 0.00000E+00
 -1      1818 0.00000E+00
 -1      1819 0.00000E+00
 -1      1820 0.00000E+00
 -1      1821 0.00000E+00
 -1      1822 0.00000E+00
 -1      1823 0.00000E+00
 -1      1824 0.00000E+00
 -1      1825 0.00000E+00
 -1      1826 0.00000E+00
 -1      1827 0.00000E+00
 -1      1828 0.00000E+00
 -1      1829 0.00000E+00
 -1      1830 0.00000E+00
 -1      1831 0.00000E+00
 -1      1832 0.00000E+00
 -1      1833 0.00000E+00
 -1      1834 0.00000E+00
 -1      1835 0.00000E+00
 -1      1836 0.00000E+00
 -1      1837 0.00000E+00
 -1      1838 0.00000E+00
 -1      1839 0.00000E+00
 -1      1840 0.00000E+00
 -1      1841 0.00000E+00
 -1      1842 0.00000E+00
 -1      1843 0.00000E+00
 -1      1844 0.00000E+00
 -1      1845 0.00000E+00
 -1      1846 0.00000E+00
 -1      1847 0.00000E+00
 -1      1848 0.00000E+00
 -1      1849 0.00000E+00
 -1      1850 0.00000E+00
 -1      1851 0.00000E+00
 -1      1852 0.00000E+00
 -1      1853 0.00000E+00
 -1      1854 0.00000E+00
 -1      1855 0.00000E+00
 -1      1856 0.00000E+00
 -1      1857 0.00000E+00
 -1      1858 0.00000E+00
 -1      1859 0.00000E+00
 -1      1860 0.00000E+00
 -1      1861 0.00000E+00
 -1      1862 0.00000E+00
 -1      1863 0.00000E+00
 -1      1864 0.00000E+00
 -1      1865 0.00000E+00
 -1      1866 0.00000E+00
 -1      1867 0.00000E+00
 -1      1868 0.00000E+00
 -1      1869 0.00000E+00
 -1      1870 0.00000E+00
 -1      1871 0.00000E+00
 -1      1872 0.00000E+00
 -1      1873 0.00000E+00
 -1      1874 0.00000E+00
 -1      1875 0.00000E+00
 -1      1876 0.00000E+00
 -1      1877 0.00000E+00
 -1      1878 0.00000E+00
 -1      1879 0.00000E+00
 -1      1880 0.00000E+00
 -1      1881 0.00000E+00
 -1      1882 0.00000E+00
 -1      1883 0.00000E+00
 -1      1884 0.00000E+00
 -1      1885 0.00000E+00
 -1      1886 0.00000E+00
 -1      1887 0.00000E+00
 -1      1888 0.00000E+00
 -1      1889 0.00000E+00
 -1      1890 0.00000E+00
 -1      1891 0.00000E+00
 -1      1892 0.00000E+00
 -1      1893 0.00000E+00
 -1      1894 0.00000E+00
 -1      1895 0.00000E+00
 -1      1896 0.00000E+00
 -1      1897 0.00000E+00
 -1      1898 0.00000E+00
 -1      1899 0.00000E+00
 -1      1900 0.00000E+00
 -1      1901 0.00000E+00
 -1      1902 0.00000E+00
 -1      1903 0.00000E+00
 -1      1904 0.00000E+00
 -1      1905 0.00000E+00
 -1      1906 0.00000E+00
 -1      1907 0.00000E+00
 -1      1908 0.00000E+00
 -1      1909 0.00000E+00
 -1      1910 0.00000E+00
 -1      1911 0.00000E+00
 -1      1912 0.00000E+00
 -1      1913 0.00000E+00
 -1      1914 0.00000E+00
 -1      1915 0.00000E+00
 -1      1916 0.00000E+00
 -1      1917 0.00000E+00
 -1      1918 0.00000E+00
 -1      1919 0.00000E+00
 -1      1920 0.00000E+00
 -1      1921 0.00000E+00
 -1      1922 0.00000E+00
 -1      1923 0.00000E+00
 -1      1924 0.00000E+00
 -1      1925 0.00000E+00
 -1      1926 0.00000E+00
 -1      1927 0.00000E+00
 -1      1928 0.00000E+00
 -1      1929 0.00000E+00
 -1      1930 0.00000E+00
 -1      1931 0.00000E+00
 -1      1932 0.00000E+00
 -1      1933 0.00000E+00
 -1      1934 0.00000E+00
 -1      1935 0.00000E+00
 -1      1936 0.00000E+00
 -1      1937 0.00000E+00
 -1      1938 0.00000E+00
 -1      1939 0.00000E+00
 -1      1940 0.00000E+00
 -1      1941 0.00000E+00
 -1      1942 0.00000E+00
 -1      1943 0.00000E+00
 -1      1944 0.00000E+00
 -1      1945 0.00000E+00
 -1      1946 0.00000E+00
 -1      1947 0.00000E+00
 -1      1948 0.00000E+00
 -1      1949 0.00000E+00
 -1      1950 0.00000E+00
 -1      1951 0.00000E+00
 -1      1952 0.00000E+00
 -1      1953 0.00000E+00
 -1      1954 0.00000E+00
 -1      1955 0.00000E+00
 -1      1956 0.00000E+00
 -1      1957 0.00000E+00
 -1      1958 0.00000E+00
 -1      1959 0.00000E+00
 -1      1960 0.00000E+00
 -1      1961 0.00000E+00
 -1      1962 0.00000E+00
 -1      1963 0.00000E+00
 -1      1964 0.00000E+00
 -1      1965 0.00000E+00
 -1      1966 0.00000E+00
 -1      1967 0.00000E+00
 -1      1968 0.00000E+00
 -1      1969 0.00000E+00
 -1      1970 0.00000E+00
 -1      1971 0.00000E+00
 -1      1972 0.00000E+00
 -1      1973 0.00000E+00
 -1      1974 0.00000E+00
 -1      1975 0.00000E+00
 -1      1976 0.00000E+00
 -1      1977 0.00000E+00
 -1      1978 0.00000E+00
 -1      1979 0.00000E+00
 -1      1980 0.00000E+00
 -1      1981 0.00000E+00
 -1      1982 0.00000E+00
 -1      1983 0.00000E+00
 -1      1984 0.00000E+00
 -1      1985 0.00000E+00
 -1      1986 0.00000E+00
 -1      1987 0.00000E+00
 -1      1988 0.00000E+00
 -1      1989 0.00000E+00
 -1      1990 0.00000E+00
 -1      1991 0.00000E+00
 -1      1992 0.00000E+00
 -1      1993 0.00000E+00
 -1      1994 0.00000E+00
 -1      1995 0.00000E+00
 -1      1996 0.00000E+00
 -1      1997 0.00000E+00
 -1      1998 0.00000E+00
 -1      1999 0.00000E+00
 -1      2000 0.00000E+00
 -1      2001 0.00000E+00
 -1      2002 0.00000E+00
 -1      2003 0.00000E+00
 -1      2004 0.00000E+00
 -1      2005 0.00000E+00
 -1      2006 0.00000E+00
 -1      2007 0.00000E+00
 -1      2008 0.00000E+00
 -1      2009 0.00000E+00
 -1      2010 0.00000E+00
 -1      2011 0.00000E+00
 -1      2012 0.00000E+00
 -1      2013 0.00000E+00
 -1      2014 0.00000E+00
 -1      2015 0.00000E+00
 -1      2016 0.00000E+00
 -1      2017 0.00000E+00
 -1      2018 0.00000E+00
 -1      2019 0.00000E+00
 -1      2020 0.00000E+00
 -1      2021 0.00000E+00
 -1      2022 0.00000E+00
 -1      2023 0.00000E+00
 -1      2024 0.00000E+00
 -1      2025 0.00000E+00
 -1      2026 0.00000E+00
 -1      2027 0.00000E+00
 -1      2028 0.00000E+00
 -1      2029 0.00000E+00
 -1      2030 0.00000E+00
 -1      2031 0.00000E+00
 -1      2032 0.00000E+00
 -1      2033 0.00000E+00
 -1      2034 0.00000E+00
 -1      2035 0.00000E+00
 -1      2036 0.00000E+00
 -1      2037 0.00000E+00
 -1      2038 0.00000E+00
 -1      2039 0.00000E+00
 -1      2040 0.00000E+00
 -1      2041 0.00000E+00
 -1      2042 0.00000E+00
 -1      2043 0.00000E+00
 -1      2044 0.00000E+00
 -1      2045 0.00000E+00
 -1      2046 0.00000E+00
 -1      2047 0.00000E+00
 -1      2048 0.00000E+00
 -1      2049 0.00000E+00
 -1      2050 0.00000E+00
 -1      2051 0.00000E+00
 -1      2052 0.00000E+00
 -1      2053 0.00000E+00
 -1      2054 0.00000E+00
 -1      2055 0.00000E+00
 -1      2056 0.00000E+00
 -1      2057 0.00000E+00
 -1      2058 0.00000E+00
 -1      2059 0.00000E+00
 -1      2060 0.00000E+00
 -1      2061 0.00000E+00
 -1      2062 0.00000E+00
 -1      2063 0.00000E+00
 -1      2064 0.00000E+00
 -1      2065 0.00000E+00
 -1      2066 0.00000E+00
 -1      2067 0.00000E+00
 -1      2068 0.00000E+00
 -1      2069 0.00000E+00
 -1      2070 0.00000E+00
 -1      2071 0.00000E+00
 -1      2072 0.00000E+00
 -1      2073 0.00000E+00
 -1      2074 0.00000E+00
 -1      2075 0.00000E+00
 -1      2076 0.00000E+00
 -1      2077 0.00000E+00
 -1      2078 0.00000E+00
 -1      2079 0.00000E+00
 -1      2080 0.00000E+00
 -1      2081 0.00000E+00
 -1      2082 0.00000E+00
 -1      2083 0.00000E+00
 -1      2084 0.00000E+00
 -1      2085 0.00000E+00
 -1      2086 0.00000E+00
 -1      2087 0.00000E+00
 -1      2088 0.00000E+00
 -1      2089 0.00000E+00
 -1      2090 0.00000E+00
 -1      2091 0.00000E+00
 -1      2092 0.00000E+00
 -1      2093 0.00000E+00
 -1      2094 0.00000E+00
 -1      2095 0.00000E+00
 -1      2096 0.00000E+00
 -1      2097 0.00000E+00
 -1      2098 0.00000E+00
 -1      2099 0.00000E+00
 -1      2100 0.00000E+00
 -1      2101 0.00000E+00
 -1      2102 0.00000E+00
 -1      2103 0.00000E+00
 -1      2104 0.00000E+00
 -1      2105 0.00000E+00
 -1      2106 0.00000E+00
 -1      2107 0.00000E+00
 -1      2108 0.00000E+00
 -1      2109 0.00000E+00
 -1      2110 0.00000E+00
 -1      2111 0.00000E+00
 -1      2112 0.00000E+00
 -1      2113 0.00000E+00
 -1      2114 0.00000E+00
 -1      2115 0.00000E+00
 -1      2116 0.00000E+00
 -1      2117 0.00000E+00
 -1      2118 0.00000E+00
 -1      2119 0.00000E+00
 -1      2120 0.00000E+00
 -1      2121 0.00000E+00
 -1      2122 0.00000E+00
 -1      2123 0.00000E+00
 -1      2124 0.00000E+00
 -1      2125 0.00000E+00
 -1      2126 0.00000E+00
 -1      2127 0.00000E+00
 -1      2128 0.00000E+00
 -1      2129 0.00000E+00
 -1      2130 0.00000E+00
 -1      2131 0.00000E+00
 -1      2132 0.00000E+00
 -1      2133 0.00000E+00
 -1      2134 0.00000E+00
 -1      2135 0.00000E+00
 -1      2136 0.00000E+00
 -1      2137 0.00000E+00
 -1      2138 0.00000E+00
 -1      2139 0.00000E+00
 -1      2140 0.00000E+00
 -1      2141 0.00000E+00
 -1      2142 0.00000E+00
 -1      2143 0.00000E+00
 -1      2144 0.00000E+00
 -1      2145 0.00000E+00
 -1      2146 0.00000E+00
 -1      2147 0.00000E+00
 -1      2148 0.00000E+00
 -1      2149 0.00000E+00
 -1      2150 0.00000E+00
 -1      2151 0.00000E+00
 -1      2152 0.00000E+00
 -1      2153 0.00000E+00
 -1      2154 0.00000E+00
 -1      2155 0.00000E+00
 -1      2156 0.00000E+00
 -1      2157 0.00000E+00
 -1      2158 0.00000E+00
 -1      2159 0.00000E+00
 -1      2160 0.00000E+00
 -1      2161 0.00000E+00
 -1      2162 0.00000E+00
 -1      2163 0.00000E+00
 -1      2164 0.00000E+00
 -1      2165 0.00000E+00
 -1      2166 0.00000E+00
 -1      2167 0.00000E+00
 -1      2168 0.00000E+00
 -1      2169 0.00000E+00
 -1      2170 0.00000E+00
 -1      2171 0.00000E+00
 -1      2172 0.00000E+00
 -1      2173 0.00000E+00
 -1      2174 0.00000E+00
 -1      2175 0.00000E+00
 -1      2176 0.00000E+00
 -1      2177 0.00000E+00
 -1      2178 0.00000E+00
 -1      2179 0.00000E+00
 -1      2180 0.00000E+00
 -1      2181 0.00000E+00
 -1      2182 0.00000E+00
 -1      2183 0.00000E+00
 -1      2184 0.00000E+00
 -1      2185 0.00000E+00
 -1      2186 0.00000E+00
 -1      2187 0.00000E+00
 -1      2188 0.00000E+00
 -1      2189 0.00000E+00
 -1      2190 0.00000E+00
 -1      2191 0.00000E+00
 -1      2192 0.00000E+00
 -1      2193 0.00000E+00
 -1      2194 0.00000E+00
 -1      2195 0.00000E+00
 -1      2196 0.00000E+00
 -1      2197 0.00000E+00
 -1      2198 0.00000E+00
 -1      2199 0.00000E+00
 -1      2200 0.00000E+00
 -1      2201 0.00000E+00
 -1      2202 0.00000E+00
 -1      2203 0.00000E+00
 -1      2204 0.00000E+00
 -1      2205 0.00000E+00
 -1      2206 0.00000E+00
 -1      2207 0.00000E+00
 -1      2208 0.00000E+00
 -1      2209 0.00000E+00
 -1      2210 0.00000E+00
 -1      2211 0.00000E+00
 -1      2212 0.00000E+00
 -1      2213 0.00000E+00
 -1      2214 0.00000E+00
 -1      2215 0.00000E+00
 -1      2216 0.00000E+00
 -1      2217 0.00000E+00
 -1      2218 0.00000E+00
 -1      2219 0.00000E+00
 -1      2220 0.00000E+00
 -1      2221 0.00000E+00
 -1      2222 0.00000E+00
 -1      2223 0.00000E+00
 -1      2224 0.00000E+00
 -1      2225 0.00000E+00
 -1      2226 0.00000E+00
 -1      2227 0.00000E+00
 -1      2228 0.00000E+00
 -1      2229 0.00000E+00
 -1      2230 0.00000E+00
 -1      2231 0.00000E+00
 -1      2232 0.00000E+00
 -1      2233 0.00000E+00
 -1      2234 0.00000E+00
 -1      2235 0.00000E+00
 -1      2236 0.00000E+00
 -1      2237 0.00000E+00
 -1      2238 0.00000E+00
 -1      2239 0.00000E+00
 -1      2240 0.00000E+00
 -1      2241 0.00000E+00
 -1      2242 0.00000E+00
 -1      2243 0.00000E+00
 -1      2244 0.00000E+00
 -1      2245 0.00000E+00
 -1      2246 0.00000E+00
 -1      2247 0.00000E+00
 -1      2248 0.00000E+00
 -1      2249 0.00000E+00
 -1      2250 0.00000E+00
 -1      2251 0.00000E+00
 -1      2252 0.00000E+00
 -1      2253 0.00000E+00
 -1      2254 0.00000E+00
 -1      2255 0.00000E+00
 -1      2256 0.00000E+00
 -1      2257 0.00000E+00
 -1      2258 0.00000E+00
 -1      2259 0.00000E+00
 -1      2260 0.00000E+00
 -1      2261 0.00000E+00
 -1      2262 0.00000E+00
 -1      2263 0.00000E+00
 -1      2264 0.00000E+00
 -1      2265 0.00000E+00
 -1      2266 0.00000E+00
 -1      2267 0.00000E+00
 -1      2268 0.00000E+00
 -1      2269 0.00000E+00
 -1      2270 0.00000E+00
 -1      2271 0.00000E+00
 -1      2272 0.00000E+00
 -1      2273 0.00000E+00
 -1      2274 0.00000E+00
 -1      2275 0.00000E+00
 -1      2276 0.00000E+00
 -1      2277 0.00000E+00
 -1      2278 0.00000E+00
 -1      2279 0.00000E+00
 -1      2280 0.00000E+00
 -1      2281 0.00000E+00
 -1      2282 0.00000E+00
 -1      2283 0.00000E+00
 -1      2284 0.00000E+00
 -1      2285 0.00000E+00
 -1      2286 0.00000E+00
 -1      2287 0.00000E+00
 -1      2288 0.00000E+00
 -1      2289 0.00000E+00
 -1      2290 0.00000E+00
 -1      2291 0.00000E+00
 -1      2292 0.00000E+00
 -1      2293 0.00000E+00
 -1      2294 0.00000E+00
 -1      2295 0.00000E+00
 -1      2296 0.00000E+00
 -1      2297 0.00000E+00
 -1      2298 0.00000E+00
 -1      2299 0.00000E+00
 -1      2300 0.00000E+00
 -1      2301 0.00000E+00
 -1      2302 0.00000E+00
 -1      2303 0.00000E+00
 -1      2304 0.00000E+00
 -1      2305 0.00000E+00
 -1      2306 0.00000E+00
 -1      2307 0.00000E+00
 -1      2308 0.00000E+00
 -1      2309 0.00000E+00
 -1      2310 0.00000E+00
 -1      2311 0.00000E+00
 -1      2312 0.00000E+00
 -1      2313 0.00000E+00
 -1      2314 0.00000E+00
 -1      2315 0.00000E+00
 -1      2316 0.00000E+00
 -1      2317 0.00000E+00
 -1      2318 0.00000E+00
 -1      2319 0.00000E+00
 -1      2320 0.00000E+00
 -1      2321 0.00000E+00
 -1      2322 0.00000E+00
 -1      2323 0.00000E+00
 -1      2324 0.00000E+00
 -1      2325 0.00000E+00
 -1      2326 0.00000E+00
 -1      2327 0.00000E+00
 -1      2328 0.00000E+00
 -1      2329 0.00000E+00
 -1      2330 0.00000E+00
 -1      2331 0.00000E+00
 -1      2332 0.00000E+00
 -1      2333 0.00000E+00
 -1      2334 0.00000E+00
 -1      2335 0.00000E+00
 -1      2336 0.00000E+00
 -1      2337 0.00000E+00
 -1      2338 0.00000E+00
 -1      2339 0.00000E+00
 -1      2340 0.00000E+00
 -1      2341 0.00000E+00
 -1      2342 0.00000E+00
 -1      2343 0.00000E+00
 -1      2344 0.00000E+00
 -1      2345 0.00000E+00
 -1      2346 0.00000E+00
 -1      2347 0.00000E+00
 -1      2348 0.00000E+00
 -1      2349 0.00000E+00
 -1      2350 0.00000E+00
 -1      2351 0.00000E+00
 -1      2352 0.00000E+00
 -1      2353 0.00000E+00
 -1      2354 0.00000E+00
 -1      2355 0.00000E+00
 -1      2356 0.00000E+00
 -1      2357 0.00000E+00
 -1      2358 0.00000E+00
 -1      2359 0.00000E+00
 -1      2360 0.00000E+00
 -1      2361 0.00000E+00
 -1      2362 0.00000E+00
 -1      2363 0.00000E+00
 -1      2364 0.00000E+00
 -1      2365 0.00000E+00
 -1      2366 0.00000E+00
 -1      2367 0.00000E+00
 -1      2368 0.00000E+00
 -1      2369 0.00000E+00
 -1      2370 0.00000E+00
 -1      2371 0.00000E+00
 -1      2372 0.00000E+00
 -1      2373 0.00000E+00
 -1      2374 0.00000E+00
 -1      2375 0.00000E+00
 -1      2376 0.00000E+00
 -1      2377 0.00000E+00
 -1      2378 0.00000E+00
 -1      2379 0.00000E+00
 -1      2380 0.00000E+00
 -1      2381 0.00000E+00
 -1      2382 0.00000E+00
 -1      2383 0.00000E+00
 -1      2384 0.00000E+00
 -1      2385 0.00000E+00
 -1      2386 0.00000E+00
 -1      2387 0.00000E+00
 -1      2388 0.00000E+00
 -1      2389 0.00000E+00
 -1      2390 0.00000E+00
 -1      2391 0.00000E+00
 -1      2392 0.00000E+00
 -1      2393 0.00000E+00
 -1      2394 0.00000E+00
 -1      2395 0.00000E+00
 -1      2396 0.00000E+00
 -1      2397 0.00000E+00
 -1      2398 0.00000E+00
 -1      2399 0.00000E+00
 -1      2400 0.00000E+00
 -1      2401 0.00000E+00
 -1      2402 0.00000E+00
 -1      2403 0.00000E+00
 -1      2404 0.00000E+00
 -1      2405 0.00000E+00
 -1      2406 0.00000E+00
 -1      2407 0.00000E+00
 -1      2408 0.00000E+00
 -1      2409 0.00000E+00
 -1      2410 0.00000E+00
 -1      2411 0.00000E+00
 -1      2412 0.00000E+00
 -1      2413 0.00000E+00
 -1      2414 0.00000E+00
 -1      2415 0.00000E+00
 -1      2416 0.00000E+00
 -1      2417 0.00000E+00
 -1      2418 0.00000E+00
 -1      2419 0.00000E+00
 -1      2420 0.00000E+00
 -1      2421 0.00000E+00
 -1      2422 0.00000E+00
 -1      2423 0.00000E+00
 -1      2424 0.00000E+00
 -1      2425 0.00000E+00
 -1      2426 0.00000E+00
 -1      2427 0.00000E+00
 -1      2428 0.00000E+00
 -1      2429 0.00000E+00
 -1      2430 0.00000E+00
 -1      2431 0.00000E+00
 -1      2432 0.00000E+00
 -1      2433 0.00000E+00
 -1      2434 0.00000E+00
 -1      2435 0.00000E+00
 -1      2436 0.00000E+00
 -1      2437 0.00000E+00
 -1      2438 0.00000E+00
 -1      2439 0.00000E+00
 -1      2440 0.00000E+00
 -1      2441 0.00000E+00
 -1      2442 0.00000E+00
 -1      2443 0.00000E+00
 -1      2444 0.00000E+00
 -1      2445 0.00000E+00
 -1      2446 0.00000E+00
 -1      2447 0.00000E+00
 -1      2448 0.00000E+00
 -1      2449 0.00000E+00
 -1      2450 0.00000E+00
 -1      2451 0.00000E+00
 -1      2452 0.00000E+00
 -1      2453 0.00000E+00
 -1      2454 0.00000E+00
 -1      2455 0.00000E+00
 -1      2456 0.00000E+00
 -1      2457 0.00000E+00
 -1      2458 0.00000E+00
 -1      2459 0.00000E+00
 -1      2460 0.00000E+00
 -1      2461 0.00000E+00
 -1      2462 0.00000E+00
 -1      2463 0.00000E+00
 -1      2464 0.00000E+00
 -1      2465 0.00000E+00
 -1      2466 0.00000E+00
 -1      2467 0.00000E+00
 -1      2468 0.00000E+00
 -1      2469 0.00000E+00
 -1      2470 0.00000E+00
 -1      2471 0.00000E+00
 -1      2472 0.00000E+00
 -1      2473 0.00000E+00
 -1      2474 0.00000E+00
 -1      2475 0.00000E+00
 -1      2476 0.00000E+00
 -1      2477 0.00000E+00
 -1      2478 0.00000E+00
 -1      2479 0.00000E+00
 -1      2480 0.00000E+00
 -1      2481 0.00000E+00
 -1      2482 0.00000E+00
 -1      2483 0.00000E+00
 -1      2484 0.00000E+00
 -1      2485 0.00000E+00
 -1      2486 0.00000E+00
 -1      2487 0.00000E+00
 -1      2488 0.00000E+00
 -1      2489 0.00000E+00
 -1      2490 0.00000E+00
 -1      2491 0.00000E+00
 -1      2492 0.00000E+00
 -1      2493 0.00000E+00
 -1      2494 0.00000E+00
 -1      2495 0.00000E+00
 -1      2496 0.00000E+00
 -1      2497 0.00000E+00
 -1      2498 0.00000E+00
 -1      2499 0.00000E+00
 -1      2500 0.00000E+00
 -1      2501 0.00000E+00
 -1      2502 0.00000E+00
 -1      2503 0.00000E+00
 -1      2504 0.00000E+00
 -1      2505 0.00000E+00
 -1      2506 0.00000E+00
 -1      2507 0.00000E+00
 -1      2508 0.00000E+00
 -1      2509 0.00000E+00
 -1      2510 0.00000E+00
 -1      2511 0.00000E+00
 -1      2512 0.00000E+00
 -1      2513 0.00000E+00
 -1      2514 0.00000E+00
 -1      2515 0.00000E+00
 -1      2516 0.00000E+00
 -1      2517 0.00000E+00
 -1      2518 0.00000E+00
 -1      2519 0.00000E+00
 -1      2520 0.00000E+00
 -1      2521 0.00000E+00
 -1      2522 0.00000E+00
 -1      2523 0.00000E+00
 -1      2524 0.00000E+00
 -1      2525 0.00000E+00
 -1      2526 0.00000E+00
 -1      2527 0.00000E+00
 -1      2528 0.00000E+00
 -1      2529 0.00000E+00
 -1      2530 0.00000E+00
 -1      2531 0.00000E+00
 -1      2532 0.00000E+00
 -1      2533 0.00000E+00
 -1      2534 0.00000E+00
 -1      2535 0.00000E+00
 -1      2536 0.00000E+00
 -1      2537 0.00000E+00
 -1      2538 0.00000E+00
 -1      2539 0.00000E+00
 -1      2540 0.00000E+00
 -1      2541 0.00000E+00
 -1      2542 0.00000E+00
 -1      2543 0.00000E+00
 -1      2544 0.00000E+00
 -1      2545 0.00000E+00
 -1      2546 0.00000E+00
 -1      2547 0.00000E+00
 -1      2548 0.00000E+00
 -1      2549 0.00000E+00
 -1      2550 0.00000E+00
 -1      2551 0.00000E+00
 -1      2552 0.00000E+00
 -1      2553 0.00000E+00
 -1      2554 0.00000E+00
 -1      2555 0.00000E+00
 -1      2556 0.00000E+00
 -1      2557 0.00000E+00
 -1      2558 0.00000E+00
 -1      2559 0.00000E+00
 -1      2560 0.00000E+00
 -1      2561 0.00000E+00
 -1      2562 0.00000E+00
 -1      2563 0.00000E+00
 -1      2564 0.00000E+00
 -1      2565 0.00000E+00
 -1      2566 0.00000E+00
 -1      2567 0.00000E+00
 -1      2568 0.00000E+00
 -1      2569 0.00000E+00
 -1      2570 0.00000E+00
 -1      2571 0.00000E+00
 -1      2572 0.00000E+00
 -1      2573 0.00000E+00
 -1      2574 0.00000E+00
 -1      2575 0.00000E+00
 -1      2576 0.00000E+00
 -1      2577 0.00000E+00
 -1      2578 0.00000E+00
 -1      2579 0.00000E+00
 -1      2580 0.00000E+00
 -1      2581 0.00000E+00
 -1      2582 0.00000E+00
 -1      2583 0.00000E+00
 -1      2584 0.00000E+00
 -1      2585 0.00000E+00
 -1      2586 0.00000E+00
 -1      2587 0.00000E+00
 -1      2588 0.00000E+00
 -1      2589 0.00000E+00
 -1      2590 0.00000E+00
 -1      2591 0.00000E+00
 -1      2592 0.00000E+00
 -1      2593 0.00000E+00
 -1      2594 0.00000E+00
 -1      2595 0.00000E+00
 -1      2596 0.00000E+00
 -1      2597 0.00000E+00
 -1      2598 0.00000E+00
 -1      2599 0.00000E+00
 -1      2600 0.00000E+00
 -1      2601 0.00000E+00
 -1      2602 0.00000E+00
 -1      2603 0.00000E+00
 -1      2604 0.00000E+00
 -1      2605 0.00000E+00
 -1      2606 0.00000E+00
 -1      2607 0.00000E+00
 -1      2608 0.00000E+00
 -1      2609 0.00000E+00
 -1      2610 0.00000E+00
 -1      2611 0.00000E+00
 -1      2612 0.00000E+00
 -1      2613 0.00000E+00
 -1      2614 0.00000E+00
 -1      2615 0.00000E+00
 -1      2616 0.00000E+00
 -1      2617 0.00000E+00
 -1      2618 0.00000E+00
 -1      2619 0.00000E+00
 -1      2620 0.00000E+00
 -1      2621 0.00000E+00
 -1      2622 0.00000E+00
 -1      2623 0.00000E+00
 -1      2624 0.00000E+00
 -1      2625 0.00000E+00
 -1      2626 0.00000E+00
 -1      2627 0.00000E+00
 -1      2628 0.00000E+00
 -1      2629 0.00000E+00
 -1      2630 0.00000E+00
 -1      2631 0.00000E+00
 -1      2632 0.00000E+00
 -1      2633 0.00000E+00
 -1      2634 0.00000E+00
 -1      2635 0.00000E+00
 -1      2636 0.00000E+00
 -1      2637 0.00000E+00
 -1      2638 0.00000E+00
 -1      2639 0.00000E+00
 -1      2640 0.00000E+00
 -1      2641 0.00000E+00
 -1      2642 0.00000E+00
 -1      2643 0.00000E+00
 -1      2644 0.00000E+00
 -1      2645 0.00000E+00
 -1      2646 0.00000E+00
 -1      2647 0.00000E+00
 -1      2648 0.00000E+00
 -1      2649 0.00000E+00
 -1      2650 0.00000E+00
 -1      2651 0.00000E+00
 -1      2652 0.00000E+00
 -1      2653 0.00000E+00
 -1      2654 0.00000E+00
 -1      2655 0.00000E+00
 -1      2656 0.00000E+00
 -1      2657 0.00000E+00
 -1      2658 0.00000E+00
 -1      2659 0.00000E+00
 -1      2660 0.00000E+00
 -1      2661 0.00000E+00
 -1      2662 0.00000E+00
 -1      2663 0.00000E+00
 -1      2664 0.00000E+00
 -1      2665 0.00000E+00
 -1      2666 0.00000E+00
 -1      2667 0.00000E+00
 -1      2668 0.00000E+00
 -1      2669 0.00000E+00
 -1      2670 0.00000E+00
 -1      2671 0.00000E+00
 -1      2672 0.00000E+00
 -1      2673 0.00000E+00
 -1      2674 0.00000E+00
 -1      2675 0.00000E+00
 -1      2676 0.00000E+00
 -1      2677 0.00000E+00
 -1      2678 0.00000E+00
 -1      2679 0.00000E+00
 -1      2680 0.00000E+00
 -1      2681 0.00000E+00
 -1      2682 0.00000E+00
 -1      2683 0.00000E+00
 -1      2684 0.00000E+00
 -1      2685 0.00000E+00
 -1      2686 0.00000E+00
 -1      2687 0.00000E+00
 -1      2688 0.00000E+00
 -1      2689 0.00000E+00
 -1      2690 0.00000E+00
 -1      2691 0.00000E+00
 -1      2692 0.00000E+00
 -1      2693 0.00000E+00
 -1      2694 0.00000E+00
 -1      2695 0.00000E+00
 -1      2696 0.00000E+00
 -1      2697 0.00000E+00
 -1      2698 0.00000E+00
 -1      2699 0.00000E+00
 -1      2700 0.00000E+00
 -1      2701 0.00000E+00
 -1      2702 0.00000E+00
 -1      2703 0.00000E+00
 -1      2704 0.00000E+00
 -1      2705 0.00000E+00
 -1      2706 0.00000E+00
 -1      2707 0.00000E+00
 -1      2708 0.00000E+00
 -1      2709 0.00000E+00
 -1      2710 0.00000E+00
 -1      2711 0.00000E+00
 -1      2712 0.00000E+00
 -1      2713 0.00000E+00
 -1      2714 0.00000E+00
 -1      2715 0.00000E+00
 -1      2716 0.00000E+00
 -1      2717 0.00000E+00
 -1      2718 0.00000E+00
 -1      2719 0.00000E+00
 -1      2720 0.00000E+00
 -1      2721 0.00000E+00
 -1      2722 0.00000E+00
 -1      2723 0.00000E+00
 -1      2724 0.00000E+00
 -1      2725 0.00000E+00
 -1      2726 0.00000E+00
 -1      2727 0.00000E+00
 -1      2728 0.00000E+00
 -1      2729 0.00000E+00
 -1      2730 0.00000E+00
 -1      2731 0.00000E+00
 -1      2732 0.00000E+00
 -1      2733 0.00000E+00
 -1      2734 0.00000E+00
 -1      2735 0.00000E+00
 -1      2736 0.00000E+00
 -1      2737 0.00000E+00
 -1      2738 0.00000E+00
 -1      2739 0.00000E+00
 -1      2740 0.00000E+00
 -1      2741 0.00000E+00
 -1      2742 0.00000E+00
 -1      2743 0.00000E+00
 -1      2744 0.00000E+00
 -1      2745 0.00000E+00
 -1      2746 0.00000E+00
 -1      2747 0.00000E+00
 -1      2748 0.00000E+00
 -1      2749 0.00000E+00
 -1      2750 0.00000E+00
 -1      2751 0.00000E+00
 -1      2752 0.00000E+00
 -1      2753 0.00000E+00
 -1      2754 0.00000E+00
 -1      2755 0.00000E+00
 -1      2756 0.00000E+00
 -1      2757 0.00000E+00
 -1      2758 0.00000E+00
 -1      2759 0.00000E+00
 -1      2760 0.00000E+00
 -1      2761 0.00000E+00
 -1      2762 0.00000E+00
 -1      2763 0.00000E+00
 -1      2764 0.00000E+00
 -1      2765 0.00000E+00
 -1      2766 0.00000E+00
 -1      2767 0.00000E+00
 -1      2768 0.00000E+00
 -1      2769 0.00000E+00
 -1      2770 0.00000E+00
 -1      2771 0.00000E+00
 -1      2772 0.00000E+00
 -1      2773 0.00000E+00
 -1      2774 0.00000E+00
 -1      2775 0.00000E+00
 -1      2776 0.00000E+00
 -1      2777 0.00000E+00
 -1      2778 0.00000E+00
 -1      2779 0.00000E+00
 -1      2780 0.00000E+00
 -1      2781 0.00000E+00
 -1      2782 0.00000E+00
 -1      2783 0.00000E+00
 -1      2784 0.00000E+00
 -1      2785 0.00000E+00
 -1      2786 0.00000E+00
 -1      2787 0.00000E+00
 -1      2788 0.00000E+00
 -1      2789 0.00000E+00
 -1      2790 0.00000E+00
 -1      2791 0.00000E+00
 -1      2792 0.00000E+00
 -1      2793 0.00000E+00
 -1      2794 0.00000E+00
 -1      2795 0.00000E+00
 -1      2796 0.00000E+00
 -1      2797 0.00000E+00
 -1      2798 0.00000E+00
 -1      2799 0.00000E+00
 -1      2800 0.00000E+00
 -1      2801 0.00000E+00
 -1      2802 0.00000E+00
 -1      2803 0.00000E+00
 -1      2804 0.00000E+00
 -1      2805 0.00000E+00
 -1      2806 0.00000E+00
 -1      2807 0.00000E+00
 -1      2808 0.00000E+00
 -1      2809 0.00000E+00
 -1      2810 0.00000E+00
 -1      2811 0.00000E+00
 -1      2812 0.00000E+00
 -1      2813 0.00000E+00
 -1      2814 0.00000E+00
 -1      2815 0.00000E+00
 -1      2816 0.00000E+00
 -1      2817 0.00000E+00
 -1      2818 0.00000E+00
 -1      2819 0.00000E+00
 -1      2820 0.00000E+00
 -1      2821 0.00000E+00
 -1      2822 0.00000E+00
 -1      2823 0.00000E+00
 -1      2824 0.00000E+00
 -1      2825 0.00000E+00
 -1      2826 0.00000E+00
 -1      2827 0.00000E+00
 -1      2828 0.00000E+00
 -1      2829 0.00000E+00
 -1      2830 0.00000E+00
 -1      2831 0.00000E+00
 -1      2832 0.00000E+00
 -1      2833 0.00000E+00
 -1      2834 0.00000E+00
 -1      2835 0.00000E+00
 -1      2836 0.00000E+00
 -1      2837 0.00000E+00
 -1      2838 0.00000E+00
 -1      2839 0.00000E+00
 -1      2840 0.00000E+00
 -1      2841 0.00000E+00
 -1      2842 0.00000E+00
 -1      2843 0.00000E+00
 -1      2844 0.00000E+00
 -1      2845 0.00000E+00
 -1      2846 0.00000E+00
 -1      2847 0.00000E+00
 -1      2848 0.00000E+00
 -1      2849 0.00000E+00
 -1      2850 0.00000E+00
 -1      2851 0.00000E+00
 -1      2852 0.00000E+00
 -1      2853 0.00000E+00
 -1      2854 0.00000E+00
 -1      2855 0.00000E+00
 -1      2856 0.00000E+00
 -1      2857 0.00000E+00
 -1      2858 0.00000E+00
 -1      2859 0.00000E+00
 -1      2860 0.00000E+00
 -1      2861 0.00000E+00
 -1      2862 0.00000E+00
 -1      2863 0.00000E+00
 -1      2864 0.00000E+00
 -1      2865 0.00000E+00
 -1      2866 0.00000E+00
 -1      2867 0.00000E+00
 -1      2868 0.00000E+00
 -1      2869 0.00000E+00
 -1      2870 0.00000E+00
 -1      2871 0.00000E+00
 -1      2872 0.00000E+00
 -1      2873 0.00000E+00
 -1      2874 0.00000E+00
 -1      2875 0.00000E+00
 -1      2876 0.00000E+00
 -1      2877 0.00000E+00
 -1      2878 0.00000E+00
 -1      2879 0.00000E+00
 -1      2880 0.00000E+00
 -1      2881 0.00000E+00
 -1      2882 0.00000E+00
 -1      2883 0.00000E+00
 -1      2884 0.00000E+00
 -1      2885 0.00000E+00
 -1      2886 0.00000E+00
 -1      2887 0.00000E+00
 -1      2888 0.00000E+00
 -1      2889 0.00000E+00
 -1      2890 0.00000E+00
 -1      2891 0.00000E+00
 -1      2892 0.00000E+00
 -1      2893 0.00000E+00
 -1      2894 0.00000E+00
 -1      2895 0.00000E+00
 -1      2896 0.00000E+00
 -1      2897 0.00000E+00
 -1      2898 0.00000E+00
 -1      2899 0.00000E+00
 -1      2900 0.00000E+00
 -1      2901 0.00000E+00
 -1      2902 0.00000E+00
 -1      2903 0.00000E+00
 -1      2904 0.00000E+00
 -1      2905 0.00000E+00
 -1      2906 0.00000E+00
 -1      2907 0.00000E+00
 -1      2908 0.00000E+00
 -1      2909 0.00000E+00
 -1      2910 0.00000E+00
 -1      2911 0.00000E+00
 -1      2912 0.00000E+00
 -1      2913 0.00000E+00
 -1      2914 0.00000E+00
 -1      2915 0.00000E+00
 -1      2916 0.00000E+00
 -1      2917 0.00000E+00
 -1      2918 0.00000E+00
 -1      2919 0.00000E+00
 -1      2920 0.00000E+00
 -1      2921 0.00000E+00
 -1      2922 0.00000E+00
 -1      2923 0.00000E+00
 -1      2924 0.00000E+00
 -1      2925 0.00000E+00
 -1      2926 0.00000E+00
 -1      2927 0.00000E+00
 -1      2928 0.00000E+00
 -1      2929 0.00000E+00
 -1      2930 0.00000E+00
 -1      2931 0.00000E+00
 -1      2932 0.00000E+00
 -1      2933 0.00000E+00
 -1      2934 0.00000E+00
 -1      2935 0.00000E+00
 -1      2936 0.00000E+00
 -1      2937 0.00000E+00
 -1      2938 0.00000E+00
 -1      2939 0.00000E+00
 -1      2940 0.00000E+00
 -1      2941 0.00000E+00
 -1      2942 0.00000E+00
 -1      2943 0.00000E+00
 -1      2944 0.00000E+00
 -1      2945 0.00000E+00
 -1      2946 0.00000E+00
 -1      2947 0.00000E+00
 -1      2948 0.00000E+00
 -1      2949 0.00000E+00
 -1      2950 0.00000E+00
 -1      2951 0.00000E+00
 -1      2952 0.00000E+00
 -1      2953 0.00000E+00
 -1      2954 0.00000E+00
 -1      2955 0.00000E+00
 -1      2956 0.00000E+00
 -1      2957 0.00000E+00
 -1      2958 0.00000E+00
 -1      2959 0.00000E+00
 -1      2960 0.00000E+00
 -1      2961 0.00000E+00
 -1      2962 0.00000E+00
 -1      2963 0.00000E+00
 -1      2964 0.00000E+00
 -1      2965 0.00000E+00
 -1      2966 0.00000E+00
 -1      2967 0.00000E+00
 -1      2968 0.00000E+00
 -1      2969 0.00000E+00
 -1      2970 0.00000E+00
 -1      2971 0.00000E+00
 -1      2972 0.00000E+00
 -1      2973 0.00000E+00
 -1      2974 0.00000E+00
 -1      2975 0.00000E+00
 -1      2976 0.00000E+00
 -1      2977 0.00000E+00
 -1      2978 0.00000E+00
 -1      2979 0.00000E+00
 -1      2980 0.00000E+00
 -1      2981 0.00000E+00
 -1      2982 0.00000E+00
 -1      2983 0.00000E+00
 -1      2984 0.00000E+00
 -1      2985 0.00000E+00
 -1      2986 0.00000E+00
 -1      2987 0.00000E+00
 -1      2988 0.00000E+00
 -1      2989 0.00000E+00
 -1      2990 0.00000E+00
 -1      2991 0.00000E+00
 -1      2992 0.00000E+00
 -1      2993 0.00000E+00
 -1      2994 0.00000E+00
 -1      2995 0.00000E+00
 -1      2996 0.00000E+00
 -1      2997 0.00000E+00
 -1      2998 0.00000E+00
 -1      2999 0.00000E+00
 -1      3000 0.00000E+00
 -1      3001 0.00000E+00
 -1      3002 0.00000E+00
 -1      3003 0.00000E+00
 -1      3004 0.00000E+00
 -1      3005 0.00000E+00
 -1      3006 0.00000E+00
 -1      3007 0.00000E+00
 -1      3008 0.00000E+00
 -1      3009 0.00000E+00
 -1      3010 0.00000E+00
 -1      3011 0.00000E+00
 -1      3012 0.00000E+00
 -1      3013 0.00000E+00
 -1      3014 0.00000E+00
 -1      3015 0.00000E+00
 -1      3016 0.00000E+00
 -1      3017 0.00000E+00
 -1      3018 0.00000E+00
 -1      3019 0.00000E+00
 -1      3020 0.00000E+00
 -1      3021 0.00000E+00
 -1      3022 0.00000E+00
 -1      3023 0.00000E+00
 -1      3024 0.00000E+00
 -1      3025 0.00000E+00
 -1      3026 0.00000E+00
 -1      3027 0.00000E+00
 -1      3028 0.00000E+00
 -1      3029 0.00000E+00
 -1      3030 0.00000E+00
 -1      3031 0.00000E+00
 -1      3032 0.00000E+00
 -1      3033 0.00000E+00
 -1      3034 0.00000E+00
 -1      3035 0.00000E+00
 -1      3036 0.00000E+00
 -1      3037 0.00000E+00
 -1      3038 0.00000E+00
 -1      3039 0.00000E+00
 -1      3040 0.00000E+00
 -1      3041 0.00000E+00
 -1      3042 0.00000E+00
 -1      3043 0.00000E+00
 -1      3044 0.00000E+00
 -1      3045 0.00000E+00
 -1      3046 0.00000E+00
 -1      3047 0.00000E+00
 -1      3048 0.00000E+00
 -1      3049 0.00000E+00
 -1      3050 0.00000E+00
 -1      3051 0.00000E+00
 -1      3052 0.00000E+00
 -1      3053 0.00000E+00
 -1      3054 0.00000E+00
 -1      3055 0.00000E+00
 -1      3056 0.00000E+00
 -1      3057 0.00000E+00
 -1      3058 0.00000E+00
 -1      3059 0.00000E+00
 -1      3060 0.00000E+00
 -1      3061 0.00000E+00
 -1      3062 0.00000E+00
 -1      3063 0.00000E+00
 -1      3064 0.00000E+00
 -1      3065 0.00000E+00
 -1      3066 0.00000E+00
 -1      3067 0.00000E+00
 -1      3068 0.00000E+00
 -1      3069 0.00000E+00
 -1      3070 0.00000E+00
 -1      3071 0.00000E+00
 -1      3072 0.00000E+00
 -1      3073 0.00000E+00
 -1      3074 0.00000E+00
 -1      3075 0.00000E+00
 -1      3076 0.00000E+00
 -1      3077 0.00000E+00
 -1      3078 0.00000E+00
 -1      3079 0.00000E+00
 -1      3080 0.00000E+00
 -1      3081 0.00000E+00
 -1      3082 0.00000E+00
 -1      3083 0.00000E+00
 -1      3084 0.00000E+00
 -1      3085 0.00000E+00
 -1      3086 0.00000E+00
 -1      3087 0.00000E+00
 -1      3088 0.00000E+00
 -1      3089 0.00000E+00
 -1      3090 0.00000E+00
 -1      3091 0.00000E+00
 -1      3092 0.00000E+00
 -1      3093 0.00000E+00
 -1      3094 0.00000E+00
 -1      3095 0.00000E+00
 -1      3096 0.00000E+00
 -1      3097 0.00000E+00
 -1      3098 0.00000E+00
 -1      3099 0.00000E+00
 -1      3100 0.00000E+00
 -1      3101 0.00000E+00
 -1      3102 0.00000E+00
 -1      3103 0.00000E+00
 -1      3104 0.00000E+00
 -1      3105 0.00000E+00
 -1      3106 0.00000E+00
 -1      3107 0.00000E+00
 -1      3108 0.00000E+00
 -1      3109 0.00000E+00
 -1      3110 0.00000E+00
 -1      3111 0.00000E+00
 -1      3112 0.00000E+00
 -1      3113 0.00000E+00
 -1      3114 0.00000E+00
 -1      3115 0.00000E+00
 -1      3116 0.00000E+00
 -1      3117 0.00000E+00
 -1      3118 0.00000E+00
 -1      3119 0.00000E+00
 -1      3120 0.00000E+00
 -1      3121 0.00000E+00
 -1      3122 0.00000E+00
 -1      3123 0.00000E+00
 -1      3124 0.00000E+00
 -1      3125 0.00000E+00
 -1      3126 0.00000E+00
 -1      3127 0.00000E+00
 -1      3128 0.00000E+00
 -1      3129 0.00000E+00
 -1      3130 0.00000E+00
 -1      3131 0.00000E+00
 -1      3132 0.00000E+00
 -1      3133 0.00000E+00
 -1      3134 0.00000E+00
 -1      3135 0.00000E+00
 -1      3136 0.00000E+00
 -1      3137 0.00000E+00
 -1      3138 0.00000E+00
 -1      3139 0.00000E+00
 -1      3140 0.00000E+00
 -1      3141 0.00000E+00
 -1      3142 0.00000E+00
 -1      3143 0.00000E+00
 -1      3144 0.00000E+00
 -1      3145 0.00000E+00
 -1      3146 0.00000E+00
 -1      3147 0.00000E+00
 -1      3148 0.00000E+00
 -1      3149 0.00000E+00
 -1      3150 0.00000E+00
 -1      3151 0.00000E+00
 -1      3152 0.00000E+00
 -1      3153 0.00000E+00
 -1      3154 0.00000E+00
 -1      3155 0.00000E+00
 -1      3156 0.00000E+00
 -1      3157 0.00000E+00
 -1      3158 0.00000E+00
 -1      3159 0.00000E+00
 -1      3160 0.00000E+00
 -1      3161 0.00000E+00
 -1      3162 0.00000E+00
 -1      3163 0.00000E+00
 -1      3164 0.00000E+00
 -1      3165 0.00000E+00
 -1      3166 0.00000E+00
 -1      3167 0.00000E+00
 -1      3168 0.00000E+00
 -1      3169 0.00000E+00
 -1      3170 0.00000E+00
 -1      3171 0.00000E+00
 -1      3172 0.00000E+00
 -1      3173 0.00000E+00
 -1      3174 0.00000E+00
 -1      3175 0.00000E+00
 -1      3176 0.00000E+00
 -1      3177 0.00000E+00
 -1      3178 0.00000E+00
 -1      3179 0.00000E+00
 -1      3180 0.00000E+00
 -1      3181 0.00000E+00
 -1      3182 0.00000E+00
 -1      3183 0.00000E+00
 -1      3184 0.00000E+00
 -1      3185 0.00000E+00
 -1      3186 0.00000E+00
 -1      3187 0.00000E+00
 -1      3188 0.00000E+00
 -1      3189 0.00000E+00
 -1      3190 0.00000E+00
 -1      3191 0.00000E+00
 -1      3192 0.00000E+00
 -1      3193 0.00000E+00
 -1      3194 0.00000E+00
 -1      3195 0.00000E+00
 -1      3196 0.00000E+00
 -1      3197 0.00000E+00
 -1      3198 0.00000E+00
 -1      3199 0.00000E+00
 -1      3200 0.00000E+00
 -1      3201 0.00000E+00
 -1      3202 0.00000E+00
 -1      3203 0.00000E+00
 -1      3204 0.00000E+00
 -1      3205 0.00000E+00
 -1      3206 0.00000E+00
 -1      3207 0.00000E+00
 -1      3208 0.00000E+00
 -1      3209 0.00000E+00
 -1      3210 0.00000E+00
 -1      3211 0.00000E+00
 -1      3212 0.00000E+00
 -1      3213 0.00000E+00
 -1      3214 0.00000E+00
 -1      3215 0.00000E+00
 -1      3216 0.00000E+00
 -1      3217 0.00000E+00
 -1      3218 0.00000E+00
 -1      3219 0.00000E+00
 -1      3220 0.00000E+00
 -1      3221 0.00000E+00
 -1      3222 0.00000E+00
 -1      3223 0.00000E+00
 -1      3224 0.00000E+00
 -1      3225 0.00000E+00
 -1      3226 0.00000E+00
 -1      3227 0.00000E+00
 -1      3228 0.00000E+00
 -1      3229 0.00000E+00
 -1      3230 0.00000E+00
 -1      3231 0.00000E+00
 -1      3232 0.00000E+00
 -1      3233 0.00000E+00
 -1      3234 0.00000E+00
 -1      3235 0.00000E+00
 -1      3236 0.00000E+00
 -1      3237 0.00000E+00
 -1      3238 0.00000E+00
 -1      3239 0.00000E+00
 -1      3240 0.00000E+00
 -1      3241 0.00000E+00
 -1      3242 0.00000E+00
 -1      3243 0.00000E+00
 -1      3244 0.00000E+00
 -1      3245 0.00000E+00
 -1      3246 0.00000E+00
 -1      3247 0.00000E+00
 -1      3248 0.00000E+00
 -1      3249 0.00000E+00
 -1      3250 0.00000E+00
 -1      3251 0.00000E+00
 -1      3252 0.00000E+00
 -1      3253 0.00000E+00
 -1      3254 0.00000E+00
 -1      3255 0.00000E+00
 -1      3256 0.00000E+00
 -1      3257 0.00000E+00
 -1      3258 0.00000E+00
 -1      3259 0.00000E+00
 -1      3260 0.00000E+00
 -1      3261 0.00000E+00
 -1      3262 0.00000E+00
 -1      3263 0.00000E+00
 -1      3264 0.00000E+00
 -1      3265 0.00000E+00
 -1      3266 0.00000E+00
 -1      3267 0.00000E+00
 -1      3268 0.00000E+00
 -1      3269 0.00000E+00
 -1      3270 0.00000E+00
 -1      3271 0.00000E+00
 -1      3272 0.00000E+00
 -1      3273 0.00000E+00
 -1      3274 0.00000E+00
 -1      3275 0.00000E+00
 -1      3276 0.00000E+00
 -1      3277 0.00000E+00
 -1      3278 0.00000E+00
 -1      3279 0.00000E+00
 -1      3280 0.00000E+00
 -1      3281 0.00000E+00
 -1      3282 0.00000E+00
 -1      3283 0.00000E+00
 -1      3284 0.00000E+00
 -1      3285 0.00000E+00
 -1      3286 0.00000E+00
 -1      3287 0.00000E+00
 -1      3288 0.00000E+00
 -1      3289 0.00000E+00
 -1      3290 0.00000E+00
 -1      3291 0.00000E+00
 -1      3292 0.00000E+00
 -1      3293 0.00000E+00
 -1      3294 0.00000E+00
 -1      3295 0.00000E+00
 -1      3296 0.00000E+00
 -1      3297 0.00000E+00
 -1      3298 0.00000E+00
 -1      3299 0.00000E+00
 -1      3300 0.00000E+00
 -1      3301 0.00000E+00
 -1      3302 0.00000E+00
 -1      3303 0.00000E+00
 -1      3304 0.00000E+00
 -1      3305 0.00000E+00
 -1      3306 0.00000E+00
 -1      3307 0.00000E+00
 -1      3308 0.00000E+00
 -1      3309 0.00000E+00
 -1      3310 0.00000E+00
 -1      3311 0.00000E+00
 -1      3312 0.00000E+00
 -1      3313 0.00000E+00
 -1      3314 0.00000E+00
 -1      3315 0.00000E+00
 -1      3316 0.00000E+00
 -1      3317 0.00000E+00
 -1      3318 0.00000E+00
 -1      3319 0.00000E+00
 -1      3320 0.00000E+00
 -1      3321 0.00000E+00
 -1      3322 0.00000E+00
 -1      3323 0.00000E+00
 -1      3324 0.00000E+00
 -1      3325 0.00000E+00
 -1      3326 0.00000E+00
 -1      3327 0.00000E+00
 -1      3328 0.00000E+00
 -1      3329 0.00000E+00
 -1      3330 0.00000E+00
 -1      3331 0.00000E+00
 -1      3332 0.00000E+00
 -1      3333 0.00000E+00
 -1      3334 0.00000E+00
 -1      3335 0.00000E+00
 -1      3336 0.00000E+00
 -1      3337 0.00000E+00
 -1      3338 0.00000E+00
 -1      3339 0.00000E+00
 -1      3340 0.00000E+00
 -1      3341 0.00000E+00
 -1      3342 0.00000E+00
 -1      3343 0.00000E+00
 -1      3344 0.00000E+00
 -1      3345 0.00000E+00
 -1      3346 0.00000E+00
 -1      3347 0.00000E+00
 -1      3348 0.00000E+00
 -1      3349 0.00000E+00
 -1      3350 0.00000E+00
 -1      3351 0.00000E+00
 -1      3352 0.00000E+00
 -1      3353 0.00000E+00
 -1      3354 0.00000E+00
 -1      3355 0.00000E+00
 -1      3356 0.00000E+00
 -1      3357 0.00000E+00
 -1      3358 0.00000E+00
 -1      3359 0.00000E+00
 -1      3360 0.00000E+00
 -1      3361 0.00000E+00
 -1      3362 0.00000E+00
 -1      3363 0.00000E+00
 -1      3364 0.00000E+00
 -1      3365 0.00000E+00
 -1      3366 0.00000E+00
 -1      3367 0.00000E+00
 -1      3368 0.00000E+00
 -1      3369 0.00000E+00
 -1      3370 0.00000E+00
 -1      3371 0.00000E+00
 -1      3372 0.00000E+00
 -1      3373 0.00000E+00
 -1      3374 0.00000E+00
 -1      3375 0.00000E+00
 -1      3376 0.00000E+00
 -1      3377 0.00000E+00
 -1      3378 0.00000E+00
 -1      3379 0.00000E+00
 -1      3380 0.00000E+00
 -1      3381 0.00000E+00
 -1      3382 0.00000E+00
 -1      3383 0.00000E+00
 -1      3384 0.00000E+00
 -1      3385 0.00000E+00
 -1      3386 0.00000E+00
 -1      3387 0.00000E+00
 -1      3388 0.00000E+00
 -1      3389 0.00000E+00
 -1      3390 0.00000E+00
 -1      3391 0.00000E+00
 -1      3392 0.00000E+00
 -1      3393 0.00000E+00
 -1      3394 0.00000E+00
 -1      3395 0.00000E+00
 -1      3396 0.00000E+00
 -1      3397 0.00000E+00
 -1      3398 0.00000E+00
 -1      3399 0.00000E+00
 -1      3400 0.00000E+00
 -1      3401 0.00000E+00
 -1      3402 0.00000E+00
 -1      3403 0.00000E+00
 -1      3404 0.00000E+00
 -1      3405 0.00000E+00
 -1      3406 0.00000E+00
 -1      3407 0.00000E+00
 -1      3408 0.00000E+00
 -1      3409 0.00000E+00
 -1      3410 0.00000E+00
 -1      3411 0.00000E+00
 -1      3412 0.00000E+00
 -1      3413 0.00000E+00
 -1      3414 0.00000E+00
 -1      3415 0.00000E+00
 -1      3416 0.00000E+00
 -1      3417 0.00000E+00
 -1      3418 0.00000E+00
 -1      3419 0.00000E+00
 -1      3420 0.00000E+00
 -1      3421 0.00000E+00
 -1      3422 0.00000E+00
 -1      3423 0.00000E+00
 -1      3424 0.00000E+00
 -1      3425 0.00000E+00
 -1      3426 0.00000E+00
 -1      3427 0.00000E+00
 -1      3428 0.00000E+00
 -1      3429 0.00000E+00
 -1      3430 0.00000E+00
 -1      3431 0.00000E+00
 -1      3432 0.00000E+00
 -1      3433 0.00000E+00
 -1      3434 0.00000E+00
 -1      3435 0.00000E+00
 -1      3436 0.00000E+00
 -1      3437 0.00000E+00
 -1      3438 0.00000E+00
 -1      3439 0.00000E+00
 -1      3440 0.00000E+00
 -1      3441 0.00000E+00
 -1      3442 0.00000E+00
 -1      3443 0.00000E+00
 -1      3444 0.00000E+00
 -1      3445 0.00000E+00
 -1      3446 0.00000E+00
 -1      3447 0.00000E+00
 -1      3448 0.00000E+00
 -1      3449 0.00000E+00
 -1      3450 0.00000E+00
 -1      3451 0.00000E+00
 -1      3452 0.00000E+00
 -1      3453 0.00000E+00
 -1      3454 0.00000E+00
 -1      3455 0.00000E+00
 -1      3456 0.00000E+00
 -1      3457 0.00000E+00
 -1      3458 0.00000E+00
 -1      3459 0.00000E+00
 -1      3460 0.00000E+00
 -1      3461 0.00000E+00
 -1      3462 0.00000E+00
 -1      3463 0.00000E+00
 -1      3464 0.00000E+00
 -1      3465 0.00000E+00
 -1      3466 0.00000E+00
 -1      3467 0.00000E+00
 -1      3468 0.00000E+00
 -1      3469 0.00000E+00
 -1      3470 0.00000E+00
 -1      3471 0.00000E+00
 -1      3472 0.00000E+00
 -1      3473 0.00000E+00
 -1      3474 0.00000E+00
 -1      3475 0.00000E+00
 -1      3476 0.00000E+00
 -1      3477 0.00000E+00
 -1      3478 0.00000E+00
 -1      3479 0.00000E+00
 -1      3480 0.00000E+00
 -1      3481 0.00000E+00
 -1      3482 0.00000E+00
 -1      3483 0.00000E+00
 -1      3484 0.00000E+00
 -1      3485 0.00000E+00
 -1      3486 0.00000E+00
 -1      3487 0.00000E+00
 -1      3488 0.00000E+00
 -1      3489 0.00000E+00
 -1      3490 0.00000E+00
 -1      3491 0.00000E+00
 -1      3492 0.00000E+00
 -1      3493 0.00000E+00
 -1      3494 0.00000E+00
 -1      3495 0.00000E+00
 -1      3496 0.00000E+00
 -1      3497 0.00000E+00
 -1      3498 0.00000E+00
 -1      3499 0.00000E+00
 -1      3500 0.00000E+00
 -1      3501 0.00000E+00
 -1      3502 0.00000E+00
 -1      3503 0.00000E+00
 -1      3504 0.00000E+00
 -1      3505 0.00000E+00
 -1      3506 0.00000E+00
 -1      3507 0.00000E+00
 -1      3508 0.00000E+00
 -1      3509 0.00000E+00
 -1      3510 0.00000E+00
 -1      3511 0.00000E+00
 -1      3512 0.00000E+00
 -1      3513 0.00000E+00
 -1      3514 0.00000E+00
 -1      3515 0.00000E+00
 -1      3516 0.00000E+00
 -1      3517 0.00000E+00
 -1      3518 0.00000E+00
 -1      3519 0.00000E+00
 -1      3520 0.00000E+00
 -1      3521 0.00000E+00
 -1      3522 0.00000E+00
 -1      3523 0.00000E+00
 -1      3524 0.00000E+00
 -1      3525 0.00000E+00
 -1      3526 0.00000E+00
 -1      3527 0.00000E+00
 -1      3528 0.00000E+00
 -1      3529 0.00000E+00
 -1      3530 0.00000E+00
 -1      3531 0.00000E+00
 -1      3532 0.00000E+00
 -1      3533 0.00000E+00
 -1      3534 0.00000E+00
 -1      3535 0.00000E+00
 -1      3536 0.00000E+00
 -1      3537 0.00000E+00
 -1      3538 0.00000E+00
 -1      3539 0.00000E+00
 -1      3540 0.00000E+00
 -1      3541 0.00000E+00
 -1      3542 0.00000E+00
 -1      3543 0.00000E+00
 -1      3544 0.00000E+00
 -1      3545 0.00000E+00
 -1      3546 0.00000E+00
 -1      3547 0.00000E+00
 -1      3548 0.00000E+00
 -1      3549 0.00000E+00
 -1      3550 0.00000E+00
 -1      3551 0.00000E+00
 -1      3552 0.00000E+00
 -1      3553 0.00000E+00
 -1      3554 0.00000E+00
 -1      3555 0.00000E+00
 -1      3556 0.00000E+00
 -1      3557 0.00000E+00
 -1      3558 0.00000E+00
 -1      3559 0.00000E+00
 -1      3560 0.00000E+00
 -1      3561 0.00000E+00
 -1      3562 0.00000E+00
 -1      3563 0.00000E+00
 -1      3564 0.00000E+00
 -1      3565 0.00000E+00
 -1      3566 0.00000E+00
 -1      3567 0.00000E+00
 -1      3568 0.00000E+00
 -1      3569 0.00000E+00
 -1      3570 0.00000E+00
 -1      3571 0.00000E+00
 -1      3572 0.00000E+00
 -1      3573 0.00000E+00
 -1      3574 0.00000E+00
 -1      3575 0.00000E+00
 -1      3576 0.00000E+00
 -1      3577 0.00000E+00
 -1      3578 0.00000E+00
 -1      3579 0.00000E+00
 -1      3580 0.00000E+00
 -1      3581 0.00000E+00
 -1      3582 0.00000E+00
 -1      3583 0.00000E+00
 -1      3584 0.00000E+00
 -1      3585 0.00000E+00
 -1      3586 0.00000E+00
 -1      3587 0.00000E+00
 -1      3588 0.00000E+00
 -1      3589 0.00000E+00
 -1      3590 0.00000E+00
 -1      3591 0.00000E+00
 -1      3592 0.00000E+00
 -1      3593 0.00000E+00
 -1      3594 0.00000E+00
 -1      3595 0.00000E+00
 -1      3596 0.00000E+00
 -1      3597 0.00000E+00
 -1      3598 0.00000E+00
 -1      3599 0.00000E+00
 -1      3600 0.00000E+00
 -1      3601 0.00000E+00
 -1      3602 0.00000E+00
 -1      3603 0.00000E+00
 -1      3604 0.00000E+00
 -1      3605 0.00000E+00
 -1      3606 0.00000E+00
 -1      3607 0.00000E+00
 -1      3608 0.00000E+00
 -1      3609 0.00000E+00
 -1      3610 0.00000E+00
 -1      3611 0.00000E+00
 -1      3612 0.00000E+00
 -1      3613 0.00000E+00
 -1      3614 0.00000E+00
 -1      3615 0.00000E+00
 -1      3616 0.00000E+00
 -1      3617 0.00000E+00
 -1      3618 0.00000E+00
 -1      3619 0.00000E+00
 -1      3620 0.00000E+00
 -1      3621 0.00000E+00
 -1      3622 0.00000E+00
 -1      3623 0.00000E+00
 -1      3624 0.00000E+00
 -1      3625 0.00000E+00
 -1      3626 0.00000E+00
 -1      3627 0.00000E+00
 -1      3628 0.00000E+00
 -1      3629 0.00000E+00
 -1      3630 0.00000E+00
 -1      3631 0.00000E+00
 -1      3632 0.00000E+00
 -1      3633 0.00000E+00
 -1      3634 0.00000E+00
 -1      3635 0.00000E+00
 -1      3636 0.00000E+00
 -1      3637 0.00000E+00
 -1      3638 0.00000E+00
 -1      3639 0.00000E+00
 -1      3640 0.00000E+00
 -1      3641 0.00000E+00
 -1      3642 0.00000E+00
 -1      3643 0.00000E+00
 -1      3644 0.00000E+00
 -1      3645 0.00000E+00
 -1      3646 0.00000E+00
 -1      3647 0.00000E+00
 -1      3648 0.00000E+00
 -1      3649 0.00000E+00
 -1      3650 0.00000E+00
 -1      3651 0.00000E+00
 -1      3652 0.00000E+00
 -1      3653 0.00000E+00
 -1      3654 0.00000E+00
 -1      3655 0.00000E+00
 -1      3656 0.00000E+00
 -1      3657 0.00000E+00
 -1      3658 0.00000E+00
 -1      3659 0.00000E+00
 -1      3660 0.00000E+00
 -1      3661 0.00000E+00
 -1      3662 0.00000E+00
 -1      3663 0.00000E+00
 -1      3664 0.00000E+00
 -1      3665 0.00000E+00
 -1      3666 0.00000E+00
 -1      3667 0.00000E+00
 -1      3668 0.00000E+00
 -1      3669 0.00000E+00
 -1      3670 0.00000E+00
 -1      3671 0.00000E+00
 -1      3672 0.00000E+00
 -1      3673 0.00000E+00
 -1      3674 0.00000E+00
 -1      3675 0.00000E+00
 -1      3676 0.00000E+00
 -1      3677 0.00000E+00
 -1      3678 0.00000E+00
 -1      3679 0.00000E+00
 -1      3680 0.00000E+00
 -1      3681 0.00000E+00
 -1      3682 0.00000E+00
 -1      3683 0.00000E+00
 -1      3684 0.00000E+00
 -1      3685 0.00000E+00
 -1      3686 0.00000E+00
 -1      3687 0.00000E+00
 -1      3688 0.00000E+00
 -1      3689 0.00000E+00
 -1      3690 0.00000E+00
 -1      3691 0.00000E+00
 -1      3692 0.00000E+00
 -1      3693 0.00000E+00
 -1      3694 0.00000E+00
 -1      3695 0.00000E+00
 -1      3696 0.00000E+00
 -1      3697 0.00000E+00
 -1      3698 0.00000E+00
 -1      3699 0.00000E+00
 -1      3700 0.00000E+00
 -1      3701 0.00000E+00
 -1      3702 0.00000E+00
 -1      3703 0.00000E+00
 -1      3704 0.00000E+00
 -1      3705 0.00000E+00
 -1      3706 0.00000E+00
 -1      3707 0.00000E+00
 -1      3708 0.00000E+00
 -1      3709 0.00000E+00
 -1      3710 0.00000E+00
 -1      3711 0.00000E+00
 -1      3712 0.00000E+00
 -1      3713 0.00000E+00
 -1      3714 0.00000E+00
 -1      3715 0.00000E+00
 -1      3716 0.00000E+00
 -1      3717 0.00000E+00
 -1      3718 0.00000E+00
 -1      3719 0.00000E+00
 -1      3720 0.00000E+00
 -1      3721 0.00000E+00
 -1      3722 0.00000E+00
 -1      3723 0.00000E+00
 -1      3724 0.00000E+00
 -1      3725 0.00000E+00
 -1      3726 0.00000E+00
 -1      3727 0.00000E+00
 -1      3728 0.00000E+00
 -1      3729 0.00000E+00
 -1      3730 0.00000E+00
 -1      3731 0.00000E+00
 -1      3732 0.00000E+00
 -1      3733 0.00000E+00
 -1      3734 0.00000E+00
 -1      3735 0.00000E+00
 -1      3736 0.00000E+00
 -1      3737 0.00000E+00
 -1      3738 0.00000E+00
 -1      3739 0.00000E+00
 -1      3740 0.00000E+00
 -1      3741 0.00000E+00
 -1      3742 0.00000E+00
 -1      3743 0.00000E+00
 -1      3744 0.00000E+00
 -1      3745 0.00000E+00
 -1      3746 0.00000E+00
 -1      3747 0.00000E+00
 -1      3748 0.00000E+00
 -1      3749 0.00000E+00
 -1      3750 0.00000E+00
 -1      3751 0.00000E+00
 -1      3752 0.00000E+00
 -1      3753 0.00000E+00
 -1      3754 0.00000E+00
 -1      3755 0.00000E+00
 -1      3756 0.00000E+00
 -1      3757 0.00000E+00
 -1      3758 0.00000E+00
 -1      3759 0.00000E+00
 -1      3760 0.00000E+00
 -1      3761 0.00000E+00
 -1      3762 0.00000E+00
 -1      3763 0.00000E+00
 -1      3764 0.00000E+00
 -1      3765 0.00000E+00
 -1      3766 0.00000E+00
 -1      3767 0.00000E+00
 -1      3768 0.00000E+00
 -1      3769 0.00000E+00
 -1      3770 0.00000E+00
 -1      3771 0.00000E+00
 -1      3772 0.00000E+00
 -1      3773 0.00000E+00
 -1      3774 0.00000E+00
 -1      3775 0.00000E+00
 -1      3776 0.00000E+00
 -1      3777 0.00000E+00
 -1      3778 0.00000E+00
 -1      3779 0.00000E+00
 -1      3780 0.00000E+00
 -1      3781 0.00000E+00
 -1      3782 0.00000E+00
 -1      3783 0.00000E+00
 -1      3784 0.00000E+00
 -1      3785 0.00000E+00
 -1      3786 0.00000E+00
 -1      3787 0.00000E+00
 -1      3788 0.00000E+00
 -1      3789 0.00000E+00
 -1      3790 0.00000E+00
 -1      3791 0.00000E+00
 -1      3792 0.00000E+00
 -1      3793 0.00000E+00
 -1      3794 0.00000E+00
 -1      3795 0.00000E+00
 -1      3796 0.00000E+00
 -1      3797 0.00000E+00
 -1      3798 0.00000E+00
 -1      3799 0.00000E+00
 -1      3800 0.00000E+00
 -1      3801 0.00000E+00
 -1      3802 0.00000E+00
 -1      3803 0.00000E+00
 -1      3804 0.00000E+00
 -1      3805 0.00000E+00
 -1      3806 0.00000E+00
 -1      3807 0.00000E+00
 -1      3808 0.00000E+00
 -1      3809 0.00000E+00
 -1      3810 0.00000E+00
 -1      3811 0.00000E+00
 -1      3812 0.00000E+00
 -1      3813 0.00000E+00
 -1      3814 0.00000E+00
 -1      3815 0.00000E+00
 -1      3816 0.00000E+00
 -1      3817 0.00000E+00
 -1      3818 0.00000E+00
 -1      3819 0.00000E+00
 -1      3820 0.00000E+00
 -1      3821 0.00000E+00
 -1      3822 0.00000E+00
 -1      3823 0.00000E+00
 -1      3824 0.00000E+00
 -1      3825 0.00000E+00
 -1      3826 0.00000E+00
 -1      3827 0.00000E+00
 -1      3828 0.00000E+00
 -1      3829 0.00000E+00
 -1      3830 0.00000E+00
 -1      3831 0.00000E+00
 -1      3832 0.00000E+00
 -1      3833 0.00000E+00
 -1      3834 0.00000E+00
 -1      3835 0.00000E+00
 -1      3836 0.00000E+00
 -1      3837 0.00000E+00
 -1      3838 0.00000E+00
 -1      3839 0.00000E+00
 -1      3840 0.00000E+00
 -1      3841 0.00000E+00
 -1      3842 0.00000E+00
 -1      3843 0.00000E+00
 -1      3844 0.00000E+00
 -1      3845 0.00000E+00
 -1      3846 0.00000E+00
 -1      3847 0.00000E+00
 -1      3848 0.00000E+00
 -1      3849 0.00000E+00
 -1      3850 0.00000E+00
 -1      3851 0.00000E+00
 -1      3852 0.00000E+00
 -1      3853 0.00000E+00
 -1      3854 0.00000E+00
 -1      3855 0.00000E+00
 -1      3856 0.00000E+00
 -1      3857 0.00000E+00
 -1      3858 0.00000E+00
 -1      3859 0.00000E+00
 -1      3860 0.00000E+00
 -1      3861 0.00000E+00
 -1      3862 0.00000E+00
 -1      3863 0.00000E+00
 -1      3864 0.00000E+00
 -1      3865 0.00000E+00
 -1      3866 0.00000E+00
 -1      3867 0.00000E+00
 -1      3868 0.00000E+00
 -1      3869 0.00000E+00
 -1      3870 0.00000E+00
 -1      3871 0.00000E+00
 -1      3872 0.00000E+00
 -1      3873 0.00000E+00
 -1      3874 0.00000E+00
 -1      3875 0.00000E+00
 -1      3876 0.00000E+00
 -1      3877 0.00000E+00
 -1      3878 0.00000E+00
 -1      3879 0.00000E+00
 -1      3880 0.00000E+00
 -1      3881 0.00000E+00
 -1      3882 0.00000E+00
 -1      3883 0.00000E+00
 -1      3884 0.00000E+00
 -1      3885 0.00000E+00
 -1      3886 0.00000E+00
 -1      3887 0.00000E+00
 -1      3888 0.00000E+00
 -1      3889 0.00000E+00
 -1      3890 0.00000E+00
 -1      3891 0.00000E+00
 -1      3892 0.00000E+00
 -1      3893 0.00000E+00
 -1      3894 0.00000E+00
 -1      3895 0.00000E+00
 -1      3896 0.00000E+00
 -1      3897 0.00000E+00
 -1      3898 0.00000E+00
 -1      3899 0.00000E+00
 -1      3900 0.00000E+00
 -1      3901 0.00000E+00
 -1      3902 0.00000E+00
 -1      3903 0.00000E+00
 -1      3904 0.00000E+00
 -1      3905 0.00000E+00
 -1      3906 0.00000E+00
 -1      3907 0.00000E+00
 -1      3908 0.00000E+00
 -1      3909 0.00000E+00
 -1      3910 0.00000E+00
 -1      3911 0.00000E+00
 -1      3912 0.00000E+00
 -1      3913 0.00000E+00
 -1      3914 0.00000E+00
 -1      3915 0.00000E+00
 -1      3916 0.00000E+00
 -1      3917 0.00000E+00
 -1      3918 0.00000E+00
 -1      3919 0.00000E+00
 -1      3920 0.00000E+00
 -1      3921 0.00000E+00
 -1      3922 0.00000E+00
 -1      3923 0.00000E+00
 -1      3924 0.00000E+00
 -1      3925 0.00000E+00
 -1      3926 0.00000E+00
 -1      3927 0.00000E+00
 -1      3928 0.00000E+00
 -1      3929 0.00000E+00
 -1      3930 0.00000E+00
 -1      3931 0.00000E+00
 -1      3932 0.00000E+00
 -1      3933 0.00000E+00
 -1      3934 0.00000E+00
 -1      3935 0.00000E+00
 -1      3936 0.00000E+00
 -1      3937 0.00000E+00
 -1      3938 0.00000E+00
 -1      3939 0.00000E+00
 -1      3940 0.00000E+00
 -1      3941 0.00000E+00
 -1      3942 0.00000E+00
 -1      3943 0.00000E+00
 -1      3944 0.00000E+00
 -1      3945 0.00000E+00
 -1      3946 0.00000E+00
 -1      3947 0.00000E+00
 -1      3948 0.00000E+00
 -1      3949 0.00000E+00
 -1      3950 0.00000E+00
 -1      3951 0.00000E+00
 -1      3952 0.00000E+00
 -1      3953 0.00000E+00
 -1      3954 0.00000E+00
 -1      3955 0.00000E+00
 -1      3956 0.00000E+00
 -1      3957 0.00000E+00
 -1      3958 0.00000E+00
 -1      3959 0.00000E+00
 -1      3960 0.00000E+00
 -1      3961 0.00000E+00
 -1      3962 0.00000E+00
 -1      3963 0.00000E+00
 -1      3964 0.00000E+00
 -1      3965 0.00000E+00
 -1      3966 0.00000E+00
 -1      3967 0.00000E+00
 -1      3968 0.00000E+00
 -1      3969 0.00000E+00
 -1      3970 0.00000E+00
 -1      3971 0.00000E+00
 -1      3972 0.00000E+00
 -1      3973 0.00000E+00
 -1      3974 0.00000E+00
 -1      3975 0.00000E+00
 -1      3976 0.00000E+00
 -1      3977 0.00000E+00
 -1      3978 0.00000E+00
 -1      3979 0.00000E+00
 -1      3980 0.00000E+00
 -1      3981 0.00000E+00
 -1      3982 0.00000E+00
 -1      3983 0.00000E+00
 -1      3984 0.00000E+00
 -1      3985 0.00000E+00
 -1      3986 0.00000E+00
 -1      3987 0.00000E+00
 -1      3988 0.00000E+00
 -1      3989 0.00000E+00
 -1      3990 0.00000E+00
 -1      3991 0.00000E+00
 -1      3992 0.00000E+00
 -1      3993 0.00000E+00
 -1      3994 0.00000E+00
 -1      3995 0.00000E+00
 -1      3996 0.00000E+00
 -1      3997 0.00000E+00
 -1      3998 0.00000E+00
 -1      3999 0.00000E+00
 -1      4000 0.00000E+00
 -1      4001 0.00000E+00
 -1      4002 0.00000E+00
 -1      4003 0.00000E+00
 -1      4004 0.00000E+00
 -1      4005 0.00000E+00
 -1      4006 0.00000E+00
 -1      4007 0.00000E+00
 -1      4008 0.00000E+00
 -1      4009 0.00000E+00
 -1      4010 0.00000E+00
 -1      4011 0.00000E+00
 -1      4012 0.00000E+00
 -1      4013 0.00000E+00
 -1      4014 0.00000E+00
 -1      4015 0.00000E+00
 -1      4016 0.00000E+00
 -1      4017 0.00000E+00
 -1      4018 0.00000E+00
 -1      4019 0.00000E+00
 -1      4020 0.00000E+00
 -1      4021 0.00000E+00
 -1      4022 0.00000E+00
 -1      4023 0.00000E+00
 -1      4024 0.00000E+00
 -1      4025 0.00000E+00
 -1      4026 0.00000E+00
 -1      4027 0.00000E+00
 -1      4028 0.00000E+00
 -1      4029 0.00000E+00
 -1      4030 0.00000E+00
 -1      4031 0.00000E+00
 -1      4032 0.00000E+00
 -1      4033 0.00000E+00
 -1      4034 0.00000E+00
 -1      4035 0.00000E+00
 -1      4036 0.00000E+00
 -1      4037 0.00000E+00
 -1      4038 0.00000E+00
 -1      4039 0.00000E+00
 -1      4040 0.00000E+00
 -1      4041 0.00000E+00
 -1      4042 0.00000E+00
 -1      4043 0.00000E+00
 -1      4044 0.00000E+00
 -1      4045 0.00000E+00
 -1      4046 0.00000E+00
 -1      4047 0.00000E+00
 -1      4048 0.00000E+00
 -1      4049 0.00000E+00
 -1      4050 0.00000E+00
 -1      4051 0.00000E+00
 -1      4052 0.00000E+00
 -1      4053 0.00000E+00
 -1      4054 0.00000E+00
 -1      4055 0.00000E+00
 -1      4056 0.00000E+00
 -1      4057 0.00000E+00
 -1      4058 0.00000E+00
 -1      4059 0.00000E+00
 -1      4060 0.00000E+00
 -1      4061 0.00000E+00
 -1      4062 0.00000E+00
 -1      4063 0.00000E+00
 -1      4064 0.00000E+00
 -1      4065 0.00000E+00
 -1      4066 0.00000E+00
 -1      4067 0.00000E+00
 -1      4068 0.00000E+00
 -1      4069 0.00000E+00
 -1      4070 0.00000E+00
 -1      4071 0.00000E+00
 -1      4072 0.00000E+00
 -1      4073 0.00000E+00
 -1      4074 0.00000E+00
 -1      4075 0.00000E+00
 -1      4076 0.00000E+00
 -1      4077 0.00000E+00
 -1      4078 0.00000E+00
 -1      4079 0.00000E+00
 -1      4080 0.00000E+00
 -1      4081 0.00000E+00
 -1      4082 0.00000E+00
 -1      4083 0.00000E+00
 -1      4084 0.00000E+00
 -1      4085 0.00000E+00
 -1      4086 0.00000E+00
 -1      4087 0.00000E+00
 -1      4088 0.00000E+00
 -1      4089 0.00000E+00
 -1      4090 0.00000E+00
 -1      4091 0.00000E+00
 -1      4092 0.00000E+00
 -1      4093 0.00000E+00
 -1      4094 0.00000E+00
 -1      4095 0.00000E+00
 -1      4096 0.00000E+00
 -1      4097 0.00000E+00
 -1      4098 0.00000E+00
 -1      4099 0.00000E+00
 -1      4100 0.00000E+00
 -1      4101 0.00000E+00
 -1      4102 0.00000E+00
 -1      4103 0.00000E+00
 -1      4104 0.00000E+00
 -1      4105 0.00000E+00
 -1      4106 0.00000E+00
 -1      4107 0.00000E+00
 -1      4108 0.00000E+00
 -1      4109 0.00000E+00
 -1      4110 0.00000E+00
 -1      4111 0.00000E+00
 -1      4112 0.00000E+00
 -1      4113 0.00000E+00
 -1      4114 0.00000E+00
 -1      4115 0.00000E+00
 -1      4116 0.00000E+00
 -1      4117 0.00000E+00
 -1      4118 0.00000E+00
 -1      4119 0.00000E+00
 -1      4120 0.00000E+00
 -1      4121 0.00000E+00
 -1      4122 0.00000E+00
 -1      4123 0.00000E+00
 -1      4124 0.00000E+00
 -1      4125 0.00000E+00
 -1      4126 0.00000E+00
 -1      4127 0.00000E+00
 -1      4128 0.00000E+00
 -1      4129 0.00000E+00
 -1      4130 0.00000E+00
 -1      4131 0.00000E+00
 -1      4132 0.00000E+00
 -1      4133 0.00000E+00
 -1      4134 0.00000E+00
 -1      4135 0.00000E+00
 -1      4136 0.00000E+00
 -1      4137 0.00000E+00
 -1      4138 0.00000E+00
 -1      4139 0.00000E+00
 -1      4140 0.00000E+00
 -1      4141 0.00000E+00
 -1      4142 0.00000E+00
 -1      4143 0.00000E+00
 -1      4144 0.00000E+00
 -1      4145 0.00000E+00
 -1      4146 0.00000E+00
 -1      4147 0.00000E+00
 -1      4148 0.00000E+00
 -1      4149 0.00000E+00
 -1      4150 0.00000E+00
 -1      4151 0.00000E+00
 -1      4152 0.00000E+00
 -1      4153 0.00000E+00
 -1      4154 0.00000E+00
 -1      4155 0.00000E+00
 -1      4156 0.00000E+00
 -1      4157 0.00000E+00
 -1      4158 0.00000E+00
 -1      4159 0.00000E+00
 -1      4160 0.00000E+00
 -1      4161 0.00000E+00
 -1      4162 0.00000E+00
 -1      4163 0.00000E+00
 -1      4164 0.00000E+00
 -1      4165 0.00000E+00
 -1      4166 0.00000E+00
 -1      4167 0.00000E+00
 -1      4168 0.00000E+00
 -1      4169 0.00000E+00
 -1      4170 0.00000E+00
 -1      4171 0.00000E+00
 -1      4172 0.00000E+00
 -1      4173 0.00000E+00
 -1      4174 0.00000E+00
 -1      4175 0.00000E+00
 -1      4176 0.00000E+00
 -1      4177 0.00000E+00
 -1      4178 0.00000E+00
 -1      4179 0.00000E+00
 -1      4180 0.00000E+00
 -1      4181 0.00000E+00
 -1      4182 0.00000E+00
 -1      4183 0.00000E+00
 -1      4184 0.00000E+00
 -1      4185 0.00000E+00
 -1      4186 0.00000E+00
 -1      4187 0.00000E+00
 -1      4188 0.00000E+00
 -1      4189 0.00000E+00
 -1      4190 0.00000E+00
 -1      4191 0.00000E+00
 -1      4192 0.00000E+00
 -1      4193 0.00000E+00
 -1      4194 0.00000E+00
 -1      4195 0.00000E+00
 -1      4196 0.00000E+00
 -1      4197 0.00000E+00
 -1      4198 0.00000E+00
 -1      4199 0.00000E+00
 -1      4200 0.00000E+00
 -1      4201 0.00000E+00
 -1      4202 0.00000E+00
 -1      4203 0.00000E+00
 -1      4204 0.00000E+00
 -1      4205 0.00000E+00
 -1      4206 0.00000E+00
 -1      4207 0.00000E+00
 -1      4208 0.00000E+00
 -1      4209 0.00000E+00
 -1      4210 0.00000E+00
 -1      4211 0.00000E+00
 -1      4212 0.00000E+00
 -1      4213 0.00000E+00
 -1      4214 0.00000E+00
 -1      4215 0.00000E+00
 -1      4216 0.00000E+00
 -1      4217 0.00000E+00
 -1      4218 0.00000E+00
 -1      4219 0.00000E+00
 -1      4220 0.00000E+00
 -1      4221 0.00000E+00
 -1      4222 0.00000E+00
 -1      4223 0.00000E+00
 -1      4224 0.00000E+00
 -1      4225 0.00000E+00
 -1      4226 0.00000E+00
 -1      4227 0.00000E+00
 -1      4228 0.00000E+00
 -1      4229 0.00000E+00
 -1      4230 0.00000E+00
 -1      4231 0.00000E+00
 -1      4232 0.00000E+00
 -1      4233 0.00000E+00
 -1      4234 0.00000E+00
 -1      4235 0.00000E+00
 -1      4236 0.00000E+00
 -1      4237 0.00000E+00
 -1      4238 0.00000E+00
 -1      4239 0.00000E+00
 -1      4240 0.00000E+00
 -1      4241 0.00000E+00
 -1      4242 0.00000E+00
 -1      4243 0.00000E+00
 -1      4244 0.00000E+00
 -1      4245 0.00000E+00
 -1      4246 0.00000E+00
 -1      4247 0.00000E+00
 -1      4248 0.00000E+00
 -1      4249 0.00000E+00
 -1      4250 0.00000E+00
 -1      4251 0.00000E+00
 -1      4252 0.00000E+00
 -1      4253 0.00000E+00
 -1      4254 0.00000E+00
 -1      4255 0.00000E+00
 -1      4256 0.00000E+00
 -1      4257 0.00000E+00
 -1      4258 0.00000E+00
 -1      4259 0.00000E+00
 -1      4260 0.00000E+00
 -1      4261 0.00000E+00
 -1      4262 0.00000E+00
 -1      4263 0.00000E+00
 -1      4264 0.00000E+00
 -1      4265 0.00000E+00
 -1      4266 0.00000E+00
 -1      4267 0.00000E+00
 -1      4268 0.00000E+00
 -1      4269 0.00000E+00
 -1      4270 0.00000E+00
 -1      4271 0.00000E+00
 -1      4272 0.00000E+00
 -1      4273 0.00000E+00
 -1      4274 0.00000E+00
 -1      4275 0.00000E+00
 -1      4276 0.00000E+00
 -1      4277 0.00000E+00
 -1      4278 0.00000E+00
 -1      4279 0.00000E+00
 -1      4280 0.00000E+00
 -1      4281 0.00000E+00
 -1      4282 0.00000E+00
 -1      4283 0.00000E+00
 -1      4284 0.00000E+00
 -1      4285 0.00000E+00
 -1      4286 0.00000E+00
 -1      4287 0.00000E+00
 -1      4288 0.00000E+00
 -1      4289 0.00000E+00
 -1      4290 0.00000E+00
 -1      4291 0.00000E+00
 -1      4292 0.00000E+00
 -1      4293 0.00000E+00
 -1      4294 0.00000E+00
 -1      4295 0.00000E+00
 -1      4296 0.00000E+00
 -1      4297 0.00000E+00
 -1      4298 0.00000E+00
 -1      4299 0.00000E+00
 -1      4300 0.00000E+00
 -1      4301 0.00000E+00
 -1      4302 0.00000E+00
 -1      4303 0.00000E+00
 -1      4304 0.00000E+00
 -1      4305 0.00000E+00
 -1      4306 0.00000E+00
 -1      4307 0.00000E+00
 -1      4308 0.00000E+00
 -1      4309 0.00000E+00
 -1      4310 0.00000E+00
 -1      4311 0.00000E+00
 -1      4312 0.00000E+00
 -1      4313 0.00000E+00
 -1      4314 0.00000E+00
 -1      4315 0.00000E+00
 -1      4316 0.00000E+00
 -1      4317 0.00000E+00
 -1      4318 0.00000E+00
 -1      4319 0.00000E+00
 -1      4320 0.00000E+00
 -1      4321 0.00000E+00
 -1      4322 0.00000E+00
 -1      4323 0.00000E+00
 -1      4324 0.00000E+00
 -1      4325 0.00000E+00
 -1      4326 0.00000E+00
 -1      4327 0.00000E+00
 -1      4328 0.00000E+00
 -1      4329 0.00000E+00
 -1      4330 0.00000E+00
 -1      4331 0.00000E+00
 -1      4332 0.00000E+00
 -1      4333 0.00000E+00
 -1      4334 0.00000E+00
 -1      4335 0.00000E+00
 -1      4336 0.00000E+00
 -1      4337 0.00000E+00
 -1      4338 0.00000E+00
 -1      4339 0.00000E+00
 -1      4340 0.00000E+00
 -1      4341 0.00000E+00
 -1      4342 0.00000E+00
 -1      4343 0.00000E+00
 -1      4344 0.00000E+00
 -1      4345 0.00000E+00
 -1      4346 0.00000E+00
 -1      4347 0.00000E+00
 -1      4348 0.00000E+00
 -1      4349 0.00000E+00
 -1      4350 0.00000E+00
 -1      4351 0.00000E+00
 -1      4352 0.00000E+00
 -1      4353 0.00000E+00
 -1      4354 0.00000E+00
 -1      4355 0.00000E+00
 -1      4356 0.00000E+00
 -1      4357 0.00000E+00
 -1      4358 0.00000E+00
 -1      4359 0.00000E+00
 -1      4360 0.00000E+00
 -1      4361 0.00000E+00
 -1      4362 0.00000E+00
 -1      4363 0.00000E+00
 -1      4364 0.00000E+00
 -1      4365 0.00000E+00
 -1      4366 0.00000E+00
 -1      4367 0.00000E+00
 -1      4368 0.00000E+00
 -1      4369 0.00000E+00
 -1      4370 0.00000E+00
 -1      4371 0.00000E+00
 -1      4372 0.00000E+00
 -1      4373 0.00000E+00
 -1      4374 0.00000E+00
 -1      4375 0.00000E+00
 -1      4376 0.00000E+00
 -1      4377 0.00000E+00
 -1      4378 0.00000E+00
 -1      4379 0.00000E+00
 -1      4380 0.00000E+00
 -1      4381 0.00000E+00
 -1      4382 0.00000E+00
 -1      4383 0.00000E+00
 -1      4384 0.00000E+00
 -1      4385 0.00000E+00
 -1      4386 0.00000E+00
 -1      4387 0.00000E+00
 -1      4388 0.00000E+00
 -1      4389 0.00000E+00
 -1      4390 0.00000E+00
 -1      4391 0.00000E+00
 -1      4392 0.00000E+00
 -1      4393 0.00000E+00
 -1      4394 0.00000E+00
 -1      4395 0.00000E+00
 -1      4396 0.00000E+00
 -1      4397 0.00000E+00
 -1      4398 0.00000E+00
 -1      4399 0.00000E+00
 -1      4400 0.00000E+00
 -1      4401 0.00000E+00
 -1      4402 0.00000E+00
 -1      4403 0.00000E+00
 -1      4404 0.00000E+00
 -1      4405 0.00000E+00
 -1      4406 0.00000E+00
 -1      4407 0.00000E+00
 -1      4408 0.00000E+00
 -1      4409 0.00000E+00
 -1      4410 0.00000E+00
 -1      4411 0.00000E+00
 -1      4412 0.00000E+00
 -1      4413 0.00000E+00
 -1      4414 0.00000E+00
 -1      4415 0.00000E+00
 -1      4416 0.00000E+00
 -1      4417 0.00000E+00
 -1      4418 0.00000E+00
 -1      4419 0.00000E+00
 -1      4420 0.00000E+00
 -1      4421 0.00000E+00
 -1      4422 0.00000E+00
 -1      4423 0.00000E+00
 -1      4424 0.00000E+00
 -1      4425 0.00000E+00
 -1      4426 0.00000E+00
 -1      4427 0.00000E+00
 -1      4428 0.00000E+00
 -1      4429 0.00000E+00
 -1      4430 0.00000E+00
 -1      4431 0.00000E+00
 -1      4432 0.00000E+00
 -1      4433 0.00000E+00
 -1      4434 0.00000E+00
 -1      4435 0.00000E+00
 -1      4436 0.00000E+00
 -1      4437 0.00000E+00
 -1      4438 0.00000E+00
 -1      4439 0.00000E+00
 -1      4440 0.00000E+00
 -1      4441 0.00000E+00
 -1      4442 0.00000E+00
 -1      4443 0.00000E+00
 -1      4444 0.00000E+00
 -1      4445 0.00000E+00
 -1      4446 0.00000E+00
 -1      4447 0.00000E+00
 -1      4448 0.00000E+00
 -1      4449 0.00000E+00
 -1      4450 0.00000E+00
 -1      4451 0.00000E+00
 -1      4452 0.00000E+00
 -1      4453 0.00000E+00
 -1      4454 0.00000E+00
 -1      4455 0.00000E+00
 -1      4456 0.00000E+00
 -1      4457 0.00000E+00
 -1      4458 0.00000E+00
 -1      4459 0.00000E+00
 -1      4460 0.00000E+00
 -1      4461 0.00000E+00
 -1      4462 0.00000E+00
 -1      4463 0.00000E+00
 -1      4464 0.00000E+00
 -1      4465 0.00000E+00
 -1      4466 0.00000E+00
 -1      4467 0.00000E+00
 -1      4468 0.00000E+00
 -1      4469 0.00000E+00
 -1      4470 0.00000E+00
 -1      4471 0.00000E+00
 -1      4472 0.00000E+00
 -1      4473 0.00000E+00
 -1      4474 0.00000E+00
 -1      4475 0.00000E+00
 -1      4476 0.00000E+00
 -1      4477 0.00000E+00
 -1      4478 0.00000E+00
 -1      4479 0.00000E+00
 -1      4480 0.00000E+00
 -1      4481 0.00000E+00
 -1      4482 0.00000E+00
 -1      4483 0.00000E+00
 -1      4484 0.00000E+00
 -1      4485 0.00000E+00
 -1      4486 0.00000E+00
 -1      4487 0.00000E+00
 -1      4488 0.00000E+00
 -1      4489 0.00000E+00
 -1      4490 0.00000E+00
 -1      4491 0.00000E+00
 -1      4492 0.00000E+00
 -1      4493 0.00000E+00
 -1      4494 0.00000E+00
 -1      4495 0.00000E+00
 -1      4496 0.00000E+00
 -1      4497 0.00000E+00
 -1      4498 0.00000E+00
 -1      4499 0.00000E+00
 -1      4500 0.00000E+00
 -1      4501 0.00000E+00
 -1      4502 0.00000E+00
 -1      4503 0.00000E+00
 -1      4504 0.00000E+00
 -1      4505 0.00000E+00
 -1      4506 0.00000E+00
 -1      4507 0.00000E+00
 -1      4508 0.00000E+00
 -1      4509 0.00000E+00
 -1      4510 0.00000E+00
 -1      4511 0.00000E+00
 -1      4512 0.00000E+00
 -1      4513 0.00000E+00
 -1      4514 0.00000E+00
 -1      4515 0.00000E+00
 -1      4516 0.00000E+00
 -1      4517 0.00000E+00
 -1      4518 0.00000E+00
 -1      4519 0.00000E+00
 -1      4520 0.00000E+00
 -1      4521 0.00000E+00
 -1      4522 0.00000E+00
 -1      4523 0.00000E+00
 -1      4524 0.00000E+00
 -1      4525 0.00000E+00
 -1      4526 0.00000E+00
 -1      4527 0.00000E+00
 -1      4528 0.00000E+00
 -1      4529 0.00000E+00
 -1      4530 0.00000E+00
 -1      4531 0.00000E+00
 -1      4532 0.00000E+00
 -1      4533 0.00000E+00
 -1      4534 0.00000E+00
 -1      4535 0.00000E+00
 -1      4536 0.00000E+00
 -1      4537 0.00000E+00
 -1      4538 0.00000E+00
 -1      4539 0.00000E+00
 -1      4540 0.00000E+00
 -1      4541 0.00000E+00
 -1      4542 0.00000E+00
 -1      4543 0.00000E+00
 -1      4544 0.00000E+00
 -1      4545 0.00000E+00
 -1      4546 0.00000E+00
 -1      4547 0.00000E+00
 -1      4548 0.00000E+00
 -1      4549 0.00000E+00
 -1      4550 0.00000E+00
 -1      4551 0.00000E+00
 -1      4552 0.00000E+00
 -1      4553 0.00000E+00
 -1      4554 0.00000E+00
 -1      4555 0.00000E+00
 -1      4556 0.00000E+00
 -1      4557 0.00000E+00
 -1      4558 0.00000E+00
 -1      4559 0.00000E+00
 -1      4560 0.00000E+00
 -1      4561 0.00000E+00
 -1      4562 0.00000E+00
 -1      4563 0.00000E+00
 -1      4564 0.00000E+00
 -1      4565 0.00000E+00
 -1      4566 0.00000E+00
 -1      4567 0.00000E+00
 -1      4568 0.00000E+00
 -1      4569 0.00000E+00
 -1      4570 0.00000E+00
 -1      4571 0.00000E+00
 -1      4572 0.00000E+00
 -1      4573 0.00000E+00
 -1      4574 0.00000E+00
 -1      4575 0.00000E+00
 -1      4576 0.00000E+00
 -1      4577 0.00000E+00
 -1      4578 0.00000E+00
 -1      4579 0.00000E+00
 -1      4580 0.00000E+00
 -1      4581 0.00000E+00
 -1      4582 0.00000E+00
 -1      4583 0.00000E+00
 -1      4584 0.00000E+00
 -1      4585 0.00000E+00
 -1      4586 0.00000E+00
 -1      4587 0.00000E+00
 -1      4588 0.00000E+00
 -1      4589 0.00000E+00
 -1      4590 0.00000E+00
 -1      4591 0.00000E+00
 -1      4592 0.00000E+00
 -1      4593 0.00000E+00
 -1      4594 0.00000E+00
 -1      4595 0.00000E+00
 -1      4596 0.00000E+00
 -1      4597 0.00000E+00
 -1      4598 0.00000E+00
 -1      4599 0.00000E+00
 -1      4600 0.00000E+00
 -1      4601 0.00000E+00
 -1      4602 0.00000E+00
 -1      4603 0.00000E+00
 -1      4604 0.00000E+00
 -1      4605 0.00000E+00
 -1      4606 0.00000E+00
 -1      4607 0.00000E+00
 -1      4608 0.00000E+00
 -1      4609 0.00000E+00
 -1      4610 0.00000E+00
 -1      4611 0.00000E+00
 -1      4612 0.00000E+00
 -1      4613 0.00000E+00
 -1      4614 0.00000E+00
 -1      4615 0.00000E+00
 -1      4616 0.00000E+00
 -1      4617 0.00000E+00
 -1      4618 0.00000E+00
 -1      4619 0.00000E+00
 -1      4620 0.00000E+00
 -1      4621 0.00000E+00
 -1      4622 0.00000E+00
 -1      4623 0.00000E+00
 -1      4624 0.00000E+00
 -1      4625 0.00000E+00
 -1      4626 0.00000E+00
 -1      4627 0.00000E+00
 -1      4628 0.00000E+00
 -1      4629 0.00000E+00
 -1      4630 0.00000E+00
 -1      4631 0.00000E+00
 -1      4632 0.00000E+00
 -1      4633 0.00000E+00
 -1      4634 0.00000E+00
 -1      4635 0.00000E+00
 -1      4636 0.00000E+00
 -1      4637 0.00000E+00
 -1      4638 0.00000E+00
 -1      4639 0.00000E+00
 -1      4640 0.00000E+00
 -1      4641 0.00000E+00
 -1      4642 0.00000E+00
 -1      4643 0.00000E+00
 -1      4644 0.00000E+00
 -1      4645 0.00000E+00
 -1      4646 0.00000E+00
 -1      4647 0.00000E+00
 -1      4648 0.00000E+00
 -1      4649 0.00000E+00
 -1      4650 0.00000E+00
 -1      4651 0.00000E+00
 -1      4652 0.00000E+00
 -1      4653 0.00000E+00
 -1      4654 0.00000E+00
 -1      4655 0.00000E+00
 -1      4656 0.00000E+00
 -1      4657 0.00000E+00
 -1      4658 0.00000E+00
 -1      4659 0.00000E+00
 -1      4660 0.00000E+00
 -1      4661 0.00000E+00
 -1      4662 0.00000E+00
 -1      4663 0.00000E+00
 -1      4664 0.00000E+00
 -1      4665 0.00000E+00
 -1      4666 0.00000E+00
 -1      4667 0.00000E+00
 -1      4668 0.00000E+00
 -1      4669 0.00000E+00
 -1      4670 0.00000E+00
 -1      4671 0.00000E+00
 -1      4672 0.00000E+00
 -1      4673 0.00000E+00
 -1      4674 0.00000E+00
 -1      4675 0.00000E+00
 -1      4676 0.00000E+00
 -1      4677 0.00000E+00
 -1      4678 0.00000E+00
 -1      4679 0.00000E+00
 -1      4680 0.00000E+00
 -1      4681 0.00000E+00
 -1      4682 0.00000E+00
 -1      4683 0.00000E+00
 -1      4684 0.00000E+00
 -1      4685 0.00000E+00
 -1      4686 0.00000E+00
 -1      4687 0.00000E+00
 -1      4688 0.00000E+00
 -1      4689 0.00000E+00
 -1      4690 0.00000E+00
 -1      4691 0.00000E+00
 -1      4692 0.00000E+00
 -1      4693 0.00000E+00
 -1      4694 0.00000E+00
 -1      4695 0.00000E+00
 -1      4696 0.00000E+00
 -1      4697 0.00000E+00
 -1      4698 0.00000E+00
 -1      4699 0.00000E+00
 -1      4700 0.00000E+00
 -1      4701 0.00000E+00
 -1      4702 0.00000E+00
 -1      4703 0.00000E+00
 -1      4704 0.00000E+00
 -1      4705 0.00000E+00
 -1      4706 0.00000E+00
 -1      4707 0.00000E+00
 -1      4708 0.00000E+00
 -1      4709 0.00000E+00
 -1      4710 0.00000E+00
 -1      4711 0.00000E+00
 -1      4712 0.00000E+00
 -1      4713 0.00000E+00
 -1      4714 0.00000E+00
 -1      4715 0.00000E+00
 -1      4716 0.00000E+00
 -1      4717 0.00000E+00
 -1      4718 0.00000E+00
 -1      4719 0.00000E+00
 -1      4720 0.00000E+00
 -1      4721 0.00000E+00
 -1      4722 0.00000E+00
 -1      4723 0.00000E+00
 -1      4724 0.00000E+00
 -1      4725 0.00000E+00
 -1      4726 0.00000E+00
 -1      4727 0.00000E+00
 -1      4728 0.00000E+00
 -1      4729 0.00000E+00
 -1      4730 0.00000E+00
 -1      4731 0.00000E+00
 -1      4732 0.00000E+00
 -1      4733 0.00000E+00
 -1      4734 0.00000E+00
 -1      4735 0.00000E+00
 -1      4736 0.00000E+00
 -1      4737 0.00000E+00
 -1      4738 0.00000E+00
 -1      4739 0.00000E+00
 -1      4740 0.00000E+00
 -1      4741 0.00000E+00
 -1      4742 0.00000E+00
 -1      4743 0.00000E+00
 -1      4744 0.00000E+00
 -1      4745 0.00000E+00
 -1      4746 0.00000E+00
 -1      4747 0.00000E+00
 -1      4748 0.00000E+00
 -1      4749 0.00000E+00
 -1      4750 0.00000E+00
 -1      4751 0.00000E+00
 -1      4752 0.00000E+00
 -1      4753 0.00000E+00
 -1      4754 0.00000E+00
 -1      4755 0.00000E+00
 -1      4756 0.00000E+00
 -1      4757 0.00000E+00
 -1      4758 0.00000E+00
 -1      4759 0.00000E+00
 -1      4760 0.00000E+00
 -1      4761 0.00000E+00
 -1      4762 0.00000E+00
 -1      4763 0.00000E+00
 -1      4764 0.00000E+00
 -1      4765 0.00000E+00
 -1      4766 0.00000E+00
 -1      4767 0.00000E+00
 -1      4768 0.00000E+00
 -1      4769 0.00000E+00
 -1      4770 0.00000E+00
 -1      4771 0.00000E+00
 -1      4772 0.00000E+00
 -1      4773 0.00000E+00
 -1      4774 0.00000E+00
 -1      4775 0.00000E+00
 -1      4776 0.00000E+00
 -1      4777 0.00000E+00
 -1      4778 0.00000E+00
 -1      4779 0.00000E+00
 -1      4780 0.00000E+00
 -1      4781 0.00000E+00
 -1      4782 0.00000E+00
 -1      4783 0.00000E+00
 -1      4784 0.00000E+00
 -1      4785 0.00000E+00
 -1      4786 0.00000E+00
 -1      4787 0.00000E+00
 -1      4788 0.00000E+00
 -1      4789 0.00000E+00
 -1      4790 0.00000E+00
 -1      4791 0.00000E+00
 -1      4792 0.00000E+00
 -1      4793 0.00000E+00
 -1      4794 0.00000E+00
 -1      4795 0.00000E+00
 -1      4796 0.00000E+00
 -1      4797 0.00000E+00
 -1      4798 0.00000E+00
 -1      4799 0.00000E+00
 -1      4800 0.00000E+00
 -1      4801 0.00000E+00
 -1      4802 0.00000E+00
 -1      4803 0.00000E+00
 -1      4804 0.00000E+00
 -1      4805 0.00000E+00
 -1      4806 0.00000E+00
 -1      4807 0.00000E+00
 -1      4808 0.00000E+00
 -1      4809 0.00000E+00
 -1      4810 0.00000E+00
 -1      4811 0.00000E+00
 -1      4812 0.00000E+00
 -1      4813 0.00000E+00
 -1      4814 0.00000E+00
 -1      4815 0.00000E+00
 -1      4816 0.00000E+00
 -1      4817 0.00000E+00
 -1      4818 0.00000E+00
 -1      4819 0.00000E+00
 -1      4820 0.00000E+00
 -1      4821 0.00000E+00
 -1      4822 0.00000E+00
 -1      4823 0.00000E+00
 -1      4824 0.00000E+00
 -1      4825 0.00000E+00
 -1      4826 0.00000E+00
 -1      4827 0.00000E+00
 -1      4828 0.00000E+00
 -1      4829 0.00000E+00
 -1      4830 0.00000E+00
 -1      4831 0.00000E+00
 -1      4832 0.00000E+00
 -1      4833 0.00000E+00
 -1      4834 0.00000E+00
 -1      4835 0.00000E+00
 -1      4836 0.00000E+00
 -1      4837 0.00000E+00
 -1      4838 0.00000E+00
 -1      4839 0.00000E+00
 -1      4840 0.00000E+00
 -1      4841 0.00000E+00
 -1      4842 0.00000E+00
 -1      4843 0.00000E+00
 -1      4844 0.00000E+00
 -1      4845 0.00000E+00
 -1      4846 0.00000E+00
 -1      4847 0.00000E+00
 -1      4848 0.00000E+00
 -1      4849 0.00000E+00
 -1      4850 0.00000E+00
 -1      4851 0.00000E+00
 -1      4852 0.00000E+00
 -1      4853 0.00000E+00
 -1      4854 0.00000E+00
 -1      4855 0.00000E+00
 -1      4856 0.00000E+00
 -1      4857 0.00000E+00
 -1      4858 0.00000E+00
 -1      4859 0.00000E+00
 -1      4860 0.00000E+00
 -1      4861 0.00000E+00
 -1      4862 0.00000E+00
 -1      4863 0.00000E+00
 -1      4864 0.00000E+00
 -1      4865 0.00000E+00
 -1      4866 0.00000E+00
 -1      4867 0.00000E+00
 -1      4868 0.00000E+00
 -1      4869 0.00000E+00
 -1      4870 0.00000E+00
 -1      4871 0.00000E+00
 -1      4872 0.00000E+00
 -1      4873 0.00000E+00
 -1      4874 0.00000E+00
 -1      4875 0.00000E+00
 -1      4876 0.00000E+00
 -1      4877 0.00000E+00
 -1      4878 0.00000E+00
 -1      4879 0.00000E+00
 -1      4880 0.00000E+00
 -1      4881 0.00000E+00
 -1      4882 0.00000E+00
 -1      4883 0.00000E+00
 -1      4884 0.00000E+00
 -1      4885 0.00000E+00
 -1      4886 0.00000E+00
 -1      4887 0.00000E+00
 -1      4888 0.00000E+00
 -1      4889 0.00000E+00
 -1      4890 0.00000E+00
 -1      4891 0.00000E+00
 -1      4892 0.00000E+00
 -1      4893 0.00000E+00
 -1      4894 0.00000E+00
 -1      4895 0.00000E+00
 -1      4896 0.00000E+00
 -1      4897 0.00000E+00
 -1      4898 0.00000E+00
 -1      4899 0.00000E+00
 -1      4900 0.00000E+00
 -1      4901 0.00000E+00
 -1      4902 0.00000E+00
 -1      4903 0.00000E+00
 -1      4904 0.00000E+00
 -1      4905 0.00000E+00
 -1      4906 0.00000E+00
 -1      4907 0.00000E+00
 -1      4908 0.00000E+00
 -1      4909 0.00000E+00
 -1      4910 0.00000E+00
 -1      4911 0.00000E+00
 -1      4912 0.00000E+00
 -1      4913 0.00000E+00
 -1      4914 0.00000E+00
 -1      4915 0.00000E+00
 -1      4916 0.00000E+00
 -1      4917 0.00000E+00
 -1      4918 0.00000E+00
 -1      4919 0.00000E+00
 -1      4920 0.00000E+00
 -1      4921 0.00000E+00
 -1      4922 0.00000E+00
 -1      4923 0.00000E+00
 -1      4924 0.00000E+00
 -1      4925 0.00000E+00
 -1      4926 0.00000E+00
 -1      4927 0.00000E+00
 -1      4928 0.00000E+00
 -1      4929 0.00000E+00
 -1      4930 0.00000E+00
 -1      4931 0.00000E+00
 -1      4932 0.00000E+00
 -1      4933 0.00000E+00
 -1      4934 0.00000E+00
 -1      4935 0.00000E+00
 -1      4936 0.00000E+00
 -1      4937 0.00000E+00
 -1      4938 0.00000E+00
 -1      4939 0.00000E+00
 -1      4940 0.00000E+00
 -1      4941 0.00000E+00
 -1      4942 0.00000E+00
 -1      4943 0.00000E+00
 -1      4944 0.00000E+00
 -1      4945 0.00000E+00
 -1      4946 0.00000E+00
 -1      4947 0.00000E+00
 -1      4948 0.00000E+00
 -1      4949 0.00000E+00
 -1      4950 0.00000E+00
 -1      4951 0.00000E+00
 -1      4952 0.00000E+00
 -1      4953 0.00000E+00
 -1      4954 0.00000E+00
 -1      4955 0.00000E+00
 -1      4956 0.00000E+00
 -1      4957 0.00000E+00
 -1      4958 0.00000E+00
 -1      4959 0.00000E+00
 -1      4960 0.00000E+00
 -1      4961 0.00000E+00
 -1      4962 0.00000E+00
 -1      4963 0.00000E+00
 -1      4964 0.00000E+00
 -1      4965 0.00000E+00
 -1      4966 0.00000E+00
 -1      4967 0.00000E+00
 -1      4968 0.00000E+00
 -1      4969 0.00000E+00
 -1      4970 0.00000E+00
 -1      4971 0.00000E+00
 -1      4972 0.00000E+00
 -1      4973 0.00000E+00
 -1      4974 0.00000E+00
 -1      4975 0.00000E+00
 -1      4976 0.00000E+00
 -1      4977 0.00000E+00
 -1      4978 0.00000E+00
 -1      4979 0.00000E+00
 -1      4980 0.00000E+00
 -1      4981 0.00000E+00
 -1      4982 0.00000E+00
 -1      4983 0.00000E+00
 -1      4984 0.00000E+00
 -1      4985 0.00000E+00
 -1      4986 0.00000E+00
 -1      4987 0.00000E+00
 -1      4988 0.00000E+00
 -1      4989 0.00000E+00
 -1      4990 0.00000E+00
 -1      4991 0.00000E+00
 -1      4992 0.00000E+00
 -1      4993 0.00000E+00
 -1      4994 0.00000E+00
 -1      4995 0.00000E+00
 -1      4996 0.00000E+00
 -1      4997 0.00000E+00
 -1      4998 0.00000E+00
 -1      4999 0.00000E+00
 -1      5000 0.00000E+00
 -1      5001 0.00000E+00
 -1      5002 0.00000E+00
 -1      5003 0.00000E+00
 -1      5004 0.00000E+00
 -1      5005 0.00000E+00
 -1      5006 0.00000E+00
 -1      5007 0.00000E+00
 -1      5008 0.00000E+00
 -1      5009 0.00000E+00
 -1      5010 0.00000E+00
 -1      5011 0.00000E+00
 -1      5012 0.00000E+00
 -1      5013 0.00000E+00
 -1      5014 0.00000E+00
 -1      5015 0.00000E+00
 -1      5016 0.00000E+00
 -1      5017 0.00000E+00
 -1      5018 0.00000E+00
 -1      5019 0.00000E+00
 -1      5020 0.00000E+00
 -1      5021 0.00000E+00
 -1      5022 0.00000E+00
 -1      5023 0.00000E+00
 -1      5024 0.00000E+00
 -1      5025 0.00000E+00
 -1      5026 0.00000E+00
 -1      5027 0.00000E+00
 -1      5028 0.00000E+00
 -1      5029 0.00000E+00
 -1      5030 0.00000E+00
 -1      5031 0.00000E+00
 -1      5032 0.00000E+00
 -1      5033 0.00000E+00
 -1      5034 0.00000E+00
 -1      5035 0.00000E+00
 -1      5036 0.00000E+00
 -1      5037 0.00000E+00
 -1      5038 0.00000E+00
 -1      5039 0.00000E+00
 -1      5040 0.00000E+00
 -1      5041 0.00000E+00
 -1      5042 0.00000E+00
 -1      5043 0.00000E+00
 -1      5044 0.00000E+00
 -1      5045 0.00000E+00
 -1      5046 0.00000E+00
 -1      5047 0.00000E+00
 -1      5048 0.00000E+00
 -1      5049 0.00000E+00
 -1      5050 0.00000E+00
 -1      5051 0.00000E+00
 -1      5052 0.00000E+00
 -1      5053 0.00000E+00
 -1      5054 0.00000E+00
 -1      5055 0.00000E+00
 -1      5056 0.00000E+00
 -1      5057 0.00000E+00
 -1      5058 0.00000E+00
 -1      5059 0.00000E+00
 -1      5060 0.00000E+00
 -1      5061 0.00000E+00
 -1      5062 0.00000E+00
 -1      5063 0.00000E+00
 -1      5064 0.00000E+00
 -1      5065 0.00000E+00
 -1      5066 0.00000E+00
 -1      5067 0.00000E+00
 -1      5068 0.00000E+00
 -1      5069 0.00000E+00
 -1      5070 0.00000E+00
 -1      5071 0.00000E+00
 -1      5072 0.00000E+00
 -1      5073 0.00000E+00
 -1      5074 0.00000E+00
 -1      5075 0.00000E+00
 -1      5076 0.00000E+00
 -1      5077 0.00000E+00
 -1      5078 0.00000E+00
 -1      5079 0.00000E+00
 -1      5080 0.00000E+00
 -1      5081 0.00000E+00
 -1      5082 0.00000E+00
 -1      5083 0.00000E+00
 -1      5084 0.00000E+00
 -1      5085 0.00000E+00
 -1      5086 0.00000E+00
 -1      5087 0.00000E+00
 -1      5088 0.00000E+00
 -1      5089 0.00000E+00
 -1      5090 0.00000E+00
 -1      5091 0.00000E+00
 -1      5092 0.00000E+00
 -1      5093 0.00000E+00
 -1      5094 0.00000E+00
 -1      5095 0.00000E+00
 -1      5096 0.00000E+00
 -1      5097 0.00000E+00
 -1      5098 0.00000E+00
 -1      5099 0.00000E+00
 -1      5100 0.00000E+00
 -1      5101 0.00000E+00
 -1      5102 0.00000E+00
 -1      5103 0.00000E+00
 -1      5104 0.00000E+00
 -1      5105 0.00000E+00
 -1      5106 0.00000E+00
 -1      5107 0.00000E+00
 -1      5108 0.00000E+00
 -1      5109 0.00000E+00
 -1      5110 0.00000E+00
 -1      5111 0.00000E+00
 -1      5112 0.00000E+00
 -1      5113 0.00000E+00
 -1      5114 0.00000E+00
 -1      5115 0.00000E+00
 -1      5116 0.00000E+00
 -1      5117 0.00000E+00
 -1      5118 0.00000E+00
 -1      5119 0.00000E+00
 -1      5120 0.00000E+00
 -1      5121 0.00000E+00
 -1      5122 0.00000E+00
 -1      5123 0.00000E+00
 -1      5124 0.00000E+00
 -1      5125 0.00000E+00
 -1      5126 0.00000E+00
 -1      5127 0.00000E+00
 -1      5128 0.00000E+00
 -1      5129 0.00000E+00
 -1      5130 0.00000E+00
 -1      5131 0.00000E+00
 -1      5132 0.00000E+00
 -1      5133 0.00000E+00
 -1      5134 0.00000E+00
 -1      5135 0.00000E+00
 -1      5136 0.00000E+00
 -1      5137 0.00000E+00
 -1      5138 0.00000E+00
 -1      5139 0.00000E+00
 -1      5140 0.00000E+00
 -1      5141 0.00000E+00
 -1      5142 0.00000E+00
 -1      5143 0.00000E+00
 -1      5144 0.00000E+00
 -1      5145 0.00000E+00
 -1      5146 0.00000E+00
 -1      5147 0.00000E+00
 -1      5148 0.00000E+00
 -1      5149 0.00000E+00
 -1      5150 0.00000E+00
 -1      5151 0.00000E+00
 -1      5152 0.00000E+00
 -1      5153 0.00000E+00
 -1      5154 0.00000E+00
 -1      5155 0.00000E+00
 -1      5156 0.00000E+00
 -1      5157 0.00000E+00
 -1      5158 0.00000E+00
 -1      5159 0.00000E+00
 -1      5160 0.00000E+00
 -1      5161 0.00000E+00
 -1      5162 0.00000E+00
 -1      5163 0.00000E+00
 -1      5164 0.00000E+00
 -1      5165 0.00000E+00
 -1      5166 0.00000E+00
 -1      5167 0.00000E+00
 -1      5168 0.00000E+00
 -1      5169 0.00000E+00
 -1      5170 0.00000E+00
 -1      5171 0.00000E+00
 -1      5172 0.00000E+00
 -1      5173 0.00000E+00
 -1      5174 0.00000E+00
 -1      5175 0.00000E+00
 -1      5176 0.00000E+00
 -1      5177 0.00000E+00
 -1      5178 0.00000E+00
 -1      5179 0.00000E+00
 -1      5180 0.00000E+00
 -1      5181 0.00000E+00
 -1      5182 0.00000E+00
 -1      5183 0.00000E+00
 -1      5184 0.00000E+00
 -1      5185 0.00000E+00
 -1      5186 0.00000E+00
 -1      5187 0.00000E+00
 -1      5188 0.00000E+00
 -1      5189 0.00000E+00
 -1      5190 0.00000E+00
 -1      5191 0.00000E+00
 -1      5192 0.00000E+00
 -1      5193 0.00000E+00
 -1      5194 0.00000E+00
 -1      5195 0.00000E+00
 -1      5196 0.00000E+00
 -1      5197 0.00000E+00
 -1      5198 0.00000E+00
 -1      5199 0.00000E+00
 -1      5200 0.00000E+00
 -1      5201 0.00000E+00
 -1      5202 0.00000E+00
 -1      5203 0.00000E+00
 -1      5204 0.00000E+00
 -1      5205 0.00000E+00
 -1      5206 0.00000E+00
 -1      5207 0.00000E+00
 -1      5208 0.00000E+00
 -1      5209 0.00000E+00
 -1      5210 0.00000E+00
 -1      5211 0.00000E+00
 -1      5212 0.00000E+00
 -1      5213 0.00000E+00
 -1      5214 0.00000E+00
 -1      5215 0.00000E+00
 -1      5216 0.00000E+00
 -1      5217 0.00000E+00
 -1      5218 0.00000E+00
 -1      5219 0.00000E+00
 -1      5220 0.00000E+00
 -1      5221 0.00000E+00
 -1      5222 0.00000E+00
 -1      5223 0.00000E+00
 -1      5224 0.00000E+00
 -1      5225 0.00000E+00
 -1      5226 0.00000E+00
 -1      5227 0.00000E+00
 -1      5228 0.00000E+00
 -1      5229 0.00000E+00
 -1      5230 0.00000E+00
 -1      5231 0.00000E+00
 -1      5232 0.00000E+00
 -1      5233 0.00000E+00
 -1      5234 0.00000E+00
 -1      5235 0.00000E+00
 -1      5236 0.00000E+00
 -1      5237 0.00000E+00
 -1      5238 0.00000E+00
 -1      5239 0.00000E+00
 -1      5240 0.00000E+00
 -1      5241 0.00000E+00
 -1      5242 0.00000E+00
 -1      5243 0.00000E+00
 -1      5244 0.00000E+00
 -1      5245 0.00000E+00
 -1      5246 0.00000E+00
 -1      5247 0.00000E+00
 -1      5248 0.00000E+00
 -1      5249 0.00000E+00
 -1      5250 0.00000E+00
 -1      5251 0.00000E+00
 -1      5252 0.00000E+00
 -1      5253 0.00000E+00
 -1      5254 0.00000E+00
 -1      5255 0.00000E+00
 -1      5256 0.00000E+00
 -1      5257 0.00000E+00
 -1      5258 0.00000E+00
 -1      5259 0.00000E+00
 -1      5260 0.00000E+00
 -1      5261 0.00000E+00
 -1      5262 0.00000E+00
 -1      5263 0.00000E+00
 -1      5264 0.00000E+00
 -1      5265 0.00000E+00
 -1      5266 0.00000E+00
 -1      5267 0.00000E+00
 -1      5268 0.00000E+00
 -1      5269 0.00000E+00
 -1      5270 0.00000E+00
 -1      5271 0.00000E+00
 -1      5272 0.00000E+00
 -1      5273 0.00000E+00
 -1      5274 0.00000E+00
 -1      5275 0.00000E+00
 -1      5276 0.00000E+00
 -1      5277 0.00000E+00
 -1      5278 0.00000E+00
 -1      5279 0.00000E+00
 -1      5280 0.00000E+00
 -1      5281 0.00000E+00
 -1      5282 0.00000E+00
 -1      5283 0.00000E+00
 -1      5284 0.00000E+00
 -1      5285 0.00000E+00
 -1      5286 0.00000E+00
 -1      5287 0.00000E+00
 -1      5288 0.00000E+00
 -1      5289 0.00000E+00
 -1      5290 0.00000E+00
 -1      5291 0.00000E+00
 -1      5292 0.00000E+00
 -1      5293 0.00000E+00
 -1      5294 0.00000E+00
 -1      5295 0.00000E+00
 -1      5296 0.00000E+00
 -1      5297 0.00000E+00
 -1      5298 0.00000E+00
 -1      5299 0.00000E+00
 -1      5300 0.00000E+00
 -1      5301 0.00000E+00
 -1      5302 0.00000E+00
 -1      5303 0.00000E+00
 -1      5304 0.00000E+00
 -1      5305 0.00000E+00
 -1      5306 0.00000E+00
 -1      5307 0.00000E+00
 -1      5308 0.00000E+00
 -1      5309 0.00000E+00
 -1      5310 0.00000E+00
 -1      5311 0.00000E+00
 -1      5312 0.00000E+00
 -1      5313 0.00000E+00
 -1      5314 0.00000E+00
 -1      5315 0.00000E+00
 -1      5316 0.00000E+00
 -1      5317 0.00000E+00
 -1      5318 0.00000E+00
 -1      5319 0.00000E+00
 -1      5320 0.00000E+00
 -1      5321 0.00000E+00
 -1      5322 0.00000E+00
 -1      5323 0.00000E+00
 -1      5324 0.00000E+00
 -1      5325 0.00000E+00
 -1      5326 0.00000E+00
 -1      5327 0.00000E+00
 -1      5328 0.00000E+00
 -1      5329 0.00000E+00
 -1      5330 0.00000E+00
 -1      5331 0.00000E+00
 -1      5332 0.00000E+00
 -1      5333 0.00000E+00
 -1      5334 0.00000E+00
 -1      5335 0.00000E+00
 -1      5336 0.00000E+00
 -1      5337 0.00000E+00
 -1      5338 0.00000E+00
 -1      5339 0.00000E+00
 -1      5340 0.00000E+00
 -1      5341 0.00000E+00
 -1      5342 0.00000E+00
 -1      5343 0.00000E+00
 -1      5344 0.00000E+00
 -1      5345 0.00000E+00
 -1      5346 0.00000E+00
 -1      5347 0.00000E+00
 -1      5348 0.00000E+00
 -1      5349 0.00000E+00
 -1      5350 0.00000E+00
 -1      5351 0.00000E+00
 -1      5352 0.00000E+00
 -1      5353 0.00000E+00
 -1      5354 0.00000E+00
 -1      5355 0.00000E+00
 -1      5356 0.00000E+00
 -1      5357 0.00000E+00
 -1      5358 0.00000E+00
 -1      5359 0.00000E+00
 -1      5360 0.00000E+00
 -1      5361 0.00000E+00
 -1      5362 0.00000E+00
 -1      5363 0.00000E+00
 -1      5364 0.00000E+00
 -1      5365 0.00000E+00
 -1      5366 0.00000E+00
 -1      5367 0.00000E+00
 -1      5368 0.00000E+00
 -1      5369 0.00000E+00
 -1      5370 0.00000E+00
 -1      5371 0.00000E+00
 -1      5372 0.00000E+00
 -1      5373 0.00000E+00
 -1      5374 0.00000E+00
 -1      5375 0.00000E+00
 -1      5376 0.00000E+00
 -1      5377 0.00000E+00
 -1      5378 0.00000E+00
 -1      5379 0.00000E+00
 -1      5380 0.00000E+00
 -1      5381 0.00000E+00
 -1      5382 0.00000E+00
 -1      5383 0.00000E+00
 -1      5384 0.00000E+00
 -1      5385 0.00000E+00
 -1      5386 0.00000E+00
 -1      5387 0.00000E+00
 -1      5388 0.00000E+00
 -1      5389 0.00000E+00
 -1      5390 0.00000E+00
 -1      5391 0.00000E+00
 -1      5392 0.00000E+00
 -1      5393 0.00000E+00
 -1      5394 0.00000E+00
 -1      5395 0.00000E+00
 -1      5396 0.00000E+00
 -1      5397 0.00000E+00
 -1      5398 0.00000E+00
 -1      5399 0.00000E+00
 -1      5400 0.00000E+00
 -1      5401 0.00000E+00
 -1      5402 0.00000E+00
 -1      5403 0.00000E+00
 -1      5404 0.00000E+00
 -1      5405 0.00000E+00
 -1      5406 0.00000E+00
 -1      5407 0.00000E+00
 -1      5408 0.00000E+00
 -1      5409 0.00000E+00
 -1      5410 0.00000E+00
 -1      5411 0.00000E+00
 -1      5412 0.00000E+00
 -1      5413 0.00000E+00
 -1      5414 0.00000E+00
 -1      5415 0.00000E+00
 -1      5416 0.00000E+00
 -1      5417 0.00000E+00
 -1      5418 0.00000E+00
 -1      5419 0.00000E+00
 -1      5420 0.00000E+00
 -1      5421 0.00000E+00
 -1      5422 0.00000E+00
 -1      5423 0.00000E+00
 -1      5424 0.00000E+00
 -1      5425 0.00000E+00
 -1      5426 0.00000E+00
 -1      5427 0.00000E+00
 -1      5428 0.00000E+00
 -1      5429 0.00000E+00
 -1      5430 0.00000E+00
 -1      5431 0.00000E+00
 -1      5432 0.00000E+00
 -1      5433 0.00000E+00
 -1      5434 0.00000E+00
 -1      5435 0.00000E+00
 -1      5436 0.00000E+00
 -1      5437 0.00000E+00
 -1      5438 0.00000E+00
 -1      5439 0.00000E+00
 -1      5440 0.00000E+00
 -1      5441 0.00000E+00
 -1      5442 0.00000E+00
 -1      5443 0.00000E+00
 -1      5444 0.00000E+00
 -1      5445 0.00000E+00
 -1      5446 0.00000E+00
 -1      5447 0.00000E+00
 -1      5448 0.00000E+00
 -1      5449 0.00000E+00
 -1      5450 0.00000E+00
 -1      5451 0.00000E+00
 -1      5452 0.00000E+00
 -1      5453 0.00000E+00
 -1      5454 0.00000E+00
 -1      5455 0.00000E+00
 -1      5456 0.00000E+00
 -1      5457 0.00000E+00
 -1      5458 0.00000E+00
 -1      5459 0.00000E+00
 -1      5460 0.00000E+00
 -1      5461 0.00000E+00
 -1      5462 0.00000E+00
 -1      5463 0.00000E+00
 -1      5464 0.00000E+00
 -1      5465 0.00000E+00
 -1      5466 0.00000E+00
 -1      5467 0.00000E+00
 -1      5468 0.00000E+00
 -1      5469 0.00000E+00
 -1      5470 0.00000E+00
 -1      5471 0.00000E+00
 -1      5472 0.00000E+00
 -1      5473 0.00000E+00
 -1      5474 0.00000E+00
 -1      5475 0.00000E+00
 -1      5476 0.00000E+00
 -1      5477 0.00000E+00
 -1      5478 0.00000E+00
 -1      5479 0.00000E+00
 -1      5480 0.00000E+00
 -1      5481 0.00000E+00
 -1      5482 0.00000E+00
 -1      5483 0.00000E+00
 -1      5484 0.00000E+00
 -1      5485 0.00000E+00
 -1      5486 0.00000E+00
 -1      5487 0.00000E+00
 -1      5488 0.00000E+00
 -1      5489 0.00000E+00
 -1      5490 0.00000E+00
 -1      5491 0.00000E+00
 -1      5492 0.00000E+00
 -1      5493 0.00000E+00
 -1      5494 0.00000E+00
 -1      5495 0.00000E+00
 -1      5496 0.00000E+00
 -1      5497 0.00000E+00
 -1      5498 0.00000E+00
 -1      5499 0.00000E+00
 -1      5500 0.00000E+00
 -1      5501 0.00000E+00
 -1      5502 0.00000E+00
 -1      5503 0.00000E+00
 -1      5504 0.00000E+00
 -1      5505 0.00000E+00
 -1      5506 0.00000E+00
 -1      5507 0.00000E+00
 -1      5508 0.00000E+00
 -1      5509 0.00000E+00
 -1      5510 0.00000E+00
 -1      5511 0.00000E+00
 -1      5512 0.00000E+00
 -1      5513 0.00000E+00
 -1      5514 0.00000E+00
 -1      5515 0.00000E+00
 -1      5516 0.00000E+00
 -1      5517 0.00000E+00
 -1      5518 0.00000E+00
 -1      5519 0.00000E+00
 -1      5520 0.00000E+00
 -1      5521 0.00000E+00
 -1      5522 0.00000E+00
 -1      5523 0.00000E+00
 -1      5524 0.00000E+00
 -1      5525 0.00000E+00
 -1      5526 0.00000E+00
 -1      5527 0.00000E+00
 -1      5528 0.00000E+00
 -1      5529 0.00000E+00
 -1      5530 0.00000E+00
 -1      5531 0.00000E+00
 -1      5532 0.00000E+00
 -1      5533 0.00000E+00
 -1      5534 0.00000E+00
 -1      5535 0.00000E+00
 -1      5536 0.00000E+00
 -1      5537 0.00000E+00
 -1      5538 0.00000E+00
 -1      5539 0.00000E+00
 -1      5540 0.00000E+00
 -1      5541 0.00000E+00
 -1      5542 0.00000E+00
 -1      5543 0.00000E+00
 -1      5544 0.00000E+00
 -1      5545 0.00000E+00
 -1      5546 0.00000E+00
 -1      5547 0.00000E+00
 -1      5548 0.00000E+00
 -1      5549 0.00000E+00
 -1      5550 0.00000E+00
 -1      5551 0.00000E+00
 -1      5552 0.00000E+00
 -1      5553 0.00000E+00
 -1      5554 0.00000E+00
 -1      5555 0.00000E+00
 -1      5556 0.00000E+00
 -1      5557 0.00000E+00
 -1      5558 0.00000E+00
 -1      5559 0.00000E+00
 -1      5560 0.00000E+00
 -1      5561 0.00000E+00
 -1      5562 0.00000E+00
 -1      5563 0.00000E+00
 -1      5564 0.00000E+00
 -1      5565 0.00000E+00
 -1      5566 0.00000E+00
 -1      5567 0.00000E+00
 -1      5568 0.00000E+00
 -1      5569 0.00000E+00
 -1      5570 0.00000E+00
 -1      5571 0.00000E+00
 -1      5572 0.00000E+00
 -1      5573 0.00000E+00
 -1      5574 0.00000E+00
 -1      5575 0.00000E+00
 -1      5576 0.00000E+00
 -1      5577 0.00000E+00
 -1      5578 0.00000E+00
 -1      5579 0.00000E+00
 -1      5580 0.00000E+00
 -1      5581 0.00000E+00
 -1      5582 0.00000E+00
 -1      5583 0.00000E+00
 -1      5584 0.00000E+00
 -1      5585 0.00000E+00
 -1      5586 0.00000E+00
 -1      5587 0.00000E+00
 -1      5588 0.00000E+00
 -1      5589 0.00000E+00
 -1      5590 0.00000E+00
 -1      5591 0.00000E+00
 -1      5592 0.00000E+00
 -1      5593 0.00000E+00
 -1      5594 0.00000E+00
 -1      5595 0.00000E+00
 -1      5596 0.00000E+00
 -1      5597 0.00000E+00
 -1      5598 0.00000E+00
 -1      5599 0.00000E+00
 -1      5600 0.00000E+00
 -1      5601 0.00000E+00
 -1      5602 0.00000E+00
 -1      5603 0.00000E+00
 -1      5604 0.00000E+00
 -1      5605 0.00000E+00
 -1      5606 0.00000E+00
 -1      5607 0.00000E+00
 -1      5608 0.00000E+00
 -1      5609 0.00000E+00
 -1      5610 0.00000E+00
 -1      5611 0.00000E+00
 -1      5612 0.00000E+00
 -1      5613 0.00000E+00
 -1      5614 0.00000E+00
 -1      5615 0.00000E+00
 -1      5616 0.00000E+00
 -1      5617 0.00000E+00
 -1      5618 0.00000E+00
 -1      5619 0.00000E+00
 -1      5620 0.00000E+00
 -1      5621 0.00000E+00
 -1      5622 0.00000E+00
 -1      5623 0.00000E+00
 -1      5624 0.00000E+00
 -1      5625 0.00000E+00
 -1      5626 0.00000E+00
 -1      5627 0.00000E+00
 -1      5628 0.00000E+00
 -1      5629 0.00000E+00
 -1      5630 0.00000E+00
 -1      5631 0.00000E+00
 -1      5632 0.00000E+00
 -1      5633 0.00000E+00
 -1      5634 0.00000E+00
 -1      5635 0.00000E+00
 -1      5636 0.00000E+00
 -1      5637 0.00000E+00
 -1      5638 0.00000E+00
 -1      5639 0.00000E+00
 -1      5640 0.00000E+00
 -1      5641 0.00000E+00
 -1      5642 0.00000E+00
 -1      5643 0.00000E+00
 -1      5644 0.00000E+00
 -1      5645 0.00000E+00
 -1      5646 0.00000E+00
 -1      5647 0.00000E+00
 -1      5648 0.00000E+00
 -1      5649 0.00000E+00
 -1      5650 0.00000E+00
 -1      5651 0.00000E+00
 -1      5652 0.00000E+00
 -1      5653 0.00000E+00
 -1      5654 0.00000E+00
 -1      5655 0.00000E+00
 -1      5656 0.00000E+00
 -1      5657 0.00000E+00
 -1      5658 0.00000E+00
 -1      5659 0.00000E+00
 -1      5660 0.00000E+00
 -1      5661 0.00000E+00
 -1      5662 0.00000E+00
 -1      5663 0.00000E+00
 -1      5664 0.00000E+00
 -1      5665 0.00000E+00
 -1      5666 0.00000E+00
 -1      5667 0.00000E+00
 -1      5668 0.00000E+00
 -1      5669 0.00000E+00
 -1      5670 0.00000E+00
 -1      5671 0.00000E+00
 -1      5672 0.00000E+00
 -1      5673 0.00000E+00
 -1      5674 0.00000E+00
 -1      5675 0.00000E+00
 -1      5676 0.00000E+00
 -1      5677 0.00000E+00
 -1      5678 0.00000E+00
 -1      5679 0.00000E+00
 -1      5680 0.00000E+00
 -1      5681 0.00000E+00
 -1      5682 0.00000E+00
 -1      5683 0.00000E+00
 -1      5684 0.00000E+00
 -1      5685 0.00000E+00
 -1      5686 0.00000E+00
 -1      5687 0.00000E+00
 -1      5688 0.00000E+00
 -1      5689 0.00000E+00
 -1      5690 0.00000E+00
 -1      5691 0.00000E+00
 -1      5692 0.00000E+00
 -1      5693 0.00000E+00
 -1      5694 0.00000E+00
 -1      5695 0.00000E+00
 -1      5696 0.00000E+00
 -1      5697 0.00000E+00
 -1      5698 0.00000E+00
 -1      5699 0.00000E+00
 -1      5700 0.00000E+00
 -1      5701 0.00000E+00
 -1      5702 0.00000E+00
 -1      5703 0.00000E+00
 -1      5704 0.00000E+00
 -1      5705 0.00000E+00
 -1      5706 0.00000E+00
 -1      5707 0.00000E+00
 -1      5708 0.00000E+00
 -1      5709 0.00000E+00
 -1      5710 0.00000E+00
 -1      5711 0.00000E+00
 -1      5712 0.00000E+00
 -1      5713 0.00000E+00
 -1      5714 0.00000E+00
 -1      5715 0.00000E+00
 -1      5716 0.00000E+00
 -1      5717 0.00000E+00
 -1      5718 0.00000E+00
 -1      5719 0.00000E+00
 -1      5720 0.00000E+00
 -1      5721 0.00000E+00
 -1      5722 0.00000E+00
 -1      5723 0.00000E+00
 -1      5724 0.00000E+00
 -1      5725 0.00000E+00
 -1      5726 0.00000E+00
 -1      5727 0.00000E+00
 -1      5728 0.00000E+00
 -1      5729 0.00000E+00
 -1      5730 0.00000E+00
 -1      5731 0.00000E+00
 -1      5732 0.00000E+00
 -1      5733 0.00000E+00
 -1      5734 0.00000E+00
 -1      5735 0.00000E+00
 -1      5736 0.00000E+00
 -1      5737 0.00000E+00
 -1      5738 0.00000E+00
 -1      5739 0.00000E+00
 -1      5740 0.00000E+00
 -1      5741 0.00000E+00
 -1      5742 0.00000E+00
 -1      5743 0.00000E+00
 -1      5744 0.00000E+00
 -1      5745 0.00000E+00
 -1      5746 0.00000E+00
 -1      5747 0.00000E+00
 -1      5748 0.00000E+00
 -1      5749 0.00000E+00
 -1      5750 0.00000E+00
 -1      5751 0.00000E+00
 -1      5752 0.00000E+00
 -1      5753 0.00000E+00
 -1      5754 0.00000E+00
 -1      5755 0.00000E+00
 -1      5756 0.00000E+00
 -1      5757 0.00000E+00
 -1      5758 0.00000E+00
 -1      5759 0.00000E+00
 -1      5760 0.00000E+00
 -1      5761 0.00000E+00
 -1      5762 0.00000E+00
 -1      5763 0.00000E+00
 -1      5764 0.00000E+00
 -1      5765 0.00000E+00
 -1      5766 0.00000E+00
 -1      5767 0.00000E+00
 -1      5768 0.00000E+00
 -1      5769 0.00000E+00
 -1      5770 0.00000E+00
 -1      5771 0.00000E+00
 -1      5772 0.00000E+00
 -1      5773 0.00000E+00
 -1      5774 0.00000E+00
 -1      5775 0.00000E+00
 -1      5776 0.00000E+00
 -1      5777 0.00000E+00
 -1      5778 0.00000E+00
 -1      5779 0.00000E+00
 -1      5780 0.00000E+00
 -1      5781 0.00000E+00
 -1      5782 0.00000E+00
 -1      5783 0.00000E+00
 -1      5784 0.00000E+00
 -1      5785 0.00000E+00
 -1      5786 0.00000E+00
 -1      5787 0.00000E+00
 -1      5788 0.00000E+00
 -1      5789 0.00000E+00
 -1      5790 0.00000E+00
 -1      5791 0.00000E+00
 -1      5792 0.00000E+00
 -1      5793 0.00000E+00
 -1      5794 0.00000E+00
 -1      5795 0.00000E+00
 -1      5796 0.00000E+00
 -1      5797 0.00000E+00
 -1      5798 0.00000E+00
 -1      5799 0.00000E+00
 -1      5800 0.00000E+00
 -1      5801 0.00000E+00
 -1      5802 0.00000E+00
 -1      5803 0.00000E+00
 -1      5804 0.00000E+00
 -1      5805 0.00000E+00
 -1      5806 0.00000E+00
 -1      5807 0.00000E+00
 -1      5808 0.00000E+00
 -1      5809 0.00000E+00
 -1      5810 0.00000E+00
 -1      5811 0.00000E+00
 -1      5812 0.00000E+00
 -1      5813 0.00000E+00
 -1      5814 0.00000E+00
 -1      5815 0.00000E+00
 -1      5816 0.00000E+00
 -1      5817 0.00000E+00
 -1      5818 0.00000E+00
 -1      5819 0.00000E+00
 -1      5820 0.00000E+00
 -1      5821 0.00000E+00
 -1      5822 0.00000E+00
 -1      5823 0.00000E+00
 -1      5824 0.00000E+00
 -1      5825 0.00000E+00
 -1      5826 0.00000E+00
 -1      5827 0.00000E+00
 -1      5828 0.00000E+00
 -1      5829 0.00000E+00
 -1      5830 0.00000E+00
 -1      5831 0.00000E+00
 -1      5832 0.00000E+00
 -1      5833 0.00000E+00
 -1      5834 0.00000E+00
 -1      5835 0.00000E+00
 -1      5836 0.00000E+00
 -1      5837 0.00000E+00
 -1      5838 0.00000E+00
 -1      5839 0.00000E+00
 -1      5840 0.00000E+00
 -1      5841 0.00000E+00
 -1      5842 0.00000E+00
 -1      5843 0.00000E+00
 -1      5844 0.00000E+00
 -1      5845 0.00000E+00
 -1      5846 0.00000E+00
 -1      5847 0.00000E+00
 -1      5848 0.00000E+00
 -1      5849 0.00000E+00
 -1      5850 0.00000E+00
 -1      5851 0.00000E+00
 -1      5852 0.00000E+00
 -1      5853 0.00000E+00
 -1      5854 0.00000E+00
 -1      5855 0.00000E+00
 -1      5856 0.00000E+00
 -1      5857 0.00000E+00
 -1      5858 0.00000E+00
 -1      5859 0.00000E+00
 -1      5860 0.00000E+00
 -1      5861 0.00000E+00
 -1      5862 0.00000E+00
 -1      5863 0.00000E+00
 -1      5864 0.00000E+00
 -1      5865 0.00000E+00
 -1      5866 0.00000E+00
 -1      5867 0.00000E+00
 -1      5868 0.00000E+00
 -1      5869 0.00000E+00
 -1      5870 0.00000E+00
 -1      5871 0.00000E+00
 -1      5872 0.00000E+00
 -1      5873 0.00000E+00
 -1      5874 0.00000E+00
 -1      5875 0.00000E+00
 -1      5876 0.00000E+00
 -1      5877 0.00000E+00
 -1      5878 0.00000E+00
 -1      5879 0.00000E+00
 -1      5880 0.00000E+00
 -1      5881 0.00000E+00
 -1      5882 0.00000E+00
 -1      5883 0.00000E+00
 -1      5884 0.00000E+00
 -1      5885 0.00000E+00
 -1      5886 0.00000E+00
 -1      5887 0.00000E+00
 -1      5888 0.00000E+00
 -1      5889 0.00000E+00
 -1      5890 0.00000E+00
 -1      5891 0.00000E+00
 -1      5892 0.00000E+00
 -1      5893 0.00000E+00
 -1      5894 0.00000E+00
 -1      5895 0.00000E+00
 -1      5896 0.00000E+00
 -1      5897 0.00000E+00
 -1      5898 0.00000E+00
 -1      5899 0.00000E+00
 -1      5900 0.00000E+00
 -1      5901 0.00000E+00
 -1      5902 0.00000E+00
 -1      5903 0.00000E+00
 -1      5904 0.00000E+00
 -1      5905 0.00000E+00
 -1      5906 0.00000E+00
 -1      5907 0.00000E+00
 -1      5908 0.00000E+00
 -1      5909 0.00000E+00
 -1      5910 0.00000E+00
 -1      5911 0.00000E+00
 -1      5912 0.00000E+00
 -1      5913 0.00000E+00
 -1      5914 0.00000E+00
 -1      5915 0.00000E+00
 -1      5916 0.00000E+00
 -1      5917 0.00000E+00
 -1      5918 0.00000E+00
 -1      5919 0.00000E+00
 -1      5920 0.00000E+00
 -1      5921 0.00000E+00
 -1      5922 0.00000E+00
 -1      5923 0.00000E+00
 -1      5924 0.00000E+00
 -1      5925 0.00000E+00
 -1      5926 0.00000E+00
 -1      5927 0.00000E+00
 -1      5928 0.00000E+00
 -1      5929 0.00000E+00
 -1      5930 0.00000E+00
 -1      5931 0.00000E+00
 -1      5932 0.00000E+00
 -1      5933 0.00000E+00
 -1      5934 0.00000E+00
 -1      5935 0.00000E+00
 -1      5936 0.00000E+00
 -1      5937 0.00000E+00
 -1      5938 0.00000E+00
 -1      5939 0.00000E+00
 -1      5940 0.00000E+00
 -1      5941 0.00000E+00
 -1      5942 0.00000E+00
 -1      5943 0.00000E+00
 -1      5944 0.00000E+00
 -1      5945 0.00000E+00
 -1      5946 0.00000E+00
 -1      5947 0.00000E+00
 -1      5948 0.00000E+00
 -1      5949 0.00000E+00
 -1      5950 0.00000E+00
 -1      5951 0.00000E+00
 -1      5952 0.00000E+00
 -1      5953 0.00000E+00
 -1      5954 0.00000E+00
 -1      5955 0.00000E+00
 -1      5956 0.00000E+00
 -1      5957 0.00000E+00
 -1      5958 0.00000E+00
 -1      5959 0.00000E+00
 -1      5960 0.00000E+00
 -1      5961 0.00000E+00
 -1      5962 0.00000E+00
 -1      5963 0.00000E+00
 -1      5964 0.00000E+00
 -1      5965 0.00000E+00
 -1      5966 0.00000E+00
 -1      5967 0.00000E+00
 -1      5968 0.00000E+00
 -1      5969 0.00000E+00
 -1      5970 0.00000E+00
 -1      5971 0.00000E+00
 -1      5972 0.00000E+00
 -1      5973 0.00000E+00
 -1      5974 0.00000E+00
 -1      5975 0.00000E+00
 -1      5976 0.00000E+00
 -1      5977 0.00000E+00
 -1      5978 0.00000E+00
 -1      5979 0.00000E+00
 -1      5980 0.00000E+00
 -1      5981 0.00000E+00
 -1      5982 0.00000E+00
 -1      5983 0.00000E+00
 -1      5984 0.00000E+00
 -1      5985 0.00000E+00
 -1      5986 0.00000E+00
 -1      5987 0.00000E+00
 -1      5988 0.00000E+00
 -1      5989 0.00000E+00
 -1      5990 0.00000E+00
 -1      5991 0.00000E+00
 -1      5992 0.00000E+00
 -1      5993 0.00000E+00
 -1      5994 0.00000E+00
 -1      5995 0.00000E+00
 -1      5996 0.00000E+00
 -1      5997 0.00000E+00
 -1      5998 0.00000E+00
 -1      5999 0.00000E+00
 -1      6000 0.00000E+00
 -1      6001 0.00000E+00
 -1      6002 0.00000E+00
 -1      6003 0.00000E+00
 -1      6004 0.00000E+00
 -1      6005 0.00000E+00
 -1      6006 0.00000E+00
 -1      6007 0.00000E+00
 -1      6008 0.00000E+00
 -1      6009 0.00000E+00
 -1      6010 0.00000E+00
 -1      6011 0.00000E+00
 -1      6012 0.00000E+00
 -1      6013 0.00000E+00
 -1      6014 0.00000E+00
 -1      6015 0.00000E+00
 -1      6016 0.00000E+00
 -1      6017 0.00000E+00
 -1      6018 0.00000E+00
 -1      6019 0.00000E+00
 -1      6020 0.00000E+00
 -1      6021 0.00000E+00
 -1      6022 0.00000E+00
 -1      6023 0.00000E+00
 -1      6024 0.00000E+00
 -1      6025 0.00000E+00
 -1      6026 0.00000E+00
 -1      6027 0.00000E+00
 -1      6028 0.00000E+00
 -1      6029 0.00000E+00
 -1      6030 0.00000E+00
 -1      6031 0.00000E+00
 -1      6032 0.00000E+00
 -1      6033 0.00000E+00
 -1      6034 0.00000E+00
 -1      6035 0.00000E+00
 -1      6036 0.00000E+00
 -1      6037 0.00000E+00
 -1      6038 0.00000E+00
 -1      6039 0.00000E+00
 -1      6040 0.00000E+00
 -1      6041 0.00000E+00
 -1      6042 0.00000E+00
 -1      6043 0.00000E+00
 -1      6044 0.00000E+00
 -1      6045 0.00000E+00
 -1      6046 0.00000E+00
 -1      6047 0.00000E+00
 -1      6048 0.00000E+00
 -1      6049 0.00000E+00
 -1      6050 0.00000E+00
 -1      6051 0.00000E+00
 -1      6052 0.00000E+00
 -1      6053 0.00000E+00
 -1      6054 0.00000E+00
 -1      6055 0.00000E+00
 -1      6056 0.00000E+00
 -1      6057 0.00000E+00
 -1      6058 0.00000E+00
 -1      6059 0.00000E+00
 -1      6060 0.00000E+00
 -1      6061 0.00000E+00
 -1      6062 0.00000E+00
 -1      6063 0.00000E+00
 -1      6064 0.00000E+00
 -1      6065 0.00000E+00
 -1      6066 0.00000E+00
 -1      6067 0.00000E+00
 -1      6068 0.00000E+00
 -1      6069 0.00000E+00
 -1      6070 0.00000E+00
 -1      6071 0.00000E+00
 -1      6072 0.00000E+00
 -1      6073 0.00000E+00
 -1      6074 0.00000E+00
 -1      6075 0.00000E+00
 -1      6076 0.00000E+00
 -1      6077 0.00000E+00
 -1      6078 0.00000E+00
 -1      6079 0.00000E+00
 -1      6080 0.00000E+00
 -1      6081 0.00000E+00
 -1      6082 0.00000E+00
 -1      6083 0.00000E+00
 -1      6084 0.00000E+00
 -1      6085 0.00000E+00
 -1      6086 0.00000E+00
 -1      6087 0.00000E+00
 -1      6088 0.00000E+00
 -1      6089 0.00000E+00
 -1      6090 0.00000E+00
 -1      6091 0.00000E+00
 -1      6092 0.00000E+00
 -1      6093 0.00000E+00
 -1      6094 0.00000E+00
 -1      6095 0.00000E+00
 -1      6096 0.00000E+00
 -1      6097 0.00000E+00
 -1      6098 0.00000E+00
 -1      6099 0.00000E+00
 -1      6100 0.00000E+00
 -1      6101 0.00000E+00
 -1      6102 0.00000E+00
 -1      6103 0.00000E+00
 -1      6104 0.00000E+00
 -1      6105 0.00000E+00
 -1      6106 0.00000E+00
 -1      6107 0.00000E+00
 -1      6108 0.00000E+00
 -1      6109 0.00000E+00
 -1      6110 0.00000E+00
 -1      6111 0.00000E+00
 -1      6112 0.00000E+00
 -1      6113 0.00000E+00
 -1      6114 0.00000E+00
 -1      6115 0.00000E+00
 -1      6116 0.00000E+00
 -1      6117 0.00000E+00
 -1      6118 0.00000E+00
 -1      6119 0.00000E+00
 -1      6120 0.00000E+00
 -1      6121 0.00000E+00
 -1      6122 0.00000E+00
 -1      6123 0.00000E+00
 -1      6124 0.00000E+00
 -1      6125 0.00000E+00
 -1      6126 0.00000E+00
 -1      6127 0.00000E+00
 -1      6128 0.00000E+00
 -1      6129 0.00000E+00
 -1      6130 0.00000E+00
 -1      6131 0.00000E+00
 -1      6132 0.00000E+00
 -1      6133 0.00000E+00
 -1      6134 0.00000E+00
 -1      6135 0.00000E+00
 -1      6136 0.00000E+00
 -1      6137 0.00000E+00
 -1      6138 0.00000E+00
 -1      6139 0.00000E+00
 -1      6140 0.00000E+00
 -1      6141 0.00000E+00
 -1      6142 0.00000E+00
 -1      6143 0.00000E+00
 -1      6144 0.00000E+00
 -1      6145 0.00000E+00
 -1      6146 0.00000E+00
 -1      6147 0.00000E+00
 -1      6148 0.00000E+00
 -1      6149 0.00000E+00
 -1      6150 0.00000E+00
 -1      6151 0.00000E+00
 -1      6152 0.00000E+00
 -1      6153 0.00000E+00
 -1      6154 0.00000E+00
 -1      6155 0.00000E+00
 -1      6156 0.00000E+00
 -1      6157 0.00000E+00
 -1      6158 0.00000E+00
 -1      6159 0.00000E+00
 -1      6160 0.00000E+00
 -1      6161 0.00000E+00
 -1      6162 0.00000E+00
 -1      6163 0.00000E+00
 -1      6164 0.00000E+00
 -1      6165 0.00000E+00
 -1      6166 0.00000E+00
 -1      6167 0.00000E+00
 -1      6168 0.00000E+00
 -1      6169 0.00000E+00
 -1      6170 0.00000E+00
 -1      6171 0.00000E+00
 -1      6172 0.00000E+00
 -1      6173 0.00000E+00
 -1      6174 0.00000E+00
 -1      6175 0.00000E+00
 -1      6176 0.00000E+00
 -1      6177 0.00000E+00
 -1      6178 0.00000E+00
 -1      6179 0.00000E+00
 -1      6180 0.00000E+00
 -1      6181 0.00000E+00
 -1      6182 0.00000E+00
 -1      6183 0.00000E+00
 -1      6184 0.00000E+00
 -1      6185 0.00000E+00
 -1      6186 0.00000E+00
 -1      6187 0.00000E+00
 -1      6188 0.00000E+00
 -1      6189 0.00000E+00
 -1      6190 0.00000E+00
 -1      6191 0.00000E+00
 -1      6192 0.00000E+00
 -1      6193 0.00000E+00
 -1      6194 0.00000E+00
 -1      6195 0.00000E+00
 -1      6196 0.00000E+00
 -1      6197 0.00000E+00
 -1      6198 0.00000E+00
 -1      6199 0.00000E+00
 -1      6200 0.00000E+00
 -1      6201 0.00000E+00
 -1      6202 0.00000E+00
 -1      6203 0.00000E+00
 -1      6204 0.00000E+00
 -1      6205 0.00000E+00
 -1      6206 0.00000E+00
 -1      6207 0.00000E+00
 -1      6208 0.00000E+00
 -1      6209 0.00000E+00
 -1      6210 0.00000E+00
 -1      6211 0.00000E+00
 -1      6212 0.00000E+00
 -1      6213 0.00000E+00
 -1      6214 0.00000E+00
 -1      6215 0.00000E+00
 -1      6216 0.00000E+00
 -1      6217 0.00000E+00
 -1      6218 0.00000E+00
 -1      6219 0.00000E+00
 -1      6220 0.00000E+00
 -1      6221 0.00000E+00
 -1      6222 0.00000E+00
 -1      6223 0.00000E+00
 -1      6224 0.00000E+00
 -1      6225 0.00000E+00
 -1      6226 0.00000E+00
 -1      6227 0.00000E+00
 -1      6228 0.00000E+00
 -1      6229 0.00000E+00
 -1      6230 0.00000E+00
 -1      6231 0.00000E+00
 -1      6232 0.00000E+00
 -1      6233 0.00000E+00
 -1      6234 0.00000E+00
 -1      6235 0.00000E+00
 -1      6236 0.00000E+00
 -1      6237 0.00000E+00
 -1      6238 0.00000E+00
 -1      6239 0.00000E+00
 -1      6240 0.00000E+00
 -1      6241 0.00000E+00
 -1      6242 0.00000E+00
 -1      6243 0.00000E+00
 -1      6244 0.00000E+00
 -1      6245 0.00000E+00
 -1      6246 0.00000E+00
 -1      6247 0.00000E+00
 -1      6248 0.00000E+00
 -1      6249 0.00000E+00
 -1      6250 0.00000E+00
 -1      6251 0.00000E+00
 -1      6252 0.00000E+00
 -1      6253 0.00000E+00
 -1      6254 0.00000E+00
 -1      6255 0.00000E+00
 -1      6256 0.00000E+00
 -1      6257 0.00000E+00
 -1      6258 0.00000E+00
 -1      6259 0.00000E+00
 -1      6260 0.00000E+00
 -1      6261 0.00000E+00
 -1      6262 0.00000E+00
 -1      6263 0.00000E+00
 -1      6264 0.00000E+00
 -1      6265 0.00000E+00
 -1      6266 0.00000E+00
 -1      6267 0.00000E+00
 -1      6268 0.00000E+00
 -1      6269 0.00000E+00
 -1      6270 0.00000E+00
 -1      6271 0.00000E+00
 -1      6272 0.00000E+00
 -1      6273 0.00000E+00
 -1      6274 0.00000E+00
 -1      6275 0.00000E+00
 -1      6276 0.00000E+00
 -1      6277 0.00000E+00
 -1      6278 0.00000E+00
 -1      6279 0.00000E+00
 -1      6280 0.00000E+00
 -1      6281 0.00000E+00
 -1      6282 0.00000E+00
 -1      6283 0.00000E+00
 -1      6284 0.00000E+00
 -1      6285 0.00000E+00
 -1      6286 0.00000E+00
 -1      6287 0.00000E+00
 -1      6288 0.00000E+00
 -1      6289 0.00000E+00
 -1      6290 0.00000E+00
 -1      6291 0.00000E+00
 -1      6292 0.00000E+00
 -1      6293 0.00000E+00
 -1      6294 0.00000E+00
 -1      6295 0.00000E+00
 -1      6296 0.00000E+00
 -1      6297 0.00000E+00
 -1      6298 0.00000E+00
 -1      6299 0.00000E+00
 -1      6300 0.00000E+00
 -1      6301 0.00000E+00
 -1      6302 0.00000E+00
 -1      6303 0.00000E+00
 -1      6304 0.00000E+00
 -1      6305 0.00000E+00
 -1      6306 0.00000E+00
 -1      6307 0.00000E+00
 -1      6308 0.00000E+00
 -1      6309 0.00000E+00
 -1      6310 0.00000E+00
 -1      6311 0.00000E+00
 -1      6312 0.00000E+00
 -1      6313 0.00000E+00
 -1      6314 0.00000E+00
 -1      6315 0.00000E+00
 -1      6316 0.00000E+00
 -1      6317 0.00000E+00
 -1      6318 0.00000E+00
 -1      6319 0.00000E+00
 -1      6320 0.00000E+00
 -1      6321 0.00000E+00
 -1      6322 0.00000E+00
 -1      6323 0.00000E+00
 -1      6324 0.00000E+00
 -1      6325 0.00000E+00
 -1      6326 0.00000E+00
 -1      6327 0.00000E+00
 -1      6328 0.00000E+00
 -1      6329 0.00000E+00
 -1      6330 0.00000E+00
 -1      6331 0.00000E+00
 -1      6332 0.00000E+00
 -1      6333 0.00000E+00
 -1      6334 0.00000E+00
 -1      6335 0.00000E+00
 -1      6336 0.00000E+00
 -1      6337 0.00000E+00
 -1      6338 0.00000E+00
 -1      6339 0.00000E+00
 -1      6340 0.00000E+00
 -1      6341 0.00000E+00
 -1      6342 0.00000E+00
 -1      6343 0.00000E+00
 -1      6344 0.00000E+00
 -1      6345 0.00000E+00
 -1      6346 0.00000E+00
 -1      6347 0.00000E+00
 -1      6348 0.00000E+00
 -1      6349 0.00000E+00
 -1      6350 0.00000E+00
 -1      6351 0.00000E+00
 -1      6352 0.00000E+00
 -1      6353 0.00000E+00
 -1      6354 0.00000E+00
 -1      6355 0.00000E+00
 -1      6356 0.00000E+00
 -1      6357 0.00000E+00
 -1      6358 0.00000E+00
 -1      6359 0.00000E+00
 -1      6360 0.00000E+00
 -1      6361 0.00000E+00
 -1      6362 0.00000E+00
 -1      6363 0.00000E+00
 -1      6364 0.00000E+00
 -1      6365 0.00000E+00
 -1      6366 0.00000E+00
 -1      6367 0.00000E+00
 -1      6368 0.00000E+00
 -1      6369 0.00000E+00
 -1      6370 0.00000E+00
 -1      6371 0.00000E+00
 -1      6372 0.00000E+00
 -1      6373 0.00000E+00
 -1      6374 0.00000E+00
 -1      6375 0.00000E+00
 -1      6376 0.00000E+00
 -1      6377 0.00000E+00
 -1      6378 0.00000E+00
 -1      6379 0.00000E+00
 -1      6380 0.00000E+00
 -1      6381 0.00000E+00
 -1      6382 0.00000E+00
 -1      6383 0.00000E+00
 -1      6384 0.00000E+00
 -1      6385 0.00000E+00
 -1      6386 0.00000E+00
 -1      6387 0.00000E+00
 -1      6388 0.00000E+00
 -1      6389 0.00000E+00
 -1      6390 0.00000E+00
 -1      6391 0.00000E+00
 -1      6392 0.00000E+00
 -1      6393 0.00000E+00
 -1      6394 0.00000E+00
 -1      6395 0.00000E+00
 -1      6396 0.00000E+00
 -1      6397 0.00000E+00
 -1      6398 0.00000E+00
 -1      6399 0.00000E+00
 -1      6400 0.00000E+00
 -1      6401 0.00000E+00
 -1      6402 0.00000E+00
 -1      6403 0.00000E+00
 -1      6404 0.00000E+00
 -1      6405 0.00000E+00
 -1      6406 0.00000E+00
 -1      6407 0.00000E+00
 -1      6408 0.00000E+00
 -1      6409 0.00000E+00
 -1      6410 0.00000E+00
 -1      6411 0.00000E+00
 -1      6412 0.00000E+00
 -1      6413 0.00000E+00
 -1      6414 0.00000E+00
 -1      6415 0.00000E+00
 -1      6416 0.00000E+00
 -1      6417 0.00000E+00
 -1      6418 0.00000E+00
 -1      6419 0.00000E+00
 -1      6420 0.00000E+00
 -1      6421 0.00000E+00
 -1      6422 0.00000E+00
 -1      6423 0.00000E+00
 -1      6424 0.00000E+00
 -1      6425 0.00000E+00
 -1      6426 0.00000E+00
 -1      6427 0.00000E+00
 -1      6428 0.00000E+00
 -1      6429 0.00000E+00
 -1      6430 0.00000E+00
 -1      6431 0.00000E+00
 -1      6432 0.00000E+00
 -1      6433 0.00000E+00
 -1      6434 0.00000E+00
 -1      6435 0.00000E+00
 -1      6436 0.00000E+00
 -1      6437 0.00000E+00
 -1      6438 0.00000E+00
 -1      6439 0.00000E+00
 -1      6440 0.00000E+00
 -1      6441 0.00000E+00
 -1      6442 0.00000E+00
 -1      6443 0.00000E+00
 -1      6444 0.00000E+00
 -1      6445 0.00000E+00
 -1      6446 0.00000E+00
 -1      6447 0.00000E+00
 -1      6448 0.00000E+00
 -1      6449 0.00000E+00
 -1      6450 0.00000E+00
 -1      6451 0.00000E+00
 -1      6452 0.00000E+00
 -1      6453 0.00000E+00
 -1      6454 0.00000E+00
 -1      6455 0.00000E+00
 -1      6456 0.00000E+00
 -1      6457 0.00000E+00
 -1      6458 0.00000E+00
 -1      6459 0.00000E+00
 -1      6460 0.00000E+00
 -1      6461 0.00000E+00
 -1      6462 0.00000E+00
 -1      6463 0.00000E+00
 -1      6464 0.00000E+00
 -1      6465 0.00000E+00
 -1      6466 0.00000E+00
 -1      6467 0.00000E+00
 -1      6468 0.00000E+00
 -1      6469 0.00000E+00
 -1      6470 0.00000E+00
 -1      6471 0.00000E+00
 -1      6472 0.00000E+00
 -1      6473 0.00000E+00
 -1      6474 0.00000E+00
 -1      6475 0.00000E+00
 -1      6476 0.00000E+00
 -1      6477 0.00000E+00
 -1      6478 0.00000E+00
 -1      6479 0.00000E+00
 -1      6480 0.00000E+00
 -1      6481 0.00000E+00
 -1      6482 0.00000E+00
 -1      6483 0.00000E+00
 -1      6484 0.00000E+00
 -1      6485 0.00000E+00
 -1      6486 0.00000E+00
 -1      6487 0.00000E+00
 -1      6488 0.00000E+00
 -1      6489 0.00000E+00
 -1      6490 0.00000E+00
 -1      6491 0.00000E+00
 -1      6492 0.00000E+00
 -1      6493 0.00000E+00
 -1      6494 0.00000E+00
 -1      6495 0.00000E+00
 -1      6496 0.00000E+00
 -1      6497 0.00000E+00
 -1      6498 0.00000E+00
 -1      6499 0.00000E+00
 -1      6500 0.00000E+00
 -1      6501 0.00000E+00
 -1      6502 0.00000E+00
 -1      6503 0.00000E+00
 -1      6504 0.00000E+00
 -1      6505 0.00000E+00
 -1      6506 0.00000E+00
 -1      6507 0.00000E+00
 -1      6508 0.00000E+00
 -1      6509 0.00000E+00
 -1      6510 0.00000E+00
 -1      6511 0.00000E+00
 -1      6512 0.00000E+00
 -1      6513 0.00000E+00
 -1      6514 0.00000E+00
 -1      6515 0.00000E+00
 -1      6516 0.00000E+00
 -1      6517 0.00000E+00
 -1      6518 0.00000E+00
 -1      6519 0.00000E+00
 -1      6520 0.00000E+00
 -1      6521 0.00000E+00
 -1      6522 0.00000E+00
 -1      6523 0.00000E+00
 -1      6524 0.00000E+00
 -1      6525 0.00000E+00
 -1      6526 0.00000E+00
 -1      6527 0.00000E+00
 -1      6528 0.00000E+00
 -1      6529 0.00000E+00
 -1      6530 0.00000E+00
 -1      6531 0.00000E+00
 -1      6532 0.00000E+00
 -1      6533 0.00000E+00
 -1      6534 0.00000E+00
 -1      6535 0.00000E+00
 -1      6536 0.00000E+00
 -1      6537 0.00000E+00
 -1      6538 0.00000E+00
 -1      6539 0.00000E+00
 -1      6540 0.00000E+00
 -1      6541 0.00000E+00
 -1      6542 0.00000E+00
 -1      6543 0.00000E+00
 -1      6544 0.00000E+00
 -1      6545 0.00000E+00
 -1      6546 0.00000E+00
 -1      6547 0.00000E+00
 -1      6548 0.00000E+00
 -1      6549 0.00000E+00
 -1      6550 0.00000E+00
 -1      6551 0.00000E+00
 -1      6552 0.00000E+00
 -1      6553 0.00000E+00
 -1      6554 0.00000E+00
 -1      6555 0.00000E+00
 -1      6556 0.00000E+00
 -1      6557 0.00000E+00
 -1      6558 0.00000E+00
 -1      6559 0.00000E+00
 -1      6560 0.00000E+00
 -1      6561 0.00000E+00
 -1      6562 0.00000E+00
 -1      6563 0.00000E+00
 -1      6564 0.00000E+00
 -1      6565 0.00000E+00
 -1      6566 0.00000E+00
 -1      6567 0.00000E+00
 -1      6568 0.00000E+00
 -1      6569 0.00000E+00
 -1      6570 0.00000E+00
 -1      6571 0.00000E+00
 -1      6572 0.00000E+00
 -1      6573 0.00000E+00
 -1      6574 0.00000E+00
 -1      6575 0.00000E+00
 -1      6576 0.00000E+00
 -1      6577 0.00000E+00
 -1      6578 0.00000E+00
 -1      6579 0.00000E+00
 -1      6580 0.00000E+00
 -1      6581 0.00000E+00
 -1      6582 0.00000E+00
 -1      6583 0.00000E+00
 -1      6584 0.00000E+00
 -1      6585 0.00000E+00
 -1      6586 0.00000E+00
 -1      6587 0.00000E+00
 -1      6588 0.00000E+00
 -1      6589 0.00000E+00
 -1      6590 0.00000E+00
 -1      6591 0.00000E+00
 -1      6592 0.00000E+00
 -1      6593 0.00000E+00
 -1      6594 0.00000E+00
 -1      6595 0.00000E+00
 -1      6596 0.00000E+00
 -1      6597 0.00000E+00
 -1      6598 0.00000E+00
 -1      6599 0.00000E+00
 -1      6600 0.00000E+00
 -1      6601 0.00000E+00
 -1      6602 0.00000E+00
 -1      6603 0.00000E+00
 -1      6604 0.00000E+00
 -1      6605 0.00000E+00
 -1      6606 0.00000E+00
 -1      6607 0.00000E+00
 -1      6608 0.00000E+00
 -1      6609 0.00000E+00
 -1      6610 0.00000E+00
 -1      6611 0.00000E+00
 -1      6612 0.00000E+00
 -1      6613 0.00000E+00
 -1      6614 0.00000E+00
 -1      6615 0.00000E+00
 -1      6616 0.00000E+00
 -1      6617 0.00000E+00
 -1      6618 0.00000E+00
 -1      6619 0.00000E+00
 -1      6620 0.00000E+00
 -1      6621 0.00000E+00
 -1      6622 0.00000E+00
 -1      6623 0.00000E+00
 -1      6624 0.00000E+00
 -1      6625 0.00000E+00
 -1      6626 0.00000E+00
 -1      6627 0.00000E+00
 -1      6628 0.00000E+00
 -1      6629 0.00000E+00
 -1      6630 0.00000E+00
 -1      6631 0.00000E+00
 -1      6632 0.00000E+00
 -1      6633 0.00000E+00
 -1      6634 0.00000E+00
 -1      6635 0.00000E+00
 -1      6636 0.00000E+00
 -1      6637 0.00000E+00
 -1      6638 0.00000E+00
 -1      6639 0.00000E+00
 -1      6640 0.00000E+00
 -1      6641 0.00000E+00
 -1      6642 0.00000E+00
 -1      6643 0.00000E+00
 -1      6644 0.00000E+00
 -1      6645 0.00000E+00
 -1      6646 0.00000E+00
 -1      6647 0.00000E+00
 -1      6648 0.00000E+00
 -1      6649 0.00000E+00
 -1      6650 0.00000E+00
 -1      6651 0.00000E+00
 -1      6652 0.00000E+00
 -1      6653 0.00000E+00
 -1      6654 0.00000E+00
 -1      6655 0.00000E+00
 -1      6656 0.00000E+00
 -1      6657 0.00000E+00
 -1      6658 0.00000E+00
 -1      6659 0.00000E+00
 -1      6660 0.00000E+00
 -1      6661 0.00000E+00
 -1      6662 0.00000E+00
 -1      6663 0.00000E+00
 -1      6664 0.00000E+00
 -1      6665 0.00000E+00
 -1      6666 0.00000E+00
 -1      6667 0.00000E+00
 -1      6668 0.00000E+00
 -1      6669 0.00000E+00
 -1      6670 0.00000E+00
 -1      6671 0.00000E+00
 -1      6672 0.00000E+00
 -1      6673 0.00000E+00
 -1      6674 0.00000E+00
 -1      6675 0.00000E+00
 -1      6676 0.00000E+00
 -1      6677 0.00000E+00
 -1      6678 0.00000E+00
 -1      6679 0.00000E+00
 -1      6680 0.00000E+00
 -1      6681 0.00000E+00
 -1      6682 0.00000E+00
 -1      6683 0.00000E+00
 -1      6684 0.00000E+00
 -1      6685 0.00000E+00
 -1      6686 0.00000E+00
 -1      6687 0.00000E+00
 -1      6688 0.00000E+00
 -1      6689 0.00000E+00
 -1      6690 0.00000E+00
 -1      6691 0.00000E+00
 -1      6692 0.00000E+00
 -1      6693 0.00000E+00
 -1      6694 0.00000E+00
 -1      6695 0.00000E+00
 -1      6696 0.00000E+00
 -1      6697 0.00000E+00
 -1      6698 0.00000E+00
 -1      6699 0.00000E+00
 -1      6700 0.00000E+00
 -1      6701 0.00000E+00
 -1      6702 0.00000E+00
 -1      6703 0.00000E+00
 -1      6704 0.00000E+00
 -1      6705 0.00000E+00
 -1      6706 0.00000E+00
 -1      6707 0.00000E+00
 -1      6708 0.00000E+00
 -1      6709 0.00000E+00
 -1      6710 0.00000E+00
 -1      6711 0.00000E+00
 -1      6712 0.00000E+00
 -1      6713 0.00000E+00
 -1      6714 0.00000E+00
 -1      6715 0.00000E+00
 -1      6716 0.00000E+00
 -1      6717 0.00000E+00
 -1      6718 0.00000E+00
 -1      6719 0.00000E+00
 -1      6720 0.00000E+00
 -1      6721 0.00000E+00
 -1      6722 0.00000E+00
 -1      6723 0.00000E+00
 -1      6724 0.00000E+00
 -1      6725 0.00000E+00
 -1      6726 0.00000E+00
 -1      6727 0.00000E+00
 -1      6728 0.00000E+00
 -1      6729 0.00000E+00
 -1      6730 0.00000E+00
 -1      6731 0.00000E+00
 -1      6732 0.00000E+00
 -1      6733 0.00000E+00
 -1      6734 0.00000E+00
 -1      6735 0.00000E+00
 -1      6736 0.00000E+00
 -1      6737 0.00000E+00
 -1      6738 0.00000E+00
 -1      6739 0.00000E+00
 -1      6740 0.00000E+00
 -1      6741 0.00000E+00
 -1      6742 0.00000E+00
 -1      6743 0.00000E+00
 -1      6744 0.00000E+00
 -1      6745 0.00000E+00
 -1      6746 0.00000E+00
 -1      6747 0.00000E+00
 -1      6748 0.00000E+00
 -1      6749 0.00000E+00
 -1      6750 0.00000E+00
 -1      6751 0.00000E+00
 -1      6752 0.00000E+00
 -1      6753 0.00000E+00
 -1      6754 0.00000E+00
 -1      6755 0.00000E+00
 -1      6756 0.00000E+00
 -1      6757 0.00000E+00
 -1      6758 0.00000E+00
 -1      6759 0.00000E+00
 -1      6760 0.00000E+00
 -1      6761 0.00000E+00
 -1      6762 0.00000E+00
 -1      6763 0.00000E+00
 -1      6764 0.00000E+00
 -1      6765 0.00000E+00
 -1      6766 0.00000E+00
 -1      6767 0.00000E+00
 -1      6768 0.00000E+00
 -1      6769 0.00000E+00
 -1      6770 0.00000E+00
 -1      6771 0.00000E+00
 -1      6772 0.00000E+00
 -1      6773 0.00000E+00
 -1      6774 0.00000E+00
 -1      6775 0.00000E+00
 -1      6776 0.00000E+00
 -1      6777 0.00000E+00
 -1      6778 0.00000E+00
 -1      6779 0.00000E+00
 -1      6780 0.00000E+00
 -1      6781 0.00000E+00
 -1      6782 0.00000E+00
 -1      6783 0.00000E+00
 -1      6784 0.00000E+00
 -1      6785 0.00000E+00
 -1      6786 0.00000E+00
 -1      6787 0.00000E+00
 -1      6788 0.00000E+00
 -1      6789 0.00000E+00
 -1      6790 0.00000E+00
 -1      6791 0.00000E+00
 -1      6792 0.00000E+00
 -1      6793 0.00000E+00
 -1      6794 0.00000E+00
 -1      6795 0.00000E+00
 -1      6796 0.00000E+00
 -1      6797 0.00000E+00
 -1      6798 0.00000E+00
 -1      6799 0.00000E+00
 -1      6800 0.00000E+00
 -1      6801 0.00000E+00
 -1      6802 0.00000E+00
 -1      6803 0.00000E+00
 -1      6804 0.00000E+00
 -1      6805 0.00000E+00
 -1      6806 0.00000E+00
 -1      6807 0.00000E+00
 -1      6808 0.00000E+00
 -1      6809 0.00000E+00
 -1      6810 0.00000E+00
 -1      6811 0.00000E+00
 -1      6812 0.00000E+00
 -1      6813 0.00000E+00
 -1      6814 0.00000E+00
 -1      6815 0.00000E+00
 -1      6816 0.00000E+00
 -1      6817 0.00000E+00
 -1      6818 0.00000E+00
 -1      6819 0.00000E+00
 -1      6820 0.00000E+00
 -1      6821 0.00000E+00
 -1      6822 0.00000E+00
 -1      6823 0.00000E+00
 -1      6824 0.00000E+00
 -1      6825 0.00000E+00
 -1      6826 0.00000E+00
 -1      6827 0.00000E+00
 -1      6828 0.00000E+00
 -1      6829 0.00000E+00
 -1      6830 0.00000E+00
 -1      6831 0.00000E+00
 -1      6832 0.00000E+00
 -1      6833 0.00000E+00
 -1      6834 0.00000E+00
 -1      6835 0.00000E+00
 -1      6836 0.00000E+00
 -1      6837 0.00000E+00
 -1      6838 0.00000E+00
 -1      6839 0.00000E+00
 -1      6840 0.00000E+00
 -1      6841 0.00000E+00
 -1      6842 0.00000E+00
 -1      6843 0.00000E+00
 -1      6844 0.00000E+00
 -1      6845 0.00000E+00
 -1      6846 0.00000E+00
 -1      6847 0.00000E+00
 -1      6848 0.00000E+00
 -1      6849 0.00000E+00
 -1      6850 0.00000E+00
 -1      6851 0.00000E+00
 -1      6852 0.00000E+00
 -1      6853 0.00000E+00
 -1      6854 0.00000E+00
 -1      6855 0.00000E+00
 -1      6856 0.00000E+00
 -1      6857 0.00000E+00
 -1      6858 0.00000E+00
 -1      6859 0.00000E+00
 -1      6860 0.00000E+00
 -1      6861 0.00000E+00
 -1      6862 0.00000E+00
 -1      6863 0.00000E+00
 -1      6864 0.00000E+00
 -1      6865 0.00000E+00
 -1      6866 0.00000E+00
 -1      6867 0.00000E+00
 -1      6868 0.00000E+00
 -1      6869 0.00000E+00
 -1      6870 0.00000E+00
 -1      6871 0.00000E+00
 -1      6872 0.00000E+00
 -1      6873 0.00000E+00
 -1      6874 0.00000E+00
 -1      6875 0.00000E+00
 -1      6876 0.00000E+00
 -1      6877 0.00000E+00
 -1      6878 0.00000E+00
 -1      6879 0.00000E+00
 -1      6880 0.00000E+00
 -1      6881 0.00000E+00
 -1      6882 0.00000E+00
 -1      6883 0.00000E+00
 -1      6884 0.00000E+00
 -1      6885 0.00000E+00
 -1      6886 0.00000E+00
 -1      6887 0.00000E+00
 -1      6888 0.00000E+00
 -1      6889 0.00000E+00
 -1      6890 0.00000E+00
 -1      6891 0.00000E+00
 -1      6892 0.00000E+00
 -1      6893 0.00000E+00
 -1      6894 0.00000E+00
 -1      6895 0.00000E+00
 -1      6896 0.00000E+00
 -1      6897 0.00000E+00
 -1      6898 0.00000E+00
 -1      6899 0.00000E+00
 -1      6900 0.00000E+00
 -1      6901 0.00000E+00
 -1      6902 0.00000E+00
 -1      6903 0.00000E+00
 -1      6904 0.00000E+00
 -1      6905 0.00000E+00
 -1      6906 0.00000E+00
 -1      6907 0.00000E+00
 -1      6908 0.00000E+00
 -1      6909 0.00000E+00
 -1      6910 0.00000E+00
 -1      6911 0.00000E+00
 -1      6912 0.00000E+00
 -1      6913 0.00000E+00
 -1      6914 0.00000E+00
 -1      6915 0.00000E+00
 -1      6916 0.00000E+00
 -1      6917 0.00000E+00
 -1      6918 0.00000E+00
 -1      6919 0.00000E+00
 -1      6920 0.00000E+00
 -1      6921 0.00000E+00
 -1      6922 0.00000E+00
 -1      6923 0.00000E+00
 -1      6924 0.00000E+00
 -1      6925 0.00000E+00
 -1      6926 0.00000E+00
 -1      6927 0.00000E+00
 -1      6928 0.00000E+00
 -1      6929 0.00000E+00
 -1      6930 0.00000E+00
 -1      6931 0.00000E+00
 -1      6932 0.00000E+00
 -1      6933 0.00000E+00
 -1      6934 0.00000E+00
 -1      6935 0.00000E+00
 -1      6936 0.00000E+00
 -1      6937 0.00000E+00
 -1      6938 0.00000E+00
 -1      6939 0.00000E+00
 -1      6940 0.00000E+00
 -1      6941 0.00000E+00
 -1      6942 0.00000E+00
 -1      6943 0.00000E+00
 -1      6944 0.00000E+00
 -1      6945 0.00000E+00
 -1      6946 0.00000E+00
 -1      6947 0.00000E+00
 -1      6948 0.00000E+00
 -1      6949 0.00000E+00
 -1      6950 0.00000E+00
 -1      6951 0.00000E+00
 -1      6952 0.00000E+00
 -1      6953 0.00000E+00
 -1      6954 0.00000E+00
 -1      6955 0.00000E+00
 -1      6956 0.00000E+00
 -1      6957 0.00000E+00
 -1      6958 0.00000E+00
 -1      6959 0.00000E+00
 -1      6960 0.00000E+00
 -1      6961 0.00000E+00
 -1      6962 0.00000E+00
 -1      6963 0.00000E+00
 -1      6964 0.00000E+00
 -1      6965 0.00000E+00
 -1      6966 0.00000E+00
 -1      6967 0.00000E+00
 -1      6968 0.00000E+00
 -1      6969 0.00000E+00
 -1      6970 0.00000E+00
 -1      6971 0.00000E+00
 -1      6972 0.00000E+00
 -1      6973 0.00000E+00
 -1      6974 0.00000E+00
 -1      6975 0.00000E+00
 -1      6976 0.00000E+00
 -1      6977 0.00000E+00
 -1      6978 0.00000E+00
 -1      6979 0.00000E+00
 -1      6980 0.00000E+00
 -1      6981 0.00000E+00
 -1      6982 0.00000E+00
 -1      6983 0.00000E+00
 -1      6984 0.00000E+00
 -1      6985 0.00000E+00
 -1      6986 0.00000E+00
 -1      6987 0.00000E+00
 -1      6988 0.00000E+00
 -1      6989 0.00000E+00
 -1      6990 0.00000E+00
 -1      6991 0.00000E+00
 -1      6992 0.00000E+00
 -1      6993 0.00000E+00
 -1      6994 0.00000E+00
 -1      6995 0.00000E+00
 -1      6996 0.00000E+00
 -1      6997 0.00000E+00
 -1      6998 0.00000E+00
 -1      6999 0.00000E+00
 -1      7000 0.00000E+00
 -1      7001 0.00000E+00
 -1      7002 0.00000E+00
 -1      7003 0.00000E+00
 -1      7004 0.00000E+00
 -1      7005 0.00000E+00
 -1      7006 0.00000E+00
 -1      7007 0.00000E+00
 -1      7008 0.00000E+00
 -1      7009 0.00000E+00
 -1      7010 0.00000E+00
 -1      7011 0.00000E+00
 -1      7012 0.00000E+00
 -1      7013 0.00000E+00
 -1      7014 0.00000E+00
 -1      7015 0.00000E+00
 -1      7016 0.00000E+00
 -1      7017 0.00000E+00
 -1      7018 0.00000E+00
 -1      7019 0.00000E+00
 -1      7020 0.00000E+00
 -1      7021 0.00000E+00
 -1      7022 0.00000E+00
 -1      7023 0.00000E+00
 -1      7024 0.00000E+00
 -1      7025 0.00000E+00
 -1      7026 0.00000E+00
 -1      7027 0.00000E+00
 -1      7028 0.00000E+00
 -1      7029 0.00000E+00
 -1      7030 0.00000E+00
 -1      7031 0.00000E+00
 -1      7032 0.00000E+00
 -1      7033 0.00000E+00
 -1      7034 0.00000E+00
 -1      7035 0.00000E+00
 -1      7036 0.00000E+00
 -1      7037 0.00000E+00
 -1      7038 0.00000E+00
 -1      7039 0.00000E+00
 -1      7040 0.00000E+00
 -1      7041 0.00000E+00
 -1      7042 0.00000E+00
 -1      7043 0.00000E+00
 -1      7044 0.00000E+00
 -1      7045 0.00000E+00
 -1      7046 0.00000E+00
 -1      7047 0.00000E+00
 -1      7048 0.00000E+00
 -1      7049 0.00000E+00
 -1      7050 0.00000E+00
 -1      7051 0.00000E+00
 -1      7052 0.00000E+00
 -1      7053 0.00000E+00
 -1      7054 0.00000E+00
 -1      7055 0.00000E+00
 -1      7056 0.00000E+00
 -1      7057 0.00000E+00
 -1      7058 0.00000E+00
 -1      7059 0.00000E+00
 -1      7060 0.00000E+00
 -1      7061 0.00000E+00
 -1      7062 0.00000E+00
 -1      7063 0.00000E+00
 -1      7064 0.00000E+00
 -1      7065 0.00000E+00
 -1      7066 0.00000E+00
 -1      7067 0.00000E+00
 -1      7068 0.00000E+00
 -1      7069 0.00000E+00
 -1      7070 0.00000E+00
 -1      7071 0.00000E+00
 -1      7072 0.00000E+00
 -1      7073 0.00000E+00
 -1      7074 0.00000E+00
 -1      7075 0.00000E+00
 -1      7076 0.00000E+00
 -1      7077 0.00000E+00
 -1      7078 0.00000E+00
 -1      7079 0.00000E+00
 -1      7080 0.00000E+00
 -1      7081 0.00000E+00
 -1      7082 0.00000E+00
 -1      7083 0.00000E+00
 -1      7084 0.00000E+00
 -1      7085 0.00000E+00
 -1      7086 0.00000E+00
 -1      7087 0.00000E+00
 -1      7088 0.00000E+00
 -1      7089 0.00000E+00
 -1      7090 0.00000E+00
 -1      7091 0.00000E+00
 -1      7092 0.00000E+00
 -1      7093 0.00000E+00
 -1      7094 0.00000E+00
 -1      7095 0.00000E+00
 -1      7096 0.00000E+00
 -1      7097 0.00000E+00
 -1      7098 0.00000E+00
 -1      7099 0.00000E+00
 -1      7100 0.00000E+00
 -1      7101 0.00000E+00
 -1      7102 0.00000E+00
 -1      7103 0.00000E+00
 -1      7104 0.00000E+00
 -1      7105 0.00000E+00
 -1      7106 0.00000E+00
 -1      7107 0.00000E+00
 -1      7108 0.00000E+00
 -1      7109 0.00000E+00
 -1      7110 0.00000E+00
 -1      7111 0.00000E+00
 -1      7112 0.00000E+00
 -1      7113 0.00000E+00
 -1      7114 0.00000E+00
 -1      7115 0.00000E+00
 -1      7116 0.00000E+00
 -1      7117 0.00000E+00
 -1      7118 0.00000E+00
 -1      7119 0.00000E+00
 -1      7120 0.00000E+00
 -1      7121 0.00000E+00
 -1      7122 0.00000E+00
 -1      7123 0.00000E+00
 -1      7124 0.00000E+00
 -1      7125 0.00000E+00
 -1      7126 0.00000E+00
 -1      7127 0.00000E+00
 -1      7128 0.00000E+00
 -1      7129 0.00000E+00
 -1      7130 0.00000E+00
 -1      7131 0.00000E+00
 -1      7132 0.00000E+00
 -1      7133 0.00000E+00
 -1      7134 0.00000E+00
 -1      7135 0.00000E+00
 -1      7136 0.00000E+00
 -1      7137 0.00000E+00
 -1      7138 0.00000E+00
 -1      7139 0.00000E+00
 -1      7140 0.00000E+00
 -1      7141 0.00000E+00
 -1      7142 0.00000E+00
 -1      7143 0.00000E+00
 -1      7144 0.00000E+00
 -1      7145 0.00000E+00
 -1      7146 0.00000E+00
 -1      7147 0.00000E+00
 -1      7148 0.00000E+00
 -1      7149 0.00000E+00
 -1      7150 0.00000E+00
 -1      7151 0.00000E+00
 -1      7152 0.00000E+00
 -1      7153 0.00000E+00
 -1      7154 0.00000E+00
 -1      7155 0.00000E+00
 -1      7156 0.00000E+00
 -1      7157 0.00000E+00
 -1      7158 0.00000E+00
 -1      7159 0.00000E+00
 -1      7160 0.00000E+00
 -1      7161 0.00000E+00
 -1      7162 0.00000E+00
 -1      7163 0.00000E+00
 -1      7164 0.00000E+00
 -1      7165 0.00000E+00
 -1      7166 0.00000E+00
 -1      7167 0.00000E+00
 -1      7168 0.00000E+00
 -1      7169 0.00000E+00
 -1      7170 0.00000E+00
 -1      7171 0.00000E+00
 -1      7172 0.00000E+00
 -1      7173 0.00000E+00
 -1      7174 0.00000E+00
 -1      7175 0.00000E+00
 -1      7176 0.00000E+00
 -1      7177 0.00000E+00
 -1      7178 0.00000E+00
 -1      7179 0.00000E+00
 -1      7180 0.00000E+00
 -1      7181 0.00000E+00
 -1      7182 0.00000E+00
 -1      7183 0.00000E+00
 -1      7184 0.00000E+00
 -1      7185 0.00000E+00
 -1      7186 0.00000E+00
 -1      7187 0.00000E+00
 -1      7188 0.00000E+00
 -1      7189 0.00000E+00
 -1      7190 0.00000E+00
 -1      7191 0.00000E+00
 -1      7192 0.00000E+00
 -1      7193 0.00000E+00
 -1      7194 0.00000E+00
 -1      7195 0.00000E+00
 -1      7196 0.00000E+00
 -1      7197 0.00000E+00
 -1      7198 0.00000E+00
 -1      7199 0.00000E+00
 -1      7200 0.00000E+00
 -1      7201 0.00000E+00
 -1      7202 0.00000E+00
 -1      7203 0.00000E+00
 -1      7204 0.00000E+00
 -1      7205 0.00000E+00
 -1      7206 0.00000E+00
 -1      7207 0.00000E+00
 -1      7208 0.00000E+00
 -1      7209 0.00000E+00
 -1      7210 0.00000E+00
 -1      7211 0.00000E+00
 -1      7212 0.00000E+00
 -1      7213 0.00000E+00
 -1      7214 0.00000E+00
 -1      7215 0.00000E+00
 -1      7216 0.00000E+00
 -1      7217 0.00000E+00
 -1      7218 0.00000E+00
 -1      7219 0.00000E+00
 -1      7220 0.00000E+00
 -1      7221 0.00000E+00
 -1      7222 0.00000E+00
 -1      7223 0.00000E+00
 -1      7224 0.00000E+00
 -1      7225 0.00000E+00
 -1      7226 0.00000E+00
 -1      7227 0.00000E+00
 -1      7228 0.00000E+00
 -1      7229 0.00000E+00
 -1      7230 0.00000E+00
 -1      7231 0.00000E+00
 -1      7232 0.00000E+00
 -1      7233 0.00000E+00
 -1      7234 0.00000E+00
 -1      7235 0.00000E+00
 -1      7236 0.00000E+00
 -1      7237 0.00000E+00
 -1      7238 0.00000E+00
 -1      7239 0.00000E+00
 -1      7240 0.00000E+00
 -1      7241 0.00000E+00
 -1      7242 0.00000E+00
 -1      7243 0.00000E+00
 -1      7244 0.00000E+00
 -1      7245 0.00000E+00
 -1      7246 0.00000E+00
 -1      7247 0.00000E+00
 -1      7248 0.00000E+00
 -1      7249 0.00000E+00
 -1      7250 0.00000E+00
 -1      7251 0.00000E+00
 -1      7252 0.00000E+00
 -1      7253 0.00000E+00
 -1      7254 0.00000E+00
 -1      7255 0.00000E+00
 -1      7256 0.00000E+00
 -1      7257 0.00000E+00
 -1      7258 0.00000E+00
 -1      7259 0.00000E+00
 -1      7260 0.00000E+00
 -1      7261 0.00000E+00
 -1      7262 0.00000E+00
 -1      7263 0.00000E+00
 -1      7264 0.00000E+00
 -1      7265 0.00000E+00
 -1      7266 0.00000E+00
 -1      7267 0.00000E+00
 -1      7268 0.00000E+00
 -1      7269 0.00000E+00
 -1      7270 0.00000E+00
 -1      7271 0.00000E+00
 -1      7272 0.00000E+00
 -1      7273 0.00000E+00
 -1      7274 0.00000E+00
 -1      7275 0.00000E+00
 -1      7276 0.00000E+00
 -1      7277 0.00000E+00
 -1      7278 0.00000E+00
 -1      7279 0.00000E+00
 -1      7280 0.00000E+00
 -1      7281 0.00000E+00
 -1      7282 0.00000E+00
 -1      7283 0.00000E+00
 -1      7284 0.00000E+00
 -1      7285 0.00000E+00
 -1      7286 0.00000E+00
 -1      7287 0.00000E+00
 -1      7288 0.00000E+00
 -1      7289 0.00000E+00
 -1      7290 0.00000E+00
 -1      7291 0.00000E+00
 -1      7292 0.00000E+00
 -1      7293 0.00000E+00
 -1      7294 0.00000E+00
 -1      7295 0.00000E+00
 -1      7296 0.00000E+00
 -1      7297 0.00000E+00
 -1      7298 0.00000E+00
 -1      7299 0.00000E+00
 -1      7300 0.00000E+00
 -1      7301 0.00000E+00
 -1      7302 0.00000E+00
 -1      7303 0.00000E+00
 -1      7304 0.00000E+00
 -1      7305 0.00000E+00
 -1      7306 0.00000E+00
 -1      7307 0.00000E+00
 -1      7308 0.00000E+00
 -1      7309 0.00000E+00
 -1      7310 0.00000E+00
 -1      7311 0.00000E+00
 -1      7312 0.00000E+00
 -1      7313 0.00000E+00
 -1      7314 0.00000E+00
 -1      7315 0.00000E+00
 -1      7316 0.00000E+00
 -1      7317 0.00000E+00
 -1      7318 0.00000E+00
 -1      7319 0.00000E+00
 -1      7320 0.00000E+00
 -1      7321 0.00000E+00
 -1      7322 0.00000E+00
 -1      7323 0.00000E+00
 -1      7324 0.00000E+00
 -1      7325 0.00000E+00
 -1      7326 0.00000E+00
 -1      7327 0.00000E+00
 -1      7328 0.00000E+00
 -1      7329 0.00000E+00
 -1      7330 0.00000E+00
 -1      7331 0.00000E+00
 -1      7332 0.00000E+00
 -1      7333 0.00000E+00
 -1      7334 0.00000E+00
 -1      7335 0.00000E+00
 -1      7336 0.00000E+00
 -1      7337 0.00000E+00
 -1      7338 0.00000E+00
 -1      7339 0.00000E+00
 -1      7340 0.00000E+00
 -1      7341 0.00000E+00
 -1      7342 0.00000E+00
 -1      7343 0.00000E+00
 -1      7344 0.00000E+00
 -1      7345 0.00000E+00
 -1      7346 0.00000E+00
 -1      7347 0.00000E+00
 -1      7348 0.00000E+00
 -1      7349 0.00000E+00
 -1      7350 0.00000E+00
 -1      7351 0.00000E+00
 -1      7352 0.00000E+00
 -1      7353 0.00000E+00
 -1      7354 0.00000E+00
 -1      7355 0.00000E+00
 -1      7356 0.00000E+00
 -1      7357 0.00000E+00
 -1      7358 0.00000E+00
 -1      7359 0.00000E+00
 -1      7360 0.00000E+00
 -1      7361 0.00000E+00
 -1      7362 0.00000E+00
 -1      7363 0.00000E+00
 -1      7364 0.00000E+00
 -1      7365 0.00000E+00
 -1      7366 0.00000E+00
 -1      7367 0.00000E+00
 -1      7368 0.00000E+00
 -1      7369 0.00000E+00
 -1      7370 0.00000E+00
 -1      7371 0.00000E+00
 -1      7372 0.00000E+00
 -1      7373 0.00000E+00
 -1      7374 0.00000E+00
 -1      7375 0.00000E+00
 -1      7376 0.00000E+00
 -1      7377 0.00000E+00
 -1      7378 0.00000E+00
 -1      7379 0.00000E+00
 -1      7380 0.00000E+00
 -1      7381 0.00000E+00
 -1      7382 0.00000E+00
 -1      7383 0.00000E+00
 -1      7384 0.00000E+00
 -1      7385 0.00000E+00
 -1      7386 0.00000E+00
 -1      7387 0.00000E+00
 -1      7388 0.00000E+00
 -1      7389 0.00000E+00
 -1      7390 0.00000E+00
 -1      7391 0.00000E+00
 -1      7392 0.00000E+00
 -1      7393 0.00000E+00
 -1      7394 0.00000E+00
 -1      7395 0.00000E+00
 -1      7396 0.00000E+00
 -1      7397 0.00000E+00
 -1      7398 0.00000E+00
 -1      7399 0.00000E+00
 -1      7400 0.00000E+00
 -1      7401 0.00000E+00
 -1      7402 0.00000E+00
 -1      7403 0.00000E+00
 -1      7404 0.00000E+00
 -1      7405 0.00000E+00
 -1      7406 0.00000E+00
 -1      7407 0.00000E+00
 -1      7408 0.00000E+00
 -1      7409 0.00000E+00
 -1      7410 0.00000E+00
 -1      7411 0.00000E+00
 -1      7412 0.00000E+00
 -1      7413 0.00000E+00
 -1      7414 0.00000E+00
 -1      7415 0.00000E+00
 -1      7416 0.00000E+00
 -1      7417 0.00000E+00
 -1      7418 0.00000E+00
 -1      7419 0.00000E+00
 -1      7420 0.00000E+00
 -1      7421 0.00000E+00
 -1      7422 0.00000E+00
 -1      7423 0.00000E+00
 -1      7424 0.00000E+00
 -1      7425 0.00000E+00
 -1      7426 0.00000E+00
 -1      7427 0.00000E+00
 -1      7428 0.00000E+00
 -1      7429 0.00000E+00
 -1      7430 0.00000E+00
 -1      7431 0.00000E+00
 -1      7432 0.00000E+00
 -1      7433 0.00000E+00
 -1      7434 0.00000E+00
 -1      7435 0.00000E+00
 -1      7436 0.00000E+00
 -1      7437 0.00000E+00
 -1      7438 0.00000E+00
 -1      7439 0.00000E+00
 -1      7440 0.00000E+00
 -1      7441 0.00000E+00
 -1      7442 0.00000E+00
 -1      7443 0.00000E+00
 -1      7444 0.00000E+00
 -1      7445 0.00000E+00
 -1      7446 0.00000E+00
 -1      7447 0.00000E+00
 -1      7448 0.00000E+00
 -1      7449 0.00000E+00
 -1      7450 0.00000E+00
 -1      7451 0.00000E+00
 -1      7452 0.00000E+00
 -1      7453 0.00000E+00
 -1      7454 0.00000E+00
 -1      7455 0.00000E+00
 -1      7456 0.00000E+00
 -1      7457 0.00000E+00
 -1      7458 0.00000E+00
 -1      7459 0.00000E+00
 -1      7460 0.00000E+00
 -1      7461 0.00000E+00
 -1      7462 0.00000E+00
 -1      7463 0.00000E+00
 -1      7464 0.00000E+00
 -1      7465 0.00000E+00
 -1      7466 0.00000E+00
 -1      7467 0.00000E+00
 -1      7468 0.00000E+00
 -1      7469 0.00000E+00
 -1      7470 0.00000E+00
 -1      7471 0.00000E+00
 -1      7472 0.00000E+00
 -1      7473 0.00000E+00
 -1      7474 0.00000E+00
 -1      7475 0.00000E+00
 -1      7476 0.00000E+00
 -1      7477 0.00000E+00
 -1      7478 0.00000E+00
 -1      7479 0.00000E+00
 -1      7480 0.00000E+00
 -1      7481 0.00000E+00
 -1      7482 0.00000E+00
 -1      7483 0.00000E+00
 -1      7484 0.00000E+00
 -1      7485 0.00000E+00
 -1      7486 0.00000E+00
 -1      7487 0.00000E+00
 -1      7488 0.00000E+00
 -1      7489 0.00000E+00
 -1      7490 0.00000E+00
 -1      7491 0.00000E+00
 -1      7492 0.00000E+00
 -1      7493 0.00000E+00
 -1      7494 0.00000E+00
 -1      7495 0.00000E+00
 -1      7496 0.00000E+00
 -1      7497 0.00000E+00
 -1      7498 0.00000E+00
 -1      7499 0.00000E+00
 -1      7500 0.00000E+00
 -1      7501 0.00000E+00
 -1      7502 0.00000E+00
 -1      7503 0.00000E+00
 -1      7504 0.00000E+00
 -1      7505 0.00000E+00
 -1      7506 0.00000E+00
 -1      7507 0.00000E+00
 -1      7508 0.00000E+00
 -1      7509 0.00000E+00
 -1      7510 0.00000E+00
 -1      7511 0.00000E+00
 -1      7512 0.00000E+00
 -1      7513 0.00000E+00
 -1      7514 0.00000E+00
 -1      7515 0.00000E+00
 -1      7516 0.00000E+00
 -1      7517 0.00000E+00
 -1      7518 0.00000E+00
 -1      7519 0.00000E+00
 -1      7520 0.00000E+00
 -1      7521 0.00000E+00
 -1      7522 0.00000E+00
 -1      7523 0.00000E+00
 -1      7524 0.00000E+00
 -1      7525 0.00000E+00
 -1      7526 0.00000E+00
 -1      7527 0.00000E+00
 -1      7528 0.00000E+00
 -1      7529 0.00000E+00
 -1      7530 0.00000E+00
 -1      7531 0.00000E+00
 -1      7532 0.00000E+00
 -1      7533 0.00000E+00
 -1      7534 0.00000E+00
 -1      7535 0.00000E+00
 -1      7536 0.00000E+00
 -1      7537 0.00000E+00
 -1      7538 0.00000E+00
 -1      7539 0.00000E+00
 -1      7540 0.00000E+00
 -1      7541 0.00000E+00
 -1      7542 0.00000E+00
 -1      7543 0.00000E+00
 -1      7544 0.00000E+00
 -1      7545 0.00000E+00
 -1      7546 0.00000E+00
 -1      7547 0.00000E+00
 -1      7548 0.00000E+00
 -1      7549 0.00000E+00
 -1      7550 0.00000E+00
 -1      7551 0.00000E+00
 -1      7552 0.00000E+00
 -1      7553 0.00000E+00
 -1      7554 0.00000E+00
 -1      7555 0.00000E+00
 -1      7556 0.00000E+00
 -1      7557 0.00000E+00
 -1      7558 0.00000E+00
 -1      7559 0.00000E+00
 -1      7560 0.00000E+00
 -1      7561 0.00000E+00
 -1      7562 0.00000E+00
 -1      7563 0.00000E+00
 -1      7564 0.00000E+00
 -1      7565 0.00000E+00
 -1      7566 0.00000E+00
 -1      7567 0.00000E+00
 -1      7568 0.00000E+00
 -1      7569 0.00000E+00
 -1      7570 0.00000E+00
 -1      7571 0.00000E+00
 -1      7572 0.00000E+00
 -1      7573 0.00000E+00
 -1      7574 0.00000E+00
 -1      7575 0.00000E+00
 -1      7576 0.00000E+00
 -1      7577 0.00000E+00
 -1      7578 0.00000E+00
 -1      7579 0.00000E+00
 -1      7580 0.00000E+00
 -1      7581 0.00000E+00
 -1      7582 0.00000E+00
 -1      7583 0.00000E+00
 -1      7584 0.00000E+00
 -1      7585 0.00000E+00
 -1      7586 0.00000E+00
 -1      7587 0.00000E+00
 -1      7588 0.00000E+00
 -1      7589 0.00000E+00
 -1      7590 0.00000E+00
 -1      7591 0.00000E+00
 -1      7592 0.00000E+00
 -1      7593 0.00000E+00
 -1      7594 0.00000E+00
 -1      7595 0.00000E+00
 -1      7596 0.00000E+00
 -1      7597 0.00000E+00
 -1      7598 0.00000E+00
 -1      7599 0.00000E+00
 -1      7600 0.00000E+00
 -1      7601 0.00000E+00
 -1      7602 0.00000E+00
 -1      7603 0.00000E+00
 -1      7604 0.00000E+00
 -1      7605 0.00000E+00
 -1      7606 0.00000E+00
 -1      7607 0.00000E+00
 -1      7608 0.00000E+00
 -1      7609 0.00000E+00
 -1      7610 0.00000E+00
 -1      7611 0.00000E+00
 -1      7612 0.00000E+00
 -1      7613 0.00000E+00
 -1      7614 0.00000E+00
 -1      7615 0.00000E+00
 -1      7616 0.00000E+00
 -1      7617 0.00000E+00
 -1      7618 0.00000E+00
 -1      7619 0.00000E+00
 -1      7620 0.00000E+00
 -1      7621 0.00000E+00
 -1      7622 0.00000E+00
 -1      7623 0.00000E+00
 -1      7624 0.00000E+00
 -1      7625 0.00000E+00
 -1      7626 0.00000E+00
 -1      7627 0.00000E+00
 -1      7628 0.00000E+00
 -1      7629 0.00000E+00
 -1      7630 0.00000E+00
 -1      7631 0.00000E+00
 -1      7632 0.00000E+00
 -1      7633 0.00000E+00
 -1      7634 0.00000E+00
 -1      7635 0.00000E+00
 -1      7636 0.00000E+00
 -1      7637 0.00000E+00
 -1      7638 0.00000E+00
 -1      7639 0.00000E+00
 -1      7640 0.00000E+00
 -1      7641 0.00000E+00
 -1      7642 0.00000E+00
 -1      7643 0.00000E+00
 -1      7644 0.00000E+00
 -1      7645 0.00000E+00
 -1      7646 0.00000E+00
 -1      7647 0.00000E+00
 -1      7648 0.00000E+00
 -1      7649 0.00000E+00
 -1      7650 0.00000E+00
 -1      7651 0.00000E+00
 -1      7652 0.00000E+00
 -1      7653 0.00000E+00
 -1      7654 0.00000E+00
 -1      7655 0.00000E+00
 -1      7656 0.00000E+00
 -1      7657 0.00000E+00
 -1      7658 0.00000E+00
 -1      7659 0.00000E+00
 -1      7660 0.00000E+00
 -1      7661 0.00000E+00
 -1      7662 0.00000E+00
 -1      7663 0.00000E+00
 -1      7664 0.00000E+00
 -1      7665 0.00000E+00
 -1      7666 0.00000E+00
 -1      7667 0.00000E+00
 -1      7668 0.00000E+00
 -1      7669 0.00000E+00
 -1      7670 0.00000E+00
 -1      7671 0.00000E+00
 -1      7672 0.00000E+00
 -1      7673 0.00000E+00
 -1      7674 0.00000E+00
 -1      7675 0.00000E+00
 -1      7676 0.00000E+00
 -1      7677 0.00000E+00
 -1      7678 0.00000E+00
 -1      7679 0.00000E+00
 -1      7680 0.00000E+00
 -1      7681 0.00000E+00
 -1      7682 0.00000E+00
 -1      7683 0.00000E+00
 -1      7684 0.00000E+00
 -1      7685 0.00000E+00
 -1      7686 0.00000E+00
 -1      7687 0.00000E+00
 -1      7688 0.00000E+00
 -1      7689 0.00000E+00
 -1      7690 0.00000E+00
 -1      7691 0.00000E+00
 -1      7692 0.00000E+00
 -1      7693 0.00000E+00
 -1      7694 0.00000E+00
 -1      7695 0.00000E+00
 -1      7696 0.00000E+00
 -1      7697 0.00000E+00
 -1      7698 0.00000E+00
 -1      7699 0.00000E+00
 -1      7700 0.00000E+00
 -1      7701 0.00000E+00
 -1      7702 0.00000E+00
 -1      7703 0.00000E+00
 -1      7704 0.00000E+00
 -1      7705 0.00000E+00
 -1      7706 0.00000E+00
 -1      7707 0.00000E+00
 -1      7708 0.00000E+00
 -1      7709 0.00000E+00
 -1      7710 0.00000E+00
 -1      7711 0.00000E+00
 -1      7712 0.00000E+00
 -1      7713 0.00000E+00
 -1      7714 0.00000E+00
 -1      7715 0.00000E+00
 -1      7716 0.00000E+00
 -1      7717 0.00000E+00
 -1      7718 0.00000E+00
 -1      7719 0.00000E+00
 -1      7720 0.00000E+00
 -1      7721 0.00000E+00
 -1      7722 0.00000E+00
 -1      7723 0.00000E+00
 -1      7724 0.00000E+00
 -1      7725 0.00000E+00
 -1      7726 0.00000E+00
 -1      7727 0.00000E+00
 -1      7728 0.00000E+00
 -1      7729 0.00000E+00
 -1      7730 0.00000E+00
 -1      7731 0.00000E+00
 -1      7732 0.00000E+00
 -1      7733 0.00000E+00
 -1      7734 0.00000E+00
 -1      7735 0.00000E+00
 -1      7736 0.00000E+00
 -1      7737 0.00000E+00
 -1      7738 0.00000E+00
 -1      7739 0.00000E+00
 -1      7740 0.00000E+00
 -1      7741 0.00000E+00
 -1      7742 0.00000E+00
 -1      7743 0.00000E+00
 -1      7744 0.00000E+00
 -1      7745 0.00000E+00
 -1      7746 0.00000E+00
 -1      7747 0.00000E+00
 -1      7748 0.00000E+00
 -1      7749 0.00000E+00
 -1      7750 0.00000E+00
 -1      7751 0.00000E+00
 -1      7752 0.00000E+00
 -1      7753 0.00000E+00
 -1      7754 0.00000E+00
 -1      7755 0.00000E+00
 -1      7756 0.00000E+00
 -1      7757 0.00000E+00
 -1      7758 0.00000E+00
 -1      7759 0.00000E+00
 -1      7760 0.00000E+00
 -1      7761 0.00000E+00
 -1      7762 0.00000E+00
 -1      7763 0.00000E+00
 -1      7764 0.00000E+00
 -1      7765 0.00000E+00
 -1      7766 0.00000E+00
 -1      7767 0.00000E+00
 -1      7768 0.00000E+00
 -1      7769 0.00000E+00
 -1      7770 0.00000E+00
 -1      7771 0.00000E+00
 -1      7772 0.00000E+00
 -1      7773 0.00000E+00
 -1      7774 0.00000E+00
 -1      7775 0.00000E+00
 -1      7776 0.00000E+00
 -1      7777 0.00000E+00
 -1      7778 0.00000E+00
 -1      7779 0.00000E+00
 -1      7780 0.00000E+00
 -1      7781 0.00000E+00
 -1      7782 0.00000E+00
 -1      7783 0.00000E+00
 -1      7784 0.00000E+00
 -1      7785 0.00000E+00
 -1      7786 0.00000E+00
 -1      7787 0.00000E+00
 -1      7788 0.00000E+00
 -1      7789 0.00000E+00
 -1      7790 0.00000E+00
 -1      7791 0.00000E+00
 -1      7792 0.00000E+00
 -1      7793 0.00000E+00
 -1      7794 0.00000E+00
 -1      7795 0.00000E+00
 -1      7796 0.00000E+00
 -1      7797 0.00000E+00
 -1      7798 0.00000E+00
 -1      7799 0.00000E+00
 -1      7800 0.00000E+00
 -1      7801 0.00000E+00
 -1      7802 0.00000E+00
 -1      7803 0.00000E+00
 -1      7804 0.00000E+00
 -1      7805 0.00000E+00
 -1      7806 0.00000E+00
 -1      7807 0.00000E+00
 -1      7808 0.00000E+00
 -1      7809 0.00000E+00
 -1      7810 0.00000E+00
 -1      7811 0.00000E+00
 -1      7812 0.00000E+00
 -1      7813 0.00000E+00
 -1      7814 0.00000E+00
 -1      7815 0.00000E+00
 -1      7816 0.00000E+00
 -1      7817 0.00000E+00
 -1      7818 0.00000E+00
 -1      7819 0.00000E+00
 -1      7820 0.00000E+00
 -1      7821 0.00000E+00
 -1      7822 0.00000E+00
 -1      7823 0.00000E+00
 -1      7824 0.00000E+00
 -1      7825 0.00000E+00
 -1      7826 0.00000E+00
 -1      7827 0.00000E+00
 -1      7828 0.00000E+00
 -1      7829 0.00000E+00
 -1      7830 0.00000E+00
 -1      7831 0.00000E+00
 -1      7832 0.00000E+00
 -1      7833 0.00000E+00
 -1      7834 0.00000E+00
 -1      7835 0.00000E+00
 -1      7836 0.00000E+00
 -1      7837 0.00000E+00
 -1      7838 0.00000E+00
 -1      7839 0.00000E+00
 -1      7840 0.00000E+00
 -1      7841 0.00000E+00
 -1      7842 0.00000E+00
 -1      7843 0.00000E+00
 -1      7844 0.00000E+00
 -1      7845 0.00000E+00
 -1      7846 0.00000E+00
 -1      7847 0.00000E+00
 -1      7848 0.00000E+00
 -1      7849 0.00000E+00
 -1      7850 0.00000E+00
 -1      7851 0.00000E+00
 -1      7852 0.00000E+00
 -1      7853 0.00000E+00
 -1      7854 0.00000E+00
 -1      7855 0.00000E+00
 -1      7856 0.00000E+00
 -1      7857 0.00000E+00
 -1      7858 0.00000E+00
 -1      7859 0.00000E+00
 -1      7860 0.00000E+00
 -1      7861 0.00000E+00
 -1      7862 0.00000E+00
 -1      7863 0.00000E+00
 -1      7864 0.00000E+00
 -1      7865 0.00000E+00
 -1      7866 0.00000E+00
 -1      7867 0.00000E+00
 -1      7868 0.00000E+00
 -1      7869 0.00000E+00
 -1      7870 0.00000E+00
 -1      7871 0.00000E+00
 -1      7872 0.00000E+00
 -1      7873 0.00000E+00
 -1      7874 0.00000E+00
 -1      7875 0.00000E+00
 -1      7876 0.00000E+00
 -1      7877 0.00000E+00
 -1      7878 0.00000E+00
 -1      7879 0.00000E+00
 -1      7880 0.00000E+00
 -1      7881 0.00000E+00
 -1      7882 0.00000E+00
 -1      7883 0.00000E+00
 -1      7884 0.00000E+00
 -1      7885 0.00000E+00
 -1      7886 0.00000E+00
 -1      7887 0.00000E+00
 -1      7888 0.00000E+00
 -1      7889 0.00000E+00
 -1      7890 0.00000E+00
 -1      7891 0.00000E+00
 -1      7892 0.00000E+00
 -1      7893 0.00000E+00
 -1      7894 0.00000E+00
 -1      7895 0.00000E+00
 -1      7896 0.00000E+00
 -1      7897 0.00000E+00
 -1      7898 0.00000E+00
 -1      7899 0.00000E+00
 -1      7900 0.00000E+00
 -1      7901 0.00000E+00
 -1      7902 0.00000E+00
 -1      7903 0.00000E+00
 -1      7904 0.00000E+00
 -1      7905 0.00000E+00
 -1      7906 0.00000E+00
 -1      7907 0.00000E+00
 -1      7908 0.00000E+00
 -1      7909 0.00000E+00
 -1      7910 0.00000E+00
 -1      7911 0.00000E+00
 -1      7912 0.00000E+00
 -1      7913 0.00000E+00
 -1      7914 0.00000E+00
 -1      7915 0.00000E+00
 -1      7916 0.00000E+00
 -1      7917 0.00000E+00
 -1      7918 0.00000E+00
 -1      7919 0.00000E+00
 -1      7920 0.00000E+00
 -1      7921 0.00000E+00
 -1      7922 0.00000E+00
 -1      7923 0.00000E+00
 -1      7924 0.00000E+00
 -1      7925 0.00000E+00
 -1      7926 0.00000E+00
 -1      7927 0.00000E+00
 -1      7928 0.00000E+00
 -1      7929 0.00000E+00
 -1      7930 0.00000E+00
 -1      7931 0.00000E+00
 -1      7932 0.00000E+00
 -1      7933 0.00000E+00
 -1      7934 0.00000E+00
 -1      7935 0.00000E+00
 -1      7936 0.00000E+00
 -1      7937 0.00000E+00
 -1      7938 0.00000E+00
 -1      7939 0.00000E+00
 -1      7940 0.00000E+00
 -1      7941 0.00000E+00
 -1      7942 0.00000E+00
 -1      7943 0.00000E+00
 -1      7944 0.00000E+00
 -1      7945 0.00000E+00
 -1      7946 0.00000E+00
 -1      7947 0.00000E+00
 -1      7948 0.00000E+00
 -1      7949 0.00000E+00
 -1      7950 0.00000E+00
 -1      7951 0.00000E+00
 -1      7952 0.00000E+00
 -1      7953 0.00000E+00
 -1      7954 0.00000E+00
 -1      7955 0.00000E+00
 -1      7956 0.00000E+00
 -1      7957 0.00000E+00
 -1      7958 0.00000E+00
 -1      7959 0.00000E+00
 -1      7960 0.00000E+00
 -1      7961 0.00000E+00
 -1      7962 0.00000E+00
 -1      7963 0.00000E+00
 -1      7964 0.00000E+00
 -1      7965 0.00000E+00
 -1      7966 0.00000E+00
 -1      7967 0.00000E+00
 -1      7968 0.00000E+00
 -1      7969 0.00000E+00
 -1      7970 0.00000E+00
 -1      7971 0.00000E+00
 -1      7972 0.00000E+00
 -1      7973 0.00000E+00
 -1      7974 0.00000E+00
 -1      7975 0.00000E+00
 -1      7976 0.00000E+00
 -1      7977 0.00000E+00
 -1      7978 0.00000E+00
 -1      7979 0.00000E+00
 -1      7980 0.00000E+00
 -1      7981 0.00000E+00
 -1      7982 0.00000E+00
 -1      7983 0.00000E+00
 -1      7984 0.00000E+00
 -1      7985 0.00000E+00
 -1      7986 0.00000E+00
 -1      7987 0.00000E+00
 -1      7988 0.00000E+00
 -1      7989 0.00000E+00
 -1      7990 0.00000E+00
 -1      7991 0.00000E+00
 -1      7992 0.00000E+00
 -1      7993 0.00000E+00
 -1      7994 0.00000E+00
 -1      7995 0.00000E+00
 -1      7996 0.00000E+00
 -1      7997 0.00000E+00
 -1      7998 0.00000E+00
 -1      7999 0.00000E+00
 -1      8000 0.00000E+00
 -1      8001 0.00000E+00
 -1      8002 0.00000E+00
 -1      8003 0.00000E+00
 -1      8004 0.00000E+00
 -1      8005 0.00000E+00
 -1      8006 0.00000E+00
 -1      8007 0.00000E+00
 -1      8008 0.00000E+00
 -1      8009 0.00000E+00
 -1      8010 0.00000E+00
 -1      8011 0.00000E+00
 -1      8012 0.00000E+00
 -1      8013 0.00000E+00
 -1      8014 0.00000E+00
 -1      8015 0.00000E+00
 -1      8016 0.00000E+00
 -1      8017 0.00000E+00
 -1      8018 0.00000E+00
 -1      8019 0.00000E+00
 -1      8020 0.00000E+00
 -1      8021 0.00000E+00
 -1      8022 0.00000E+00
 -1      8023 0.00000E+00
 -1      8024 0.00000E+00
 -1      8025 0.00000E+00
 -1      8026 0.00000E+00
 -1      8027 0.00000E+00
 -1      8028 0.00000E+00
 -1      8029 0.00000E+00
 -1      8030 0.00000E+00
 -1      8031 0.00000E+00
 -1      8032 0.00000E+00
 -1      8033 0.00000E+00
 -1      8034 0.00000E+00
 -1      8035 0.00000E+00
 -1      8036 0.00000E+00
 -1      8037 0.00000E+00
 -1      8038 0.00000E+00
 -1      8039 0.00000E+00
 -1      8040 0.00000E+00
 -1      8041 0.00000E+00
 -1      8042 0.00000E+00
 -1      8043 0.00000E+00
 -1      8044 0.00000E+00
 -1      8045 0.00000E+00
 -1      8046 0.00000E+00
 -1      8047 0.00000E+00
 -1      8048 0.00000E+00
 -1      8049 0.00000E+00
 -1      8050 0.00000E+00
 -1      8051 0.00000E+00
 -1      8052 0.00000E+00
 -1      8053 0.00000E+00
 -1      8054 0.00000E+00
 -1      8055 0.00000E+00
 -1      8056 0.00000E+00
 -1      8057 0.00000E+00
 -1      8058 0.00000E+00
 -1      8059 0.00000E+00
 -1      8060 0.00000E+00
 -1      8061 0.00000E+00
 -1      8062 0.00000E+00
 -1      8063 0.00000E+00
 -1      8064 0.00000E+00
 -1      8065 0.00000E+00
 -1      8066 0.00000E+00
 -1      8067 0.00000E+00
 -1      8068 0.00000E+00
 -1      8069 0.00000E+00
 -1      8070 0.00000E+00
 -1      8071 0.00000E+00
 -1      8072 0.00000E+00
 -1      8073 0.00000E+00
 -1      8074 0.00000E+00
 -1      8075 0.00000E+00
 -1      8076 0.00000E+00
 -1      8077 0.00000E+00
 -1      8078 0.00000E+00
 -1      8079 0.00000E+00
 -1      8080 0.00000E+00
 -1      8081 0.00000E+00
 -1      8082 0.00000E+00
 -1      8083 0.00000E+00
 -1      8084 0.00000E+00
 -1      8085 0.00000E+00
 -1      8086 0.00000E+00
 -1      8087 0.00000E+00
 -1      8088 0.00000E+00
 -1      8089 0.00000E+00
 -1      8090 0.00000E+00
 -1      8091 0.00000E+00
 -1      8092 0.00000E+00
 -1      8093 0.00000E+00
 -1      8094 0.00000E+00
 -1      8095 0.00000E+00
 -1      8096 0.00000E+00
 -1      8097 0.00000E+00
 -1      8098 0.00000E+00
 -1      8099 0.00000E+00
 -1      8100 0.00000E+00
 -1      8101 0.00000E+00
 -1      8102 0.00000E+00
 -1      8103 0.00000E+00
 -1      8104 0.00000E+00
 -1      8105 0.00000E+00
 -1      8106 0.00000E+00
 -1      8107 0.00000E+00
 -1      8108 0.00000E+00
 -1      8109 0.00000E+00
 -1      8110 0.00000E+00
 -1      8111 0.00000E+00
 -1      8112 0.00000E+00
 -1      8113 0.00000E+00
 -1      8114 0.00000E+00
 -1      8115 0.00000E+00
 -1      8116 0.00000E+00
 -1      8117 0.00000E+00
 -1      8118 0.00000E+00
 -1      8119 0.00000E+00
 -1      8120 0.00000E+00
 -1      8121 0.00000E+00
 -1      8122 0.00000E+00
 -1      8123 0.00000E+00
 -1      8124 0.00000E+00
 -1      8125 0.00000E+00
 -1      8126 0.00000E+00
 -1      8127 0.00000E+00
 -1      8128 0.00000E+00
 -1      8129 0.00000E+00
 -1      8130 0.00000E+00
 -1      8131 0.00000E+00
 -1      8132 0.00000E+00
 -1      8133 0.00000E+00
 -1      8134 0.00000E+00
 -1      8135 0.00000E+00
 -1      8136 0.00000E+00
 -1      8137 0.00000E+00
 -1      8138 0.00000E+00
 -1      8139 0.00000E+00
 -1      8140 0.00000E+00
 -1      8141 0.00000E+00
 -1      8142 0.00000E+00
 -1      8143 0.00000E+00
 -1      8144 0.00000E+00
 -1      8145 0.00000E+00
 -1      8146 0.00000E+00
 -1      8147 0.00000E+00
 -1      8148 0.00000E+00
 -1      8149 0.00000E+00
 -1      8150 0.00000E+00
 -1      8151 0.00000E+00
 -1      8152 0.00000E+00
 -1      8153 0.00000E+00
 -1      8154 0.00000E+00
 -1      8155 0.00000E+00
 -1      8156 0.00000E+00
 -1      8157 0.00000E+00
 -1      8158 0.00000E+00
 -1      8159 0.00000E+00
 -1      8160 0.00000E+00
 -1      8161 0.00000E+00
 -1      8162 0.00000E+00
 -1      8163 0.00000E+00
 -1      8164 0.00000E+00
 -1      8165 0.00000E+00
 -1      8166 0.00000E+00
 -1      8167 0.00000E+00
 -1      8168 0.00000E+00
 -1      8169 0.00000E+00
 -1      8170 0.00000E+00
 -1      8171 0.00000E+00
 -1      8172 0.00000E+00
 -1      8173 0.00000E+00
 -1      8174 0.00000E+00
 -1      8175 0.00000E+00
 -1      8176 0.00000E+00
 -1      8177 0.00000E+00
 -1      8178 0.00000E+00
 -1      8179 0.00000E+00
 -1      8180 0.00000E+00
 -1      8181 0.00000E+00
 -1      8182 0.00000E+00
 -1      8183 0.00000E+00
 -1      8184 0.00000E+00
 -1      8185 0.00000E+00
 -1      8186 0.00000E+00
 -1      8187 0.00000E+00
 -1      8188 0.00000E+00
 -1      8189 0.00000E+00
 -1      8190 0.00000E+00
 -1      8191 0.00000E+00
 -1      8192 0.00000E+00
 -1      8193 0.00000E+00
 -1      8194 0.00000E+00
 -1      8195 0.00000E+00
 -1      8196 0.00000E+00
 -1      8197 0.00000E+00
 -1      8198 0.00000E+00
 -1      8199 0.00000E+00
 -1      8200 0.00000E+00
 -1      8201 0.00000E+00
 -1      8202 0.00000E+00
 -1      8203 0.00000E+00
 -1      8204 0.00000E+00
 -1      8205 0.00000E+00
 -1      8206 0.00000E+00
 -1      8207 0.00000E+00
 -1      8208 0.00000E+00
 -1      8209 0.00000E+00
 -1      8210 0.00000E+00
 -1      8211 0.00000E+00
 -1      8212 0.00000E+00
 -1      8213 0.00000E+00
 -1      8214 0.00000E+00
 -1      8215 0.00000E+00
 -1      8216 0.00000E+00
 -1      8217 0.00000E+00
 -1      8218 0.00000E+00
 -1      8219 0.00000E+00
 -1      8220 0.00000E+00
 -1      8221 0.00000E+00
 -1      8222 0.00000E+00
 -1      8223 0.00000E+00
 -1      8224 0.00000E+00
 -1      8225 0.00000E+00
 -1      8226 0.00000E+00
 -1      8227 0.00000E+00
 -1      8228 0.00000E+00
 -1      8229 0.00000E+00
 -1      8230 0.00000E+00
 -1      8231 0.00000E+00
 -1      8232 0.00000E+00
 -1      8233 0.00000E+00
 -1      8234 0.00000E+00
 -1      8235 0.00000E+00
 -1      8236 0.00000E+00
 -1      8237 0.00000E+00
 -1      8238 0.00000E+00
 -1      8239 0.00000E+00
 -1      8240 0.00000E+00
 -1      8241 0.00000E+00
 -1      8242 0.00000E+00
 -1      8243 0.00000E+00
 -1      8244 0.00000E+00
 -1      8245 0.00000E+00
 -1      8246 0.00000E+00
 -1      8247 0.00000E+00
 -1      8248 0.00000E+00
 -1      8249 0.00000E+00
 -1      8250 0.00000E+00
 -1      8251 0.00000E+00
 -1      8252 0.00000E+00
 -1      8253 0.00000E+00
 -1      8254 0.00000E+00
 -1      8255 0.00000E+00
 -1      8256 0.00000E+00
 -1      8257 0.00000E+00
 -1      8258 0.00000E+00
 -1      8259 0.00000E+00
 -1      8260 0.00000E+00
 -1      8261 0.00000E+00
 -1      8262 0.00000E+00
 -1      8263 0.00000E+00
 -1      8264 0.00000E+00
 -1      8265 0.00000E+00
 -1      8266 0.00000E+00
 -1      8267 0.00000E+00
 -1      8268 0.00000E+00
 -1      8269 0.00000E+00
 -1      8270 0.00000E+00
 -1      8271 0.00000E+00
 -1      8272 0.00000E+00
 -1      8273 0.00000E+00
 -1      8274 0.00000E+00
 -1      8275 0.00000E+00
 -1      8276 0.00000E+00
 -1      8277 0.00000E+00
 -1      8278 0.00000E+00
 -1      8279 0.00000E+00
 -1      8280 0.00000E+00
 -1      8281 0.00000E+00
 -1      8282 0.00000E+00
 -1      8283 0.00000E+00
 -1      8284 0.00000E+00
 -1      8285 0.00000E+00
 -1      8286 0.00000E+00
 -1      8287 0.00000E+00
 -1      8288 0.00000E+00
 -1      8289 0.00000E+00
 -1      8290 0.00000E+00
 -1      8291 0.00000E+00
 -1      8292 0.00000E+00
 -1      8293 0.00000E+00
 -1      8294 0.00000E+00
 -1      8295 0.00000E+00
 -1      8296 0.00000E+00
 -1      8297 0.00000E+00
 -1      8298 0.00000E+00
 -1      8299 0.00000E+00
 -1      8300 0.00000E+00
 -1      8301 0.00000E+00
 -1      8302 0.00000E+00
 -1      8303 0.00000E+00
 -1      8304 0.00000E+00
 -1      8305 0.00000E+00
 -1      8306 0.00000E+00
 -1      8307 0.00000E+00
 -1      8308 0.00000E+00
 -1      8309 0.00000E+00
 -1      8310 0.00000E+00
 -1      8311 0.00000E+00
 -1      8312 0.00000E+00
 -1      8313 0.00000E+00
 -1      8314 0.00000E+00
 -1      8315 0.00000E+00
 -1      8316 0.00000E+00
 -1      8317 0.00000E+00
 -1      8318 0.00000E+00
 -1      8319 0.00000E+00
 -1      8320 0.00000E+00
 -1      8321 0.00000E+00
 -1      8322 0.00000E+00
 -1      8323 0.00000E+00
 -1      8324 0.00000E+00
 -1      8325 0.00000E+00
 -1      8326 0.00000E+00
 -1      8327 0.00000E+00
 -1      8328 0.00000E+00
 -1      8329 0.00000E+00
 -1      8330 0.00000E+00
 -1      8331 0.00000E+00
 -1      8332 0.00000E+00
 -1      8333 0.00000E+00
 -1      8334 0.00000E+00
 -1      8335 0.00000E+00
 -1      8336 0.00000E+00
 -1      8337 0.00000E+00
 -1      8338 0.00000E+00
 -1      8339 0.00000E+00
 -1      8340 0.00000E+00
 -1      8341 0.00000E+00
 -1      8342 0.00000E+00
 -1      8343 0.00000E+00
 -1      8344 0.00000E+00
 -1      8345 0.00000E+00
 -1      8346 0.00000E+00
 -1      8347 0.00000E+00
 -1      8348 0.00000E+00
 -1      8349 0.00000E+00
 -1      8350 0.00000E+00
 -1      8351 0.00000E+00
 -1      8352 0.00000E+00
 -1      8353 0.00000E+00
 -1      8354 0.00000E+00
 -1      8355 0.00000E+00
 -1      8356 0.00000E+00
 -1      8357 0.00000E+00
 -1      8358 0.00000E+00
 -1      8359 0.00000E+00
 -1      8360 0.00000E+00
 -1      8361 0.00000E+00
 -1      8362 0.00000E+00
 -1      8363 0.00000E+00
 -1      8364 0.00000E+00
 -1      8365 0.00000E+00
 -1      8366 0.00000E+00
 -1      8367 0.00000E+00
 -1      8368 0.00000E+00
 -1      8369 0.00000E+00
 -1      8370 0.00000E+00
 -1      8371 0.00000E+00
 -1      8372 0.00000E+00
 -1      8373 0.00000E+00
 -1      8374 0.00000E+00
 -1      8375 0.00000E+00
 -1      8376 0.00000E+00
 -1      8377 0.00000E+00
 -1      8378 0.00000E+00
 -1      8379 0.00000E+00
 -1      8380 0.00000E+00
 -1      8381 0.00000E+00
 -1      8382 0.00000E+00
 -1      8383 0.00000E+00
 -1      8384 0.00000E+00
 -1      8385 0.00000E+00
 -1      8386 0.00000E+00
 -1      8387 0.00000E+00
 -1      8388 0.00000E+00
 -1      8389 0.00000E+00
 -1      8390 0.00000E+00
 -1      8391 0.00000E+00
 -1      8392 0.00000E+00
 -1      8393 0.00000E+00
 -1      8394 0.00000E+00
 -1      8395 0.00000E+00
 -1      8396 0.00000E+00
 -1      8397 0.00000E+00
 -1      8398 0.00000E+00
 -1      8399 0.00000E+00
 -1      8400 0.00000E+00
 -1      8401 0.00000E+00
 -1      8402 0.00000E+00
 -1      8403 0.00000E+00
 -1      8404 0.00000E+00
 -1      8405 0.00000E+00
 -1      8406 0.00000E+00
 -1      8407 0.00000E+00
 -1      8408 0.00000E+00
 -1      8409 0.00000E+00
 -1      8410 0.00000E+00
 -1      8411 0.00000E+00
 -1      8412 0.00000E+00
 -1      8413 0.00000E+00
 -1      8414 0.00000E+00
 -1      8415 0.00000E+00
 -1      8416 0.00000E+00
 -1      8417 0.00000E+00
 -1      8418 0.00000E+00
 -1      8419 0.00000E+00
 -1      8420 0.00000E+00
 -1      8421 0.00000E+00
 -1      8422 0.00000E+00
 -1      8423 0.00000E+00
 -1      8424 0.00000E+00
 -1      8425 0.00000E+00
 -1      8426 0.00000E+00
 -1      8427 0.00000E+00
 -1      8428 0.00000E+00
 -1      8429 0.00000E+00
 -1      8430 0.00000E+00
 -1      8431 0.00000E+00
 -1      8432 0.00000E+00
 -1      8433 0.00000E+00
 -1      8434 0.00000E+00
 -1      8435 0.00000E+00
 -1      8436 0.00000E+00
 -1      8437 0.00000E+00
 -1      8438 0.00000E+00
 -1      8439 0.00000E+00
 -1      8440 0.00000E+00
 -1      8441 0.00000E+00
 -1      8442 0.00000E+00
 -1      8443 0.00000E+00
 -1      8444 0.00000E+00
 -1      8445 0.00000E+00
 -1      8446 0.00000E+00
 -1      8447 0.00000E+00
 -1      8448 0.00000E+00
 -1      8449 0.00000E+00
 -1      8450 0.00000E+00
 -1      8451 0.00000E+00
 -1      8452 0.00000E+00
 -1      8453 0.00000E+00
 -1      8454 0.00000E+00
 -1      8455 0.00000E+00
 -1      8456 0.00000E+00
 -1      8457 0.00000E+00
 -1      8458 0.00000E+00
 -1      8459 0.00000E+00
 -1      8460 0.00000E+00
 -1      8461 0.00000E+00
 -1      8462 0.00000E+00
 -1      8463 0.00000E+00
 -1      8464 0.00000E+00
 -1      8465 0.00000E+00
 -1      8466 0.00000E+00
 -1      8467 0.00000E+00
 -1      8468 0.00000E+00
 -1      8469 0.00000E+00
 -1      8470 0.00000E+00
 -1      8471 0.00000E+00
 -1      8472 0.00000E+00
 -1      8473 0.00000E+00
 -1      8474 0.00000E+00
 -1      8475 0.00000E+00
 -1      8476 0.00000E+00
 -1      8477 0.00000E+00
 -1      8478 0.00000E+00
 -1      8479 0.00000E+00
 -1      8480 0.00000E+00
 -1      8481 0.00000E+00
 -1      8482 0.00000E+00
 -1      8483 0.00000E+00
 -1      8484 0.00000E+00
 -1      8485 0.00000E+00
 -1      8486 0.00000E+00
 -1      8487 0.00000E+00
 -1      8488 0.00000E+00
 -1      8489 0.00000E+00
 -1      8490 0.00000E+00
 -1      8491 0.00000E+00
 -1      8492 0.00000E+00
 -1      8493 0.00000E+00
 -1      8494 0.00000E+00
 -1      8495 0.00000E+00
 -1      8496 0.00000E+00
 -1      8497 0.00000E+00
 -1      8498 0.00000E+00
 -1      8499 0.00000E+00
 -1      8500 0.00000E+00
 -1      8501 0.00000E+00
 -1      8502 0.00000E+00
 -1      8503 0.00000E+00
 -1      8504 0.00000E+00
 -1      8505 0.00000E+00
 -1      8506 0.00000E+00
 -1      8507 0.00000E+00
 -1      8508 0.00000E+00
 -1      8509 0.00000E+00
 -1      8510 0.00000E+00
 -1      8511 0.00000E+00
 -1      8512 0.00000E+00
 -1      8513 0.00000E+00
 -1      8514 0.00000E+00
 -1      8515 0.00000E+00
 -1      8516 0.00000E+00
 -1      8517 0.00000E+00
 -1      8518 0.00000E+00
 -1      8519 0.00000E+00
 -1      8520 0.00000E+00
 -1      8521 0.00000E+00
 -1      8522 0.00000E+00
 -1      8523 0.00000E+00
 -1      8524 0.00000E+00
 -1      8525 0.00000E+00
 -1      8526 0.00000E+00
 -1      8527 0.00000E+00
 -1      8528 0.00000E+00
 -1      8529 0.00000E+00
 -1      8530 0.00000E+00
 -1      8531 0.00000E+00
 -1      8532 0.00000E+00
 -1      8533 0.00000E+00
 -1      8534 0.00000E+00
 -1      8535 0.00000E+00
 -1      8536 0.00000E+00
 -1      8537 0.00000E+00
 -1      8538 0.00000E+00
 -1      8539 0.00000E+00
 -1      8540 0.00000E+00
 -1      8541 0.00000E+00
 -1      8542 0.00000E+00
 -1      8543 0.00000E+00
 -1      8544 0.00000E+00
 -1      8545 0.00000E+00
 -1      8546 0.00000E+00
 -1      8547 0.00000E+00
 -1      8548 0.00000E+00
 -1      8549 0.00000E+00
 -1      8550 0.00000E+00
 -1      8551 0.00000E+00
 -1      8552 0.00000E+00
 -1      8553 0.00000E+00
 -1      8554 0.00000E+00
 -1      8555 0.00000E+00
 -1      8556 0.00000E+00
 -1      8557 0.00000E+00
 -1      8558 0.00000E+00
 -1      8559 0.00000E+00
 -1      8560 0.00000E+00
 -1      8561 0.00000E+00
 -1      8562 0.00000E+00
 -1      8563 0.00000E+00
 -1      8564 0.00000E+00
 -1      8565 0.00000E+00
 -1      8566 0.00000E+00
 -1      8567 0.00000E+00
 -1      8568 0.00000E+00
 -1      8569 0.00000E+00
 -1      8570 0.00000E+00
 -1      8571 0.00000E+00
 -1      8572 0.00000E+00
 -1      8573 0.00000E+00
 -1      8574 0.00000E+00
 -1      8575 0.00000E+00
 -1      8576 0.00000E+00
 -1      8577 0.00000E+00
 -1      8578 0.00000E+00
 -1      8579 0.00000E+00
 -1      8580 0.00000E+00
 -1      8581 0.00000E+00
 -1      8582 0.00000E+00
 -1      8583 0.00000E+00
 -1      8584 0.00000E+00
 -1      8585 0.00000E+00
 -1      8586 0.00000E+00
 -1      8587 0.00000E+00
 -1      8588 0.00000E+00
 -1      8589 0.00000E+00
 -1      8590 0.00000E+00
 -1      8591 0.00000E+00
 -1      8592 0.00000E+00
 -1      8593 0.00000E+00
 -1      8594 0.00000E+00
 -1      8595 0.00000E+00
 -1      8596 0.00000E+00
 -1      8597 0.00000E+00
 -1      8598 0.00000E+00
 -1      8599 0.00000E+00
 -1      8600 0.00000E+00
 -1      8601 0.00000E+00
 -1      8602 0.00000E+00
 -1      8603 0.00000E+00
 -1      8604 0.00000E+00
 -1      8605 0.00000E+00
 -1      8606 0.00000E+00
 -1      8607 0.00000E+00
 -1      8608 0.00000E+00
 -1      8609 0.00000E+00
 -1      8610 0.00000E+00
 -1      8611 0.00000E+00
 -1      8612 0.00000E+00
 -1      8613 0.00000E+00
 -1      8614 0.00000E+00
 -1      8615 0.00000E+00
 -1      8616 0.00000E+00
 -1      8617 0.00000E+00
 -1      8618 0.00000E+00
 -1      8619 0.00000E+00
 -1      8620 0.00000E+00
 -1      8621 0.00000E+00
 -1      8622 0.00000E+00
 -1      8623 0.00000E+00
 -1      8624 0.00000E+00
 -1      8625 0.00000E+00
 -1      8626 0.00000E+00
 -1      8627 0.00000E+00
 -1      8628 0.00000E+00
 -1      8629 0.00000E+00
 -1      8630 0.00000E+00
 -1      8631 0.00000E+00
 -1      8632 0.00000E+00
 -1      8633 0.00000E+00
 -1      8634 0.00000E+00
 -1      8635 0.00000E+00
 -1      8636 0.00000E+00
 -1      8637 0.00000E+00
 -1      8638 0.00000E+00
 -1      8639 0.00000E+00
 -1      8640 0.00000E+00
 -1      8641 0.00000E+00
 -1      8642 0.00000E+00
 -1      8643 0.00000E+00
 -1      8644 0.00000E+00
 -1      8645 0.00000E+00
 -1      8646 0.00000E+00
 -1      8647 0.00000E+00
 -1      8648 0.00000E+00
 -1      8649 0.00000E+00
 -1      8650 0.00000E+00
 -1      8651 0.00000E+00
 -1      8652 0.00000E+00
 -1      8653 0.00000E+00
 -1      8654 0.00000E+00
 -1      8655 0.00000E+00
 -1      8656 0.00000E+00
 -1      8657 0.00000E+00
 -1      8658 0.00000E+00
 -1      8659 0.00000E+00
 -1      8660 0.00000E+00
 -1      8661 0.00000E+00
 -1      8662 0.00000E+00
 -1      8663 0.00000E+00
 -1      8664 0.00000E+00
 -1      8665 0.00000E+00
 -1      8666 0.00000E+00
 -1      8667 0.00000E+00
 -1      8668 0.00000E+00
 -1      8669 0.00000E+00
 -1      8670 0.00000E+00
 -1      8671 0.00000E+00
 -1      8672 0.00000E+00
 -1      8673 0.00000E+00
 -1      8674 0.00000E+00
 -1      8675 0.00000E+00
 -1      8676 0.00000E+00
 -1      8677 0.00000E+00
 -1      8678 0.00000E+00
 -1      8679 0.00000E+00
 -1      8680 0.00000E+00
 -1      8681 0.00000E+00
 -1      8682 0.00000E+00
 -1      8683 0.00000E+00
 -1      8684 0.00000E+00
 -1      8685 0.00000E+00
 -1      8686 0.00000E+00
 -1      8687 0.00000E+00
 -1      8688 0.00000E+00
 -1      8689 0.00000E+00
 -1      8690 0.00000E+00
 -1      8691 0.00000E+00
 -1      8692 0.00000E+00
 -1      8693 0.00000E+00
 -1      8694 0.00000E+00
 -1      8695 0.00000E+00
 -1      8696 0.00000E+00
 -1      8697 0.00000E+00
 -1      8698 0.00000E+00
 -1      8699 0.00000E+00
 -1      8700 0.00000E+00
 -1      8701 0.00000E+00
 -1      8702 0.00000E+00
 -1      8703 0.00000E+00
 -1      8704 0.00000E+00
 -1      8705 0.00000E+00
 -1      8706 0.00000E+00
 -1      8707 0.00000E+00
 -1      8708 0.00000E+00
 -1      8709 0.00000E+00
 -1      8710 0.00000E+00
 -1      8711 0.00000E+00
 -1      8712 0.00000E+00
 -1      8713 0.00000E+00
 -1      8714 0.00000E+00
 -1      8715 0.00000E+00
 -1      8716 0.00000E+00
 -1      8717 0.00000E+00
 -1      8718 0.00000E+00
 -1      8719 0.00000E+00
 -1      8720 0.00000E+00
 -1      8721 0.00000E+00
 -1      8722 0.00000E+00
 -1      8723 0.00000E+00
 -1      8724 0.00000E+00
 -1      8725 0.00000E+00
 -1      8726 0.00000E+00
 -1      8727 0.00000E+00
 -1      8728 0.00000E+00
 -1      8729 0.00000E+00
 -1      8730 0.00000E+00
 -1      8731 0.00000E+00
 -1      8732 0.00000E+00
 -1      8733 0.00000E+00
 -1      8734 0.00000E+00
 -1      8735 0.00000E+00
 -1      8736 0.00000E+00
 -1      8737 0.00000E+00
 -1      8738 0.00000E+00
 -1      8739 0.00000E+00
 -1      8740 0.00000E+00
 -1      8741 0.00000E+00
 -1      8742 0.00000E+00
 -1      8743 0.00000E+00
 -1      8744 0.00000E+00
 -1      8745 0.00000E+00
 -1      8746 0.00000E+00
 -1      8747 0.00000E+00
 -1      8748 0.00000E+00
 -1      8749 0.00000E+00
 -1      8750 0.00000E+00
 -1      8751 0.00000E+00
 -1      8752 0.00000E+00
 -1      8753 0.00000E+00
 -1      8754 0.00000E+00
 -1      8755 0.00000E+00
 -1      8756 0.00000E+00
 -1      8757 0.00000E+00
 -1      8758 0.00000E+00
 -1      8759 0.00000E+00
 -1      8760 0.00000E+00
 -1      8761 0.00000E+00
 -1      8762 0.00000E+00
 -1      8763 0.00000E+00
 -1      8764 0.00000E+00
 -1      8765 0.00000E+00
 -1      8766 0.00000E+00
 -1      8767 0.00000E+00
 -1      8768 0.00000E+00
 -1      8769 0.00000E+00
 -1      8770 0.00000E+00
 -1      8771 0.00000E+00
 -1      8772 0.00000E+00
 -1      8773 0.00000E+00
 -1      8774 0.00000E+00
 -1      8775 0.00000E+00
 -1      8776 0.00000E+00
 -1      8777 0.00000E+00
 -1      8778 0.00000E+00
 -1      8779 0.00000E+00
 -1      8780 0.00000E+00
 -1      8781 0.00000E+00
 -1      8782 0.00000E+00
 -1      8783 0.00000E+00
 -1      8784 0.00000E+00
 -1      8785 0.00000E+00
 -1      8786 0.00000E+00
 -1      8787 0.00000E+00
 -1      8788 0.00000E+00
 -1      8789 0.00000E+00
 -1      8790 0.00000E+00
 -1      8791 0.00000E+00
 -1      8792 0.00000E+00
 -1      8793 0.00000E+00
 -1      8794 0.00000E+00
 -1      8795 0.00000E+00
 -1      8796 0.00000E+00
 -1      8797 0.00000E+00
 -1      8798 0.00000E+00
 -1      8799 0.00000E+00
 -1      8800 0.00000E+00
 -1      8801 0.00000E+00
 -1      8802 0.00000E+00
 -1      8803 0.00000E+00
 -1      8804 0.00000E+00
 -1      8805 0.00000E+00
 -1      8806 0.00000E+00
 -1      8807 0.00000E+00
 -1      8808 0.00000E+00
 -1      8809 0.00000E+00
 -1      8810 0.00000E+00
 -1      8811 0.00000E+00
 -1      8812 0.00000E+00
 -1      8813 0.00000E+00
 -1      8814 0.00000E+00
 -1      8815 0.00000E+00
 -1      8816 0.00000E+00
 -1      8817 0.00000E+00
 -1      8818 0.00000E+00
 -1      8819 0.00000E+00
 -1      8820 0.00000E+00
 -1      8821 0.00000E+00
 -1      8822 0.00000E+00
 -1      8823 0.00000E+00
 -1      8824 0.00000E+00
 -1      8825 0.00000E+00
 -1      8826 0.00000E+00
 -1      8827 0.00000E+00
 -1      8828 0.00000E+00
 -1      8829 0.00000E+00
 -1      8830 0.00000E+00
 -1      8831 0.00000E+00
 -1      8832 0.00000E+00
 -1      8833 0.00000E+00
 -1      8834 0.00000E+00
 -1      8835 0.00000E+00
 -1      8836 0.00000E+00
 -1      8837 0.00000E+00
 -1      8838 0.00000E+00
 -1      8839 0.00000E+00
 -1      8840 0.00000E+00
 -1      8841 0.00000E+00
 -1      8842 0.00000E+00
 -1      8843 0.00000E+00
 -1      8844 0.00000E+00
 -1      8845 0.00000E+00
 -1      8846 0.00000E+00
 -1      8847 0.00000E+00
 -1      8848 0.00000E+00
 -1      8849 0.00000E+00
 -1      8850 0.00000E+00
 -1      8851 0.00000E+00
 -1      8852 0.00000E+00
 -1      8853 0.00000E+00
 -1      8854 0.00000E+00
 -1      8855 0.00000E+00
 -1      8856 0.00000E+00
 -1      8857 0.00000E+00
 -1      8858 0.00000E+00
 -1      8859 0.00000E+00
 -1      8860 0.00000E+00
 -1      8861 0.00000E+00
 -1      8862 0.00000E+00
 -1      8863 0.00000E+00
 -1      8864 0.00000E+00
 -1      8865 0.00000E+00
 -1      8866 0.00000E+00
 -1      8867 0.00000E+00
 -1      8868 0.00000E+00
 -1      8869 0.00000E+00
 -1      8870 0.00000E+00
 -1      8871 0.00000E+00
 -1      8872 0.00000E+00
 -1      8873 0.00000E+00
 -1      8874 0.00000E+00
 -1      8875 0.00000E+00
 -1      8876 0.00000E+00
 -1      8877 0.00000E+00
 -1      8878 0.00000E+00
 -1      8879 0.00000E+00
 -1      8880 0.00000E+00
 -1      8881 0.00000E+00
 -1      8882 0.00000E+00
 -1      8883 0.00000E+00
 -1      8884 0.00000E+00
 -1      8885 0.00000E+00
 -1      8886 0.00000E+00
 -1      8887 0.00000E+00
 -1      8888 0.00000E+00
 -1      8889 0.00000E+00
 -1      8890 0.00000E+00
 -1      8891 0.00000E+00
 -1      8892 0.00000E+00
 -1      8893 0.00000E+00
 -1      8894 0.00000E+00
 -1      8895 0.00000E+00
 -1      8896 0.00000E+00
 -1      8897 0.00000E+00
 -1      8898 0.00000E+00
 -1      8899 0.00000E+00
 -1      8900 0.00000E+00
 -1      8901 0.00000E+00
 -1      8902 0.00000E+00
 -1      8903 0.00000E+00
 -1      8904 0.00000E+00
 -1      8905 0.00000E+00
 -1      8906 0.00000E+00
 -1      8907 0.00000E+00
 -1      8908 0.00000E+00
 -1      8909 0.00000E+00
 -1      8910 0.00000E+00
 -1      8911 0.00000E+00
 -1      8912 0.00000E+00
 -1      8913 0.00000E+00
 -1      8914 0.00000E+00
 -1      8915 0.00000E+00
 -1      8916 0.00000E+00
 -1      8917 0.00000E+00
 -1      8918 0.00000E+00
 -1      8919 0.00000E+00
 -1      8920 0.00000E+00
 -1      8921 0.00000E+00
 -1      8922 0.00000E+00
 -1      8923 0.00000E+00
 -1      8924 0.00000E+00
 -1      8925 0.00000E+00
 -1      8926 0.00000E+00
 -1      8927 0.00000E+00
 -1      8928 0.00000E+00
 -1      8929 0.00000E+00
 -1      8930 0.00000E+00
 -1      8931 0.00000E+00
 -1      8932 0.00000E+00
 -1      8933 0.00000E+00
 -1      8934 0.00000E+00
 -1      8935 0.00000E+00
 -1      8936 0.00000E+00
 -1      8937 0.00000E+00
 -1      8938 0.00000E+00
 -1      8939 0.00000E+00
 -1      8940 0.00000E+00
 -1      8941 0.00000E+00
 -1      8942 0.00000E+00
 -1      8943 0.00000E+00
 -1      8944 0.00000E+00
 -1      8945 0.00000E+00
 -1      8946 0.00000E+00
 -1      8947 0.00000E+00
 -1      8948 0.00000E+00
 -1      8949 0.00000E+00
 -1      8950 0.00000E+00
 -1      8951 0.00000E+00
 -1      8952 0.00000E+00
 -1      8953 0.00000E+00
 -1      8954 0.00000E+00
 -1      8955 0.00000E+00
 -1      8956 0.00000E+00
 -1      8957 0.00000E+00
 -1      8958 0.00000E+00
 -1      8959 0.00000E+00
 -1      8960 0.00000E+00
 -1      8961 0.00000E+00
 -1      8962 0.00000E+00
 -1      8963 0.00000E+00
 -1      8964 0.00000E+00
 -1      8965 0.00000E+00
 -1      8966 0.00000E+00
 -1      8967 0.00000E+00
 -1      8968 0.00000E+00
 -1      8969 0.00000E+00
 -1      8970 0.00000E+00
 -1      8971 0.00000E+00
 -1      8972 0.00000E+00
 -1      8973 0.00000E+00
 -1      8974 0.00000E+00
 -1      8975 0.00000E+00
 -1      8976 0.00000E+00
 -1      8977 0.00000E+00
 -1      8978 0.00000E+00
 -1      8979 0.00000E+00
 -1      8980 0.00000E+00
 -1      8981 0.00000E+00
 -1      8982 0.00000E+00
 -1      8983 0.00000E+00
 -1      8984 0.00000E+00
 -1      8985 0.00000E+00
 -1      8986 0.00000E+00
 -1      8987 0.00000E+00
 -1      8988 0.00000E+00
 -1      8989 0.00000E+00
 -1      8990 0.00000E+00
 -1      8991 0.00000E+00
 -1      8992 0.00000E+00
 -1      8993 0.00000E+00
 -1      8994 0.00000E+00
 -1      8995 0.00000E+00
 -1      8996 0.00000E+00
 -1      8997 0.00000E+00
 -1      8998 0.00000E+00
 -1      8999 0.00000E+00
 -1      9000 0.00000E+00
 -1      9001 0.00000E+00
 -1      9002 0.00000E+00
 -1      9003 0.00000E+00
 -1      9004 0.00000E+00
 -1      9005 0.00000E+00
 -1      9006 0.00000E+00
 -1      9007 0.00000E+00
 -1      9008 0.00000E+00
 -1      9009 0.00000E+00
 -1      9010 0.00000E+00
 -1      9011 0.00000E+00
 -1      9012 0.00000E+00
 -1      9013 0.00000E+00
 -1      9014 0.00000E+00
 -1      9015 0.00000E+00
 -1      9016 0.00000E+00
 -1      9017 0.00000E+00
 -1      9018 0.00000E+00
 -1      9019 0.00000E+00
 -1      9020 0.00000E+00
 -1      9021 0.00000E+00
 -1      9022 0.00000E+00
 -1      9023 0.00000E+00
 -1      9024 0.00000E+00
 -1      9025 0.00000E+00
 -1      9026 0.00000E+00
 -1      9027 0.00000E+00
 -1      9028 0.00000E+00
 -1      9029 0.00000E+00
 -1      9030 0.00000E+00
 -1      9031 0.00000E+00
 -1      9032 0.00000E+00
 -1      9033 0.00000E+00
 -1      9034 0.00000E+00
 -1      9035 0.00000E+00
 -1      9036 0.00000E+00
 -1      9037 0.00000E+00
 -1      9038 0.00000E+00
 -1      9039 0.00000E+00
 -1      9040 0.00000E+00
 -1      9041 0.00000E+00
 -1      9042 0.00000E+00
 -1      9043 0.00000E+00
 -1      9044 0.00000E+00
 -1      9045 0.00000E+00
 -1      9046 0.00000E+00
 -1      9047 0.00000E+00
 -1      9048 0.00000E+00
 -1      9049 0.00000E+00
 -1      9050 0.00000E+00
 -1      9051 0.00000E+00
 -1      9052 0.00000E+00
 -1      9053 0.00000E+00
 -1      9054 0.00000E+00
 -1      9055 0.00000E+00
 -1      9056 0.00000E+00
 -1      9057 0.00000E+00
 -1      9058 0.00000E+00
 -1      9059 0.00000E+00
 -1      9060 0.00000E+00
 -1      9061 0.00000E+00
 -1      9062 0.00000E+00
 -1      9063 0.00000E+00
 -1      9064 0.00000E+00
 -1      9065 0.00000E+00
 -1      9066 0.00000E+00
 -1      9067 0.00000E+00
 -1      9068 0.00000E+00
 -1      9069 0.00000E+00
 -1      9070 0.00000E+00
 -1      9071 0.00000E+00
 -1      9072 0.00000E+00
 -1      9073 0.00000E+00
 -1      9074 0.00000E+00
 -1      9075 0.00000E+00
 -1      9076 0.00000E+00
 -1      9077 0.00000E+00
 -1      9078 0.00000E+00
 -1      9079 0.00000E+00
 -1      9080 0.00000E+00
 -1      9081 0.00000E+00
 -1      9082 0.00000E+00
 -1      9083 0.00000E+00
 -1      9084 0.00000E+00
 -1      9085 0.00000E+00
 -1      9086 0.00000E+00
 -1      9087 0.00000E+00
 -1      9088 0.00000E+00
 -1      9089 0.00000E+00
 -1      9090 0.00000E+00
 -1      9091 0.00000E+00
 -1      9092 0.00000E+00
 -1      9093 0.00000E+00
 -1      9094 0.00000E+00
 -1      9095 0.00000E+00
 -1      9096 0.00000E+00
 -1      9097 0.00000E+00
 -1      9098 0.00000E+00
 -1      9099 0.00000E+00
 -1      9100 0.00000E+00
 -1      9101 0.00000E+00
 -1      9102 0.00000E+00
 -1      9103 0.00000E+00
 -1      9104 0.00000E+00
 -1      9105 0.00000E+00
 -1      9106 0.00000E+00
 -1      9107 0.00000E+00
 -1      9108 0.00000E+00
 -1      9109 0.00000E+00
 -1      9110 0.00000E+00
 -1      9111 0.00000E+00
 -1      9112 0.00000E+00
 -1      9113 0.00000E+00
 -1      9114 0.00000E+00
 -1      9115 0.00000E+00
 -1      9116 0.00000E+00
 -1      9117 0.00000E+00
 -1      9118 0.00000E+00
 -1      9119 0.00000E+00
 -1      9120 0.00000E+00
 -1      9121 0.00000E+00
 -1      9122 0.00000E+00
 -1      9123 0.00000E+00
 -1      9124 0.00000E+00
 -1      9125 0.00000E+00
 -1      9126 0.00000E+00
 -1      9127 0.00000E+00
 -1      9128 0.00000E+00
 -1      9129 0.00000E+00
 -1      9130 0.00000E+00
 -1      9131 0.00000E+00
 -1      9132 0.00000E+00
 -1      9133 0.00000E+00
 -1      9134 0.00000E+00
 -1      9135 0.00000E+00
 -1      9136 0.00000E+00
 -1      9137 0.00000E+00
 -1      9138 0.00000E+00
 -1      9139 0.00000E+00
 -1      9140 0.00000E+00
 -1      9141 0.00000E+00
 -1      9142 0.00000E+00
 -1      9143 0.00000E+00
 -1      9144 0.00000E+00
 -1      9145 0.00000E+00
 -1      9146 0.00000E+00
 -1      9147 0.00000E+00
 -1      9148 0.00000E+00
 -1      9149 0.00000E+00
 -1      9150 0.00000E+00
 -1      9151 0.00000E+00
 -1      9152 0.00000E+00
 -1      9153 0.00000E+00
 -1      9154 0.00000E+00
 -1      9155 0.00000E+00
 -1      9156 0.00000E+00
 -1      9157 0.00000E+00
 -1      9158 0.00000E+00
 -1      9159 0.00000E+00
 -1      9160 0.00000E+00
 -1      9161 0.00000E+00
 -1      9162 0.00000E+00
 -1      9163 0.00000E+00
 -1      9164 0.00000E+00
 -1      9165 0.00000E+00
 -1      9166 0.00000E+00
 -1      9167 0.00000E+00
 -1      9168 0.00000E+00
 -1      9169 0.00000E+00
 -1      9170 0.00000E+00
 -1      9171 0.00000E+00
 -1      9172 0.00000E+00
 -1      9173 0.00000E+00
 -1      9174 0.00000E+00
 -1      9175 0.00000E+00
 -1      9176 0.00000E+00
 -1      9177 0.00000E+00
 -1      9178 0.00000E+00
 -1      9179 0.00000E+00
 -1      9180 0.00000E+00
 -1      9181 0.00000E+00
 -1      9182 0.00000E+00
 -1      9183 0.00000E+00
 -1      9184 0.00000E+00
 -1      9185 0.00000E+00
 -1      9186 0.00000E+00
 -1      9187 0.00000E+00
 -1      9188 0.00000E+00
 -1      9189 0.00000E+00
 -1      9190 0.00000E+00
 -1      9191 0.00000E+00
 -1      9192 0.00000E+00
 -1      9193 0.00000E+00
 -1      9194 0.00000E+00
 -1      9195 0.00000E+00
 -1      9196 0.00000E+00
 -1      9197 0.00000E+00
 -1      9198 0.00000E+00
 -1      9199 0.00000E+00
 -1      9200 0.00000E+00
 -1      9201 0.00000E+00
 -1      9202 0.00000E+00
 -1      9203 0.00000E+00
 -1      9204 0.00000E+00
 -1      9205 0.00000E+00
 -1      9206 0.00000E+00
 -1      9207 0.00000E+00
 -1      9208 0.00000E+00
 -1      9209 0.00000E+00
 -1      9210 0.00000E+00
 -1      9211 0.00000E+00
 -1      9212 0.00000E+00
 -1      9213 0.00000E+00
 -1      9214 0.00000E+00
 -1      9215 0.00000E+00
 -1      9216 0.00000E+00
 -1      9217 0.00000E+00
 -1      9218 0.00000E+00
 -1      9219 0.00000E+00
 -1      9220 0.00000E+00
 -1      9221 0.00000E+00
 -1      9222 0.00000E+00
 -1      9223 0.00000E+00
 -1      9224 0.00000E+00
 -1      9225 0.00000E+00
 -1      9226 0.00000E+00
 -1      9227 0.00000E+00
 -1      9228 0.00000E+00
 -1      9229 0.00000E+00
 -1      9230 0.00000E+00
 -1      9231 0.00000E+00
 -1      9232 0.00000E+00
 -1      9233 0.00000E+00
 -1      9234 0.00000E+00
 -1      9235 0.00000E+00
 -1      9236 0.00000E+00
 -1      9237 0.00000E+00
 -1      9238 0.00000E+00
 -1      9239 0.00000E+00
 -1      9240 0.00000E+00
 -1      9241 0.00000E+00
 -1      9242 0.00000E+00
 -1      9243 0.00000E+00
 -1      9244 0.00000E+00
 -1      9245 0.00000E+00
 -1      9246 0.00000E+00
 -1      9247 0.00000E+00
 -1      9248 0.00000E+00
 -1      9249 0.00000E+00
 -1      9250 0.00000E+00
 -1      9251 0.00000E+00
 -1      9252 0.00000E+00
 -1      9253 0.00000E+00
 -1      9254 0.00000E+00
 -1      9255 0.00000E+00
 -1      9256 0.00000E+00
 -1      9257 0.00000E+00
 -1      9258 0.00000E+00
 -1      9259 0.00000E+00
 -1      9260 0.00000E+00
 -1      9261 0.00000E+00
 -1      9262 0.00000E+00
 -1      9263 0.00000E+00
 -1      9264 0.00000E+00
 -1      9265 0.00000E+00
 -1      9266 0.00000E+00
 -1      9267 0.00000E+00
 -1      9268 0.00000E+00
 -1      9269 0.00000E+00
 -1      9270 0.00000E+00
 -1      9271 0.00000E+00
 -1      9272 0.00000E+00
 -1      9273 0.00000E+00
 -1      9274 0.00000E+00
 -1      9275 0.00000E+00
 -1      9276 0.00000E+00
 -1      9277 0.00000E+00
 -1      9278 0.00000E+00
 -1      9279 0.00000E+00
 -1      9280 0.00000E+00
 -1      9281 0.00000E+00
 -1      9282 0.00000E+00
 -1      9283 0.00000E+00
 -1      9284 0.00000E+00
 -1      9285 0.00000E+00
 -1      9286 0.00000E+00
 -1      9287 0.00000E+00
 -1      9288 0.00000E+00
 -1      9289 0.00000E+00
 -1      9290 0.00000E+00
 -1      9291 0.00000E+00
 -1      9292 0.00000E+00
 -1      9293 0.00000E+00
 -1      9294 0.00000E+00
 -1      9295 0.00000E+00
 -1      9296 0.00000E+00
 -1      9297 0.00000E+00
 -1      9298 0.00000E+00
 -1      9299 0.00000E+00
 -1      9300 0.00000E+00
 -1      9301 0.00000E+00
 -1      9302 0.00000E+00
 -1      9303 0.00000E+00
 -1      9304 0.00000E+00
 -1      9305 0.00000E+00
 -1      9306 0.00000E+00
 -1      9307 0.00000E+00
 -1      9308 0.00000E+00
 -1      9309 0.00000E+00
 -1      9310 0.00000E+00
 -1      9311 0.00000E+00
 -1      9312 0.00000E+00
 -1      9313 0.00000E+00
 -1      9314 0.00000E+00
 -1      9315 0.00000E+00
 -1      9316 0.00000E+00
 -1      9317 0.00000E+00
 -1      9318 0.00000E+00
 -1      9319 0.00000E+00
 -1      9320 0.00000E+00
 -1      9321 0.00000E+00
 -1      9322 0.00000E+00
 -1      9323 0.00000E+00
 -1      9324 0.00000E+00
 -1      9325 0.00000E+00
 -1      9326 0.00000E+00
 -1      9327 0.00000E+00
 -1      9328 0.00000E+00
 -1      9329 0.00000E+00
 -1      9330 0.00000E+00
 -1      9331 0.00000E+00
 -1      9332 0.00000E+00
 -1      9333 0.00000E+00
 -1      9334 0.00000E+00
 -1      9335 0.00000E+00
 -1      9336 0.00000E+00
 -1      9337 0.00000E+00
 -1      9338 0.00000E+00
 -1      9339 0.00000E+00
 -1      9340 0.00000E+00
 -1      9341 0.00000E+00
 -1      9342 0.00000E+00
 -1      9343 0.00000E+00
 -1      9344 0.00000E+00
 -1      9345 0.00000E+00
 -1      9346 0.00000E+00
 -1      9347 0.00000E+00
 -1      9348 0.00000E+00
 -1      9349 0.00000E+00
 -1      9350 0.00000E+00
 -1      9351 0.00000E+00
 -1      9352 0.00000E+00
 -1      9353 0.00000E+00
 -1      9354 0.00000E+00
 -1      9355 0.00000E+00
 -1      9356 0.00000E+00
 -1      9357 0.00000E+00
 -1      9358 0.00000E+00
 -1      9359 0.00000E+00
 -1      9360 0.00000E+00
 -1      9361 0.00000E+00
 -1      9362 0.00000E+00
 -1      9363 0.00000E+00
 -1      9364 0.00000E+00
 -1      9365 0.00000E+00
 -1      9366 0.00000E+00
 -1      9367 0.00000E+00
 -1      9368 0.00000E+00
 -1      9369 0.00000E+00
 -1      9370 0.00000E+00
 -1      9371 0.00000E+00
 -1      9372 0.00000E+00
 -1      9373 0.00000E+00
 -1      9374 0.00000E+00
 -1      9375 0.00000E+00
 -1      9376 0.00000E+00
 -1      9377 0.00000E+00
 -1      9378 0.00000E+00
 -1      9379 0.00000E+00
 -1      9380 0.00000E+00
 -1      9381 0.00000E+00
 -1      9382 0.00000E+00
 -1      9383 0.00000E+00
 -1      9384 0.00000E+00
 -1      9385 0.00000E+00
 -1      9386 0.00000E+00
 -1      9387 0.00000E+00
 -1      9388 0.00000E+00
 -1      9389 0.00000E+00
 -1      9390 0.00000E+00
 -1      9391 0.00000E+00
 -1      9392 0.00000E+00
 -1      9393 0.00000E+00
 -1      9394 0.00000E+00
 -1      9395 0.00000E+00
 -1      9396 0.00000E+00
 -1      9397 0.00000E+00
 -1      9398 0.00000E+00
 -1      9399 0.00000E+00
 -1      9400 0.00000E+00
 -1      9401 0.00000E+00
 -1      9402 0.00000E+00
 -1      9403 0.00000E+00
 -1      9404 0.00000E+00
 -1      9405 0.00000E+00
 -1      9406 0.00000E+00
 -1      9407 0.00000E+00
 -1      9408 0.00000E+00
 -1      9409 0.00000E+00
 -1      9410 0.00000E+00
 -1      9411 0.00000E+00
 -1      9412 0.00000E+00
 -1      9413 0.00000E+00
 -1      9414 0.00000E+00
 -1      9415 0.00000E+00
 -1      9416 0.00000E+00
 -1      9417 0.00000E+00
 -1      9418 0.00000E+00
 -1      9419 0.00000E+00
 -1      9420 0.00000E+00
 -1      9421 0.00000E+00
 -1      9422 0.00000E+00
 -1      9423 0.00000E+00
 -1      9424 0.00000E+00
 -1      9425 0.00000E+00
 -1      9426 0.00000E+00
 -1      9427 0.00000E+00
 -1      9428 0.00000E+00
 -1      9429 0.00000E+00
 -1      9430 0.00000E+00
 -1      9431 0.00000E+00
 -1      9432 0.00000E+00
 -1      9433 0.00000E+00
 -1      9434 0.00000E+00
 -1      9435 0.00000E+00
 -1      9436 0.00000E+00
 -1      9437 0.00000E+00
 -1      9438 0.00000E+00
 -1      9439 0.00000E+00
 -1      9440 0.00000E+00
 -1      9441 0.00000E+00
 -1      9442 0.00000E+00
 -1      9443 0.00000E+00
 -1      9444 0.00000E+00
 -1      9445 0.00000E+00
 -1      9446 0.00000E+00
 -1      9447 0.00000E+00
 -1      9448 0.00000E+00
 -1      9449 0.00000E+00
 -1      9450 0.00000E+00
 -1      9451 0.00000E+00
 -1      9452 0.00000E+00
 -1      9453 0.00000E+00
 -1      9454 0.00000E+00
 -1      9455 0.00000E+00
 -1      9456 0.00000E+00
 -1      9457 0.00000E+00
 -1      9458 0.00000E+00
 -1      9459 0.00000E+00
 -1      9460 0.00000E+00
 -1      9461 0.00000E+00
 -1      9462 0.00000E+00
 -1      9463 0.00000E+00
 -1      9464 0.00000E+00
 -1      9465 0.00000E+00
 -1      9466 0.00000E+00
 -1      9467 0.00000E+00
 -1      9468 0.00000E+00
 -1      9469 0.00000E+00
 -1      9470 0.00000E+00
 -1      9471 0.00000E+00
 -1      9472 0.00000E+00
 -1      9473 0.00000E+00
 -1      9474 0.00000E+00
 -1      9475 0.00000E+00
 -1      9476 0.00000E+00
 -1      9477 0.00000E+00
 -1      9478 0.00000E+00
 -1      9479 0.00000E+00
 -1      9480 0.00000E+00
 -1      9481 0.00000E+00
 -1      9482 0.00000E+00
 -1      9483 0.00000E+00
 -1      9484 0.00000E+00
 -1      9485 0.00000E+00
 -1      9486 0.00000E+00
 -1      9487 0.00000E+00
 -1      9488 0.00000E+00
 -1      9489 0.00000E+00
 -1      9490 0.00000E+00
 -1      9491 0.00000E+00
 -1      9492 0.00000E+00
 -1      9493 0.00000E+00
 -1      9494 0.00000E+00
 -1      9495 0.00000E+00
 -1      9496 0.00000E+00
 -1      9497 0.00000E+00
 -1      9498 0.00000E+00
 -1      9499 0.00000E+00
 -1      9500 0.00000E+00
 -1      9501 0.00000E+00
 -1      9502 0.00000E+00
 -1      9503 0.00000E+00
 -1      9504 0.00000E+00
 -1      9505 0.00000E+00
 -1      9506 0.00000E+00
 -1      9507 0.00000E+00
 -1      9508 0.00000E+00
 -1      9509 0.00000E+00
 -1      9510 0.00000E+00
 -1      9511 0.00000E+00
 -1      9512 0.00000E+00
 -1      9513 0.00000E+00
 -1      9514 0.00000E+00
 -1      9515 0.00000E+00
 -1      9516 0.00000E+00
 -1      9517 0.00000E+00
 -1      9518 0.00000E+00
 -1      9519 0.00000E+00
 -1      9520 0.00000E+00
 -1      9521 0.00000E+00
 -1      9522 0.00000E+00
 -1      9523 0.00000E+00
 -1      9524 0.00000E+00
 -1      9525 0.00000E+00
 -1      9526 0.00000E+00
 -1      9527 0.00000E+00
 -1      9528 0.00000E+00
 -1      9529 0.00000E+00
 -1      9530 0.00000E+00
 -1      9531 0.00000E+00
 -1      9532 0.00000E+00
 -1      9533 0.00000E+00
 -1      9534 0.00000E+00
 -1      9535 0.00000E+00
 -1      9536 0.00000E+00
 -1      9537 0.00000E+00
 -1      9538 0.00000E+00
 -1      9539 0.00000E+00
 -1      9540 0.00000E+00
 -1      9541 0.00000E+00
 -1      9542 0.00000E+00
 -1      9543 0.00000E+00
 -1      9544 0.00000E+00
 -1      9545 0.00000E+00
 -1      9546 0.00000E+00
 -1      9547 0.00000E+00
 -1      9548 0.00000E+00
 -1      9549 0.00000E+00
 -1      9550 0.00000E+00
 -1      9551 0.00000E+00
 -1      9552 0.00000E+00
 -1      9553 0.00000E+00
 -1      9554 0.00000E+00
 -1      9555 0.00000E+00
 -1      9556 0.00000E+00
 -1      9557 0.00000E+00
 -1      9558 0.00000E+00
 -1      9559 0.00000E+00
 -1      9560 0.00000E+00
 -1      9561 0.00000E+00
 -1      9562 0.00000E+00
 -1      9563 0.00000E+00
 -1      9564 0.00000E+00
 -1      9565 0.00000E+00
 -1      9566 0.00000E+00
 -1      9567 0.00000E+00
 -1      9568 0.00000E+00
 -1      9569 0.00000E+00
 -1      9570 0.00000E+00
 -1      9571 0.00000E+00
 -1      9572 0.00000E+00
 -1      9573 0.00000E+00
 -1      9574 0.00000E+00
 -1      9575 0.00000E+00
 -1      9576 0.00000E+00
 -1      9577 0.00000E+00
 -1      9578 0.00000E+00
 -1      9579 0.00000E+00
 -1      9580 0.00000E+00
 -1      9581 0.00000E+00
 -1      9582 0.00000E+00
 -1      9583 0.00000E+00
 -1      9584 0.00000E+00
 -1      9585 0.00000E+00
 -1      9586 0.00000E+00
 -1      9587 0.00000E+00
 -1      9588 0.00000E+00
 -1      9589 0.00000E+00
 -1      9590 0.00000E+00
 -1      9591 0.00000E+00
 -1      9592 0.00000E+00
 -1      9593 0.00000E+00
 -1      9594 0.00000E+00
 -1      9595 0.00000E+00
 -1      9596 0.00000E+00
 -1      9597 0.00000E+00
 -1      9598 0.00000E+00
 -1      9599 0.00000E+00
 -1      9600 0.00000E+00
 -1      9601 0.00000E+00
 -1      9602 0.00000E+00
 -1      9603 0.00000E+00
 -1      9604 0.00000E+00
 -1      9605 0.00000E+00
 -1      9606 0.00000E+00
 -1      9607 0.00000E+00
 -1      9608 0.00000E+00
 -1      9609 0.00000E+00
 -1      9610 0.00000E+00
 -1      9611 0.00000E+00
 -1      9612 0.00000E+00
 -1      9613 0.00000E+00
 -1      9614 0.00000E+00
 -1      9615 0.00000E+00
 -1      9616 0.00000E+00
 -1      9617 0.00000E+00
 -1      9618 0.00000E+00
 -1      9619 0.00000E+00
 -1      9620 0.00000E+00
 -1      9621 0.00000E+00
 -1      9622 0.00000E+00
 -1      9623 0.00000E+00
 -1      9624 0.00000E+00
 -1      9625 0.00000E+00
 -1      9626 0.00000E+00
 -1      9627 0.00000E+00
 -1      9628 0.00000E+00
 -1      9629 0.00000E+00
 -1      9630 0.00000E+00
 -1      9631 0.00000E+00
 -1      9632 0.00000E+00
 -1      9633 0.00000E+00
 -1      9634 0.00000E+00
 -1      9635 0.00000E+00
 -1      9636 0.00000E+00
 -1      9637 0.00000E+00
 -1      9638 0.00000E+00
 -1      9639 0.00000E+00
 -1      9640 0.00000E+00
 -1      9641 0.00000E+00
 -1      9642 0.00000E+00
 -1      9643 0.00000E+00
 -1      9644 0.00000E+00
 -1      9645 0.00000E+00
 -1      9646 0.00000E+00
 -1      9647 0.00000E+00
 -1      9648 0.00000E+00
 -1      9649 0.00000E+00
 -1      9650 0.00000E+00
 -1      9651 0.00000E+00
 -1      9652 0.00000E+00
 -1      9653 0.00000E+00
 -1      9654 0.00000E+00
 -1      9655 0.00000E+00
 -1      9656 0.00000E+00
 -1      9657 0.00000E+00
 -1      9658 0.00000E+00
 -1      9659 0.00000E+00
 -1      9660 0.00000E+00
 -1      9661 0.00000E+00
 -1      9662 0.00000E+00
 -1      9663 0.00000E+00
 -1      9664 0.00000E+00
 -1      9665 0.00000E+00
 -1      9666 0.00000E+00
 -1      9667 0.00000E+00
 -1      9668 0.00000E+00
 -1      9669 0.00000E+00
 -1      9670 0.00000E+00
 -1      9671 0.00000E+00
 -1      9672 0.00000E+00
 -1      9673 0.00000E+00
 -1      9674 0.00000E+00
 -1      9675 0.00000E+00
 -3
 9999
